<?xml version="1.0"?>
<VTKFile type="UnstructuredGrid" version="0.1" byte_order="LittleEndian">
<UnstructuredGrid>
<Piece NumberOfPoints="30247" NumberOfCells="10644">
<Points>
<DataArray type="Float64" NumberOfComponents="3" format="ascii">
-0.5 -0.5 0 -0.475794567466164 -0.47412012637101919 0 -0.44096451214561599 -0.5 0 -0.49999999999999861 -0.47438368540536052 0 -0.475794567466164 -0.47412012637101919 0 -0.5 -0.5 0 -0.49999999999999861 -0.47438368540536052 0 -0.475794567466164 -0.47412012637101919 0 -0.475794567466164 -0.47412012637101919 0 -0.45158913493232938 -0.47385656733667791 0 -0.44096451214561599 -0.5 0 -0.475794567466164 -0.47412012637101919 0 -0.45158913493232938 -0.47385656733667791 0 -0.45158913493232938 -0.47385656733667791 0 -0.44096451214561599 -0.5 0 -0.43131701676670958 -0.47179869612788822 0 -0.44678276159224162 -0.44217934081764237 0 -0.44208371587439849 -0.45845917859596008 0 -0.42838425961033028 -0.43518485389794243 0 -0.44678276159224162 -0.44217934081764237 0 -0.44208371587439849 -0.45845917859596008 0 -0.46198097286348749 -0.45407305060710268 0 -0.45158913493232938 -0.47385656733667791 0 -0.44208371587439849 -0.45845917859596008 0 -0.46198097286348749 -0.45407305060710268 0 -0.45158913493232938 -0.47385656733667791 0 -0.44208371587439849 -0.45845917859596008 0 -0.43131701676670958 -0.47179869612788822 0 -0.475794567466164 -0.47412012637101919 0 -0.45158913493232938 -0.47385656733667791 0 -0.46198097286348749 -0.45407305060710268 0 -0.44678276159224162 -0.44217934081764237 0 -0.46198097286348749 -0.45407305060710268 0 -0.45983201989259359 -0.43514128396949259 0 -0.46198097286348749 -0.45407305060710268 0 -0.48005487705845368 -0.43739902810602332 0 -0.45983201989259359 -0.43514128396949259 0 -0.46198097286348749 -0.45407305060710268 0 -0.48356608347762098 -0.45758115104362551 0 -0.48005487705845368 -0.43739902810602332 0 -0.475794567466164 -0.47412012637101919 0 -0.46198097286348749 -0.45407305060710268 0 -0.48356608347762098 -0.45758115104362551 0 -0.49999999999999861 -0.47438368540536052 0 -0.475794567466164 -0.47412012637101919 0 -0.48356608347762098 -0.45758115104362551 0 -0.49999999999999861 -0.47438368540536052 0 -0.48356608347762098 -0.45758115104362551 0 -0.5 -0.44792986472862228 0 -0.48356608347762098 -0.45758115104362551 0 -0.5 -0.44792986472862228 0 -0.48005487705845368 -0.43739902810602332 0 -0.5 -0.44792986472862228 0 -0.500000000000002 -0.42147604405188399 0 -0.48005487705845368 -0.43739902810602332 0 -0.500000000000002 -0.42147604405188399 0 -0.47082535152706589 -0.4142448152088557 0 -0.500000000000002 -0.42147604405188399 0 -0.50000000000000222 -0.41222112955913182 0 -0.47082535152706589 -0.4142448152088557 0 -0.50000000000000222 -0.41222112955913182 0 -0.47082535152706589 -0.4142448152088557 0 -0.47914437046051739 -0.39385776636265091 0 -0.500000000000002 -0.42147604405188399 0 -0.47082535152706589 -0.4142448152088557 0 -0.48005487705845368 -0.43739902810602332 0 -0.47082535152706589 -0.4142448152088557 0 -0.48005487705845368 -0.43739902810602332 0 -0.45983201989259359 -0.43514128396949259 0 -0.5 -0.38507919177018268 0 -0.47914437046051739 -0.39385776636265091 0 -0.48068091792958578 -0.37571411203574329 0 -0.5 -0.38507919177018268 0 -0.48068091792958578 -0.37571411203574329 0 -0.4906890405849309 -0.36705710283026688 0 -0.50000000000000222 -0.41222112955913182 0 -0.5 -0.38507919177018268 0 -0.47914437046051739 -0.39385776636265091 0 -0.50000000000000222 -0.41222112955913182 0 -0.47914437046051739 -0.39385776636265091 0 -0.47082535152706589 -0.4142448152088557 0 -0.47914437046051739 -0.39385776636265091 0 -0.45740850641890118 -0.39471348492776381 0 -0.47914437046051739 -0.39385776636265091 0 -0.48068091792958578 -0.37571411203574329 0 -0.45828874092103178 -0.37549440316617111 0 -0.47914437046051739 -0.39385776636265091 0 -0.45828874092103178 -0.37549440316617111 0 -0.45740850641890118 -0.39471348492776381 0 -0.47914437046051739 -0.39385776636265091 0 -0.45828874092103178 -0.37549440316617111 0 -0.47082535152706589 -0.4142448152088557 0 -0.45740850641890118 -0.39471348492776381 0 -0.44165070305412979 -0.40701358636582802 0 -0.45740850641890118 -0.39471348492776381 0 -0.44165070305412979 -0.40701358636582802 0 -0.43713336613176068 -0.38295685353531322 0 -0.45828874092103178 -0.37549440316617111 0 -0.43713336613176068 -0.38295685353531322 0 -0.4342769323192508 -0.36877450656140948 0 -0.45828874092103178 -0.37549440316617111 0 -0.45740850641890118 -0.39471348492776381 0 -0.43713336613176068 -0.38295685353531322 0 -0.47082535152706589 -0.4142448152088557 0 -0.45983201989259359 -0.43514128396949259 0 -0.44598916534362759 -0.42553920764367148 0 -0.47082535152706589 -0.4142448152088557 0 -0.44165070305412979 -0.40701358636582802 0 -0.47082535152706589 -0.4142448152088557 0 -0.44165070305412979 -0.40701358636582802 0 -0.44598916534362759 -0.42553920764367148 0 -0.44165070305412979 -0.40701358636582802 0 -0.44598916534362759 -0.42553920764367148 0 -0.43190374440294882 -0.41570650403319132 0 -0.44678276159224162 -0.44217934081764237 0 -0.45983201989259359 -0.43514128396949259 0 -0.44598916534362759 -0.42553920764367148 0 -0.44678276159224162 -0.44217934081764237 0 -0.44598916534362759 -0.42553920764367148 0 -0.42838425961033028 -0.43518485389794243 0 -0.44598916534362759 -0.42553920764367148 0 -0.42838425961033028 -0.43518485389794243 0 -0.43190374440294882 -0.41570650403319132 0 -0.44165070305412979 -0.40701358636582802 0 -0.43190374440294882 -0.41570650403319132 0 -0.42723775290039312 -0.39946410965797552 0 -0.42838425961033028 -0.43518485389794243 0 -0.43190374440294882 -0.41570650403319132 0 -0.41468480334626168 -0.41191052919992499 0 -0.43190374440294882 -0.41570650403319132 0 -0.41468480334626168 -0.41191052919992499 0 -0.42723775290039312 -0.39946410965797552 0 -0.42838425961033028 -0.43518485389794243 0 -0.41468480334626168 -0.41191052919992499 0 -0.41510495958242721 -0.43784490073428939 0 -0.41468480334626168 -0.41191052919992499 0 -0.4048412495787071 -0.42793356543364958 0 -0.41510495958242721 -0.43784490073428939 0 -0.41468480334626168 -0.41191052919992499 0 -0.41510495958242721 -0.43784490073428939 0 -0.4048412495787071 -0.42793356543364958 0 -0.40258665582750369 -0.4441387487595978 0 -0.41510495958242721 -0.43784490073428939 0 -0.42838425961033028 -0.43518485389794243 0 -0.41468480334626168 -0.41191052919992499 0 -0.43713336613176068 -0.38295685353531322 0 -0.42365817812256262 -0.38513033720826972 0 -0.42723775290039312 -0.39946410965797552 0 -0.43713336613176068 -0.38295685353531322 0 -0.42365817812256262 -0.38513033720826972 0 -0.42384537013283269 -0.37352047583139453 0 -0.43713336613176068 -0.38295685353531322 0 -0.42384537013283269 -0.37352047583139453 0 -0.4342769323192508 -0.36877450656140948 0 -0.44165070305412979 -0.40701358636582802 0 -0.43713336613176068 -0.38295685353531322 0 -0.42723775290039312 -0.39946410965797552 0 -0.41468480334626168 -0.41191052919992499 0 -0.41439572234469552 -0.3940668476053254 0 -0.41468480334626168 -0.41191052919992499 0 -0.40344193864534311 -0.39280976501329151 0 -0.41468480334626168 -0.41191052919992499 0 -0.42723775290039312 -0.39946410965797552 0 -0.41439572234469552 -0.3940668476053254 0 -0.41468480334626168 -0.41191052919992499 0 -0.41439572234469552 -0.3940668476053254 0 -0.40344193864534311 -0.39280976501329151 0 -0.42365817812256262 -0.38513033720826972 0 -0.42723775290039312 -0.39946410965797552 0 -0.41439572234469552 -0.3940668476053254 0 -0.410151353239675 -0.38360922281931298 0 -0.40344193864534311 -0.39280976501329151 0 -0.40866111062553179 -0.37133711264790947 0 -0.41439572234469552 -0.3940668476053254 0 -0.410151353239675 -0.38360922281931298 0 -0.41410664134312969 -0.37622316601072592 0 -0.41439572234469552 -0.3940668476053254 0 -0.41410664134312969 -0.37622316601072592 0 -0.42365817812256262 -0.38513033720826972 0 -0.41439572234469552 -0.3940668476053254 0 -0.41410664134312969 -0.37622316601072592 0 -0.41439572234469552 -0.3940668476053254 0 -0.410151353239675 -0.38360922281931298 0 -0.40344193864534311 -0.39280976501329151 0 -0.410151353239675 -0.38360922281931298 0 -0.41410664134312969 -0.37622316601072592 0 -0.40866111062553179 -0.37133711264790947 0 -0.42365817812256262 -0.38513033720826972 0 -0.41410664134312969 -0.37622316601072592 0 -0.42384537013283269 -0.37352047583139453 0 -0.40344193864534311 -0.39280976501329151 0 -0.39195193034847742 -0.37328912282652171 0 -0.40344193864534311 -0.39280976501329151 0 -0.40866111062553179 -0.37133711264790947 0 -0.40344193864534311 -0.39280976501329151 0 -0.38918736380383201 -0.38615957485792579 0 -0.39195193034847742 -0.37328912282652171 0 -0.40344193864534311 -0.39280976501329151 0 -0.40866111062553179 -0.37133711264790947 0 -0.39195193034847742 -0.37328912282652171 0 -0.41468480334626168 -0.41191052919992499 0 -0.40344193864534311 -0.39280976501329151 0 -0.39862864106669182 -0.41261257397030759 0 -0.40344193864534311 -0.39280976501329151 0 -0.38398644147778171 -0.39925946087582259 0 -0.39862864106669182 -0.41261257397030759 0 -0.40344193864534311 -0.39280976501329151 0 -0.38398644147778171 -0.39925946087582259 0 -0.38918736380383201 -0.38615957485792579 0 -0.40344193864534311 -0.39280976501329151 0 -0.39862864106669182 -0.41261257397030759 0 -0.38398644147778171 -0.39925946087582259 0 -0.38918736380383201 -0.38615957485792579 0 -0.37828650139295439 -0.37888340612094668 0 -0.38398644147778171 -0.39925946087582259 0 -0.37828650139295439 -0.37888340612094668 0 -0.36611497707635249 -0.39032039295861171 0 -0.38918736380383201 -0.38615957485792579 0 -0.37828650139295439 -0.37888340612094668 0 -0.39195193034847742 -0.37328912282652171 0 -0.4048412495787071 -0.42793356543364958 0 -0.39381534348804109 -0.4324153829273239 0 -0.39862864106669182 -0.41261257397030759 0 -0.4048412495787071 -0.42793356543364958 0 -0.39381534348804109 -0.4324153829273239 0 -0.40258665582750369 -0.4441387487595978 0 -0.39381534348804109 -0.4324153829273239 0 -0.39862864106669182 -0.41261257397030759 0 -0.39381534348804109 -0.4324153829273239 0 -0.39862864106669182 -0.41261257397030759 0 -0.38407986276674899 -0.41930575412620941 0 -0.41468480334626168 -0.41191052919992499 0 -0.4048412495787071 -0.42793356543364958 0 -0.39862864106669182 -0.41261257397030759 0 -0.38398644147778171 -0.39925946087582259 0 -0.39862864106669182 -0.41261257397030759 0 -0.38407986276674899 -0.41930575412620941 0 -0.38398644147778171 -0.39925946087582259 0 -0.38407986276674899 -0.41930575412620941 0 -0.36604021030100892 -0.41774029471895952 0 -0.38407986276674899 -0.41930575412620941 0 -0.37925146585589969 -0.43369170520191519 0 -0.36604021030100892 -0.41774029471895952 0 -0.39381534348804109 -0.4324153829273239 0 -0.38407986276674899 -0.41930575412620941 0 -0.37925146585589969 -0.43369170520191519 0 -0.39381534348804109 -0.4324153829273239 0 -0.37925146585589969 -0.43369170520191519 0 -0.38900204590939053 -0.4522181918843402 0 -0.37925146585589969 -0.43369170520191519 0 -0.38900204590939053 -0.4522181918843402 0 -0.36596544352566529 -0.44516019647930732 0 -0.39381534348804109 -0.4324153829273239 0 -0.38900204590939053 -0.4522181918843402 0 -0.40258665582750369 -0.4441387487595978 0 -0.39381534348804109 -0.4324153829273239 0 -0.38900204590939053 -0.4522181918843402 0 -0.38900204590939053 -0.4522181918843402 0 -0.40258665582750369 -0.4441387487595978 0 -0.41552511581859319 -0.46377927226865368 0 -0.38900204590939053 -0.4522181918843402 0 -0.3944595430506605 -0.47590251213998469 0 -0.41552511581859319 -0.46377927226865368 0 -0.38900204590939053 -0.4522181918843402 0 -0.3944595430506605 -0.47590251213998469 0 -0.36589067675032172 -0.47258009823965502 0 -0.39762851446979652 -0.5 0 -0.3944595430506605 -0.47590251213998469 0 -0.36581590997497809 -0.50000000000000266 0 -0.3944595430506605 -0.47590251213998469 0 -0.36581590997497809 -0.50000000000000266 0 -0.36589067675032172 -0.47258009823965502 0 -0.39762851446979652 -0.5 0 -0.3944595430506605 -0.47590251213998469 0 -0.41597894045027523 -0.48229609610730528 0 -0.44096451214561599 -0.5 0 -0.39762851446979652 -0.5 0 -0.41597894045027523 -0.48229609610730528 0 -0.3944595430506605 -0.47590251213998469 0 -0.41597894045027523 -0.48229609610730528 0 -0.41552511581859319 -0.46377927226865368 0 -0.41597894045027523 -0.48229609610730528 0 -0.43131701676670958 -0.47179869612788822 0 -0.41552511581859319 -0.46377927226865368 0 -0.44096451214561599 -0.5 0 -0.41597894045027523 -0.48229609610730528 0 -0.43131701676670958 -0.47179869612788822 0 -0.44208371587439849 -0.45845917859596008 0 -0.43131701676670958 -0.47179869612788822 0 -0.42457849688877469 -0.45066201152698171 0 -0.43131701676670958 -0.47179869612788822 0 -0.42457849688877469 -0.45066201152698171 0 -0.41552511581859319 -0.46377927226865368 0 -0.44208371587439849 -0.45845917859596008 0 -0.42838425961033028 -0.43518485389794243 0 -0.42457849688877469 -0.45066201152698171 0 -0.44208371587439849 -0.45845917859596008 0 -0.42838425961033028 -0.43518485389794243 0 -0.42838425961033028 -0.43518485389794243 0 -0.42457849688877469 -0.45066201152698171 0 -0.41510495958242721 -0.43784490073428939 0 -0.42457849688877469 -0.45066201152698171 0 -0.41510495958242721 -0.43784490073428939 0 -0.41552511581859319 -0.46377927226865368 0 -0.40258665582750369 -0.4441387487595978 0 -0.41510495958242721 -0.43784490073428939 0 -0.41552511581859319 -0.46377927226865368 0 -0.41510495958242721 -0.43784490073428939 0 -0.41552511581859319 -0.46377927226865368 0 -0.45103610146465689 -0.26908543816426173 0 -0.4348516370938682 -0.25389622940154682 0 -0.45130842305839858 -0.24033230708178061 0 -0.45103610146465689 -0.26908543816426173 0 -0.43420379865422359 -0.27776185945258142 0 -0.4348516370938682 -0.25389622940154682 0 -0.45103610146465689 -0.26908543816426173 0 -0.44742125103896152 -0.29364289118546749 0 -0.43420379865422359 -0.27776185945258142 0 -0.45103610146465689 -0.26908543816426173 0 -0.47926750857270523 -0.2691132293952922 0 -0.46789017594061683 -0.28654809540312848 0 -0.45103610146465689 -0.26908543816426173 0 -0.47029630088263658 -0.248490092013747 0 -0.45130842305839858 -0.24033230708178061 0 -0.45103610146465689 -0.26908543816426173 0 -0.47926750857270523 -0.2691132293952922 0 -0.47029630088263658 -0.248490092013747 0 -0.47926750857270523 -0.2691132293952922 0 -0.5 -0.2491523565132823 0 -0.47029630088263658 -0.248490092013747 0 -0.5 -0.27640286745830878 0 -0.47926750857270523 -0.2691132293952922 0 -0.5 -0.2491523565132823 0 -0.5 -0.27640286745830878 0 -0.47926750857270523 -0.2691132293952922 0 -0.4859785109351204 -0.2899823190025117 0 -0.4859785109351204 -0.2899823190025117 0 -0.47979496171963493 -0.30836543341382011 0 -0.46789017594061683 -0.28654809540312848 0 -0.47926750857270523 -0.2691132293952922 0 -0.4859785109351204 -0.2899823190025117 0 -0.46789017594061683 -0.28654809540312848 0 -0.5 -0.27640286745830878 0 -0.4859785109351204 -0.2899823190025117 0 -0.50000000000000355 -0.30365337840333528 0 -0.4859785109351204 -0.2899823190025117 0 -0.50000000000000355 -0.30365337840333528 0 -0.47979496171963493 -0.30836543341382011 0 -0.50000000000000355 -0.30365337840333528 0 -0.47979496171963493 -0.30836543341382011 0 -0.47979496171963493 -0.30836543341382011 0 -0.46789017594061683 -0.28654809540312848 0 -0.45958992343926619 -0.31307748842430411 0 -0.47979496171963493 -0.30836543341382011 0 -0.45958992343926619 -0.31307748842430411 0 -0.46789017594061683 -0.28654809540312848 0 -0.44742125103896152 -0.29364289118546749 0 -0.45958992343926619 -0.31307748842430411 0 -0.45103610146465689 -0.26908543816426173 0 -0.46789017594061683 -0.28654809540312848 0 -0.44742125103896152 -0.29364289118546749 0 -0.44742125103896152 -0.29364289118546749 0 -0.43938488515889718 -0.31778954343478738 0 -0.45958992343926619 -0.31307748842430411 0 -0.44742125103896152 -0.29364289118546749 0 -0.43938488515889718 -0.31778954343478738 0 -0.43086118841782428 -0.29510624255533219 0 -0.43938488515889718 -0.31778954343478738 0 -0.45958992343926619 -0.31307748842430411 0 -0.43938488515889718 -0.31778954343478738 0 -0.45760721422141742 -0.3309437020265335 0 -0.45958992343926619 -0.31307748842430411 0 -0.43938488515889718 -0.31778954343478738 0 -0.45760721422141742 -0.3309437020265335 0 -0.45760721422141742 -0.3309437020265335 0 -0.45715846354774231 -0.35049435271168222 0 -0.43507975882990968 -0.3359961733352691 0 -0.43938488515889718 -0.31778954343478738 0 -0.45760721422141742 -0.3309437020265335 0 -0.43507975882990968 -0.3359961733352691 0 -0.45760721422141742 -0.3309437020265335 0 -0.47582954328393751 -0.3440978606182799 0 -0.45715846354774231 -0.35049435271168222 0 -0.45760721422141742 -0.3309437020265335 0 -0.47582954328393751 -0.3440978606182799 0 -0.45760721422141742 -0.3309437020265335 0 -0.45958992343926619 -0.31307748842430411 0 -0.47726346238168421 -0.32831575569778471 0 -0.47979496171963493 -0.30836543341382011 0 -0.45958992343926619 -0.31307748842430411 0 -0.47726346238168421 -0.32831575569778471 0 -0.50000000000000355 -0.30365337840333528 0 -0.47979496171963493 -0.30836543341382011 0 -0.5 -0.33079531619228442 0 -0.47979496171963493 -0.30836543341382011 0 -0.5 -0.33079531619228442 0 -0.47726346238168421 -0.32831575569778471 0 -0.5 -0.33079531619228442 0 -0.49075913162584922 -0.34261473351148669 0 -0.47726346238168421 -0.32831575569778471 0 -0.45760721422141742 -0.3309437020265335 0 -0.47726346238168421 -0.32831575569778471 0 -0.47582954328393751 -0.3440978606182799 0 -0.49075913162584922 -0.34261473351148669 0 -0.47726346238168421 -0.32831575569778471 0 -0.47582954328393751 -0.3440978606182799 0 -0.47582954328393751 -0.3440978606182799 0 -0.47871241264861109 -0.35930293715414868 0 -0.49405187234645742 -0.35725201921002631 0 -0.47582954328393751 -0.3440978606182799 0 -0.47871241264861109 -0.35930293715414868 0 -0.45715846354774231 -0.35049435271168222 0 -0.5 -0.33079531619228442 0 -0.49075913162584922 -0.34261473351148669 0 -0.5 -0.35793725398123338 0 -0.49075913162584922 -0.34261473351148669 0 -0.47582954328393751 -0.3440978606182799 0 -0.49405187234645742 -0.35725201921002631 0 -0.47582954328393751 -0.3440978606182799 0 -0.49405187234645742 -0.35725201921002631 0 -0.49075913162584922 -0.34261473351148669 0 -0.49405187234645742 -0.35725201921002631 0 -0.5 -0.35793725398123338 0 -0.5 -0.38507919177018268 0 -0.5 -0.35793725398123338 0 -0.4906890405849309 -0.36705710283026688 0 -0.49405187234645742 -0.35725201921002631 0 -0.5 -0.35793725398123338 0 -0.4906890405849309 -0.36705710283026688 0 -0.47871241264861109 -0.35930293715414868 0 -0.49405187234645742 -0.35725201921002631 0 -0.4906890405849309 -0.36705710283026688 0 -0.48068091792958578 -0.37571411203574329 0 -0.45828874092103178 -0.37549440316617111 0 -0.47871241264861109 -0.35930293715414868 0 -0.48068091792958578 -0.37571411203574329 0 -0.47871241264861109 -0.35930293715414868 0 -0.4906890405849309 -0.36705710283026688 0 -0.45828874092103178 -0.37549440316617111 0 -0.47871241264861109 -0.35930293715414868 0 -0.45715846354774231 -0.35049435271168222 0 -0.45715846354774231 -0.35049435271168222 0 -0.43743311138154622 -0.3571310399696912 0 -0.43507975882990968 -0.3359961733352691 0 -0.45828874092103178 -0.37549440316617111 0 -0.45715846354774231 -0.35049435271168222 0 -0.43743311138154622 -0.3571310399696912 0 -0.45828874092103178 -0.37549440316617111 0 -0.43743311138154622 -0.3571310399696912 0 -0.45828874092103178 -0.37549440316617111 0 -0.4342769323192508 -0.36877450656140948 0 -0.43743311138154622 -0.3571310399696912 0 -0.42801574545515497 -0.36086011550156372 0 -0.4342769323192508 -0.36877450656140948 0 -0.42132674214516069 -0.36339077871100772 0 -0.42384537013283269 -0.37352047583139453 0 -0.4342769323192508 -0.36877450656140948 0 -0.42132674214516069 -0.36339077871100772 0 -0.42801574545515497 -0.36086011550156372 0 -0.4342769323192508 -0.36877450656140948 0 -0.43743311138154622 -0.3571310399696912 0 -0.42801574545515497 -0.36086011550156372 0 -0.43357386684180571 -0.35581353892491918 0 -0.4138802826057178 -0.34986446028252688 0 -0.42801574545515497 -0.36086011550156372 0 -0.43357386684180571 -0.35581353892491918 0 -0.43743311138154622 -0.3571310399696912 0 -0.43357386684180571 -0.35581353892491918 0 -0.43743311138154622 -0.3571310399696912 0 -0.41657748184206 -0.33876767677321201 0 -0.43743311138154622 -0.3571310399696912 0 -0.41657748184206 -0.33876767677321201 0 -0.43507975882990968 -0.3359961733352691 0 -0.43743311138154622 -0.3571310399696912 0 -0.41657748184206 -0.33876767677321201 0 -0.43357386684180571 -0.35581353892491918 0 -0.4138802826057178 -0.34986446028252688 0 -0.42801574545515497 -0.36086011550156372 0 -0.4138802826057178 -0.34986446028252688 0 -0.42132674214516069 -0.36339077871100772 0 -0.43357386684180571 -0.35581353892491918 0 -0.4138802826057178 -0.34986446028252688 0 -0.41657748184206 -0.33876767677321201 0 -0.4138802826057178 -0.34986446028252688 0 -0.41657748184206 -0.33876767677321201 0 -0.4138802826057178 -0.34986446028252688 0 -0.40866111062553179 -0.37133711264790947 0 -0.4138802826057178 -0.34986446028252688 0 -0.42132674214516069 -0.36339077871100772 0 -0.41620806898032858 -0.36743031303171941 0 -0.4138802826057178 -0.34986446028252688 0 -0.41620806898032858 -0.36743031303171941 0 -0.40866111062553179 -0.37133711264790947 0 -0.4138802826057178 -0.34986446028252688 0 -0.40866111062553179 -0.37133711264790947 0 -0.39729069839464409 -0.35887703439647411 0 -0.41410664134312969 -0.37622316601072592 0 -0.42384537013283269 -0.37352047583139453 0 -0.41620806898032858 -0.36743031303171941 0 -0.42384537013283269 -0.37352047583139453 0 -0.42132674214516069 -0.36339077871100772 0 -0.41620806898032858 -0.36743031303171941 0 -0.41410664134312969 -0.37622316601072592 0 -0.41620806898032858 -0.36743031303171941 0 -0.40866111062553179 -0.37133711264790947 0 -0.40866111062553179 -0.37133711264790947 0 -0.39195193034847742 -0.37328912282652171 0 -0.39729069839464409 -0.35887703439647411 0 -0.37828650139295439 -0.37888340612094668 0 -0.38188777177711453 -0.35722195136519053 0 -0.36618974385169611 -0.36290049119826401 0 -0.39195193034847742 -0.37328912282652171 0 -0.38188777177711453 -0.35722195136519053 0 -0.39729069839464409 -0.35887703439647411 0 -0.37828650139295439 -0.37888340612094668 0 -0.39195193034847742 -0.37328912282652171 0 -0.38188777177711453 -0.35722195136519053 0 -0.38188777177711453 -0.35722195136519053 0 -0.39729069839464409 -0.35887703439647411 0 -0.39007239661637921 -0.34267252486022148 0 -0.38188777177711453 -0.35722195136519053 0 -0.39007239661637921 -0.34267252486022148 0 -0.36626451062704057 -0.33548058943791609 0 -0.4138802826057178 -0.34986446028252688 0 -0.40412673551627271 -0.33966176785305191 0 -0.39007239661637921 -0.34267252486022148 0 -0.4138802826057178 -0.34986446028252688 0 -0.39729069839464409 -0.35887703439647411 0 -0.39007239661637921 -0.34267252486022148 0 -0.4138802826057178 -0.34986446028252688 0 -0.39007239661637921 -0.34267252486022148 0 -0.40412673551627271 -0.33966176785305191 0 -0.39007239661637921 -0.34267252486022148 0 -0.4025171232558612 -0.32638754358652389 0 -0.3753949644471738 -0.33271275329592009 0 -0.39007239661637921 -0.34267252486022148 0 -0.36626451062704057 -0.33548058943791609 0 -0.39007239661637921 -0.34267252486022148 0 -0.36626451062704057 -0.33548058943791609 0 -0.3753949644471738 -0.33271275329592009 0 -0.39007239661637921 -0.34267252486022148 0 -0.4025171232558612 -0.32638754358652389 0 -0.3753949644471738 -0.33271275329592009 0 -0.4025171232558612 -0.32638754358652389 0 -0.3753949644471738 -0.33271275329592009 0 -0.37521129663905661 -0.31958737696826311 0 -0.39019294686182698 -0.31553611727053887 0 -0.3753949644471738 -0.33271275329592009 0 -0.39019294686182698 -0.31553611727053887 0 -0.4025171232558612 -0.32638754358652389 0 -0.37521129663905661 -0.31958737696826311 0 -0.39019294686182698 -0.31553611727053887 0 -0.3778687704677911 -0.30468469095455603 0 -0.39019294686182698 -0.31553611727053887 0 -0.4025171232558612 -0.32638754358652389 0 -0.40610395595443499 -0.30855700707325551 0 -0.39019294686182698 -0.31553611727053887 0 -0.4025171232558612 -0.32638754358652389 0 -0.4025171232558612 -0.32638754358652389 0 -0.42095100420737969 -0.32208854351065819 0 -0.40610395595443499 -0.30855700707325551 0 -0.4025171232558612 -0.32638754358652389 0 -0.42095100420737969 -0.32208854351065819 0 -0.4025171232558612 -0.32638754358652389 0 -0.41991384940686199 -0.32504123488662667 0 -0.42095100420737969 -0.32208854351065819 0 -0.4025171232558612 -0.32638754358652389 0 -0.41657748184206 -0.33876767677321201 0 -0.40412673551627271 -0.33966176785305191 0 -0.4025171232558612 -0.32638754358652389 0 -0.41657748184206 -0.33876767677321201 0 -0.4025171232558612 -0.32638754358652389 0 -0.41991384940686199 -0.32504123488662667 0 -0.41657748184206 -0.33876767677321201 0 -0.4138802826057178 -0.34986446028252688 0 -0.40412673551627271 -0.33966176785305191 0 -0.41657748184206 -0.33876767677321201 0 -0.41991384940686199 -0.32504123488662667 0 -0.41657748184206 -0.33876767677321201 0 -0.41991384940686199 -0.32504123488662667 0 -0.41657748184206 -0.33876767677321201 0 -0.42449692340236378 -0.33210263761344389 0 -0.41657748184206 -0.33876767677321201 0 -0.42449692340236378 -0.33210263761344389 0 -0.43507975882990968 -0.3359961733352691 0 -0.42449692340236378 -0.33210263761344389 0 -0.43507975882990968 -0.3359961733352691 0 -0.42779320857103142 -0.32682605310088059 0 -0.43938488515889718 -0.31778954343478738 0 -0.43507975882990968 -0.3359961733352691 0 -0.42779320857103142 -0.32682605310088059 0 -0.43938488515889718 -0.31778954343478738 0 -0.42095100420737969 -0.32208854351065819 0 -0.42336763058688093 -0.306227162680834 0 -0.43938488515889718 -0.31778954343478738 0 -0.42095100420737969 -0.32208854351065819 0 -0.43938488515889718 -0.31778954343478738 0 -0.42095100420737969 -0.32208854351065819 0 -0.42779320857103142 -0.32682605310088059 0 -0.41991384940686199 -0.32504123488662667 0 -0.42095100420737969 -0.32208854351065819 0 -0.42779320857103142 -0.32682605310088059 0 -0.41991384940686199 -0.32504123488662667 0 -0.42449692340236378 -0.33210263761344389 0 -0.42779320857103142 -0.32682605310088059 0 -0.42336763058688093 -0.306227162680834 0 -0.43086118841782428 -0.29510624255533219 0 -0.41397343930409303 -0.29735692093318339 0 -0.43938488515889718 -0.31778954343478738 0 -0.42336763058688093 -0.306227162680834 0 -0.43938488515889718 -0.31778954343478738 0 -0.42336763058688093 -0.306227162680834 0 -0.43086118841782428 -0.29510624255533219 0 -0.43086118841782428 -0.29510624255533219 0 -0.4180600127420086 -0.28432881443307417 0 -0.43420379865422359 -0.27776185945258142 0 -0.44742125103896152 -0.29364289118546749 0 -0.43086118841782428 -0.29510624255533219 0 -0.43420379865422359 -0.27776185945258142 0 -0.43086118841782428 -0.29510624255533219 0 -0.4180600127420086 -0.28432881443307417 0 -0.41397343930409303 -0.29735692093318339 0 -0.4180600127420086 -0.28432881443307417 0 -0.41397343930409303 -0.29735692093318339 0 -0.40111831563531009 -0.29070384614515948 0 -0.42336763058688093 -0.306227162680834 0 -0.41397343930409303 -0.29735692093318339 0 -0.40610395595443499 -0.30855700707325551 0 -0.41397343930409303 -0.29735692093318339 0 -0.40610395595443499 -0.30855700707325551 0 -0.40111831563531009 -0.29070384614515948 0 -0.42095100420737969 -0.32208854351065819 0 -0.42336763058688093 -0.306227162680834 0 -0.40610395595443499 -0.30855700707325551 0 -0.40610395595443499 -0.30855700707325551 0 -0.39171318444620429 -0.30138543697095399 0 -0.40111831563531009 -0.29070384614515948 0 -0.39019294686182698 -0.31553611727053887 0 -0.40610395595443499 -0.30855700707325551 0 -0.39171318444620429 -0.30138543697095399 0 -0.39019294686182698 -0.31553611727053887 0 -0.39171318444620429 -0.30138543697095399 0 -0.3778687704677911 -0.30468469095455603 0 -0.39171318444620429 -0.30138543697095399 0 -0.3778687704677911 -0.30468469095455603 0 -0.38532316356384883 -0.28746878011395371 0 -0.39019294686182698 -0.31553611727053887 0 -0.3778687704677911 -0.30468469095455603 0 -0.3778687704677911 -0.30468469095455603 0 -0.38532316356384883 -0.28746878011395371 0 -0.36640607095586109 -0.28356487832685268 0 -0.4180600127420086 -0.28432881443307417 0 -0.40111831563531009 -0.29070384614515948 0 -0.39941515661258281 -0.27334933680784351 0 -0.39171318444620429 -0.30138543697095399 0 -0.38532316356384883 -0.28746878011395371 0 -0.40111831563531009 -0.29070384614515948 0 -0.38532316356384883 -0.28746878011395371 0 -0.40111831563531009 -0.29070384614515948 0 -0.39941515661258281 -0.27334933680784351 0 -0.38532316356384883 -0.28746878011395371 0 -0.37910996807638642 -0.27154524934011892 0 -0.36640607095586109 -0.28356487832685268 0 -0.39941515661258281 -0.27334933680784351 0 -0.37910996807638642 -0.27154524934011892 0 -0.38954277840564272 -0.26020672214873303 0 -0.38532316356384883 -0.28746878011395371 0 -0.39941515661258281 -0.27334933680784351 0 -0.37910996807638642 -0.27154524934011892 0 -0.37910996807638642 -0.27154524934011892 0 -0.38954277840564272 -0.26020672214873303 0 -0.36647685112027178 -0.25760702277132119 0 -0.38954277840564272 -0.26020672214873303 0 -0.36856618278893322 -0.24499330745683029 0 -0.39941515661258281 -0.27334933680784351 0 -0.38954277840564272 -0.26020672214873303 0 -0.40498964648786662 -0.25549085411351879 0 -0.38954277840564272 -0.26020672214873303 0 -0.40498964648786662 -0.25549085411351879 0 -0.38888579207983148 -0.2371195484928201 0 -0.39941515661258281 -0.27334933680784351 0 -0.40498964648786662 -0.25549085411351879 0 -0.41924516158814079 -0.26453870974762361 0 -0.40498964648786662 -0.25549085411351879 0 -0.41924516158814079 -0.26453870974762361 0 -0.41455112673501138 -0.240908174751404 0 -0.4180600127420086 -0.28432881443307417 0 -0.39941515661258281 -0.27334933680784351 0 -0.41924516158814079 -0.26453870974762361 0 -0.4180600127420086 -0.28432881443307417 0 -0.41924516158814079 -0.26453870974762361 0 -0.43420379865422359 -0.27776185945258142 0 -0.41924516158814079 -0.26453870974762361 0 -0.4348516370938682 -0.25389622940154682 0 -0.41455112673501138 -0.240908174751404 0 -0.41924516158814079 -0.26453870974762361 0 -0.43420379865422359 -0.27776185945258142 0 -0.4348516370938682 -0.25389622940154682 0 -0.3246131863872373 -0.25564868149974468 0 -0.31190442447809802 -0.2621476835947999 0 -0.31444700313138563 -0.24530833583511691 0 -0.3246131863872373 -0.25564868149974468 0 -0.32669864971914198 -0.26924038238115172 0 -0.31190442447809802 -0.2621476835947999 0 -0.32669864971914198 -0.26924038238115172 0 -0.32612643184936951 -0.2860670968836671 0 -0.31197801578469181 -0.27987735153149262 0 -0.32669864971914198 -0.26924038238115172 0 -0.31197801578469181 -0.27987735153149262 0 -0.31190442447809802 -0.2621476835947999 0 -0.32669864971914198 -0.26924038238115172 0 -0.34118336415289457 -0.27787435626316209 0 -0.34438647566256081 -0.25382712451404371 0 -0.34118336415289457 -0.27787435626316209 0 -0.34438647566256081 -0.25382712451404371 0 -0.32669864971914198 -0.26924038238115172 0 -0.34118336415289457 -0.27787435626316209 0 -0.32612643184936951 -0.2860670968836671 0 -0.3246131863872373 -0.25564868149974468 0 -0.32669864971914198 -0.26924038238115172 0 -0.34438647566256081 -0.25382712451404371 0 -0.3246131863872373 -0.25564868149974468 0 -0.34438647566256081 -0.25382712451404371 0 -0.33146111746708989 -0.24428952813003199 0 -0.34438647566256081 -0.25382712451404371 0 -0.35629314022251041 -0.25009765907738241 0 -0.35345450319274241 -0.26727193786281178 0 -0.35629314022251041 -0.25009765907738241 0 -0.36647685112027178 -0.25760702277132119 0 -0.35345450319274241 -0.26727193786281178 0 -0.38954277840564272 -0.26020672214873303 0 -0.36647685112027178 -0.25760702277132119 0 -0.36856618278893322 -0.24499330745683029 0 -0.35629314022251041 -0.25009765907738241 0 -0.36647685112027178 -0.25760702277132119 0 -0.36856618278893322 -0.24499330745683029 0 -0.36647685112027178 -0.25760702277132119 0 -0.35345450319274241 -0.26727193786281178 0 -0.36640607095586109 -0.28356487832685268 0 -0.36647685112027178 -0.25760702277132119 0 -0.36640607095586109 -0.28356487832685268 0 -0.37910996807638642 -0.27154524934011892 0 -0.36647685112027178 -0.25760702277132119 0 -0.36640607095586109 -0.28356487832685268 0 -0.34118336415289457 -0.27787435626316209 0 -0.35345450319274241 -0.26727193786281178 0 -0.36640607095586109 -0.28356487832685268 0 -0.34118336415289457 -0.27787435626316209 0 -0.34438647566256081 -0.25382712451404371 0 -0.35345450319274241 -0.26727193786281178 0 -0.34118336415289457 -0.27787435626316209 0 -0.36640607095586109 -0.28356487832685268 0 -0.35439592828516808 -0.29737302307430791 0 -0.34118336415289457 -0.27787435626316209 0 -0.35439592828516808 -0.29737302307430791 0 -0.33798025264322862 -0.30192158801228047 0 -0.36640607095586109 -0.28356487832685268 0 -0.36633529079145039 -0.30952273388238438 0 -0.36640607095586109 -0.28356487832685268 0 -0.36633529079145039 -0.30952273388238438 0 -0.35439592828516808 -0.29737302307430791 0 -0.3778687704677911 -0.30468469095455603 0 -0.36640607095586109 -0.28356487832685268 0 -0.36633529079145039 -0.30952273388238438 0 -0.37521129663905661 -0.31958737696826311 0 -0.3778687704677911 -0.30468469095455603 0 -0.36633529079145039 -0.30952273388238438 0 -0.35439592828516808 -0.29737302307430791 0 -0.33798025264322862 -0.30192158801228047 0 -0.35081192834515129 -0.31457502564316758 0 -0.36633529079145039 -0.30952273388238438 0 -0.35439592828516808 -0.29737302307430791 0 -0.35081192834515129 -0.31457502564316758 0 -0.34118336415289457 -0.27787435626316209 0 -0.33798025264322862 -0.30192158801228047 0 -0.34118336415289457 -0.27787435626316209 0 -0.33798025264322862 -0.30192158801228047 0 -0.32612643184936951 -0.2860670968836671 0 -0.33798025264322862 -0.30192158801228047 0 -0.32612643184936951 -0.2860670968836671 0 -0.31641248402471811 -0.29955508961028809 0 -0.32612643184936951 -0.2860670968836671 0 -0.31641248402471811 -0.29955508961028809 0 -0.31197801578469181 -0.27987735153149262 0 -0.33798025264322862 -0.30192158801228047 0 -0.31641248402471811 -0.29955508961028809 0 -0.31923812242596061 -0.32127476086338819 0 -0.31923812242596061 -0.32127476086338819 0 -0.32013765582389703 -0.33403999998629208 0 -0.3347771411335636 -0.32596881976139908 0 -0.31923812242596061 -0.32127476086338819 0 -0.3347771411335636 -0.32596881976139908 0 -0.31923812242596061 -0.32127476086338819 0 -0.32013765582389703 -0.33403999998629208 0 -0.30829832435789117 -0.32530956733308708 0 -0.32013765582389703 -0.33403999998629208 0 -0.33191148722007258 -0.34748260208290283 0 -0.3145276309810156 -0.34815770971919158 0 -0.32013765582389703 -0.33403999998629208 0 -0.3145276309810156 -0.34815770971919158 0 -0.30484077466625059 -0.33552378410110112 0 -0.3347771411335636 -0.32596881976139908 0 -0.35052082588030209 -0.33072470459965742 0 -0.3347771411335636 -0.32596881976139908 0 -0.35052082588030209 -0.33072470459965742 0 -0.33191148722007258 -0.34748260208290283 0 -0.32013765582389703 -0.33403999998629208 0 -0.3347771411335636 -0.32596881976139908 0 -0.33191148722007258 -0.34748260208290283 0 -0.3347771411335636 -0.32596881976139908 0 -0.33191148722007258 -0.34748260208290283 0 -0.33798025264322862 -0.30192158801228047 0 -0.3347771411335636 -0.32596881976139908 0 -0.33798025264322862 -0.30192158801228047 0 -0.3347771411335636 -0.32596881976139908 0 -0.35081192834515129 -0.31457502564316758 0 -0.33798025264322862 -0.30192158801228047 0 -0.31923812242596061 -0.32127476086338819 0 -0.3347771411335636 -0.32596881976139908 0 -0.3347771411335636 -0.32596881976139908 0 -0.35081192834515129 -0.31457502564316758 0 -0.35052082588030209 -0.33072470459965742 0 -0.35081192834515129 -0.31457502564316758 0 -0.35848313891098599 -0.32257576339078142 0 -0.35052082588030209 -0.33072470459965742 0 -0.36633529079145039 -0.30952273388238438 0 -0.35081192834515129 -0.31457502564316758 0 -0.35848313891098599 -0.32257576339078142 0 -0.36633529079145039 -0.30952273388238438 0 -0.35848313891098599 -0.32257576339078142 0 -0.36626451062704057 -0.33548058943791609 0 -0.37521129663905661 -0.31958737696826311 0 -0.36633529079145039 -0.30952273388238438 0 -0.36626451062704057 -0.33548058943791609 0 -0.36633529079145039 -0.30952273388238438 0 -0.36626451062704057 -0.33548058943791609 0 -0.3753949644471738 -0.33271275329592009 0 -0.37521129663905661 -0.31958737696826311 0 -0.36626451062704057 -0.33548058943791609 0 -0.35052082588030209 -0.33072470459965742 0 -0.35354325185951119 -0.34915595476525618 0 -0.33191148722007258 -0.34748260208290283 0 -0.36626451062704057 -0.33548058943791609 0 -0.35052082588030209 -0.33072470459965742 0 -0.35354325185951119 -0.34915595476525618 0 -0.35848313891098599 -0.32257576339078142 0 -0.36626451062704057 -0.33548058943791609 0 -0.35052082588030209 -0.33072470459965742 0 -0.36626451062704057 -0.33548058943791609 0 -0.35052082588030209 -0.33072470459965742 0 -0.35354325185951119 -0.34915595476525618 0 -0.36618974385169611 -0.36290049119826401 0 -0.34465133905627171 -0.36084654366084368 0 -0.36626451062704057 -0.33548058943791609 0 -0.35354325185951119 -0.34915595476525618 0 -0.36618974385169611 -0.36290049119826401 0 -0.36626451062704057 -0.33548058943791609 0 -0.36618974385169611 -0.36290049119826401 0 -0.38188777177711453 -0.35722195136519053 0 -0.36626451062704057 -0.33548058943791609 0 -0.36618974385169611 -0.36290049119826401 0 -0.36618974385169611 -0.36290049119826401 0 -0.34465133905627171 -0.36084654366084368 0 -0.34818329185105951 -0.37788393871263948 0 -0.34465133905627171 -0.36084654366084368 0 -0.32904583330658271 -0.36899638440440669 0 -0.34818329185105951 -0.37788393871263948 0 -0.35354325185951119 -0.34915595476525618 0 -0.34465133905627171 -0.36084654366084368 0 -0.33191148722007258 -0.34748260208290283 0 -0.32904583330658271 -0.36899638440440669 0 -0.33191148722007258 -0.34748260208290283 0 -0.34465133905627171 -0.36084654366084368 0 -0.32904583330658271 -0.36899638440440669 0 -0.33191148722007258 -0.34748260208290283 0 -0.32904583330658271 -0.36899638440440669 0 -0.33191148722007258 -0.34748260208290283 0 -0.3145276309810156 -0.34815770971919158 0 -0.32904583330658271 -0.36899638440440669 0 -0.3145276309810156 -0.34815770971919158 0 -0.30773920276060618 -0.36704989021049311 0 -0.32904583330658271 -0.36899638440440669 0 -0.30773920276060618 -0.36704989021049311 0 -0.31323180535161982 -0.38757554065301603 0 -0.30773920276060618 -0.36704989021049311 0 -0.29959349238928268 -0.35467995675462233 0 -0.29220379034524302 -0.366699439501188 0 -0.30773920276060618 -0.36704989021049311 0 -0.29220379034524302 -0.366699439501188 0 -0.29699315048222052 -0.37861617783963308 0 -0.3145276309810156 -0.34815770971919158 0 -0.30773920276060618 -0.36704989021049311 0 -0.29959349238928268 -0.35467995675462233 0 -0.3145276309810156 -0.34815770971919158 0 -0.29834969814355572 -0.34423979035268798 0 -0.29959349238928268 -0.35467995675462233 0 -0.29959349238928268 -0.35467995675462233 0 -0.2881346441919414 -0.34855209398734688 0 -0.28297862981317751 -0.35847316232933463 0 -0.29959349238928268 -0.35467995675462233 0 -0.28297862981317751 -0.35847316232933463 0 -0.29834969814355572 -0.34423979035268798 0 -0.29959349238928268 -0.35467995675462233 0 -0.2881346441919414 -0.34855209398734688 0 -0.2881346441919414 -0.34855209398734688 0 -0.27659041619766028 -0.35089967427069252 0 -0.28026351882732259 -0.34019306514308922 0 -0.2881346441919414 -0.34855209398734688 0 -0.28297862981317751 -0.35847316232933463 0 -0.27659041619766028 -0.35089967427069252 0 -0.2881346441919414 -0.34855209398734688 0 -0.28297862981317751 -0.35847316232933463 0 -0.29959349238928268 -0.35467995675462233 0 -0.28297862981317751 -0.35847316232933463 0 -0.29220379034524302 -0.366699439501188 0 -0.29220379034524302 -0.366699439501188 0 -0.29699315048222052 -0.37861617783963308 0 -0.2720354488655804 -0.37952974559005398 0 -0.28297862981317751 -0.35847316232933463 0 -0.29220379034524302 -0.366699439501188 0 -0.2720354488655804 -0.37952974559005398 0 -0.28297862981317751 -0.35847316232933463 0 -0.2720354488655804 -0.37952974559005398 0 -0.28297862981317751 -0.35847316232933463 0 -0.26407081328722087 -0.36278985376889777 0 -0.2720354488655804 -0.37952974559005398 0 -0.28297862981317751 -0.35847316232933463 0 -0.26407081328722087 -0.36278985376889777 0 -0.26407081328722087 -0.36278985376889777 0 -0.24516299676126471 -0.36710654520846231 0 -0.26407081328722087 -0.36278985376889777 0 -0.25256356325916168 -0.35777534955047752 0 -0.24516299676126471 -0.36710654520846231 0 -0.26407081328722087 -0.36278985376889777 0 -0.25730374080050161 -0.38059947382216902 0 -0.24516299676126471 -0.36710654520846231 0 -0.26407081328722087 -0.36278985376889777 0 -0.2720354488655804 -0.37952974559005398 0 -0.25730374080050161 -0.38059947382216902 0 -0.25738237226940702 -0.35077764004489809 0 -0.2550759520496908 -0.33246459140147677 0 -0.2436380707187546 -0.35042735917965201 0 -0.26407081328722087 -0.36278985376889777 0 -0.25738237226940702 -0.35077764004489809 0 -0.26750447486863749 -0.34449019612479348 0 -0.25738237226940702 -0.35077764004489809 0 -0.25256356325916168 -0.35777534955047752 0 -0.2436380707187546 -0.35042735917965201 0 -0.26407081328722087 -0.36278985376889777 0 -0.25738237226940702 -0.35077764004489809 0 -0.25256356325916168 -0.35777534955047752 0 -0.28297862981317751 -0.35847316232933463 0 -0.26407081328722087 -0.36278985376889777 0 -0.27659041619766028 -0.35089967427069252 0 -0.26407081328722087 -0.36278985376889777 0 -0.26750447486863749 -0.34449019612479348 0 -0.27659041619766028 -0.35089967427069252 0 -0.26750447486863749 -0.34449019612479348 0 -0.27659041619766028 -0.35089967427069252 0 -0.28026351882732259 -0.34019306514308922 0 -0.28026351882732259 -0.34019306514308922 0 -0.27090914752045081 -0.33186434676458182 0 -0.28359984768639152 -0.32892739519989972 0 -0.26750447486863749 -0.34449019612479348 0 -0.28026351882732259 -0.34019306514308922 0 -0.27090914752045081 -0.33186434676458182 0 -0.25738237226940702 -0.35077764004489809 0 -0.26750447486863749 -0.34449019612479348 0 -0.2550759520496908 -0.33246459140147677 0 -0.26750447486863749 -0.34449019612479348 0 -0.27090914752045081 -0.33186434676458182 0 -0.2550759520496908 -0.33246459140147677 0 -0.27090914752045081 -0.33186434676458182 0 -0.2550759520496908 -0.33246459140147677 0 -0.27065737991209737 -0.31534047722349118 0 -0.2550759520496908 -0.33246459140147677 0 -0.25449457937273412 -0.310365445862815 0 -0.24113451525221899 -0.32081591020462619 0 -0.2550759520496908 -0.33246459140147677 0 -0.27065737991209737 -0.31534047722349118 0 -0.2550759520496908 -0.33246459140147677 0 -0.27065737991209737 -0.31534047722349118 0 -0.25449457937273412 -0.310365445862815 0 -0.27065737991209737 -0.31534047722349118 0 -0.28755422084926818 -0.31563870543671002 0 -0.28359984768639152 -0.32892739519989972 0 -0.27090914752045081 -0.33186434676458182 0 -0.27065737991209737 -0.31534047722349118 0 -0.28359984768639152 -0.32892739519989972 0 -0.28755422084926818 -0.31563870543671002 0 -0.29558519068756378 -0.32498146535811728 0 -0.30168987818578419 -0.31072782635653651 0 -0.28755422084926818 -0.31563870543671002 0 -0.29558519068756378 -0.32498146535811728 0 -0.28359984768639152 -0.32892739519989972 0 -0.28026351882732259 -0.34019306514308922 0 -0.28359984768639152 -0.32892739519989972 0 -0.29179561236717089 -0.33706959902370698 0 -0.2881346441919414 -0.34855209398734688 0 -0.28026351882732259 -0.34019306514308922 0 -0.29179561236717089 -0.33706959902370698 0 -0.29834969814355572 -0.34423979035268798 0 -0.2881346441919414 -0.34855209398734688 0 -0.29179561236717089 -0.33706959902370698 0 -0.29558519068756378 -0.32498146535811728 0 -0.28359984768639152 -0.32892739519989972 0 -0.29179561236717089 -0.33706959902370698 0 -0.29558519068756378 -0.32498146535811728 0 -0.30484077466625059 -0.33552378410110112 0 -0.30829832435789117 -0.32530956733308708 0 -0.3145276309810156 -0.34815770971919158 0 -0.29834969814355572 -0.34423979035268798 0 -0.30484077466625059 -0.33552378410110112 0 -0.29558519068756378 -0.32498146535811728 0 -0.29179561236717089 -0.33706959902370698 0 -0.30484077466625059 -0.33552378410110112 0 -0.29834969814355572 -0.34423979035268798 0 -0.29179561236717089 -0.33706959902370698 0 -0.30484077466625059 -0.33552378410110112 0 -0.32013765582389703 -0.33403999998629208 0 -0.30484077466625059 -0.33552378410110112 0 -0.30829832435789117 -0.32530956733308708 0 -0.31923812242596061 -0.32127476086338819 0 -0.30829832435789117 -0.32530956733308708 0 -0.30168987818578419 -0.31072782635653651 0 -0.29558519068756378 -0.32498146535811728 0 -0.30829832435789117 -0.32530956733308708 0 -0.30168987818578419 -0.31072782635653651 0 -0.31641248402471811 -0.29955508961028809 0 -0.31923812242596061 -0.32127476086338819 0 -0.30168987818578419 -0.31072782635653651 0 -0.31641248402471811 -0.29955508961028809 0 -0.30168987818578419 -0.31072782635653651 0 -0.29981805277253931 -0.29072964734325429 0 -0.31641248402471811 -0.29955508961028809 0 -0.29981805277253931 -0.29072964734325429 0 -0.31197801578469181 -0.27987735153149262 0 -0.29981805277253931 -0.29072964734325429 0 -0.28249279710312059 -0.28245258114474658 0 -0.28623880777450411 -0.29821636304550558 0 -0.30168987818578419 -0.31072782635653651 0 -0.29981805277253931 -0.29072964734325429 0 -0.28623880777450411 -0.29821636304550558 0 -0.28755422084926818 -0.31563870543671002 0 -0.30168987818578419 -0.31072782635653651 0 -0.28623880777450411 -0.29821636304550558 0 -0.27065737991209737 -0.31534047722349118 0 -0.28755422084926818 -0.31563870543671002 0 -0.28623880777450411 -0.29821636304550558 0 -0.27065737991209737 -0.31534047722349118 0 -0.28623880777450411 -0.29821636304550558 0 -0.27065737991209737 -0.31534047722349118 0 -0.28623880777450411 -0.29821636304550558 0 -0.26812637889643942 -0.29516662297379181 0 -0.27065737991209737 -0.31534047722349118 0 -0.25449457937273412 -0.310365445862815 0 -0.26812637889643942 -0.29516662297379181 0 -0.25449457937273412 -0.310365445862815 0 -0.25172667382021141 -0.29094226489690472 0 -0.26812637889643942 -0.29516662297379181 0 -0.25172667382021141 -0.29094226489690472 0 -0.26812637889643942 -0.29516662297379181 0 -0.26594627455561182 -0.27643078409469779 0 -0.28249279710312059 -0.28245258114474658 0 -0.26812637889643942 -0.29516662297379181 0 -0.26594627455561182 -0.27643078409469779 0 -0.28249279710312059 -0.28245258114474658 0 -0.28623880777450411 -0.29821636304550558 0 -0.26812637889643942 -0.29516662297379181 0 -0.28249279710312059 -0.28245258114474658 0 -0.26594627455561182 -0.27643078409469779 0 -0.2769785381235127 -0.26360211511867848 0 -0.25172667382021141 -0.29094226489690472 0 -0.26594627455561182 -0.27643078409469779 0 -0.24889467701150711 -0.27355811472402908 0 -0.26594627455561182 -0.27643078409469779 0 -0.26559705098913089 -0.25453757187253878 0 -0.24889467701150711 -0.27355811472402908 0 -0.26559705098913089 -0.25453757187253878 0 -0.24889467701150711 -0.27355811472402908 0 -0.24564221040132861 -0.24971282446878551 0 -0.26559705098913089 -0.25453757187253878 0 -0.2769785381235127 -0.26360211511867848 0 -0.28590705104310588 -0.2486234061923861 0 -0.26594627455561182 -0.27643078409469779 0 -0.26559705098913089 -0.25453757187253878 0 -0.2769785381235127 -0.26360211511867848 0 -0.29569008623648563 -0.26843738982068899 0 -0.3013411934988251 -0.2512866027063696 0 -0.28590705104310588 -0.2486234061923861 0 -0.2769785381235127 -0.26360211511867848 0 -0.29569008623648563 -0.26843738982068899 0 -0.28590705104310588 -0.2486234061923861 0 -0.28249279710312059 -0.28245258114474658 0 -0.2769785381235127 -0.26360211511867848 0 -0.29569008623648563 -0.26843738982068899 0 -0.29981805277253931 -0.29072964734325429 0 -0.28249279710312059 -0.28245258114474658 0 -0.29569008623648563 -0.26843738982068899 0 -0.29569008623648563 -0.26843738982068899 0 -0.31197801578469181 -0.27987735153149262 0 -0.31190442447809802 -0.2621476835947999 0 -0.29981805277253931 -0.29072964734325429 0 -0.29569008623648563 -0.26843738982068899 0 -0.31197801578469181 -0.27987735153149262 0 -0.31190442447809802 -0.2621476835947999 0 -0.3013411934988251 -0.2512866027063696 0 -0.31444700313138563 -0.24530833583511691 0 -0.29569008623648563 -0.26843738982068899 0 -0.31190442447809802 -0.2621476835947999 0 -0.3013411934988251 -0.2512866027063696 0 -0.33284901595002231 -0.44782212950507277 0 -0.32344939275544587 -0.46476977284160492 0 -0.3460404860472433 -0.46224268299206522 0 -0.33284901595002231 -0.44782212950507277 0 -0.34746276615881722 -0.43586606109379689 0 -0.33087571302114499 -0.43202076631467218 0 -0.33284901595002231 -0.44782212950507277 0 -0.3460404860472433 -0.46224268299206522 0 -0.34746276615881722 -0.43586606109379689 0 -0.32028864049525352 -0.44089017835216032 0 -0.32344939275544587 -0.46476977284160492 0 -0.33284901595002231 -0.44782212950507277 0 -0.32028864049525352 -0.44089017835216032 0 -0.33087571302114499 -0.43202076631467218 0 -0.33284901595002231 -0.44782212950507277 0 -0.32028864049525352 -0.44089017835216032 0 -0.32344939275544587 -0.46476977284160492 0 -0.33284901595002231 -0.44782212950507277 0 -0.32028864049525352 -0.44089017835216032 0 -0.32028864049525352 -0.44089017835216032 0 -0.32344939275544587 -0.46476977284160492 0 -0.30539701394981672 -0.45501024376306048 0 -0.32344939275544587 -0.46476977284160492 0 -0.31987378881973982 -0.48059887143000918 0 -0.30445477476574401 -0.47832879233577102 0 -0.32344939275544587 -0.46476977284160492 0 -0.31987378881973982 -0.48059887143000918 0 -0.3335663841775916 -0.4820587097544225 0 -0.31987378881973982 -0.48059887143000918 0 -0.31913493452047098 -0.5 0 -0.30445477476574401 -0.47832879233577102 0 -0.31987378881973982 -0.48059887143000918 0 -0.31913493452047098 -0.5 0 -0.3335663841775916 -0.4820587097544225 0 -0.34247542224772459 -0.5 0 -0.3335663841775916 -0.4820587097544225 0 -0.35075777583957191 -0.48337629819722899 0 -0.31913493452047098 -0.5 0 -0.34247542224772459 -0.5 0 -0.3335663841775916 -0.4820587097544225 0 -0.32344939275544587 -0.46476977284160492 0 -0.3335663841775916 -0.4820587097544225 0 -0.3460404860472433 -0.46224268299206522 0 -0.3335663841775916 -0.4820587097544225 0 -0.35075777583957191 -0.48337629819722899 0 -0.3460404860472433 -0.46224268299206522 0 -0.35075777583957191 -0.48337629819722899 0 -0.36589067675032172 -0.47258009823965502 0 -0.3460404860472433 -0.46224268299206522 0 -0.34247542224772459 -0.5 0 -0.35075777583957191 -0.48337629819722899 0 -0.36581590997497809 -0.50000000000000266 0 -0.36581590997497809 -0.50000000000000266 0 -0.36589067675032172 -0.47258009823965502 0 -0.35075777583957191 -0.48337629819722899 0 -0.36581590997497809 -0.50000000000000266 0 -0.36589067675032172 -0.47258009823965502 0 -0.38900204590939053 -0.4522181918843402 0 -0.36589067675032172 -0.47258009823965502 0 -0.36596544352566529 -0.44516019647930732 0 -0.36589067675032172 -0.47258009823965502 0 -0.36596544352566529 -0.44516019647930732 0 -0.36589067675032172 -0.47258009823965502 0 -0.3460404860472433 -0.46224268299206522 0 -0.36596544352566529 -0.44516019647930732 0 -0.3460404860472433 -0.46224268299206522 0 -0.36596544352566529 -0.44516019647930732 0 -0.34746276615881722 -0.43586606109379689 0 -0.36596544352566529 -0.44516019647930732 0 -0.36604021030100892 -0.41774029471895952 0 -0.37925146585589969 -0.43369170520191519 0 -0.36596544352566529 -0.44516019647930732 0 -0.36604021030100892 -0.41774029471895952 0 -0.36596544352566529 -0.44516019647930732 0 -0.36604021030100892 -0.41774029471895952 0 -0.34746276615881722 -0.43586606109379689 0 -0.36604021030100892 -0.41774029471895952 0 -0.3492257077549511 -0.4120150343161289 0 -0.36611497707635249 -0.39032039295861171 0 -0.36604021030100892 -0.41774029471895952 0 -0.3492257077549511 -0.4120150343161289 0 -0.34746276615881722 -0.43586606109379689 0 -0.3492257077549511 -0.4120150343161289 0 -0.34746276615881722 -0.43586606109379689 0 -0.33701791957819499 -0.4212926031197432 0 -0.37828650139295439 -0.37888340612094668 0 -0.36618974385169611 -0.36290049119826401 0 -0.36611497707635249 -0.39032039295861171 0 -0.36618974385169611 -0.36290049119826401 0 -0.36611497707635249 -0.39032039295861171 0 -0.34818329185105951 -0.37788393871263948 0 -0.36618974385169611 -0.36290049119826401 0 -0.36611497707635249 -0.39032039295861171 0 -0.38398644147778171 -0.39925946087582259 0 -0.36604021030100892 -0.41774029471895952 0 -0.36611497707635249 -0.39032039295861171 0 -0.36604021030100892 -0.41774029471895952 0 -0.36611497707635249 -0.39032039295861171 0 -0.3492257077549511 -0.4120150343161289 0 -0.36611497707635249 -0.39032039295861171 0 -0.33782645882130691 -0.39694861568452122 0 -0.36611497707635249 -0.39032039295861171 0 -0.34818329185105951 -0.37788393871263948 0 -0.33782645882130691 -0.39694861568452122 0 -0.32904583330658271 -0.36899638440440669 0 -0.34818329185105951 -0.37788393871263948 0 -0.33782645882130691 -0.39694861568452122 0 -0.31323180535161982 -0.38757554065301603 0 -0.31676022292343708 -0.41423285950258798 0 -0.33782645882130691 -0.39694861568452122 0 -0.31323180535161982 -0.38757554065301603 0 -0.31676022292343708 -0.41423285950258798 0 -0.32904583330658271 -0.36899638440440669 0 -0.33782645882130691 -0.39694861568452122 0 -0.31323180535161982 -0.38757554065301603 0 -0.34746276615881722 -0.43586606109379689 0 -0.33087571302114499 -0.43202076631467218 0 -0.33701791957819499 -0.4212926031197432 0 -0.33087571302114499 -0.43202076631467218 0 -0.33701791957819499 -0.4212926031197432 0 -0.31676022292343708 -0.41423285950258798 0 -0.3492257077549511 -0.4120150343161289 0 -0.33782645882130691 -0.39694861568452122 0 -0.33701791957819499 -0.4212926031197432 0 -0.33782645882130691 -0.39694861568452122 0 -0.33701791957819499 -0.4212926031197432 0 -0.31676022292343708 -0.41423285950258798 0 -0.32028864049525352 -0.44089017835216032 0 -0.33087571302114499 -0.43202076631467218 0 -0.31676022292343708 -0.41423285950258798 0 -0.32028864049525352 -0.44089017835216032 0 -0.31676022292343708 -0.41423285950258798 0 -0.30099447494830078 -0.43024191281349877 0 -0.32028864049525352 -0.44089017835216032 0 -0.31676022292343708 -0.41423285950258798 0 -0.32028864049525352 -0.44089017835216032 0 -0.30099447494830078 -0.43024191281349877 0 -0.31676022292343708 -0.41423285950258798 0 -0.30099447494830078 -0.43024191281349877 0 -0.29847848681765388 -0.41199656577972382 0 -0.30099447494830078 -0.43024191281349877 0 -0.29847848681765388 -0.41199656577972382 0 -0.28170030940134838 -0.41959364727483678 0 -0.29847848681765388 -0.41199656577972382 0 -0.28170030940134838 -0.41959364727483678 0 -0.27848781981614551 -0.40243221449987088 0 -0.30099447494830078 -0.43024191281349877 0 -0.28170030940134838 -0.41959364727483678 0 -0.28170030940134838 -0.41959364727483678 0 -0.27235691309717808 -0.43549571479171711 0 -0.29102970107454612 -0.4403570151385916 0 -0.30099447494830078 -0.43024191281349877 0 -0.28170030940134838 -0.41959364727483678 0 -0.29102970107454612 -0.4403570151385916 0 -0.31323180535161982 -0.38757554065301603 0 -0.29699315048222052 -0.37861617783963308 0 -0.29184534226664399 -0.39203004887245962 0 -0.30773920276060618 -0.36704989021049311 0 -0.31323180535161982 -0.38757554065301603 0 -0.29699315048222052 -0.37861617783963308 0 -0.31323180535161982 -0.38757554065301603 0 -0.31676022292343708 -0.41423285950258798 0 -0.29847848681765388 -0.41199656577972382 0 -0.31323180535161982 -0.38757554065301603 0 -0.29847848681765388 -0.41199656577972382 0 -0.29184534226664399 -0.39203004887245962 0 -0.29847848681765388 -0.41199656577972382 0 -0.29184534226664399 -0.39203004887245962 0 -0.27848781981614551 -0.40243221449987088 0 -0.29699315048222052 -0.37861617783963308 0 -0.29184534226664399 -0.39203004887245962 0 -0.2720354488655804 -0.37952974559005398 0 -0.2720354488655804 -0.37952974559005398 0 -0.26109226791798179 -0.40058632885077272 0 -0.29184534226664399 -0.39203004887245962 0 -0.2720354488655804 -0.37952974559005398 0 -0.27848781981614551 -0.40243221449987088 0 -0.2720354488655804 -0.37952974559005398 0 -0.27848781981614551 -0.40243221449987088 0 -0.26109226791798179 -0.40058632885077272 0 -0.27848781981614551 -0.40243221449987088 0 -0.26109226791798179 -0.40058632885077272 0 -0.26240614385439592 -0.40894538173617478 0 -0.26109226791798179 -0.40058632885077272 0 -0.25730374080050161 -0.38059947382216902 0 -0.24765604186582321 -0.39437472865997669 0 -0.26109226791798179 -0.40058632885077272 0 -0.25014908697038257 -0.42164291211149107 0 -0.24765604186582321 -0.39437472865997669 0 -0.2720354488655804 -0.37952974559005398 0 -0.26109226791798179 -0.40058632885077272 0 -0.25730374080050161 -0.38059947382216902 0 -0.25730374080050161 -0.38059947382216902 0 -0.24765604186582321 -0.39437472865997669 0 -0.24516299676126471 -0.36710654520846231 0 -0.28170030940134838 -0.41959364727483678 0 -0.27235691309717808 -0.43549571479171711 0 -0.26494518779086162 -0.42404412826599042 0 -0.27235691309717808 -0.43549571479171711 0 -0.26494518779086162 -0.42404412826599042 0 -0.26053627665379769 -0.43427350767377748 0 -0.28170030940134838 -0.41959364727483678 0 -0.26240614385439592 -0.40894538173617478 0 -0.28170030940134838 -0.41959364727483678 0 -0.27848781981614551 -0.40243221449987088 0 -0.26240614385439592 -0.40894538173617478 0 -0.28170030940134838 -0.41959364727483678 0 -0.26240614385439592 -0.40894538173617478 0 -0.26494518779086162 -0.42404412826599042 0 -0.26240614385439592 -0.40894538173617478 0 -0.25014908697038257 -0.42164291211149107 0 -0.26494518779086162 -0.42404412826599042 0 -0.26109226791798179 -0.40058632885077272 0 -0.26240614385439592 -0.40894538173617478 0 -0.25014908697038257 -0.42164291211149107 0 -0.26109226791798179 -0.40058632885077272 0 -0.25014908697038257 -0.42164291211149107 0 -0.25014908697038257 -0.42164291211149107 0 -0.25238497927180498 -0.44609843493438128 0 -0.25014908697038257 -0.42164291211149107 0 -0.26053627665379769 -0.43427350767377748 0 -0.25238497927180498 -0.44609843493438128 0 -0.25014908697038257 -0.42164291211149107 0 -0.26494518779086162 -0.42404412826599042 0 -0.26053627665379769 -0.43427350767377748 0 -0.25238497927180498 -0.44609843493438128 0 -0.26366613309079201 -0.44394118791797138 0 -0.26629493978767982 -0.45454420184214078 0 -0.27235691309717808 -0.43549571479171711 0 -0.26053627665379769 -0.43427350767377748 0 -0.26366613309079201 -0.44394118791797138 0 -0.26053627665379769 -0.43427350767377748 0 -0.25238497927180498 -0.44609843493438128 0 -0.26366613309079201 -0.44394118791797138 0 -0.26629493978767982 -0.45454420184214078 0 -0.26667499357897351 -0.46985696100331958 0 -0.24955084926301699 -0.46094950462756179 0 -0.25238497927180498 -0.44609843493438128 0 -0.26629493978767982 -0.45454420184214078 0 -0.24955084926301699 -0.46094950462756179 0 -0.26629493978767982 -0.45454420184214078 0 -0.27842114469795931 -0.44723164213289462 0 -0.28483778707168528 -0.46023801009239401 0 -0.26629493978767982 -0.45454420184214078 0 -0.28483778707168528 -0.46023801009239401 0 -0.26667499357897351 -0.46985696100331958 0 -0.27235691309717808 -0.43549571479171711 0 -0.27842114469795931 -0.44723164213289462 0 -0.29102970107454612 -0.4403570151385916 0 -0.27235691309717808 -0.43549571479171711 0 -0.26366613309079201 -0.44394118791797138 0 -0.27842114469795931 -0.44723164213289462 0 -0.26366613309079201 -0.44394118791797138 0 -0.26629493978767982 -0.45454420184214078 0 -0.27842114469795931 -0.44723164213289462 0 -0.27842114469795931 -0.44723164213289462 0 -0.29102970107454612 -0.4403570151385916 0 -0.28483778707168528 -0.46023801009239401 0 -0.29102970107454612 -0.4403570151385916 0 -0.28483778707168528 -0.46023801009239401 0 -0.29102970107454612 -0.4403570151385916 0 -0.28483778707168528 -0.46023801009239401 0 -0.30539701394981672 -0.45501024376306048 0 -0.32344939275544587 -0.46476977284160492 0 -0.30539701394981672 -0.45501024376306048 0 -0.30445477476574401 -0.47832879233577102 0 -0.28483778707168528 -0.46023801009239401 0 -0.30539701394981672 -0.45501024376306048 0 -0.30445477476574401 -0.47832879233577102 0 -0.32028864049525352 -0.44089017835216032 0 -0.30099447494830078 -0.43024191281349877 0 -0.30713125849188938 -0.44192654572389939 0 -0.30099447494830078 -0.43024191281349877 0 -0.29102970107454612 -0.4403570151385916 0 -0.30713125849188938 -0.44192654572389939 0 -0.29102970107454612 -0.4403570151385916 0 -0.30539701394981672 -0.45501024376306048 0 -0.30713125849188938 -0.44192654572389939 0 -0.32028864049525352 -0.44089017835216032 0 -0.30539701394981672 -0.45501024376306048 0 -0.30713125849188938 -0.44192654572389939 0 -0.31913493452047098 -0.5 0 -0.30445477476574401 -0.47832879233577102 0 -0.29579444679321742 -0.5 0 -0.28483778707168528 -0.46023801009239401 0 -0.30445477476574401 -0.47832879233577102 0 -0.27864587306882449 -0.48011900504619642 0 -0.28483778707168528 -0.46023801009239401 0 -0.27864587306882449 -0.48011900504619642 0 -0.30445477476574401 -0.47832879233577102 0 -0.29579444679321742 -0.5 0 -0.27864587306882449 -0.48011900504619642 0 -0.29579444679321742 -0.5 0 -0.27245395906596398 -0.49999999999999889 0 -0.27864587306882449 -0.48011900504619642 0 -0.27245395906596398 -0.49999999999999889 0 -0.27864587306882449 -0.48011900504619642 0 -0.26268193788473437 -0.48553150299220449 0 -0.27245395906596398 -0.49999999999999889 0 -0.27864587306882449 -0.48011900504619642 0 -0.27864587306882449 -0.48011900504619642 0 -0.26667499357897351 -0.46985696100331958 0 -0.26268193788473437 -0.48553150299220449 0 -0.28483778707168528 -0.46023801009239401 0 -0.27864587306882449 -0.48011900504619642 0 -0.26667499357897351 -0.46985696100331958 0 -0.26667499357897351 -0.46985696100331958 0 -0.2488413869654918 -0.47767668944411112 0 -0.24955084926301699 -0.46094950462756179 0 -0.26667499357897351 -0.46985696100331958 0 -0.26268193788473437 -0.48553150299220449 0 -0.2488413869654918 -0.47767668944411112 0 -0.26268193788473437 -0.48553150299220449 0 -0.24625403960616229 -0.5 0 -0.2488413869654918 -0.47767668944411112 0 -0.27245395906596398 -0.49999999999999889 0 -0.26268193788473437 -0.48553150299220449 0 -0.24625403960616229 -0.5 0 -0.24625403960616229 -0.5 0 -0.2488413869654918 -0.47767668944411112 0 -0.22998482956709621 -0.48234299415949278 0 -0.2488413869654918 -0.47767668944411112 0 -0.22998482956709621 -0.48234299415949278 0 -0.23634298853892521 -0.46794633363218291 0 -0.2488413869654918 -0.47767668944411112 0 -0.24955084926301699 -0.46094950462756179 0 -0.23634298853892521 -0.46794633363218291 0 -0.22998482956709621 -0.48234299415949278 0 -0.2216986424452978 -0.46709168836707782 0 -0.20769779580403741 -0.48225171849024778 0 -0.22998482956709621 -0.48234299415949278 0 -0.23634298853892521 -0.46794633363218291 0 -0.2216986424452978 -0.46709168836707782 0 -0.22998482956709621 -0.48234299415949278 0 -0.22005412014636061 -0.49999999999999628 0 -0.20769779580403741 -0.48225171849024778 0 -0.24625403960616229 -0.5 0 -0.22998482956709621 -0.48234299415949278 0 -0.22005412014636061 -0.49999999999999628 0 -0.25238497927180498 -0.44609843493438128 0 -0.24187415681575081 -0.43756531681374411 0 -0.23359922666111849 -0.45348772151599681 0 -0.24187415681575081 -0.43756531681374411 0 -0.23359922666111849 -0.45348772151599681 0 -0.25238497927180498 -0.44609843493438128 0 -0.24955084926301699 -0.46094950462756179 0 -0.23359922666111849 -0.45348772151599681 0 -0.24955084926301699 -0.46094950462756179 0 -0.23634298853892521 -0.46794633363218291 0 -0.23359922666111849 -0.45348772151599681 0 -0.2216986424452978 -0.46709168836707782 0 -0.23359922666111849 -0.45348772151599681 0 -0.22319454664904301 -0.44636310842395033 0 -0.23634298853892521 -0.46794633363218291 0 -0.2216986424452978 -0.46709168836707782 0 -0.23359922666111849 -0.45348772151599681 0 -0.24187415681575081 -0.43756531681374411 0 -0.23359922666111849 -0.45348772151599681 0 -0.22319454664904301 -0.44636310842395033 0 -0.24187415681575081 -0.43756531681374411 0 -0.22319454664904301 -0.44636310842395033 0 -0.2227136947317673 -0.43181431819591942 0 -0.22319454664904301 -0.44636310842395033 0 -0.20857794714484071 -0.44230400107963458 0 -0.2227136947317673 -0.43181431819591942 0 -0.22319454664904301 -0.44636310842395033 0 -0.20857794714484071 -0.44230400107963458 0 -0.20947127412097469 -0.45418124672618482 0 -0.20857794714484071 -0.44230400107963458 0 -0.20947127412097469 -0.45418124672618482 0 -0.19842599360213509 -0.4514339110652012 0 -0.2216986424452978 -0.46709168836707782 0 -0.1953414714617118 -0.46450343698050101 0 -0.2216986424452978 -0.46709168836707782 0 -0.20947127412097469 -0.45418124672618482 0 -0.1953414714617118 -0.46450343698050101 0 -0.2216986424452978 -0.46709168836707782 0 -0.22319454664904301 -0.44636310842395033 0 -0.20947127412097469 -0.45418124672618482 0 -0.1953414714617118 -0.46450343698050101 0 -0.19842599360213509 -0.4514339110652012 0 -0.18659766199875849 -0.45194407162906491 0 -0.1953414714617118 -0.46450343698050101 0 -0.18659766199875849 -0.45194407162906491 0 -0.20947127412097469 -0.45418124672618482 0 -0.1953414714617118 -0.46450343698050101 0 -0.19842599360213509 -0.4514339110652012 0 -0.20857794714484071 -0.44230400107963458 0 -0.19842599360213509 -0.4514339110652012 0 -0.1898960329313075 -0.44032435567476202 0 -0.19842599360213509 -0.4514339110652012 0 -0.1898960329313075 -0.44032435567476202 0 -0.18659766199875849 -0.45194407162906491 0 -0.22005412014636061 -0.49999999999999628 0 -0.20769779580403741 -0.48225171849024778 0 -0.22005412014636061 -0.49999999999999628 0 -0.20769779580403741 -0.48225171849024778 0 -0.1942035381827491 -0.5 0 -0.2216986424452978 -0.46709168836707782 0 -0.1953414714617118 -0.46450343698050101 0 -0.20769779580403741 -0.48225171849024778 0 -0.1953414714617118 -0.46450343698050101 0 -0.20769779580403741 -0.48225171849024778 0 -0.1943639676772225 -0.47970225569282893 0 -0.1953414714617118 -0.46450343698050101 0 -0.20769779580403741 -0.48225171849024778 0 -0.1953414714617118 -0.46450343698050101 0 -0.1943639676772225 -0.47970225569282893 0 -0.1804284352339447 -0.48127210288644612 0 -0.20769779580403741 -0.48225171849024778 0 -0.1943639676772225 -0.47970225569282893 0 -0.1942035381827491 -0.5 0 -0.1943639676772225 -0.47970225569282893 0 -0.1942035381827491 -0.5 0 -0.1804284352339447 -0.48127210288644612 0 -0.1942035381827491 -0.5 0 -0.1683529562191376 -0.5 0 -0.1804284352339447 -0.48127210288644612 0 -0.1683529562191376 -0.5 0 -0.1804284352339447 -0.48127210288644612 0 -0.15574244127728851 -0.48028814501610989 0 -0.1804284352339447 -0.48127210288644612 0 -0.16973901295695551 -0.46198929770637509 0 -0.15574244127728851 -0.48028814501610989 0 -0.1953414714617118 -0.46450343698050101 0 -0.1804284352339447 -0.48127210288644612 0 -0.16973901295695551 -0.46198929770637509 0 -0.1953414714617118 -0.46450343698050101 0 -0.16973901295695551 -0.46198929770637509 0 -0.1953414714617118 -0.46450343698050101 0 -0.18659766199875849 -0.45194407162906491 0 -0.16973901295695551 -0.46198929770637509 0 -0.18659766199875849 -0.45194407162906491 0 -0.17408471145845131 -0.45005789901917898 0 -0.16973901295695551 -0.46198929770637509 0 -0.1898960329313075 -0.44032435567476202 0 -0.18659766199875849 -0.45194407162906491 0 -0.17785385253580471 -0.43938470627762932 0 -0.18659766199875849 -0.45194407162906491 0 -0.17785385253580471 -0.43938470627762932 0 -0.18659766199875849 -0.45194407162906491 0 -0.17408471145845131 -0.45005789901917898 0 -0.17785385253580471 -0.43938470627762932 0 -0.17408471145845131 -0.45005789901917898 0 -0.16132695999510091 -0.44544651261259738 0 -0.16973901295695551 -0.46198929770637509 0 -0.17408471145845131 -0.45005789901917898 0 -0.17785385253580471 -0.43938470627762932 0 -0.16132695999510091 -0.44544651261259738 0 -0.16132695999510091 -0.44544651261259738 0 -0.16973901295695551 -0.46198929770637509 0 -0.14413655445219931 -0.45947515843224879 0 -0.16973901295695551 -0.46198929770637509 0 -0.14413655445219931 -0.45947515843224879 0 -0.16973901295695551 -0.46198929770637509 0 -0.14413655445219931 -0.45947515843224879 0 -0.15574244127728851 -0.48028814501610989 0 -0.16132695999510091 -0.44544651261259738 0 -0.14413655445219931 -0.45947515843224879 0 -0.13998718083132899 -0.43974885322530488 0 -0.16132695999510091 -0.44544651261259738 0 -0.13998718083132899 -0.43974885322530488 0 -0.15395916782073071 -0.42815484680511701 0 -0.13998718083132899 -0.43974885322530488 0 -0.1185340959474431 -0.45696101915812248 0 -0.1220846397002827 -0.42868852605054092 0 -0.14413655445219931 -0.45947515843224879 0 -0.13998718083132899 -0.43974885322530488 0 -0.1185340959474431 -0.45696101915812248 0 -0.14413655445219931 -0.45947515843224879 0 -0.1301075188714336 -0.4791343752538898 0 -0.1185340959474431 -0.45696101915812248 0 -0.14413655445219931 -0.45947515843224879 0 -0.1185340959474431 -0.45696101915812248 0 -0.1301075188714336 -0.4791343752538898 0 -0.14250237425552609 -0.5 0 -0.11665179229191459 -0.5 0 -0.1301075188714336 -0.4791343752538898 0 -0.14250237425552609 -0.5 0 -0.15574244127728851 -0.48028814501610989 0 -0.1683529562191376 -0.5 0 -0.14250237425552609 -0.5 0 -0.15574244127728851 -0.48028814501610989 0 -0.14413655445219931 -0.45947515843224879 0 -0.1301075188714336 -0.4791343752538898 0 -0.15574244127728851 -0.48028814501610989 0 -0.1416248762599944 -0.40291602015711758 0 -0.15557025074155359 -0.39077254003856021 0 -0.13880144503125821 -0.3858656690580663 0 -0.1416248762599944 -0.40291602015711758 0 -0.1638140251008085 -0.40749562279061258 0 -0.1416248762599944 -0.40291602015711758 0 -0.15557025074155359 -0.39077254003856021 0 -0.1638140251008085 -0.40749562279061258 0 -0.15557025074155359 -0.39077254003856021 0 -0.13880144503125821 -0.3858656690580663 0 -0.158167162643336 -0.37339492059250939 0 -0.13880144503125821 -0.3858656690580663 0 -0.158167162643336 -0.37339492059250939 0 -0.13880144503125821 -0.3858656690580663 0 -0.13035961302679219 -0.36450783199462539 0 -0.1177283458384101 -0.38116650193603391 0 -0.13880144503125821 -0.3858656690580663 0 -0.1194357274191802 -0.39833641752362292 0 -0.1177283458384101 -0.38116650193603391 0 -0.1416248762599944 -0.40291602015711758 0 -0.1194357274191802 -0.39833641752362292 0 -0.1416248762599944 -0.40291602015711758 0 -0.13880144503125821 -0.3858656690580663 0 -0.1194357274191802 -0.39833641752362292 0 -0.13880144503125821 -0.3858656690580663 0 -0.1194357274191802 -0.39833641752362292 0 -0.1416248762599944 -0.40291602015711758 0 -0.1244761680843726 -0.41219526256412958 0 -0.1194357274191802 -0.39833641752362292 0 -0.1416248762599944 -0.40291602015711758 0 -0.13988166707221711 -0.4197670562932026 0 -0.1244761680843726 -0.41219526256412958 0 -0.13988166707221711 -0.4197670562932026 0 -0.1220846397002827 -0.42868852605054092 0 -0.1244761680843726 -0.41219526256412958 0 -0.13998718083132899 -0.43974885322530488 0 -0.13988166707221711 -0.4197670562932026 0 -0.1220846397002827 -0.42868852605054092 0 -0.13998718083132899 -0.43974885322530488 0 -0.13988166707221711 -0.4197670562932026 0 -0.15395916782073071 -0.42815484680511701 0 -0.13988166707221711 -0.4197670562932026 0 -0.15395916782073071 -0.42815484680511701 0 -0.1638140251008085 -0.40749562279061258 0 -0.1416248762599944 -0.40291602015711758 0 -0.13988166707221711 -0.4197670562932026 0 -0.1638140251008085 -0.40749562279061258 0 -0.15395916782073071 -0.42815484680511701 0 -0.1638140251008085 -0.40749562279061258 0 -0.16797399626647019 -0.42469931329322952 0 -0.16132695999510091 -0.44544651261259738 0 -0.15395916782073071 -0.42815484680511701 0 -0.16797399626647019 -0.42469931329322952 0 -0.17785385253580471 -0.43938470627762932 0 -0.16132695999510091 -0.44544651261259738 0 -0.16797399626647019 -0.42469931329322952 0 -0.17785385253580471 -0.43938470627762932 0 -0.16797399626647019 -0.42469931329322952 0 -0.18270425671397389 -0.42702711567738982 0 -0.1898960329313075 -0.44032435567476202 0 -0.17785385253580471 -0.43938470627762932 0 -0.18270425671397389 -0.42702711567738982 0 -0.1638140251008085 -0.40749562279061258 0 -0.16797399626647019 -0.42469931329322952 0 -0.18600317394162261 -0.41207522542410763 0 -0.1638140251008085 -0.40749562279061258 0 -0.18600317394162261 -0.41207522542410763 0 -0.16797399626647019 -0.42469931329322952 0 -0.18270425671397389 -0.42702711567738982 0 -0.18600317394162261 -0.41207522542410763 0 -0.1638140251008085 -0.40749562279061258 0 -0.18600317394162261 -0.41207522542410763 0 -0.18551196799065489 -0.39698324075518382 0 -0.1638140251008085 -0.40749562279061258 0 -0.18551196799065489 -0.39698324075518382 0 -0.17544374467237131 -0.38419046759449482 0 -0.15557025074155359 -0.39077254003856021 0 -0.1638140251008085 -0.40749562279061258 0 -0.17544374467237131 -0.38419046759449482 0 -0.15557025074155359 -0.39077254003856021 0 -0.17544374467237131 -0.38419046759449482 0 -0.158167162643336 -0.37339492059250939 0 -0.18551196799065489 -0.39698324075518382 0 -0.17544374467237131 -0.38419046759449482 0 -0.19533610193779569 -0.38675352294037763 0 -0.17544374467237131 -0.38419046759449482 0 -0.19533610193779569 -0.38675352294037763 0 -0.19173049059668679 -0.37278443870119637 0 -0.19533610193779569 -0.38675352294037763 0 -0.20381125028022601 -0.37810186448966288 0 -0.19173049059668679 -0.37278443870119637 0 -0.19533610193779569 -0.38675352294037763 0 -0.20381125028022601 -0.37810186448966288 0 -0.2074960218221879 -0.38930415060456203 0 -0.18600317394162261 -0.41207522542410763 0 -0.18551196799065489 -0.39698324075518382 0 -0.20224960542681231 -0.40195761344774061 0 -0.18551196799065489 -0.39698324075518382 0 -0.19533610193779569 -0.38675352294037763 0 -0.20224960542681231 -0.40195761344774061 0 -0.19533610193779569 -0.38675352294037763 0 -0.20224960542681231 -0.40195761344774061 0 -0.2074960218221879 -0.38930415060456203 0 -0.20224960542681231 -0.40195761344774061 0 -0.21834951126156671 -0.39596055820830961 0 -0.2074960218221879 -0.38930415060456203 0 -0.20224960542681231 -0.40195761344774061 0 -0.21834951126156671 -0.39596055820830961 0 -0.21832157546317041 -0.41521349919622469 0 -0.21834951126156671 -0.39596055820830961 0 -0.21546990672659611 -0.38155095573040998 0 -0.2074960218221879 -0.38930415060456203 0 -0.21546990672659611 -0.38155095573040998 0 -0.21102178602170371 -0.3709824959966222 0 -0.21845869313662969 -0.37470110398090911 0 -0.21546990672659611 -0.38155095573040998 0 -0.20381125028022601 -0.37810186448966288 0 -0.21102178602170371 -0.3709824959966222 0 -0.21546990672659611 -0.38155095573040998 0 -0.20381125028022601 -0.37810186448966288 0 -0.2074960218221879 -0.38930415060456203 0 -0.20857794714484071 -0.44230400107963458 0 -0.1898960329313075 -0.44032435567476202 0 -0.19633806059029529 -0.42930046811054712 0 -0.18270425671397389 -0.42702711567738982 0 -0.18600317394162261 -0.41207522542410763 0 -0.19633806059029529 -0.42930046811054712 0 -0.1898960329313075 -0.44032435567476202 0 -0.18270425671397389 -0.42702711567738982 0 -0.19633806059029529 -0.42930046811054712 0 -0.19633806059029529 -0.42930046811054712 0 -0.2025846283706442 -0.41735665031565827 0 -0.21001072643132049 -0.42823644539967187 0 -0.18600317394162261 -0.41207522542410763 0 -0.20224960542681231 -0.40195761344774061 0 -0.2025846283706442 -0.41735665031565827 0 -0.18600317394162261 -0.41207522542410763 0 -0.19633806059029529 -0.42930046811054712 0 -0.2025846283706442 -0.41735665031565827 0 -0.20224960542681231 -0.40195761344774061 0 -0.2025846283706442 -0.41735665031565827 0 -0.21832157546317041 -0.41521349919622469 0 -0.2025846283706442 -0.41735665031565827 0 -0.21832157546317041 -0.41521349919622469 0 -0.21001072643132049 -0.42823644539967187 0 -0.21832157546317041 -0.41521349919622469 0 -0.21001072643132049 -0.42823644539967187 0 -0.2227136947317673 -0.43181431819591942 0 -0.20857794714484071 -0.44230400107963458 0 -0.21001072643132049 -0.42823644539967187 0 -0.2227136947317673 -0.43181431819591942 0 -0.20857794714484071 -0.44230400107963458 0 -0.19633806059029529 -0.42930046811054712 0 -0.21001072643132049 -0.42823644539967187 0 -0.21832157546317041 -0.41521349919622469 0 -0.23258441838936991 -0.42210089889268643 0 -0.2227136947317673 -0.43181431819591942 0 -0.24187415681575081 -0.43756531681374411 0 -0.23258441838936991 -0.42210089889268643 0 -0.2227136947317673 -0.43181431819591942 0 -0.21832157546317041 -0.41521349919622469 0 -0.23258441838936991 -0.42210089889268643 0 -0.23183261923091081 -0.40637742345972783 0 -0.25014908697038257 -0.42164291211149107 0 -0.23258441838936991 -0.42210089889268643 0 -0.23183261923091081 -0.40637742345972783 0 -0.25014908697038257 -0.42164291211149107 0 -0.24765604186582321 -0.39437472865997669 0 -0.25014908697038257 -0.42164291211149107 0 -0.23183261923091081 -0.40637742345972783 0 -0.24765604186582321 -0.39437472865997669 0 -0.25014908697038257 -0.42164291211149107 0 -0.24187415681575081 -0.43756531681374411 0 -0.23258441838936991 -0.42210089889268643 0 -0.25014908697038257 -0.42164291211149107 0 -0.24187415681575081 -0.43756531681374411 0 -0.25014908697038257 -0.42164291211149107 0 -0.25238497927180498 -0.44609843493438128 0 -0.24187415681575081 -0.43756531681374411 0 -0.2266162257214176 -0.38537026113168232 0 -0.22866078047146979 -0.39403348444249969 0 -0.23732521337001669 -0.38682005019197729 0 -0.2266162257214176 -0.38537026113168232 0 -0.23424065993533641 -0.3764628145113294 0 -0.23732521337001669 -0.38682005019197729 0 -0.2266162257214176 -0.38537026113168232 0 -0.23424065993533641 -0.3764628145113294 0 -0.22401421199364491 -0.37821729198812259 0 -0.23424065993533641 -0.3764628145113294 0 -0.22401421199364491 -0.37821729198812259 0 -0.22380939646102771 -0.37198161386027828 0 -0.21546990672659611 -0.38155095573040998 0 -0.22401421199364491 -0.37821729198812259 0 -0.21845869313662969 -0.37470110398090911 0 -0.21546990672659611 -0.38155095573040998 0 -0.2266162257214176 -0.38537026113168232 0 -0.22401421199364491 -0.37821729198812259 0 -0.21834951126156671 -0.39596055820830961 0 -0.21546990672659611 -0.38155095573040998 0 -0.2266162257214176 -0.38537026113168232 0 -0.21834951126156671 -0.39596055820830961 0 -0.21832157546317041 -0.41521349919622469 0 -0.23183261923091081 -0.40637742345972783 0 -0.21834951126156671 -0.39596055820830961 0 -0.2266162257214176 -0.38537026113168232 0 -0.22866078047146979 -0.39403348444249969 0 -0.21834951126156671 -0.39596055820830961 0 -0.23183261923091081 -0.40637742345972783 0 -0.22866078047146979 -0.39403348444249969 0 -0.23183261923091081 -0.40637742345972783 0 -0.22866078047146979 -0.39403348444249969 0 -0.24765604186582321 -0.39437472865997669 0 -0.22866078047146979 -0.39403348444249969 0 -0.24765604186582321 -0.39437472865997669 0 -0.23732521337001669 -0.38682005019197729 0 -0.24765604186582321 -0.39437472865997669 0 -0.24516299676126471 -0.36710654520846231 0 -0.23424065993533641 -0.3764628145113294 0 -0.23732521337001669 -0.38682005019197729 0 -0.24516299676126471 -0.36710654520846231 0 -0.24765604186582321 -0.39437472865997669 0 -0.23732521337001669 -0.38682005019197729 0 -0.24516299676126471 -0.36710654520846231 0 -0.24516299676126471 -0.36710654520846231 0 -0.22380939646102771 -0.37198161386027828 0 -0.23424065993533641 -0.3764628145113294 0 -0.24516299676126471 -0.36710654520846231 0 -0.22380939646102771 -0.37198161386027828 0 -0.24516299676126471 -0.36710654520846231 0 -0.23452347744472471 -0.36239270967022591 0 -0.22380939646102771 -0.37198161386027828 0 -0.24516299676126471 -0.36710654520846231 0 -0.23452347744472471 -0.36239270967022591 0 -0.24023737348916929 -0.35657386394547841 0 -0.23452347744472471 -0.36239270967022591 0 -0.22391309632487749 -0.36671281975744802 0 -0.23949452418728409 -0.34958870557946242 0 -0.23452347744472471 -0.36239270967022591 0 -0.22391309632487749 -0.36671281975744802 0 -0.22380939646102771 -0.37198161386027828 0 -0.22391309632487749 -0.36671281975744802 0 -0.22273988263298419 -0.3586515020545189 0 -0.2285197244079519 -0.35451400182027809 0 -0.22391309632487749 -0.36671281975744802 0 -0.21877258045762379 -0.36351657841820367 0 -0.22273988263298419 -0.3586515020545189 0 -0.21877258045762379 -0.36351657841820367 0 -0.22273988263298419 -0.3586515020545189 0 -0.21572516541430681 -0.35846009344216623 0 -0.22391309632487749 -0.36671281975744802 0 -0.21877258045762379 -0.36351657841820367 0 -0.2182050891565151 -0.36895165316200662 0 -0.22391309632487749 -0.36671281975744802 0 -0.22380939646102771 -0.37198161386027828 0 -0.2182050891565151 -0.36895165316200662 0 -0.22401421199364491 -0.37821729198812259 0 -0.22380939646102771 -0.37198161386027828 0 -0.21845869313662969 -0.37470110398090911 0 -0.22380939646102771 -0.37198161386027828 0 -0.2182050891565151 -0.36895165316200662 0 -0.21845869313662969 -0.37470110398090911 0 -0.22391309632487749 -0.36671281975744802 0 -0.23949452418728409 -0.34958870557946242 0 -0.22391309632487749 -0.36671281975744802 0 -0.2285197244079519 -0.35451400182027809 0 -0.23949452418728409 -0.34958870557946242 0 -0.22360796342626471 -0.35010021723015772 0 -0.2308813154502834 -0.34083209324636199 0 -0.22083624698162879 -0.34196341696256649 0 -0.22360796342626471 -0.35010021723015772 0 -0.22273988263298419 -0.3586515020545189 0 -0.21572516541430681 -0.35846009344216623 0 -0.22360796342626471 -0.35010021723015772 0 -0.22273988263298419 -0.3586515020545189 0 -0.2285197244079519 -0.35451400182027809 0 -0.22360796342626471 -0.35010021723015772 0 -0.2285197244079519 -0.35451400182027809 0 -0.2325774757284208 -0.34751020746358008 0 -0.22360796342626471 -0.35010021723015772 0 -0.2325774757284208 -0.34751020746358008 0 -0.2308813154502834 -0.34083209324636199 0 -0.2285197244079519 -0.35451400182027809 0 -0.2325774757284208 -0.34751020746358008 0 -0.23949452418728409 -0.34958870557946242 0 -0.2325774757284208 -0.34751020746358008 0 -0.23728847944004611 -0.34314949697730052 0 -0.2308813154502834 -0.34083209324636199 0 -0.2550759520496908 -0.33246459140147677 0 -0.23949452418728409 -0.34958870557946242 0 -0.2436380707187546 -0.35042735917965201 0 -0.25256356325916168 -0.35777534955047752 0 -0.24516299676126471 -0.36710654520846231 0 -0.2436380707187546 -0.35042735917965201 0 -0.24516299676126471 -0.36710654520846231 0 -0.24023737348916929 -0.35657386394547841 0 -0.2436380707187546 -0.35042735917965201 0 -0.24516299676126471 -0.36710654520846231 0 -0.2436380707187546 -0.35042735917965201 0 -0.2325774757284208 -0.34751020746358008 0 -0.23949452418728409 -0.34958870557946242 0 -0.23728847944004611 -0.34314949697730052 0 -0.23452347744472471 -0.36239270967022591 0 -0.23949452418728409 -0.34958870557946242 0 -0.24023737348916929 -0.35657386394547841 0 -0.23949452418728409 -0.34958870557946242 0 -0.24023737348916929 -0.35657386394547841 0 -0.2436380707187546 -0.35042735917965201 0 -0.2550759520496908 -0.33246459140147677 0 -0.2432106079054894 -0.33731909573358432 0 -0.24113451525221899 -0.32081591020462619 0 -0.2432106079054894 -0.33731909573358432 0 -0.24113451525221899 -0.32081591020462619 0 -0.22662648481768971 -0.32930985211942437 0 -0.2550759520496908 -0.33246459140147677 0 -0.23949452418728409 -0.34958870557946242 0 -0.2550759520496908 -0.33246459140147677 0 -0.23949452418728409 -0.34958870557946242 0 -0.2432106079054894 -0.33731909573358432 0 -0.2432106079054894 -0.33731909573358432 0 -0.23728847944004611 -0.34314949697730052 0 -0.2308813154502834 -0.34083209324636199 0 -0.23949452418728409 -0.34958870557946242 0 -0.2432106079054894 -0.33731909573358432 0 -0.23728847944004611 -0.34314949697730052 0 -0.22662648481768971 -0.32930985211942437 0 -0.20850306857102061 -0.31686934103131331 0 -0.22567730496154129 -0.31149913115215999 0 -0.24113451525221899 -0.32081591020462619 0 -0.22662648481768971 -0.32930985211942437 0 -0.22567730496154129 -0.31149913115215999 0 -0.2432106079054894 -0.33731909573358432 0 -0.2308813154502834 -0.34083209324636199 0 -0.22662648481768971 -0.32930985211942437 0 -0.22662648481768971 -0.32930985211942437 0 -0.21176254134259079 -0.33888163789040998 0 -0.22662648481768971 -0.32930985211942437 0 -0.22083624698162879 -0.34196341696256649 0 -0.21176254134259079 -0.33888163789040998 0 -0.2308813154502834 -0.34083209324636199 0 -0.22662648481768971 -0.32930985211942437 0 -0.22083624698162879 -0.34196341696256649 0 -0.22662648481768971 -0.32930985211942437 0 -0.21176254134259079 -0.33888163789040998 0 -0.20850306857102061 -0.31686934103131331 0 -0.21176254134259079 -0.33888163789040998 0 -0.20850306857102061 -0.31686934103131331 0 -0.19789402582001561 -0.33367227750920048 0 -0.21176254134259079 -0.33888163789040998 0 -0.19689859786749181 -0.34845342366139581 0 -0.1892289412722023 -0.31326112285918778 0 -0.19789402582001561 -0.33367227750920048 0 -0.18410510966043489 -0.32825573345184539 0 -0.20850306857102061 -0.31686934103131331 0 -0.1892289412722023 -0.31326112285918778 0 -0.19789402582001561 -0.33367227750920048 0 -0.19789402582001561 -0.33367227750920048 0 -0.19689859786749181 -0.34845342366139581 0 -0.18410510966043489 -0.32825573345184539 0 -0.19689859786749181 -0.34845342366139581 0 -0.18410510966043489 -0.32825573345184539 0 -0.21176254134259079 -0.33888163789040998 0 -0.19789402582001561 -0.33367227750920048 0 -0.19689859786749181 -0.34845342366139581 0 -0.19689859786749181 -0.34845342366139581 0 -0.1944162418150811 -0.36117771423100142 0 -0.17753288025541381 -0.3609241721269526 0 -0.19689859786749181 -0.34845342366139581 0 -0.2019944143192117 -0.3564984322150147 0 -0.1944162418150811 -0.36117771423100142 0 -0.19689859786749181 -0.34845342366139581 0 -0.2019944143192117 -0.3564984322150147 0 -0.1944162418150811 -0.36117771423100142 0 -0.19173049059668679 -0.37278443870119637 0 -0.17753288025541381 -0.3609241721269526 0 -0.20381125028022601 -0.37810186448966288 0 -0.19173049059668679 -0.37278443870119637 0 -0.20181646426028491 -0.36683715187163718 0 -0.2019944143192117 -0.3564984322150147 0 -0.1944162418150811 -0.36117771423100142 0 -0.20181646426028491 -0.36683715187163718 0 -0.1944162418150811 -0.36117771423100142 0 -0.19173049059668679 -0.37278443870119637 0 -0.20181646426028491 -0.36683715187163718 0 -0.20181646426028491 -0.36683715187163718 0 -0.2079246025288003 -0.36147796559632589 0 -0.21102178602170371 -0.3709824959966222 0 -0.2019944143192117 -0.3564984322150147 0 -0.20181646426028491 -0.36683715187163718 0 -0.2079246025288003 -0.36147796559632589 0 -0.20381125028022601 -0.37810186448966288 0 -0.20181646426028491 -0.36683715187163718 0 -0.21102178602170371 -0.3709824959966222 0 -0.21102178602170371 -0.3709824959966222 0 -0.2182050891565151 -0.36895165316200662 0 -0.21432984471578989 -0.3646777573230649 0 -0.21102178602170371 -0.3709824959966222 0 -0.2182050891565151 -0.36895165316200662 0 -0.21845869313662969 -0.37470110398090911 0 -0.2079246025288003 -0.36147796559632589 0 -0.21102178602170371 -0.3709824959966222 0 -0.21432984471578989 -0.3646777573230649 0 -0.2079246025288003 -0.36147796559632589 0 -0.21432984471578989 -0.3646777573230649 0 -0.21572516541430681 -0.35846009344216623 0 -0.21877258045762379 -0.36351657841820367 0 -0.2182050891565151 -0.36895165316200662 0 -0.21432984471578989 -0.3646777573230649 0 -0.21877258045762379 -0.36351657841820367 0 -0.21432984471578989 -0.3646777573230649 0 -0.21572516541430681 -0.35846009344216623 0 -0.22360796342626471 -0.35010021723015772 0 -0.21572516541430681 -0.35846009344216623 0 -0.2113029298713156 -0.35069328432647823 0 -0.2079246025288003 -0.36147796559632589 0 -0.21572516541430681 -0.35846009344216623 0 -0.2113029298713156 -0.35069328432647823 0 -0.22360796342626471 -0.35010021723015772 0 -0.22083624698162879 -0.34196341696256649 0 -0.2113029298713156 -0.35069328432647823 0 -0.22083624698162879 -0.34196341696256649 0 -0.21176254134259079 -0.33888163789040998 0 -0.2113029298713156 -0.35069328432647823 0 -0.21176254134259079 -0.33888163789040998 0 -0.19689859786749181 -0.34845342366139581 0 -0.2113029298713156 -0.35069328432647823 0 -0.19689859786749181 -0.34845342366139581 0 -0.2019944143192117 -0.3564984322150147 0 -0.2113029298713156 -0.35069328432647823 0 -0.2019944143192117 -0.3564984322150147 0 -0.2079246025288003 -0.36147796559632589 0 -0.2113029298713156 -0.35069328432647823 0 -0.22849130372942389 -0.26372872289076482 0 -0.20808793044734061 -0.25389933105750051 0 -0.224073955715235 -0.2468071783108971 0 -0.22849130372942389 -0.26372872289076482 0 -0.24564221040132861 -0.24971282446878551 0 -0.224073955715235 -0.2468071783108971 0 -0.22849130372942389 -0.26372872289076482 0 -0.24889467701150711 -0.27355811472402908 0 -0.24564221040132861 -0.24971282446878551 0 -0.22849130372942389 -0.26372872289076482 0 -0.24889467701150711 -0.27355811472402908 0 -0.23163078606843229 -0.28729797627686787 0 -0.22849130372942389 -0.26372872289076482 0 -0.24889467701150711 -0.27355811472402908 0 -0.22849130372942389 -0.26372872289076482 0 -0.23163078606843229 -0.28729797627686787 0 -0.2162307950581743 -0.27756420276699661 0 -0.23163078606843229 -0.28729797627686787 0 -0.21276790823666489 -0.29268213820286332 0 -0.2162307950581743 -0.27756420276699661 0 -0.25172667382021141 -0.29094226489690472 0 -0.24889467701150711 -0.27355811472402908 0 -0.23163078606843229 -0.28729797627686787 0 -0.25172667382021141 -0.29094226489690472 0 -0.23163078606843229 -0.28729797627686787 0 -0.24126734701654351 -0.30283464544922661 0 -0.24113451525221899 -0.32081591020462619 0 -0.24126734701654351 -0.30283464544922661 0 -0.22567730496154129 -0.31149913115215999 0 -0.25449457937273412 -0.310365445862815 0 -0.24113451525221899 -0.32081591020462619 0 -0.24126734701654351 -0.30283464544922661 0 -0.25449457937273412 -0.310365445862815 0 -0.25172667382021141 -0.29094226489690472 0 -0.24126734701654351 -0.30283464544922661 0 -0.23163078606843229 -0.28729797627686787 0 -0.24126734701654351 -0.30283464544922661 0 -0.22567730496154129 -0.31149913115215999 0 -0.23163078606843229 -0.28729797627686787 0 -0.22567730496154129 -0.31149913115215999 0 -0.21276790823666489 -0.29268213820286332 0 -0.20850306857102061 -0.31686934103131331 0 -0.22567730496154129 -0.31149913115215999 0 -0.21276790823666489 -0.29268213820286332 0 -0.20850306857102061 -0.31686934103131331 0 -0.19767180697654799 -0.3005338644776826 0 -0.21276790823666489 -0.29268213820286332 0 -0.1892289412722023 -0.31326112285918778 0 -0.19767180697654799 -0.3005338644776826 0 -0.18193864562329101 -0.29644782792348878 0 -0.20850306857102061 -0.31686934103131331 0 -0.1892289412722023 -0.31326112285918778 0 -0.19767180697654799 -0.3005338644776826 0 -0.19256566979320841 -0.28483761260468032 0 -0.21276790823666489 -0.29268213820286332 0 -0.19767180697654799 -0.3005338644776826 0 -0.19256566979320841 -0.28483761260468032 0 -0.21276790823666489 -0.29268213820286332 0 -0.19767180697654799 -0.3005338644776826 0 -0.19256566979320841 -0.28483761260468032 0 -0.18193864562329101 -0.29644782792348878 0 -0.19256566979320841 -0.28483761260468032 0 -0.21276790823666489 -0.29268213820286332 0 -0.19932456985715469 -0.27745339254400941 0 -0.21276790823666489 -0.29268213820286332 0 -0.2162307950581743 -0.27756420276699661 0 -0.19932456985715469 -0.27745339254400941 0 -0.22849130372942389 -0.26372872289076482 0 -0.2162307950581743 -0.27756420276699661 0 -0.20819017857821129 -0.26785024178202438 0 -0.2162307950581743 -0.27756420276699661 0 -0.20819017857821129 -0.26785024178202438 0 -0.19932456985715469 -0.27745339254400941 0 -0.19256566979320841 -0.28483761260468032 0 -0.19932456985715469 -0.27745339254400941 0 -0.19256566979320841 -0.28483761260468032 0 -0.19932456985715469 -0.27745339254400941 0 -0.18508958066218811 -0.27094667627271668 0 -0.19932456985715469 -0.27745339254400941 0 -0.19376225919596529 -0.26204247408029718 0 -0.18508958066218811 -0.27094667627271668 0 -0.20819017857821129 -0.26785024178202438 0 -0.19932456985715469 -0.27745339254400941 0 -0.19376225919596529 -0.26204247408029718 0 -0.19376225919596529 -0.26204247408029718 0 -0.20808793044734061 -0.25389933105750051 0 -0.18768455716525739 -0.24406993922423609 0 -0.22849130372942389 -0.26372872289076482 0 -0.20808793044734061 -0.25389933105750051 0 -0.22849130372942389 -0.26372872289076482 0 -0.20819017857821129 -0.26785024178202438 0 -0.20808793044734061 -0.25389933105750051 0 -0.20819017857821129 -0.26785024178202438 0 -0.19376225919596529 -0.26204247408029718 0 -0.20808793044734061 -0.25389933105750051 0 -0.15680516181067711 -0.26060147035734832 0 -0.15343837188373369 -0.24355053103281951 0 -0.16318796637523331 -0.24886929238880931 0 -0.15680516181067711 -0.26060147035734832 0 -0.17522714792334851 -0.25708462077409772 0 -0.1692392222861219 -0.27577995718218362 0 -0.15680516181067711 -0.26060147035734832 0 -0.17522714792334851 -0.25708462077409772 0 -0.16318796637523331 -0.24886929238880931 0 -0.19376225919596529 -0.26204247408029718 0 -0.17522714792334851 -0.25708462077409772 0 -0.18768455716525739 -0.24406993922423609 0 -0.19376225919596529 -0.26204247408029718 0 -0.17522714792334851 -0.25708462077409772 0 -0.18508958066218811 -0.27094667627271668 0 -0.17522714792334851 -0.25708462077409772 0 -0.18508958066218811 -0.27094667627271668 0 -0.1692392222861219 -0.27577995718218362 0 -0.19256566979320841 -0.28483761260468032 0 -0.1692392222861219 -0.27577995718218362 0 -0.19256566979320841 -0.28483761260468032 0 -0.18508958066218811 -0.27094667627271668 0 -0.1692392222861219 -0.27577995718218362 0 -0.1692392222861219 -0.27577995718218362 0 -0.14512908334542629 -0.26672242116292533 0 -0.15680516181067711 -0.26060147035734832 0 -0.1692392222861219 -0.27577995718218362 0 -0.14512908334542629 -0.26672242116292533 0 -0.1692392222861219 -0.27577995718218362 0 -0.15822035239939999 -0.28739023220261162 0 -0.14512908334542629 -0.26672242116292533 0 -0.15822035239939999 -0.28739023220261162 0 -0.1725143892311142 -0.28939337725562969 0 -0.17131162145337389 -0.30805804324229757 0 -0.1692392222861219 -0.27577995718218362 0 -0.15822035239939999 -0.28739023220261162 0 -0.1725143892311142 -0.28939337725562969 0 -0.19256566979320841 -0.28483761260468032 0 -0.1692392222861219 -0.27577995718218362 0 -0.1725143892311142 -0.28939337725562969 0 -0.19256566979320841 -0.28483761260468032 0 -0.18193864562329101 -0.29644782792348878 0 -0.1725143892311142 -0.28939337725562969 0 -0.19256566979320841 -0.28483761260468032 0 -0.18193864562329101 -0.29644782792348878 0 -0.18193864562329101 -0.29644782792348878 0 -0.17131162145337389 -0.30805804324229757 0 -0.18193864562329101 -0.29644782792348878 0 -0.1725143892311142 -0.28939337725562969 0 -0.17131162145337389 -0.30805804324229757 0 -0.1892289412722023 -0.31326112285918778 0 -0.18193864562329101 -0.29644782792348878 0 -0.17131162145337389 -0.30805804324229757 0 -0.15822035239939999 -0.28739023220261162 0 -0.17131162145337389 -0.30805804324229757 0 -0.15386806274801679 -0.30513035317424902 0 -0.15822035239939999 -0.28739023220261162 0 -0.17131162145337389 -0.30805804324229757 0 -0.17131162145337389 -0.30805804324229757 0 -0.15386806274801679 -0.30513035317424902 0 -0.15808533796197641 -0.32250799618749082 0 -0.15386806274801679 -0.30513035317424902 0 -0.13910058726350821 -0.30553132036256642 0 -0.1429474754324061 -0.29344065452195989 0 -0.15386806274801679 -0.30513035317424902 0 -0.13910058726350821 -0.30553132036256642 0 -0.14162572288187031 -0.3189139656765746 0 -0.13910058726350821 -0.30553132036256642 0 -0.12713357702371689 -0.31152704603399151 0 -0.14162572288187031 -0.3189139656765746 0 -0.13910058726350821 -0.30553132036256642 0 -0.12541711644916839 -0.29599375624960211 0 -0.1429474754324061 -0.29344065452195989 0 -0.13910058726350821 -0.30553132036256642 0 -0.12713357702371689 -0.31152704603399151 0 -0.12541711644916839 -0.29599375624960211 0 -0.12541711644916839 -0.29599375624960211 0 -0.12921589792250621 -0.28205960977770589 0 -0.1429474754324061 -0.29344065452195989 0 -0.12921589792250621 -0.28205960977770589 0 -0.14426491229151511 -0.28174979704162301 0 -0.1429474754324061 -0.29344065452195989 0 -0.15822035239939999 -0.28739023220261162 0 -0.15386806274801679 -0.30513035317424902 0 -0.1429474754324061 -0.29344065452195989 0 -0.15822035239939999 -0.28739023220261162 0 -0.14426491229151511 -0.28174979704162301 0 -0.1429474754324061 -0.29344065452195989 0 -0.15822035239939999 -0.28739023220261162 0 -0.14426491229151511 -0.28174979704162301 0 -0.14512908334542629 -0.26672242116292533 0 -0.15822035239939999 -0.28739023220261162 0 -0.14512908334542629 -0.26672242116292533 0 -0.14426491229151511 -0.28174979704162301 0 -0.14512908334542629 -0.26672242116292533 0 -0.13901568065797501 -0.27390939671563952 0 -0.12921589792250621 -0.28205960977770589 0 -0.14426491229151511 -0.28174979704162301 0 -0.13901568065797501 -0.27390939671563952 0 -0.12921589792250621 -0.28205960977770589 0 -0.13901568065797501 -0.27390939671563952 0 -0.13107192175976659 -0.27053762661603109 0 -0.12921589792250621 -0.28205960977770589 0 -0.13107192175976659 -0.27053762661603109 0 -0.1202540160006083 -0.27146130546412278 0 -0.14512908334542629 -0.26672242116292533 0 -0.13901568065797501 -0.27390939671563952 0 -0.13107192175976659 -0.27053762661603109 0 -0.14512908334542629 -0.26672242116292533 0 -0.12258632727195 -0.25766464633718772 0 -0.14512908334542629 -0.26672242116292533 0 -0.13830392788459439 -0.25078022929334121 0 -0.12258632727195 -0.25766464633718772 0 -0.14512908334542629 -0.26672242116292533 0 -0.13107192175976659 -0.27053762661603109 0 -0.12258632727195 -0.25766464633718772 0 -0.15680516181067711 -0.26060147035734832 0 -0.14512908334542629 -0.26672242116292533 0 -0.13830392788459439 -0.25078022929334121 0 -0.15680516181067711 -0.26060147035734832 0 -0.13830392788459439 -0.25078022929334121 0 -0.15680516181067711 -0.26060147035734832 0 -0.13830392788459439 -0.25078022929334121 0 -0.15343837188373369 -0.24355053103281951 0 -0.17753288025541381 -0.3609241721269526 0 -0.1678946061648208 -0.34221724359414468 0 -0.15145942452711841 -0.35370227249891628 0 -0.158167162643336 -0.37339492059250939 0 -0.17753288025541381 -0.3609241721269526 0 -0.17544374467237131 -0.38419046759449482 0 -0.158167162643336 -0.37339492059250939 0 -0.17753288025541381 -0.3609241721269526 0 -0.158167162643336 -0.37339492059250939 0 -0.17753288025541381 -0.3609241721269526 0 -0.15145942452711841 -0.35370227249891628 0 -0.17544374467237131 -0.38419046759449482 0 -0.19173049059668679 -0.37278443870119637 0 -0.17753288025541381 -0.3609241721269526 0 -0.19689859786749181 -0.34845342366139581 0 -0.17753288025541381 -0.3609241721269526 0 -0.19689859786749181 -0.34845342366139581 0 -0.17753288025541381 -0.3609241721269526 0 -0.1678946061648208 -0.34221724359414468 0 -0.19689859786749181 -0.34845342366139581 0 -0.18410510966043489 -0.32825573345184539 0 -0.1678946061648208 -0.34221724359414468 0 -0.17131162145337389 -0.30805804324229757 0 -0.18410510966043489 -0.32825573345184539 0 -0.1892289412722023 -0.31326112285918778 0 -0.17131162145337389 -0.30805804324229757 0 -0.18410510966043489 -0.32825573345184539 0 -0.17131162145337389 -0.30805804324229757 0 -0.18410510966043489 -0.32825573345184539 0 -0.15808533796197641 -0.32250799618749082 0 -0.17131162145337389 -0.30805804324229757 0 -0.15808533796197641 -0.32250799618749082 0 -0.15808533796197641 -0.32250799618749082 0 -0.1678946061648208 -0.34221724359414468 0 -0.1448590544705789 -0.33695794913268401 0 -0.18410510966043489 -0.32825573345184539 0 -0.15808533796197641 -0.32250799618749082 0 -0.1678946061648208 -0.34221724359414468 0 -0.15808533796197641 -0.32250799618749082 0 -0.1448590544705789 -0.33695794913268401 0 -0.15808533796197641 -0.32250799618749082 0 -0.1448590544705789 -0.33695794913268401 0 -0.14162572288187031 -0.3189139656765746 0 -0.15386806274801679 -0.30513035317424902 0 -0.15808533796197641 -0.32250799618749082 0 -0.14162572288187031 -0.3189139656765746 0 -0.1448590544705789 -0.33695794913268401 0 -0.14162572288187031 -0.3189139656765746 0 -0.12764185715242549 -0.32590863632730932 0 -0.12713357702371689 -0.31152704603399151 0 -0.14162572288187031 -0.3189139656765746 0 -0.12764185715242549 -0.32590863632730932 0 -0.1448590544705789 -0.33695794913268401 0 -0.12764185715242549 -0.32590863632730932 0 -0.12994323060176879 -0.344211517552582 0 -0.12994323060176879 -0.344211517552582 0 -0.15145942452711841 -0.35370227249891628 0 -0.13035961302679219 -0.36450783199462539 0 -0.1448590544705789 -0.33695794913268401 0 -0.12994323060176879 -0.344211517552582 0 -0.15145942452711841 -0.35370227249891628 0 -0.1678946061648208 -0.34221724359414468 0 -0.1448590544705789 -0.33695794913268401 0 -0.15145942452711841 -0.35370227249891628 0 -0.13880144503125821 -0.3858656690580663 0 -0.158167162643336 -0.37339492059250939 0 -0.13035961302679219 -0.36450783199462539 0 -0.158167162643336 -0.37339492059250939 0 -0.15145942452711841 -0.35370227249891628 0 -0.13035961302679219 -0.36450783199462539 0 -0.13035961302679219 -0.36450783199462539 0 -0.108030323413099 -0.36568795553454048 0 -0.11090659031154559 -0.34957953933368158 0 -0.13035961302679219 -0.36450783199462539 0 -0.108030323413099 -0.36568795553454048 0 -0.1177283458384101 -0.38116650193603391 0 -0.108030323413099 -0.36568795553454048 0 -0.091221437442228492 -0.37449879932460839 0 -0.1177283458384101 -0.38116650193603391 0 -0.108030323413099 -0.36568795553454048 0 -0.091221437442228492 -0.37449879932460839 0 -0.091407745789705661 -0.35775687272266232 0 -0.11090659031154559 -0.34957953933368158 0 -0.092899347611972508 -0.33851594637856269 0 -0.091407745789705661 -0.35775687272266232 0 -0.108030323413099 -0.36568795553454048 0 -0.11090659031154559 -0.34957953933368158 0 -0.091407745789705661 -0.35775687272266232 0 -0.12994323060176879 -0.344211517552582 0 -0.13035961302679219 -0.36450783199462539 0 -0.11090659031154559 -0.34957953933368158 0 -0.12994323060176879 -0.344211517552582 0 -0.11090659031154559 -0.34957953933368158 0 -0.1145706385489689 -0.3332570657860659 0 -0.12764185715242549 -0.32590863632730932 0 -0.12994323060176879 -0.344211517552582 0 -0.1145706385489689 -0.3332570657860659 0 -0.12713357702371689 -0.31152704603399151 0 -0.12764185715242549 -0.32590863632730932 0 -0.117597873288601 -0.31889222988261462 0 -0.12764185715242549 -0.32590863632730932 0 -0.1145706385489689 -0.3332570657860659 0 -0.117597873288601 -0.31889222988261462 0 -0.1145706385489689 -0.3332570657860659 0 -0.117597873288601 -0.31889222988261462 0 -0.10476987613871901 -0.31919886443348999 0 -0.117597873288601 -0.31889222988261462 0 -0.10476987613871901 -0.31919886443348999 0 -0.1136584532287629 -0.30437975755245877 0 -0.10476987613871901 -0.31919886443348999 0 -0.086549284780067959 -0.31908794777007471 0 -0.1091909491873574 -0.29943831681427219 0 -0.10476987613871901 -0.31919886443348999 0 -0.092899347611972508 -0.33851594637856269 0 -0.086549284780067959 -0.31908794777007471 0 -0.11090659031154559 -0.34957953933368158 0 -0.1145706385489689 -0.3332570657860659 0 -0.092899347611972508 -0.33851594637856269 0 -0.1145706385489689 -0.3332570657860659 0 -0.10476987613871901 -0.31919886443348999 0 -0.092899347611972508 -0.33851594637856269 0 -0.092899347611972508 -0.33851594637856269 0 -0.063907620372778362 -0.33873757872587718 0 -0.078213133082502773 -0.34990270866788942 0 -0.092899347611972508 -0.33851594637856269 0 -0.086549284780067959 -0.31908794777007471 0 -0.063907620372778362 -0.33873757872587718 0 -0.086549284780067959 -0.31908794777007471 0 -0.063907620372778362 -0.33873757872587718 0 -0.056412544628839142 -0.31227571955264127 0 -0.086549284780067959 -0.31908794777007471 0 -0.063907620372778362 -0.33873757872587718 0 -0.068423619636709523 -0.35247603238488762 0 -0.074427332001347851 -0.36202711312745728 0 -0.057846643983417753 -0.36020716140456588 0 -0.063907620372778362 -0.33873757872587718 0 -0.068423619636709523 -0.35247603238488762 0 -0.078213133082502773 -0.34990270866788942 0 -0.063907620372778362 -0.33873757872587718 0 -0.068423619636709523 -0.35247603238488762 0 -0.057846643983417753 -0.36020716140456588 0 -0.068423619636709523 -0.35247603238488762 0 -0.074427332001347851 -0.36202711312745728 0 -0.078213133082502773 -0.34990270866788942 0 -0.064714529046046937 -0.36783109671318298 0 -0.074427332001347851 -0.36202711312745728 0 -0.057846643983417753 -0.36020716140456588 0 -0.064714529046046937 -0.36783109671318298 0 -0.074427332001347851 -0.36202711312745728 0 -0.091221437442228492 -0.37449879932460839 0 -0.074427332001347851 -0.36202711312745728 0 -0.057846643983417753 -0.36020716140456588 0 -0.064714529046046937 -0.36783109671318298 0 -0.091221437442228492 -0.37449879932460839 0 -0.074427332001347851 -0.36202711312745728 0 -0.091221437442228492 -0.37449879932460839 0 -0.091407745789705661 -0.35775687272266232 0 -0.092899347611972508 -0.33851594637856269 0 -0.091407745789705661 -0.35775687272266232 0 -0.078213133082502773 -0.34990270866788942 0 -0.074427332001347851 -0.36202711312745728 0 -0.091407745789705661 -0.35775687272266232 0 -0.078213133082502773 -0.34990270866788942 0 -0.095878589696297159 -0.27753976487104448 0 -0.099259879764864944 -0.24860699091468741 0 -0.1092555582304842 -0.26719801763321821 0 -0.095878589696297159 -0.27753976487104448 0 -0.099259879764864944 -0.24860699091468741 0 -0.12258632727195 -0.25766464633718772 0 -0.1092555582304842 -0.26719801763321821 0 -0.099259879764864944 -0.24860699091468741 0 -0.12258632727195 -0.25766464633718772 0 -0.099259879764864944 -0.24860699091468741 0 -0.12258632727195 -0.25766464633718772 0 -0.1202540160006083 -0.27146130546412278 0 -0.1092555582304842 -0.26719801763321821 0 -0.1202540160006083 -0.27146130546412278 0 -0.1091403748183343 -0.27984662695647128 0 -0.1092555582304842 -0.26719801763321821 0 -0.12921589792250621 -0.28205960977770589 0 -0.1202540160006083 -0.27146130546412278 0 -0.1091403748183343 -0.27984662695647128 0 -0.13107192175976659 -0.27053762661603109 0 -0.12258632727195 -0.25766464633718772 0 -0.1202540160006083 -0.27146130546412278 0 -0.1091403748183343 -0.27984662695647128 0 -0.1092555582304842 -0.26719801763321821 0 -0.095878589696297159 -0.27753976487104448 0 -0.1091403748183343 -0.27984662695647128 0 -0.095878589696297159 -0.27753976487104448 0 -0.092829831527318579 -0.28134152438199161 0 -0.1091909491873574 -0.29943831681427219 0 -0.089690297674282882 -0.29810150812678848 0 -0.092829831527318579 -0.28134152438199161 0 -0.1091909491873574 -0.29943831681427219 0 -0.092829831527318579 -0.28134152438199161 0 -0.1091403748183343 -0.27984662695647128 0 -0.1091909491873574 -0.29943831681427219 0 -0.092829831527318579 -0.28134152438199161 0 -0.12541711644916839 -0.29599375624960211 0 -0.12921589792250621 -0.28205960977770589 0 -0.1091909491873574 -0.29943831681427219 0 -0.12921589792250621 -0.28205960977770589 0 -0.1091403748183343 -0.27984662695647128 0 -0.1091909491873574 -0.29943831681427219 0 -0.12921589792250621 -0.28205960977770589 0 -0.1091909491873574 -0.29943831681427219 0 -0.12541711644916839 -0.29599375624960211 0 -0.1136584532287629 -0.30437975755245877 0 -0.1091909491873574 -0.29943831681427219 0 -0.1136584532287629 -0.30437975755245877 0 -0.1091909491873574 -0.29943831681427219 0 -0.12713357702371689 -0.31152704603399151 0 -0.12541711644916839 -0.29599375624960211 0 -0.1136584532287629 -0.30437975755245877 0 -0.12713357702371689 -0.31152704603399151 0 -0.117597873288601 -0.31889222988261462 0 -0.1136584532287629 -0.30437975755245877 0 -0.086549284780067959 -0.31908794777007471 0 -0.1091909491873574 -0.29943831681427219 0 -0.089690297674282882 -0.29810150812678848 0 -0.10476987613871901 -0.31919886443348999 0 -0.1136584532287629 -0.30437975755245877 0 -0.1091909491873574 -0.29943831681427219 0 -0.086549284780067959 -0.31908794777007471 0 -0.1091909491873574 -0.29943831681427219 0 -0.086549284780067959 -0.31908794777007471 0 -0.089690297674282882 -0.29810150812678848 0 -0.070191125202387544 -0.29253824354081548 0 -0.086549284780067959 -0.31908794777007471 0 -0.070191125202387544 -0.29253824354081548 0 -0.056412544628839142 -0.31227571955264127 0 -0.089690297674282882 -0.29810150812678848 0 -0.070191125202387544 -0.29253824354081548 0 -0.092829831527318579 -0.28134152438199161 0 -0.070191125202387544 -0.29253824354081548 0 -0.092829831527318579 -0.28134152438199161 0 -0.076468713867277174 -0.26324473194971337 0 -0.095878589696297159 -0.27753976487104448 0 -0.092829831527318579 -0.28134152438199161 0 -0.076468713867277174 -0.26324473194971337 0 -0.092829831527318579 -0.28134152438199161 0 -0.076468713867277174 -0.26324473194971337 0 -0.070191125202387544 -0.29253824354081548 0 -0.076468713867277174 -0.26324473194971337 0 -0.051305591109894307 -0.27723817545830137 0 -0.076468713867277174 -0.26324473194971337 0 -0.060107596207235783 -0.2451479395174353 0 -0.095878589696297159 -0.27753976487104448 0 -0.076468713867277174 -0.26324473194971337 0 -0.099259879764864944 -0.24860699091468741 0 -0.035048457109909108 -0.25191726237852002 0 -0.049067315879515391 -0.26096372956795538 0 -0.026420855097796361 -0.26339377136537401 0 -0.076468713867277174 -0.26324473194971337 0 -0.049067315879515391 -0.26096372956795538 0 -0.060107596207235783 -0.2451479395174353 0 -0.035048457109909108 -0.25191726237852002 0 -0.049067315879515391 -0.26096372956795538 0 -0.060107596207235783 -0.2451479395174353 0 -0.076468713867277174 -0.26324473194971337 0 -0.049067315879515391 -0.26096372956795538 0 -0.051305591109894307 -0.27723817545830137 0 -0.049067315879515391 -0.26096372956795538 0 -0.051305591109894307 -0.27723817545830137 0 -0.02948267860370752 -0.27727088724591659 0 -0.049067315879515391 -0.26096372956795538 0 -0.02948267860370752 -0.27727088724591659 0 -0.026420855097796361 -0.26339377136537401 0 -0.051305591109894307 -0.27723817545830137 0 -0.02948267860370752 -0.27727088724591659 0 -0.051305591109894307 -0.27723817545830137 0 -0.041407200753535232 -0.29458577661800328 0 -0.02948267860370752 -0.27727088724591659 0 -0.070191125202387544 -0.29253824354081548 0 -0.051305591109894307 -0.27723817545830137 0 -0.041407200753535232 -0.29458577661800328 0 -0.070191125202387544 -0.29253824354081548 0 -0.041407200753535232 -0.29458577661800328 0 -0.056412544628839142 -0.31227571955264127 0 -0.041407200753535232 -0.29458577661800328 0 -0.056412544628839142 -0.31227571955264127 0 -0.036972560777928667 -0.30916948090557012 0 -0.041407200753535232 -0.29458577661800328 0 -0.036972560777928667 -0.30916948090557012 0 -0.019605274397407221 -0.2958009330783074 0 -0.036972560777928667 -0.30916948090557012 0 -0.019605274397407221 -0.2958009330783074 0 -0.023643486807048399 -0.3164072076795002 0 -0.01015230826722947 -0.30531756142460581 0 -0.019605274397407221 -0.2958009330783074 0 -0.023643486807048399 -0.3164072076795002 0 -0.01015230826722947 -0.30531756142460581 0 -0.006874801029324893 -0.31640872816515009 0 0.0038587525422454482 -0.3035314975908503 0 -0.01015230826722947 -0.30531756142460581 0 -0.0044967316446123057 -0.29443944060922089 0 0.0038587525422454482 -0.3035314975908503 0 -0.01015230826722947 -0.30531756142460581 0 -0.0044967316446123057 -0.29443944060922089 0 -0.019605274397407221 -0.2958009330783074 0 -0.0044967316446123057 -0.29443944060922089 0 -0.019605274397407221 -0.2958009330783074 0 -0.007659766097520733 -0.27730359903353191 0 -0.0044967316446123057 -0.29443944060922089 0 -0.007659766097520733 -0.27730359903353191 0 0.005503686992996748 -0.28867369798978548 0 -0.041407200753535232 -0.29458577661800328 0 -0.019605274397407221 -0.2958009330783074 0 -0.02948267860370752 -0.27727088724591659 0 -0.019605274397407221 -0.2958009330783074 0 -0.02948267860370752 -0.27727088724591659 0 -0.007659766097520733 -0.27730359903353191 0 -0.02948267860370752 -0.27727088724591659 0 -0.007659766097520733 -0.27730359903353191 0 -0.026420855097796361 -0.26339377136537401 0 -0.02948267860370752 -0.27727088724591659 0 -0.007659766097520733 -0.27730359903353191 0 -0.007659766097520733 -0.27730359903353191 0 -0.016865782978689219 -0.25155655483064587 0 0.0011525424753294591 -0.25402225885389901 0 -0.035048457109909108 -0.25191726237852002 0 -0.026420855097796361 -0.26339377136537401 0 -0.016865782978689219 -0.25155655483064587 0 -0.007659766097520733 -0.27730359903353191 0 -0.026420855097796361 -0.26339377136537401 0 -0.016865782978689219 -0.25155655483064587 0 -0.041265955965487273 -0.35838720968167792 0 -0.0270463542931169 -0.35682641868588172 0 -0.041265955965487273 -0.35838720968167792 0 -0.038207620649865423 -0.36116339410175757 0 -0.0270463542931169 -0.35682641868588172 0 -0.041265955965487273 -0.35838720968167792 0 -0.040271829696856033 -0.34346915757510521 0 -0.0270463542931169 -0.35682641868588172 0 -0.033853138425284243 -0.36482044384625051 0 -0.051211351896934772 -0.3813448173199645 0 -0.041265955965487273 -0.35838720968167792 0 -0.038207620649865423 -0.36116339410175757 0 -0.057846643983417753 -0.36020716140456588 0 -0.033853138425284243 -0.36482044384625051 0 -0.038207620649865423 -0.36116339410175757 0 -0.027184942681246702 -0.35847256956470619 0 -0.033853138425284243 -0.36482044384625051 0 -0.038207620649865423 -0.36116339410175757 0 -0.051211351896934772 -0.3813448173199645 0 -0.033853138425284243 -0.36482044384625051 0 -0.028137009231862731 -0.36978120234553857 0 -0.051211351896934772 -0.3813448173199645 0 -0.033853138425284243 -0.36482044384625051 0 -0.038207620649865423 -0.36116339410175757 0 -0.041265955965487273 -0.35838720968167792 0 -0.038207620649865423 -0.36116339410175757 0 -0.064714529046046937 -0.36783109671318298 0 -0.038207620649865423 -0.36116339410175757 0 -0.064714529046046937 -0.36783109671318298 0 -0.038207620649865423 -0.36116339410175757 0 -0.051211351896934772 -0.3813448173199645 0 -0.064714529046046937 -0.36783109671318298 0 -0.038207620649865423 -0.36116339410175757 0 -0.057846643983417753 -0.36020716140456588 0 -0.063907620372778362 -0.33873757872587718 0 -0.041265955965487273 -0.35838720968167792 0 -0.040271829696856033 -0.34346915757510521 0 -0.063907620372778362 -0.33873757872587718 0 -0.041265955965487273 -0.35838720968167792 0 -0.057846643983417753 -0.36020716140456588 0 -0.041265955965487273 -0.35838720968167792 0 -0.057846643983417753 -0.36020716140456588 0 -0.063907620372778362 -0.33873757872587718 0 -0.041265955965487273 -0.35838720968167792 0 -0.063907620372778362 -0.33873757872587718 0 -0.043794297302813437 -0.32677776759939797 0 -0.040271829696856033 -0.34346915757510521 0 -0.063907620372778362 -0.33873757872587718 0 -0.056412544628839142 -0.31227571955264127 0 -0.043794297302813437 -0.32677776759939797 0 -0.056412544628839142 -0.31227571955264127 0 -0.036972560777928667 -0.30916948090557012 0 -0.043794297302813437 -0.32677776759939797 0 -0.036972560777928667 -0.30916948090557012 0 -0.043794297302813437 -0.32677776759939797 0 -0.023643486807048399 -0.3164072076795002 0 -0.043794297302813437 -0.32677776759939797 0 -0.040271829696856033 -0.34346915757510521 0 -0.02534492055008249 -0.33661681318269088 0 -0.02534492055008249 -0.33661681318269088 0 -0.016295624695796661 -0.33336691580552802 0 -0.023643486807048399 -0.3164072076795002 0 -0.016295624695796661 -0.33336691580552802 0 -0.0118589636387563 -0.34050174642748821 0 -0.021158856492167449 -0.34478819308655673 0 -0.02534492055008249 -0.33661681318269088 0 -0.016295624695796661 -0.33336691580552802 0 -0.021158856492167449 -0.34478819308655673 0 -0.02534492055008249 -0.33661681318269088 0 -0.023643486807048399 -0.3164072076795002 0 -0.016295624695796661 -0.33336691580552802 0 -0.023643486807048399 -0.3164072076795002 0 -0.011172057792584379 -0.32664382078920812 0 -0.043794297302813437 -0.32677776759939797 0 -0.02534492055008249 -0.33661681318269088 0 -0.023643486807048399 -0.3164072076795002 0 -0.01015230826722947 -0.30531756142460581 0 -0.023643486807048399 -0.3164072076795002 0 -0.006874801029324893 -0.31640872816515009 0 -0.023643486807048399 -0.3164072076795002 0 -0.011172057792584379 -0.32664382078920812 0 -0.006874801029324893 -0.31640872816515009 0 -0.011172057792584379 -0.32664382078920812 0 -0.0023950513030178838 -0.32446824470888092 0 -0.006874801029324893 -0.31640872816515009 0 -0.0023950513030178838 -0.32446824470888092 0 -0.006874801029324893 -0.31640872816515009 0 0.00316616829166068 -0.31649898778082353 0 -0.016295624695796661 -0.33336691580552802 0 -0.0118589636387563 -0.34050174642748821 0 -0.0063306236191043898 -0.33862003362915588 0 -0.0118589636387563 -0.34050174642748821 0 -0.0063306236191043898 -0.33862003362915588 0 -0.016295624695796661 -0.33336691580552802 0 -0.011172057792584379 -0.32664382078920812 0 -0.0063306236191043898 -0.33862003362915588 0 -0.011172057792584379 -0.32664382078920812 0 -0.0023950513030178838 -0.32446824470888092 0 -0.0063306236191043898 -0.33862003362915588 0 -0.0038194374425436009 -0.35427695467727288 0 -0.025248419283084179 -0.35662907133119648 0 -0.0063306236191043898 -0.33862003362915588 0 -0.0038194374425436009 -0.35427695467727288 0 -0.025248419283084179 -0.35662907133119648 0 -0.0118589636387563 -0.34050174642748821 0 -0.0063306236191043898 -0.33862003362915588 0 -0.025248419283084179 -0.35662907133119648 0 -0.0063306236191043898 -0.33862003362915588 0 -0.0038194374425436009 -0.35427695467727288 0 0.0064188652240442382 -0.34387000388206029 0 -0.02534492055008249 -0.33661681318269088 0 -0.021158856492167449 -0.34478819308655673 0 -0.0270463542931169 -0.35682641868588172 0 -0.040271829696856033 -0.34346915757510521 0 -0.02534492055008249 -0.33661681318269088 0 -0.0270463542931169 -0.35682641868588172 0 -0.0118589636387563 -0.34050174642748821 0 -0.021158856492167449 -0.34478819308655673 0 -0.025248419283084179 -0.35662907133119648 0 -0.0038194374425436009 -0.35427695467727288 0 -0.025248419283084179 -0.35662907133119648 0 -0.019285236458519279 -0.36483203409878517 0 -0.0063306236191043898 -0.33862003362915588 0 -0.025248419283084179 -0.35662907133119648 0 -0.02534492055008249 -0.33661681318269088 0 -0.0270463542931169 -0.35682641868588172 0 -0.021158856492167449 -0.34478819308655673 0 -0.025248419283084179 -0.35662907133119648 0 -0.0270463542931169 -0.35682641868588172 0 -0.038207620649865423 -0.36116339410175757 0 -0.0270463542931169 -0.35682641868588172 0 -0.027184942681246702 -0.35847256956470619 0 -0.025248419283084179 -0.35662907133119648 0 -0.0270463542931169 -0.35682641868588172 0 -0.027184942681246702 -0.35847256956470619 0 -0.025248419283084179 -0.35662907133119648 0 -0.0270463542931169 -0.35682641868588172 0 -0.025248419283084179 -0.35662907133119648 0 -0.027184942681246702 -0.35847256956470619 0 -0.0270463542931169 -0.35682641868588172 0 -0.027184942681246702 -0.35847256956470619 0 -0.028137009231862731 -0.36978120234553857 0 -0.019285236458519279 -0.36483203409878517 0 -0.01552580488710802 -0.38072587084803577 0 -0.033853138425284243 -0.36482044384625051 0 -0.028137009231862731 -0.36978120234553857 0 -0.027184942681246702 -0.35847256956470619 0 -0.028137009231862731 -0.36978120234553857 0 -0.033853138425284243 -0.36482044384625051 0 -0.027184942681246702 -0.35847256956470619 0 -0.028137009231862731 -0.36978120234553857 0 -0.025248419283084179 -0.35662907133119648 0 -0.027184942681246702 -0.35847256956470619 0 -0.019285236458519279 -0.36483203409878517 0 -0.027184942681246702 -0.35847256956470619 0 -0.028137009231862731 -0.36978120234553857 0 -0.019285236458519279 -0.36483203409878517 0 -0.033853138425284243 -0.36482044384625051 0 -0.027184942681246702 -0.35847256956470619 0 -0.0038194374425436009 -0.35427695467727288 0 -0.019285236458519279 -0.36483203409878517 0 -0.0031843836336449141 -0.36716811219189388 0 -0.019285236458519279 -0.36483203409878517 0 -0.0031843836336449141 -0.36716811219189388 0 -0.01552580488710802 -0.38072587084803577 0 -0.0038194374425436009 -0.35427695467727288 0 -0.0031843836336449141 -0.36716811219189388 0 0.0051109748368537104 -0.35969907599973627 0 -0.0031843836336449141 -0.36716811219189388 0 -0.01552580488710802 -0.38072587084803577 0 0.0020668076532185391 -0.3789279601895158 0 -0.01552580488710802 -0.38072587084803577 0 -0.0029146005423548731 -0.39167053935053459 0 0.0020668076532185391 -0.3789279601895158 0 -0.01552580488710802 -0.38072587084803577 0 -0.0029146005423548731 -0.39167053935053459 0 -0.015189302499733629 -0.39375034392850539 0 -0.01552580488710802 -0.38072587084803577 0 -0.0029146005423548731 -0.39167053935053459 0 -0.0029146005423548731 -0.39167053935053459 0 -0.01178177608227195 -0.40434012498079769 0 0.0017671959354303159 -0.41302610832241587 0 -0.0029146005423548731 -0.39167053935053459 0 -0.015189302499733629 -0.39375034392850539 0 -0.01178177608227195 -0.40434012498079769 0 -0.015189302499733629 -0.39375034392850539 0 -0.01178177608227195 -0.40434012498079769 0 -0.030535028487199668 -0.3982648405346535 0 -0.01552580488710802 -0.38072587084803577 0 -0.015189302499733629 -0.39375034392850539 0 -0.030535028487199668 -0.3982648405346535 0 -0.028137009231862731 -0.36978120234553857 0 -0.030535028487199668 -0.3982648405346535 0 -0.028137009231862731 -0.36978120234553857 0 -0.01552580488710802 -0.38072587084803577 0 -0.030535028487199668 -0.3982648405346535 0 -0.028137009231862731 -0.36978120234553857 0 -0.01552580488710802 -0.38072587084803577 0 -0.028137009231862731 -0.36978120234553857 0 -0.030535028487199668 -0.3982648405346535 0 -0.051211351896934772 -0.3813448173199645 0 -0.030535028487199668 -0.3982648405346535 0 -0.049576990995995517 -0.40044090182345632 0 -0.051211351896934772 -0.3813448173199645 0 -0.049576990995995517 -0.40044090182345632 0 -0.060184747874905922 -0.41661789582992398 0 -0.068569565368585217 -0.39786919079367877 0 -0.049576990995995517 -0.40044090182345632 0 -0.051211351896934772 -0.3813448173199645 0 -0.068569565368585217 -0.39786919079367877 0 -0.051211351896934772 -0.3813448173199645 0 -0.065216745319830682 -0.38254388002390138 0 -0.068569565368585217 -0.39786919079367877 0 -0.051211351896934772 -0.3813448173199645 0 -0.068569565368585217 -0.39786919079367877 0 -0.064714529046046937 -0.36783109671318298 0 -0.051211351896934772 -0.3813448173199645 0 -0.065216745319830682 -0.38254388002390138 0 -0.059190335072204163 -0.43713204334124561 0 -0.032933047742534353 -0.42674847872376842 0 -0.050555792656941413 -0.44269234369948152 0 -0.059190335072204163 -0.43713204334124561 0 -0.060184747874905922 -0.41661789582992398 0 -0.032933047742534353 -0.42674847872376842 0 -0.049576990995995517 -0.40044090182345632 0 -0.060184747874905922 -0.41661789582992398 0 -0.032933047742534353 -0.42674847872376842 0 -0.030535028487199668 -0.3982648405346535 0 -0.032933047742534353 -0.42674847872376842 0 -0.030535028487199668 -0.3982648405346535 0 -0.049576990995995517 -0.40044090182345632 0 -0.032933047742534353 -0.42674847872376842 0 -0.059190335072204163 -0.43713204334124561 0 -0.032933047742534353 -0.42674847872376842 0 -0.032933047742534353 -0.42674847872376842 0 -0.01558292590355349 -0.41988729352308829 0 -0.032933047742534353 -0.42674847872376842 0 -0.01558292590355349 -0.41988729352308829 0 -0.021210529124396069 -0.43848534398943229 0 -0.030535028487199668 -0.3982648405346535 0 -0.032933047742534353 -0.42674847872376842 0 -0.01558292590355349 -0.41988729352308829 0 -0.01178177608227195 -0.40434012498079769 0 -0.030535028487199668 -0.3982648405346535 0 -0.01558292590355349 -0.41988729352308829 0 -0.01558292590355349 -0.41988729352308829 0 0.0017671959354303159 -0.41302610832241587 0 -0.01178177608227195 -0.40434012498079769 0 -0.01558292590355349 -0.41988729352308829 0 0.0017671959354303159 -0.41302610832241587 0 -0.0045755436354636501 -0.44201740554827712 0 0.0017671959354303159 -0.41302610832241587 0 -0.01558292590355349 -0.41988729352308829 0 -0.0045755436354636501 -0.44201740554827712 0 0.0017671959354303159 -0.41302610832241587 0 -0.01558292590355349 -0.41988729352308829 0 -0.0045755436354636501 -0.44201740554827712 0 -0.021210529124396069 -0.43848534398943229 0 -0.0045755436354636501 -0.44201740554827712 0 -0.01895509754258037 -0.45340029297480711 0 -0.021210529124396069 -0.43848534398943229 0 -0.0045755436354636501 -0.44201740554827712 0 -0.01895509754258037 -0.45340029297480711 0 -0.01091828320635994 -0.47100870277413781 0 -0.0045755436354636501 -0.44201740554827712 0 -0.01091828320635994 -0.47100870277413781 0 -0.01895509754258037 -0.45340029297480711 0 -0.03704438018156446 -0.47558282624125481 0 -0.034988713962048557 -0.45116565248251173 0 -0.01895509754258037 -0.45340029297480711 0 -0.01091828320635994 -0.47100870277413781 0 -0.03704438018156446 -0.47558282624125481 0 -0.032933047742534353 -0.42674847872376842 0 -0.021210529124396069 -0.43848534398943229 0 -0.034988713962048557 -0.45116565248251173 0 -0.01895509754258037 -0.45340029297480711 0 -0.021210529124396069 -0.43848534398943229 0 -0.034988713962048557 -0.45116565248251173 0 -0.01091828320635994 -0.47100870277413781 0 -0.017261022777255941 -0.49999999999999861 0 0.0099677452223301266 -0.5 0 -0.01091828320635994 -0.47100870277413781 0 -0.017261022777255941 -0.49999999999999861 0 -0.01091828320635994 -0.47100870277413781 0 -0.017261022777255941 -0.49999999999999861 0 -0.03704438018156446 -0.47558282624125481 0 -0.017261022777255941 -0.49999999999999861 0 -0.039100046401080168 -0.49999999999999772 0 -0.03704438018156446 -0.47558282624125481 0 -0.039100046401080168 -0.49999999999999772 0 -0.03704438018156446 -0.47558282624125481 0 -0.056700033782137838 -0.48061473446314762 0 -0.039100046401080168 -0.49999999999999772 0 -0.03704438018156446 -0.47558282624125481 0 -0.03704438018156446 -0.47558282624125481 0 -0.056700033782137838 -0.48061473446314762 0 -0.049665841179463009 -0.45719477271924952 0 -0.039100046401080168 -0.49999999999999772 0 -0.056700033782137838 -0.48061473446314762 0 -0.064950628364691676 -0.5 0 -0.032933047742534353 -0.42674847872376842 0 -0.034988713962048557 -0.45116565248251173 0 -0.050555792656941413 -0.44269234369948152 0 -0.032933047742534353 -0.42674847872376842 0 -0.034988713962048557 -0.45116565248251173 0 -0.034988713962048557 -0.45116565248251173 0 -0.049665841179463009 -0.45719477271924952 0 -0.050555792656941413 -0.44269234369948152 0 -0.03704438018156446 -0.47558282624125481 0 -0.034988713962048557 -0.45116565248251173 0 -0.049665841179463009 -0.45719477271924952 0 -0.03704438018156446 -0.47558282624125481 0 -0.034988713962048557 -0.45116565248251173 0 -0.056700033782137838 -0.48061473446314762 0 -0.049665841179463009 -0.45719477271924952 0 -0.0689637418483766 -0.46028635096776749 0 -0.049665841179463009 -0.45719477271924952 0 -0.06125515291093115 -0.45150925186949609 0 -0.0689637418483766 -0.46028635096776749 0 -0.049665841179463009 -0.45719477271924952 0 -0.06125515291093115 -0.45150925186949609 0 -0.057846723050667549 -0.44474508129675799 0 -0.06125515291093115 -0.45150925186949609 0 -0.057846723050667549 -0.44474508129675799 0 -0.068381666034694866 -0.44363450758625023 0 -0.049665841179463009 -0.45719477271924952 0 -0.050555792656941413 -0.44269234369948152 0 -0.057846723050667549 -0.44474508129675799 0 -0.059190335072204163 -0.43713204334124561 0 -0.050555792656941413 -0.44269234369948152 0 -0.059190335072204163 -0.43713204334124561 0 -0.057846723050667549 -0.44474508129675799 0 -0.068381666034694866 -0.44363450758625023 0 -0.059190335072204163 -0.43713204334124561 0 -0.050555792656941413 -0.44269234369948152 0 -0.057846723050667549 -0.44474508129675799 0 -0.068381666034694866 -0.44363450758625023 0 -0.0689637418483766 -0.46028635096776749 0 -0.082417160787648436 -0.44340236241596243 0 -0.06125515291093115 -0.45150925186949609 0 -0.068381666034694866 -0.44363450758625023 0 -0.0689637418483766 -0.46028635096776749 0 -0.0689637418483766 -0.46028635096776749 0 -0.092931637442686968 -0.45444687988399618 0 -0.080482282777976685 -0.47937614275998119 0 -0.092931637442686968 -0.45444687988399618 0 -0.082417160787648436 -0.44340236241596243 0 -0.10018451180478009 -0.43574250425256161 0 -0.0689637418483766 -0.46028635096776749 0 -0.092931637442686968 -0.45444687988399618 0 -0.082417160787648436 -0.44340236241596243 0 -0.056700033782137838 -0.48061473446314762 0 -0.064950628364691676 -0.5 0 -0.080482282777976685 -0.47937614275998119 0 -0.056700033782137838 -0.48061473446314762 0 -0.0689637418483766 -0.46028635096776749 0 -0.080482282777976685 -0.47937614275998119 0 -0.092931637442686968 -0.45444687988399618 0 -0.080482282777976685 -0.47937614275998119 0 -0.10502714538534701 -0.47842288295437913 0 -0.080482282777976685 -0.47937614275998119 0 -0.090801210328303128 -0.5 0 -0.10502714538534701 -0.47842288295437913 0 -0.064950628364691676 -0.5 0 -0.080482282777976685 -0.47937614275998119 0 -0.090801210328303128 -0.5 0 -0.090801210328303128 -0.5 0 -0.10502714538534701 -0.47842288295437913 0 -0.11665179229191459 -0.5 0 -0.1301075188714336 -0.4791343752538898 0 -0.10502714538534701 -0.47842288295437913 0 -0.1185340959474431 -0.45696101915812248 0 -0.1301075188714336 -0.4791343752538898 0 -0.10502714538534701 -0.47842288295437913 0 -0.11665179229191459 -0.5 0 -0.092931637442686968 -0.45444687988399618 0 -0.1185340959474431 -0.45696101915812248 0 -0.10018451180478009 -0.43574250425256161 0 -0.092931637442686968 -0.45444687988399618 0 -0.1185340959474431 -0.45696101915812248 0 -0.092931637442686968 -0.45444687988399618 0 -0.10502714538534701 -0.47842288295437913 0 -0.1185340959474431 -0.45696101915812248 0 -0.1185340959474431 -0.45696101915812248 0 -0.1220846397002827 -0.42868852605054092 0 -0.10018451180478009 -0.43574250425256161 0 -0.1220846397002827 -0.42868852605054092 0 -0.10018451180478009 -0.43574250425256161 0 -0.099353929970188271 -0.41126829279616411 0 -0.1220846397002827 -0.42868852605054092 0 -0.099353929970188271 -0.41126829279616411 0 -0.1244761680843726 -0.41219526256412958 0 -0.099353929970188271 -0.41126829279616411 0 -0.1244761680843726 -0.41219526256412958 0 -0.1194357274191802 -0.39833641752362292 0 -0.099353929970188271 -0.41126829279616411 0 -0.1194357274191802 -0.39833641752362292 0 -0.1194357274191802 -0.39833641752362292 0 -0.1177283458384101 -0.38116650193603391 0 -0.097868819284283814 -0.39388523870646819 0 -0.091221437442228492 -0.37449879932460839 0 -0.1177283458384101 -0.38116650193603391 0 -0.097868819284283814 -0.39388523870646819 0 -0.091221437442228492 -0.37449879932460839 0 -0.1177283458384101 -0.38116650193603391 0 -0.1194357274191802 -0.39833641752362292 0 -0.097868819284283814 -0.39388523870646819 0 -0.099353929970188271 -0.41126829279616411 0 -0.1194357274191802 -0.39833641752362292 0 -0.097868819284283814 -0.39388523870646819 0 -0.097868819284283814 -0.39388523870646819 0 -0.083693013510483263 -0.39936184681345632 0 -0.076371534967755811 -0.38313041526877928 0 -0.099353929970188271 -0.41126829279616411 0 -0.097868819284283814 -0.39388523870646819 0 -0.083693013510483263 -0.39936184681345632 0 -0.083693013510483263 -0.39936184681345632 0 -0.068569565368585217 -0.39786919079367877 0 -0.085927778840235614 -0.41439356426739299 0 -0.091221437442228492 -0.37449879932460839 0 -0.097868819284283814 -0.39388523870646819 0 -0.076371534967755811 -0.38313041526877928 0 -0.064714529046046937 -0.36783109671318298 0 -0.091221437442228492 -0.37449879932460839 0 -0.076371534967755811 -0.38313041526877928 0 -0.076371534967755811 -0.38313041526877928 0 -0.065216745319830682 -0.38254388002390138 0 -0.068569565368585217 -0.39786919079367877 0 -0.064714529046046937 -0.36783109671318298 0 -0.076371534967755811 -0.38313041526877928 0 -0.065216745319830682 -0.38254388002390138 0 -0.068569565368585217 -0.39786919079367877 0 -0.085927778840235614 -0.41439356426739299 0 -0.083693013510483263 -0.39936184681345632 0 -0.076371534967755811 -0.38313041526877928 0 -0.068569565368585217 -0.39786919079367877 0 -0.060184747874905922 -0.41661789582992398 0 -0.068569565368585217 -0.39786919079367877 0 -0.072809714333469777 -0.41265232488693893 0 -0.060184747874905922 -0.41661789582992398 0 -0.072809714333469777 -0.41265232488693893 0 -0.079272132521196303 -0.42420016806870497 0 -0.068569565368585217 -0.39786919079367877 0 -0.072809714333469777 -0.41265232488693893 0 -0.085927778840235614 -0.41439356426739299 0 -0.059190335072204163 -0.43713204334124561 0 -0.060184747874905922 -0.41661789582992398 0 -0.079272132521196303 -0.42420016806870497 0 -0.059190335072204163 -0.43713204334124561 0 -0.068381666034694866 -0.44363450758625023 0 -0.079272132521196303 -0.42420016806870497 0 -0.059190335072204163 -0.43713204334124561 0 -0.079272132521196303 -0.42420016806870497 0 -0.068381666034694866 -0.44363450758625023 0 -0.082417160787648436 -0.44340236241596243 0 -0.079272132521196303 -0.42420016806870497 0 -0.10018451180478009 -0.43574250425256161 0 -0.099353929970188271 -0.41126829279616411 0 -0.079272132521196303 -0.42420016806870497 0 -0.082417160787648436 -0.44340236241596243 0 -0.10018451180478009 -0.43574250425256161 0 -0.079272132521196303 -0.42420016806870497 0 -0.099353929970188271 -0.41126829279616411 0 -0.083693013510483263 -0.39936184681345632 0 -0.085927778840235614 -0.41439356426739299 0 -0.099353929970188271 -0.41126829279616411 0 -0.079272132521196303 -0.42420016806870497 0 -0.099353929970188271 -0.41126829279616411 0 -0.079272132521196303 -0.42420016806870497 0 -0.085927778840235614 -0.41439356426739299 0 -0.072809714333469777 -0.41265232488693893 0 -0.079272132521196303 -0.42420016806870497 0 -0.085927778840235614 -0.41439356426739299 0 -0.081124598612676346 -0.075262621501231197 0 -0.096852973269959244 -0.084482249925074304 0 -0.081124598612676346 -0.075262621501231197 0 -0.071090390375310869 -0.092980974564840418 0 -0.096852973269959244 -0.084482249925074304 0 -0.071090390375310869 -0.092980974564840418 0 -0.075294111652356638 -0.1027141926603041 0 -0.096852973269959244 -0.084482249925074304 0 -0.071090390375310869 -0.092980974564840418 0 -0.096852973269959244 -0.084482249925074304 0 -0.086085921632480661 -0.068435428128511749 0 -0.081124598612676346 -0.075262621501231197 0 -0.096852973269959244 -0.084482249925074304 0 -0.086085921632480661 -0.068435428128511749 0 -0.096852973269959244 -0.084482249925074304 0 -0.094771295438461925 -0.061579509322351081 0 -0.086085921632480661 -0.068435428128511749 0 -0.094771295438461925 -0.061579509322351081 0 -0.080411853612762776 -0.057585684044365447 0 -0.086085921632480661 -0.068435428128511749 0 -0.072307564208738559 -0.070094269222255756 0 -0.080411853612762776 -0.057585684044365447 0 -0.086085921632480661 -0.068435428128511749 0 -0.081124598612676346 -0.075262621501231197 0 -0.072307564208738559 -0.070094269222255756 0 -0.081124598612676346 -0.075262621501231197 0 -0.059614315755328502 -0.071859302088391239 0 -0.081124598612676346 -0.075262621501231197 0 -0.072307564208738559 -0.070094269222255756 0 -0.081124598612676346 -0.075262621501231197 0 -0.072307564208738559 -0.070094269222255756 0 -0.059614315755328502 -0.071859302088391239 0 -0.081124598612676346 -0.075262621501231197 0 -0.069183463222557723 -0.080338574658262454 0 -0.059614315755328502 -0.071859302088391239 0 -0.069183463222557723 -0.080338574658262454 0 -0.071090390375310869 -0.092980974564840418 0 -0.058918580158548263 -0.082283653832872089 0 -0.081124598612676346 -0.075262621501231197 0 -0.069183463222557723 -0.080338574658262454 0 -0.071090390375310869 -0.092980974564840418 0 -0.069183463222557723 -0.080338574658262454 0 -0.058918580158548263 -0.082283653832872089 0 -0.059614315755328502 -0.071859302088391239 0 -0.075294111652356638 -0.1027141926603041 0 -0.068552626814409184 -0.11165328744952541 0 -0.058403859310011269 -0.11067654833049211 0 -0.071090390375310869 -0.092980974564840418 0 -0.075294111652356638 -0.1027141926603041 0 -0.045327807480662341 -0.10147969920460639 0 -0.065065546519775627 -0.1187474314572502 0 -0.073597715826568599 -0.1245578533939206 0 -0.064498805031184242 -0.13094026206350751 0 -0.065065546519775627 -0.1187474314572502 0 -0.068552626814409184 -0.11165328744952541 0 -0.076584167634396433 -0.11570412287365241 0 -0.065065546519775627 -0.1187474314572502 0 -0.068552626814409184 -0.11165328744952541 0 -0.058403859310011269 -0.11067654833049211 0 -0.075294111652356638 -0.1027141926603041 0 -0.068552626814409184 -0.11165328744952541 0 -0.076584167634396433 -0.11570412287365241 0 -0.076584167634396433 -0.11570412287365241 0 -0.073597715826568599 -0.1245578533939206 0 -0.082124736204948756 -0.12473520456349139 0 -0.065065546519775627 -0.1187474314572502 0 -0.076584167634396433 -0.11570412287365241 0 -0.073597715826568599 -0.1245578533939206 0 -0.082124736204948756 -0.12473520456349139 0 -0.089726829290429216 -0.11669277882050939 0 -0.091377109090662267 -0.13248652794303489 0 -0.076584167634396433 -0.11570412287365241 0 -0.082124736204948756 -0.12473520456349139 0 -0.089726829290429216 -0.11669277882050939 0 -0.076584167634396433 -0.11570412287365241 0 -0.089726829290429216 -0.11669277882050939 0 -0.089200483354689941 -0.1102766940533103 0 -0.075294111652356638 -0.1027141926603041 0 -0.076584167634396433 -0.11570412287365241 0 -0.089200483354689941 -0.1102766940533103 0 -0.089726829290429216 -0.11669277882050939 0 -0.089200483354689941 -0.1102766940533103 0 -0.099554623085647082 -0.1127564266653908 0 -0.075294111652356638 -0.1027141926603041 0 -0.1052604158240511 -0.1039486861160014 0 -0.075294111652356638 -0.1027141926603041 0 -0.1052604158240511 -0.1039486861160014 0 -0.096852973269959244 -0.084482249925074304 0 -0.075294111652356638 -0.1027141926603041 0 -0.089200483354689941 -0.1102766940533103 0 -0.1052604158240511 -0.1039486861160014 0 -0.089200483354689941 -0.1102766940533103 0 -0.1052604158240511 -0.1039486861160014 0 -0.099554623085647082 -0.1127564266653908 0 -0.1052604158240511 -0.1039486861160014 0 -0.099554623085647082 -0.1127564266653908 0 -0.11521125713739901 -0.11211541922073411 0 -0.099554623085647082 -0.1127564266653908 0 -0.1020167416427827 -0.1245220206167555 0 -0.11521125713739901 -0.11211541922073411 0 -0.089726829290429216 -0.11669277882050939 0 -0.1020167416427827 -0.1245220206167555 0 -0.091377109090662267 -0.13248652794303489 0 -0.089726829290429216 -0.11669277882050939 0 -0.099554623085647082 -0.1127564266653908 0 -0.1020167416427827 -0.1245220206167555 0 -0.1020167416427827 -0.1245220206167555 0 -0.11521125713739901 -0.11211541922073411 0 -0.1126512203982754 -0.13402095314151721 0 -0.11521125713739901 -0.11211541922073411 0 -0.1126512203982754 -0.13402095314151721 0 -0.12885287378670199 -0.12870177913502259 0 -0.11521125713739901 -0.11211541922073411 0 -0.1126512203982754 -0.13402095314151721 0 -0.1190208162526756 -0.097476553514102893 0 -0.10810370209217 -0.09107718052015408 0 -0.1052604158240511 -0.1039486861160014 0 -0.1190208162526756 -0.097476553514102893 0 -0.10810370209217 -0.09107718052015408 0 -0.1052604158240511 -0.1039486861160014 0 -0.11521125713739901 -0.11211541922073411 0 -0.1190208162526756 -0.097476553514102893 0 -0.1190208162526756 -0.097476553514102893 0 -0.1206626991235149 -0.088603031808348678 0 -0.13438771434621749 -0.095325348308713587 0 -0.1206626991235149 -0.088603031808348678 0 -0.11322188293717809 -0.079082369933081098 0 -0.12820128338446271 -0.080698726801713389 0 -0.1206626991235149 -0.088603031808348678 0 -0.11322188293717809 -0.079082369933081098 0 -0.10810370209217 -0.09107718052015408 0 -0.1190208162526756 -0.097476553514102893 0 -0.1206626991235149 -0.088603031808348678 0 -0.10810370209217 -0.09107718052015408 0 -0.10810370209217 -0.09107718052015408 0 -0.096852973269959244 -0.084482249925074304 0 -0.10810370209217 -0.09107718052015408 0 -0.10446171996540821 -0.081972228189956628 0 -0.1052604158240511 -0.1039486861160014 0 -0.10810370209217 -0.09107718052015408 0 -0.096852973269959244 -0.084482249925074304 0 -0.11322188293717809 -0.079082369933081098 0 -0.10810370209217 -0.09107718052015408 0 -0.10446171996540821 -0.081972228189956628 0 -0.10810370209217 -0.09107718052015408 0 -0.10446171996540821 -0.081972228189956628 0 -0.096852973269959244 -0.084482249925074304 0 -0.11322188293717809 -0.079082369933081098 0 -0.10446171996540821 -0.081972228189956628 0 -0.10446171996540821 -0.081972228189956628 0 -0.096852973269959244 -0.084482249925074304 0 -0.10446171996540821 -0.081972228189956628 0 -0.096852973269959244 -0.084482249925074304 0 -0.094771295438461925 -0.061579509322351081 0 -0.10446171996540821 -0.081972228189956628 0 -0.094771295438461925 -0.061579509322351081 0 -0.10446171996540821 -0.081972228189956628 0 -0.10969139087410661 -0.066720148875711441 0 -0.094771295438461925 -0.061579509322351081 0 -0.11322188293717809 -0.079082369933081098 0 -0.10446171996540821 -0.081972228189956628 0 -0.10969139087410661 -0.066720148875711441 0 -0.10969139087410661 -0.066720148875711441 0 -0.1231042230056449 -0.067893890505278651 0 -0.1181845702790487 -0.054650818724079377 0 -0.11322188293717809 -0.079082369933081098 0 -0.10969139087410661 -0.066720148875711441 0 -0.1231042230056449 -0.067893890505278651 0 -0.11322188293717809 -0.079082369933081098 0 -0.1231042230056449 -0.067893890505278651 0 -0.12820128338446271 -0.080698726801713389 0 -0.1181845702790487 -0.054650818724079377 0 -0.1097207679756103 -0.037473820846354512 0 -0.1058362068501368 -0.053687140597634131 0 -0.1231042230056449 -0.067893890505278651 0 -0.1181845702790487 -0.054650818724079377 0 -0.13183605743416019 -0.057206228931877483 0 -0.10969139087410661 -0.066720148875711441 0 -0.1181845702790487 -0.054650818724079377 0 -0.1058362068501368 -0.053687140597634131 0 -0.1097207679756103 -0.037473820846354512 0 -0.1254752102395226 -0.02387586125605223 0 -0.13291481795073021 -0.040595139210783997 0 -0.1181845702790487 -0.054650818724079377 0 -0.1097207679756103 -0.037473820846354512 0 -0.13291481795073021 -0.040595139210783997 0 -0.1097207679756103 -0.037473820846354512 0 -0.094256241636896693 -0.025027743146965532 0 -0.085080870911514631 -0.041186790454745978 0 -0.1097207679756103 -0.037473820846354512 0 -0.1058362068501368 -0.053687140597634131 0 -0.085080870911514631 -0.041186790454745978 0 -0.094771295438461925 -0.061579509322351081 0 -0.1058362068501368 -0.053687140597634131 0 -0.085080870911514631 -0.041186790454745978 0 -0.10969139087410661 -0.066720148875711441 0 -0.094771295438461925 -0.061579509322351081 0 -0.1058362068501368 -0.053687140597634131 0 -0.1100914040975015 -0.01701873411487664 0 -0.12824419707017101 -0.0061544405190142289 0 -0.1102120226283425 0.0013189151203505339 0 -0.1097207679756103 -0.037473820846354512 0 -0.1100914040975015 -0.01701873411487664 0 -0.1254752102395226 -0.02387586125605223 0 -0.1100914040975015 -0.01701873411487664 0 -0.12824419707017101 -0.0061544405190142289 0 -0.1254752102395226 -0.02387586125605223 0 -0.1097207679756103 -0.037473820846354512 0 -0.1100914040975015 -0.01701873411487664 0 -0.094256241636896693 -0.025027743146965532 0 -0.1100914040975015 -0.01701873411487664 0 -0.094256241636896693 -0.025027743146965532 0 -0.09099771881528973 -0.0086652987317095646 0 -0.1100914040975015 -0.01701873411487664 0 -0.09099771881528973 -0.0086652987317095646 0 -0.1102120226283425 0.0013189151203505339 0 -0.094256241636896693 -0.025027743146965532 0 -0.075390446384567364 -0.02079407158714093 0 -0.085080870911514631 -0.041186790454745978 0 -0.075390446384567364 -0.02079407158714093 0 -0.085080870911514631 -0.041186790454745978 0 -0.094256241636896693 -0.025027743146965532 0 -0.09099771881528973 -0.0086652987317095646 0 -0.075390446384567364 -0.02079407158714093 0 -0.075390446384567364 -0.02079407158714093 0 -0.063009862170064726 -0.01158444818936356 0 -0.057990357591495872 -0.01948025371388519 0 -0.075390446384567364 -0.02079407158714093 0 -0.064618613182754608 -0.034225522356931028 0 -0.057990357591495872 -0.01948025371388519 0 -0.075390446384567364 -0.02079407158714093 0 -0.065700021857620111 -0.0004013527195359909 0 -0.09099771881528973 -0.0086652987317095646 0 -0.075390446384567364 -0.02079407158714093 0 -0.065700021857620111 -0.0004013527195359909 0 -0.075390446384567364 -0.02079407158714093 0 -0.063009862170064726 -0.01158444818936356 0 -0.065700021857620111 -0.0004013527195359909 0 -0.094771295438461925 -0.061579509322351081 0 -0.085080870911514631 -0.041186790454745978 0 -0.094771295438461925 -0.061579509322351081 0 -0.080411853612762776 -0.057585684044365447 0 -0.085080870911514631 -0.041186790454745978 0 -0.085080870911514631 -0.041186790454745978 0 -0.064618613182754608 -0.034225522356931028 0 -0.066976231760348906 -0.050353561668845498 0 -0.075390446384567364 -0.02079407158714093 0 -0.085080870911514631 -0.041186790454745978 0 -0.064618613182754608 -0.034225522356931028 0 -0.080411853612762776 -0.057585684044365447 0 -0.085080870911514631 -0.041186790454745978 0 -0.066976231760348906 -0.050353561668845498 0 -0.072307564208738559 -0.070094269222255756 0 -0.080411853612762776 -0.057585684044365447 0 -0.066976231760348906 -0.050353561668845498 0 -0.066976231760348906 -0.050353561668845498 0 -0.047762155147517617 -0.055706288519437902 0 -0.050949745237986052 -0.043215454045265847 0 -0.072307564208738559 -0.070094269222255756 0 -0.066976231760348906 -0.050353561668845498 0 -0.047762155147517617 -0.055706288519437902 0 -0.064618613182754608 -0.034225522356931028 0 -0.066976231760348906 -0.050353561668845498 0 -0.050949745237986052 -0.043215454045265847 0 -0.064618613182754608 -0.034225522356931028 0 -0.050949745237986052 -0.043215454045265847 0 -0.048614511402846373 -0.030187472810999729 0 -0.050949745237986052 -0.043215454045265847 0 -0.038129724290061708 -0.039704694890325527 0 -0.041019603219489248 -0.049642502932155552 0 -0.050949745237986052 -0.043215454045265847 0 -0.038129724290061708 -0.039704694890325527 0 -0.048614511402846373 -0.030187472810999729 0 -0.038129724290061708 -0.039704694890325527 0 -0.048614511402846373 -0.030187472810999729 0 -0.036790012946692999 -0.028359430327172211 0 -0.038129724290061708 -0.039704694890325527 0 -0.036790012946692999 -0.028359430327172211 0 -0.023364799409706979 -0.037251471233443217 0 -0.038129724290061708 -0.039704694890325527 0 -0.041019603219489248 -0.049642502932155552 0 -0.0307944353691329 -0.052751336200628801 0 -0.040306691202952133 -0.057889378819319888 0 -0.041019603219489248 -0.049642502932155552 0 -0.0307944353691329 -0.052751336200628801 0 -0.040306691202952133 -0.057889378819319888 0 -0.0307944353691329 -0.052751336200628801 0 -0.038224071328558797 -0.068251201167814496 0 -0.025927543634211049 -0.060270896078869603 0 -0.0307944353691329 -0.052751336200628801 0 -0.038224071328558797 -0.068251201167814496 0 -0.0307944353691329 -0.052751336200628801 0 -0.038224071328558797 -0.068251201167814496 0 -0.047762155147517617 -0.055706288519437902 0 -0.040306691202952133 -0.057889378819319888 0 -0.046099308406182093 -0.063482640230147172 0 -0.047762155147517617 -0.055706288519437902 0 -0.050949745237986052 -0.043215454045265847 0 -0.041019603219489248 -0.049642502932155552 0 -0.047762155147517617 -0.055706288519437902 0 -0.040306691202952133 -0.057889378819319888 0 -0.041019603219489248 -0.049642502932155552 0 -0.05295862284657555 -0.0056621147368921439 0 -0.043599167229567401 -0.001303601033726523 0 -0.051893590747615993 0.0051029179958944557 0 -0.065700021857620111 -0.0004013527195359909 0 -0.05295862284657555 -0.0056621147368921439 0 -0.051893590747615993 0.0051029179958944557 0 -0.063009862170064726 -0.01158444818936356 0 -0.065700021857620111 -0.0004013527195359909 0 -0.05295862284657555 -0.0056621147368921439 0 -0.065700021857620111 -0.0004013527195359909 0 -0.05295862284657555 -0.0056621147368921439 0 -0.063009862170064726 -0.01158444818936356 0 -0.05295862284657555 -0.0056621147368921439 0 -0.057990357591495872 -0.01948025371388519 0 -0.05295862284657555 -0.0056621147368921439 0 -0.057990357591495872 -0.01948025371388519 0 -0.042584884768074469 -0.0156234538508925 0 -0.064618613182754608 -0.034225522356931028 0 -0.057990357591495872 -0.01948025371388519 0 -0.048614511402846373 -0.030187472810999729 0 -0.057990357591495872 -0.01948025371388519 0 -0.048614511402846373 -0.030187472810999729 0 -0.042584884768074469 -0.0156234538508925 0 -0.048614511402846373 -0.030187472810999729 0 -0.036790012946692999 -0.028359430327172211 0 -0.042584884768074469 -0.0156234538508925 0 -0.036790012946692999 -0.028359430327172211 0 -0.042584884768074469 -0.0156234538508925 0 -0.027448068353030659 -0.019599499840263278 0 -0.042584884768074469 -0.0156234538508925 0 -0.031531337296353323 -0.001947528447083103 0 -0.027448068353030659 -0.019599499840263278 0 -0.042584884768074469 -0.0156234538508925 0 -0.031531337296353323 -0.001947528447083103 0 -0.043599167229567401 -0.001303601033726523 0 -0.05295862284657555 -0.0056621147368921439 0 -0.042584884768074469 -0.0156234538508925 0 -0.043599167229567401 -0.001303601033726523 0 -0.031531337296353323 -0.001947528447083103 0 -0.027448068353030659 -0.019599499840263278 0 -0.031531337296353323 -0.001947528447083103 0 -0.027448068353030659 -0.019599499840263278 0 -0.014798988583469799 -0.019381294031465889 0 -0.031531337296353323 -0.001947528447083103 0 -0.014798988583469799 -0.019381294031465889 0 -0.031531337296353323 -0.001947528447083103 0 -0.014798988583469799 -0.019381294031465889 0 -0.019167548497112129 0.00067744676140998362 0 -0.014049925412458661 -0.031170867756926009 0 -0.014798988583469799 -0.019381294031465889 0 -0.023364799409706979 -0.037251471233443217 0 -0.036790012946692999 -0.028359430327172211 0 -0.027448068353030659 -0.019599499840263278 0 -0.023364799409706979 -0.037251471233443217 0 -0.027448068353030659 -0.019599499840263278 0 -0.023364799409706979 -0.037251471233443217 0 -0.027448068353030659 -0.019599499840263278 0 -0.014798988583469799 -0.019381294031465889 0 -0.023364799409706979 -0.037251471233443217 0 -0.014798988583469799 -0.019381294031465889 0 -0.023364799409706979 -0.037251471233443217 0 -0.014049925412458661 -0.031170867756926009 0 -0.012370994713612001 -0.025592112337569729 0 -0.014798988583469799 -0.019381294031465889 0 -0.012370994713612001 -0.025592112337569729 0 -0.0084348676524427062 -0.029562039631140461 0 -0.0075482713318171177 -0.025845351426134869 0 -0.012370994713612001 -0.025592112337569729 0 -0.0075482713318171177 -0.025845351426134869 0 -0.0081876115646682852 -0.02179932246020384 0 -0.014049925412458661 -0.031170867756926009 0 -0.012370994713612001 -0.025592112337569729 0 -0.0084348676524427062 -0.029562039631140461 0 -0.0084348676524427062 -0.029562039631140461 0 -0.0036761519041424271 -0.027715523352537609 0 -0.0075482713318171177 -0.025845351426134869 0 -0.0084348676524427062 -0.029562039631140461 0 -0.0048062469659389219 -0.031088960951297678 0 -0.0036761519041424271 -0.027715523352537609 0 -0.0048062469659389219 -0.031088960951297678 0 -0.0036761519041424271 -0.027715523352537609 0 -0.00080951620615256174 -0.032262252471264179 0 -0.0036761519041424271 -0.027715523352537609 0 -0.00080951620615256174 -0.032262252471264179 0 0.0019199568112456451 -0.026197442332365851 0 -0.0036761519041424271 -0.027715523352537609 0 -0.002617090876322458 -0.02209514416032652 0 0.0019199568112456451 -0.026197442332365851 0 -0.0036761519041424271 -0.027715523352537609 0 -0.0075482713318171177 -0.025845351426134869 0 -0.002617090876322458 -0.02209514416032652 0 -0.0075482713318171177 -0.025845351426134869 0 -0.002617090876322458 -0.02209514416032652 0 -0.0081876115646682852 -0.02179932246020384 0 -0.002617090876322458 -0.02209514416032652 0 -0.0051397743428687132 -0.01569841135217747 0 -0.0081876115646682852 -0.02179932246020384 0 -0.002617090876322458 -0.02209514416032652 0 -0.0051397743428687132 -0.01569841135217747 0 0.0055197688422246004 -0.018618313456572669 0 -0.0051397743428687132 -0.01569841135217747 0 -0.0081876115646682852 -0.02179932246020384 0 -0.014798988583469799 -0.019381294031465889 0 -0.012370994713612001 -0.025592112337569729 0 -0.0081876115646682852 -0.02179932246020384 0 -0.014798988583469799 -0.019381294031465889 0 -0.0051397743428687132 -0.01569841135217747 0 -0.014798988583469799 -0.019381294031465889 0 -0.0058121165389141572 -0.00063268993717582878 0 -0.014798988583469799 -0.019381294031465889 0 -0.0058121165389141572 -0.00063268993717582878 0 -0.014798988583469799 -0.019381294031465889 0 -0.0058121165389141572 -0.00063268993717582878 0 -0.019167548497112129 0.00067744676140998362 0 -0.0051397743428687132 -0.01569841135217747 0 -0.0058121165389141572 -0.00063268993717582878 0 0.0062808530658921714 -0.0067109580614591784 0 -0.020672076561043671 -0.048892111944140462 0 -0.021529578733636749 -0.056057294485569203 0 -0.011646107884993311 -0.052614774038224413 0 -0.021529578733636749 -0.056057294485569203 0 -0.025927543634211049 -0.060270896078869603 0 -0.01316208910551572 -0.064023752461465869 0 -0.021529578733636749 -0.056057294485569203 0 -0.025927543634211049 -0.060270896078869603 0 -0.0307944353691329 -0.052751336200628801 0 -0.020672076561043671 -0.048892111944140462 0 -0.021529578733636749 -0.056057294485569203 0 -0.0307944353691329 -0.052751336200628801 0 -0.0307944353691329 -0.052751336200628801 0 -0.023364799409706979 -0.037251471233443217 0 -0.038129724290061708 -0.039704694890325527 0 -0.0307944353691329 -0.052751336200628801 0 -0.023364799409706979 -0.037251471233443217 0 -0.020672076561043671 -0.048892111944140462 0 -0.0307944353691329 -0.052751336200628801 0 -0.023364799409706979 -0.037251471233443217 0 -0.014049925412458661 -0.031170867756926009 0 -0.01590886918286178 -0.0384209120487123 0 -0.023364799409706979 -0.037251471233443217 0 -0.020672076561043671 -0.048892111944140462 0 -0.023364799409706979 -0.037251471233443217 0 -0.020672076561043671 -0.048892111944140462 0 -0.01590886918286178 -0.0384209120487123 0 -0.023364799409706979 -0.037251471233443217 0 -0.020672076561043671 -0.048892111944140462 0 -0.01590886918286178 -0.0384209120487123 0 -0.011494870053589691 -0.044078193391114413 0 -0.01590886918286178 -0.0384209120487123 0 -0.011494870053589691 -0.044078193391114413 0 -0.0065561797214759437 -0.034832498875546798 0 -0.014049925412458661 -0.031170867756926009 0 -0.01590886918286178 -0.0384209120487123 0 -0.0065561797214759437 -0.034832498875546798 0 -0.014049925412458661 -0.031170867756926009 0 -0.0084348676524427062 -0.029562039631140461 0 -0.0065561797214759437 -0.034832498875546798 0 -0.0084348676524427062 -0.029562039631140461 0 -0.0048062469659389219 -0.031088960951297678 0 -0.0065561797214759437 -0.034832498875546798 0 -0.0048062469659389219 -0.031088960951297678 0 -0.0065561797214759437 -0.034832498875546798 0 -0.00080951620615256174 -0.032262252471264179 0 -0.0065561797214759437 -0.034832498875546798 0 -0.00080951620615256174 -0.032262252471264179 0 0.00088410564189040546 -0.038601573117539208 0 -0.011494870053589691 -0.044078193391114413 0 -0.0065561797214759437 -0.034832498875546798 0 -0.003607088218716747 -0.045029142316149608 0 -0.0065561797214759437 -0.034832498875546798 0 -0.003607088218716747 -0.045029142316149608 0 0.00088410564189040546 -0.038601573117539208 0 -0.01316208910551572 -0.064023752461465869 0 0.01189989311752745 -0.059796303755116978 0 -0.00045855248742709991 -0.052759456602357667 0 -0.01316208910551572 -0.064023752461465869 0 0.01189989311752745 -0.059796303755116978 0 -0.003607088218716747 -0.045029142316149608 0 -0.00045855248742709991 -0.052759456602357667 0 -0.011646107884993311 -0.052614774038224413 0 -0.011494870053589691 -0.044078193391114413 0 -0.003607088218716747 -0.045029142316149608 0 -0.011646107884993311 -0.052614774038224413 0 -0.020672076561043671 -0.048892111944140462 0 -0.011494870053589691 -0.044078193391114413 0 -0.011646107884993311 -0.052614774038224413 0 -0.00045855248742709991 -0.052759456602357667 0 -0.011646107884993311 -0.052614774038224413 0 -0.01316208910551572 -0.064023752461465869 0 -0.021529578733636749 -0.056057294485569203 0 -0.011646107884993311 -0.052614774038224413 0 -0.01316208910551572 -0.064023752461465869 0 -0.01316208910551572 -0.064023752461465869 0 -0.0069865295907158937 -0.080122972459904573 0 -0.020877206849118118 -0.078254654588222006 0 -0.01316208910551572 -0.064023752461465869 0 0.00063194016053734893 -0.069900198637516037 0 0.01189989311752745 -0.059796303755116978 0 -0.01316208910551572 -0.064023752461465869 0 -0.0069865295907158937 -0.080122972459904573 0 0.00063194016053734893 -0.069900198637516037 0 -0.0069865295907158937 -0.080122972459904573 0 -0.01730099453074127 -0.088584252038999167 0 -0.00088457709986631931 -0.099648813529125635 0 -0.0069865295907158937 -0.080122972459904573 0 -0.01730099453074127 -0.088584252038999167 0 -0.020877206849118118 -0.078254654588222006 0 -0.01730099453074127 -0.088584252038999167 0 -0.020877206849118118 -0.078254654588222006 0 -0.034650466823742641 -0.084330563250877996 0 -0.01730099453074127 -0.088584252038999167 0 -0.034650466823742641 -0.084330563250877996 0 -0.023106192290264411 -0.100564256366865 0 -0.020877206849118118 -0.078254654588222006 0 -0.031425826185763603 -0.07377362414904326 0 -0.034650466823742641 -0.084330563250877996 0 -0.01316208910551572 -0.064023752461465869 0 -0.038224071328558797 -0.068251201167814496 0 -0.031425826185763603 -0.07377362414904326 0 -0.01316208910551572 -0.064023752461465869 0 -0.020877206849118118 -0.078254654588222006 0 -0.031425826185763603 -0.07377362414904326 0 -0.01316208910551572 -0.064023752461465869 0 -0.038224071328558797 -0.068251201167814496 0 -0.025927543634211049 -0.060270896078869603 0 -0.01316208910551572 -0.064023752461465869 0 -0.038224071328558797 -0.068251201167814496 0 -0.038224071328558797 -0.068251201167814496 0 -0.039438995749456772 -0.07078580240158773 0 -0.040306691202952133 -0.057889378819319888 0 -0.038224071328558797 -0.068251201167814496 0 -0.046099308406182093 -0.063482640230147172 0 -0.041190952228057368 -0.078067150571029753 0 -0.039438995749456772 -0.07078580240158773 0 -0.049364795914363442 -0.074364541048974456 0 -0.038224071328558797 -0.068251201167814496 0 -0.039438995749456772 -0.07078580240158773 0 -0.049364795914363442 -0.074364541048974456 0 -0.038224071328558797 -0.068251201167814496 0 -0.039438995749456772 -0.07078580240158773 0 -0.031425826185763603 -0.07377362414904326 0 -0.041190952228057368 -0.078067150571029753 0 -0.039438995749456772 -0.07078580240158773 0 -0.031425826185763603 -0.07377362414904326 0 -0.034650466823742641 -0.084330563250877996 0 -0.046246491334964203 -0.084086543491134563 0 -0.045327807480662341 -0.10147969920460639 0 -0.041190952228057368 -0.078067150571029753 0 -0.031425826185763603 -0.07377362414904326 0 -0.034650466823742641 -0.084330563250877996 0 -0.041190952228057368 -0.078067150571029753 0 -0.034650466823742641 -0.084330563250877996 0 -0.046246491334964203 -0.084086543491134563 0 -0.041190952228057368 -0.078067150571029753 0 -0.046246491334964203 -0.084086543491134563 0 -0.049364795914363442 -0.074364541048974456 0 -0.046246491334964203 -0.084086543491134563 0 -0.058918580158548263 -0.082283653832872089 0 -0.049364795914363442 -0.074364541048974456 0 -0.046246491334964203 -0.084086543491134563 0 -0.058918580158548263 -0.082283653832872089 0 -0.045327807480662341 -0.10147969920460639 0 -0.071090390375310869 -0.092980974564840418 0 -0.058918580158548263 -0.082283653832872089 0 -0.045327807480662341 -0.10147969920460639 0 -0.047762155147517617 -0.055706288519437902 0 -0.046099308406182093 -0.063482640230147172 0 -0.059614315755328502 -0.071859302088391239 0 -0.038224071328558797 -0.068251201167814496 0 -0.059614315755328502 -0.071859302088391239 0 -0.072307564208738559 -0.070094269222255756 0 -0.047762155147517617 -0.055706288519437902 0 -0.038224071328558797 -0.068251201167814496 0 -0.059614315755328502 -0.071859302088391239 0 -0.049364795914363442 -0.074364541048974456 0 -0.038224071328558797 -0.068251201167814496 0 -0.046099308406182093 -0.063482640230147172 0 -0.059614315755328502 -0.071859302088391239 0 -0.058918580158548263 -0.082283653832872089 0 -0.059614315755328502 -0.071859302088391239 0 -0.049364795914363442 -0.074364541048974456 0 -0.072307564208738559 -0.070094269222255756 0 -0.047762155147517617 -0.055706288519437902 0 -0.059614315755328502 -0.071859302088391239 0 -0.053317939547206969 -0.1201336971282219 0 -0.058403859310011269 -0.11067654833049211 0 -0.045713481088397977 -0.1108587707276555 0 -0.065065546519775627 -0.1187474314572502 0 -0.053317939547206969 -0.1201336971282219 0 -0.064498805031184242 -0.13094026206350751 0 -0.065065546519775627 -0.1187474314572502 0 -0.053317939547206969 -0.1201336971282219 0 -0.058403859310011269 -0.11067654833049211 0 -0.075294111652356638 -0.1027141926603041 0 -0.058403859310011269 -0.11067654833049211 0 -0.045327807480662341 -0.10147969920460639 0 -0.071090390375310869 -0.092980974564840418 0 -0.045327807480662341 -0.10147969920460639 0 -0.075294111652356638 -0.1027141926603041 0 -0.045327807480662341 -0.10147969920460639 0 -0.058403859310011269 -0.11067654833049211 0 -0.045327807480662341 -0.10147969920460639 0 -0.045713481088397977 -0.1108587707276555 0 -0.045327807480662341 -0.10147969920460639 0 -0.023106192290264411 -0.100564256366865 0 -0.040924151380396567 -0.1029324052767196 0 -0.031278160579055712 -0.1097208936587607 0 -0.023106192290264411 -0.100564256366865 0 -0.040924151380396567 -0.1029324052767196 0 -0.045327807480662341 -0.10147969920460639 0 -0.045713481088397977 -0.1108587707276555 0 -0.040924151380396567 -0.1029324052767196 0 -0.045327807480662341 -0.10147969920460639 0 -0.023106192290264411 -0.100564256366865 0 -0.040924151380396567 -0.1029324052767196 0 -0.038922529575583197 -0.1107968658604528 0 -0.045713481088397977 -0.1108587707276555 0 -0.034650466823742641 -0.084330563250877996 0 -0.045327807480662341 -0.10147969920460639 0 -0.023106192290264411 -0.100564256366865 0 -0.040924151380396567 -0.1029324052767196 0 -0.045327807480662341 -0.10147969920460639 0 -0.040924151380396567 -0.1029324052767196 0 -0.038922529575583197 -0.1107968658604528 0 -0.031278160579055712 -0.1097208936587607 0 -0.038922529575583197 -0.1107968658604528 0 -0.031278160579055712 -0.1097208936587607 0 -0.038640907476804223 -0.11894039347701491 0 -0.031278160579055712 -0.1097208936587607 0 -0.038640907476804223 -0.11894039347701491 0 -0.026441620588484861 -0.11681804759178541 0 -0.053317939547206969 -0.1201336971282219 0 -0.045713481088397977 -0.1108587707276555 0 -0.038640907476804223 -0.11894039347701491 0 -0.038922529575583197 -0.1107968658604528 0 -0.045713481088397977 -0.1108587707276555 0 -0.038640907476804223 -0.11894039347701491 0 -0.053317939547206969 -0.1201336971282219 0 -0.038640907476804223 -0.11894039347701491 0 -0.047585037857068517 -0.1306387767134109 0 -0.038640907476804223 -0.11894039347701491 0 -0.02926161116768938 -0.1244879087691122 0 -0.036786070052580472 -0.12750778329275589 0 -0.038640907476804223 -0.11894039347701491 0 -0.02926161116768938 -0.1244879087691122 0 -0.026441620588484861 -0.11681804759178541 0 -0.02926161116768938 -0.1244879087691122 0 -0.026441620588484861 -0.11681804759178541 0 -0.020442872848123749 -0.1219604528274159 0 -0.031278160579055712 -0.1097208936587607 0 -0.026441620588484861 -0.11681804759178541 0 -0.019219535372253471 -0.1123908045516568 0 -0.026441620588484861 -0.11681804759178541 0 -0.019219535372253471 -0.1123908045516568 0 -0.020442872848123749 -0.1219604528274159 0 -0.019219535372253471 -0.1123908045516568 0 -0.020442872848123749 -0.1219604528274159 0 -0.013630778164825681 -0.12587238412181459 0 -0.020442872848123749 -0.1219604528274159 0 -0.013630778164825681 -0.12587238412181459 0 -0.031278160579055712 -0.1097208936587607 0 -0.019219535372253471 -0.1123908045516568 0 -0.023106192290264411 -0.100564256366865 0 -0.019219535372253471 -0.1123908045516568 0 -0.023106192290264411 -0.100564256366865 0 -0.00088457709986631931 -0.099648813529125635 0 -0.023106192290264411 -0.100564256366865 0 -0.00088457709986631931 -0.099648813529125635 0 -0.01730099453074127 -0.088584252038999167 0 -0.023106192290264411 -0.100564256366865 0 -0.00088457709986631931 -0.099648813529125635 0 -0.019219535372253471 -0.1123908045516568 0 -0.00088457709986631931 -0.099648813529125635 0 -0.013630778164825681 -0.12587238412181459 0 -0.00088457709986631931 -0.099648813529125635 0 -0.013630778164825681 -0.12587238412181459 0 0.0042338053702284167 -0.1162363977784954 0 -0.00088457709986631931 -0.099648813529125635 0 -0.013630778164825681 -0.12587238412181459 0 -0.013630778164825681 -0.12587238412181459 0 -0.0080166740234683537 -0.14256639757978601 0 0.0056793054767144344 -0.13696144321548409 0 -0.013630778164825681 -0.12587238412181459 0 0.0056793054767144344 -0.13696144321548409 0 0.0042338053702284167 -0.1162363977784954 0 -0.013630778164825681 -0.12587238412181459 0 0.0056793054767144344 -0.13696144321548409 0 -0.013630778164825681 -0.12587238412181459 0 -0.022665257513126879 -0.1444595934205638 0 -0.0080166740234683537 -0.14256639757978601 0 -0.013630778164825681 -0.12587238412181459 0 -0.023545732338242059 -0.12928822866868581 0 -0.022665257513126879 -0.1444595934205638 0 -0.013630778164825681 -0.12587238412181459 0 -0.022665257513126879 -0.1444595934205638 0 -0.020442872848123749 -0.1219604528274159 0 -0.013630778164825681 -0.12587238412181459 0 -0.023545732338242059 -0.12928822866868581 0 -0.030461850469713139 -0.13354252248666981 0 -0.023545732338242059 -0.12928822866868581 0 -0.022665257513126879 -0.1444595934205638 0 -0.02926161116768938 -0.1244879087691122 0 -0.020442872848123749 -0.1219604528274159 0 -0.023545732338242059 -0.12928822866868581 0 -0.02926161116768938 -0.1244879087691122 0 -0.030461850469713139 -0.13354252248666981 0 -0.023545732338242059 -0.12928822866868581 0 -0.022665257513126879 -0.1444595934205638 0 -0.01323721371719239 -0.15449133976249291 0 -0.037055581386688997 -0.1582311015271427 0 -0.01323721371719239 -0.15449133976249291 0 -0.0080166740234683537 -0.14256639757978601 0 0.0047757710166849631 -0.15495779920535821 0 -0.022665257513126879 -0.1444595934205638 0 -0.01323721371719239 -0.15449133976249291 0 -0.0080166740234683537 -0.14256639757978601 0 -0.0062686623422660041 -0.1640002743589091 0 -0.01023197163334176 -0.17567076170182699 0 0.0072989480615909662 -0.17078311459403411 0 -0.0062686623422660041 -0.1640002743589091 0 -0.01023197163334176 -0.17567076170182699 0 -0.023599151553723659 -0.16621555800102111 0 -0.01323721371719239 -0.15449133976249291 0 -0.0062686623422660041 -0.1640002743589091 0 0.0047757710166849631 -0.15495779920535821 0 -0.01323721371719239 -0.15449133976249291 0 -0.0062686623422660041 -0.1640002743589091 0 -0.023599151553723659 -0.16621555800102111 0 -0.01023197163334176 -0.17567076170182699 0 -0.01313453253209872 -0.19319172228948639 0 0.0037925995437396161 -0.18550716017365751 0 -0.01023197163334176 -0.17567076170182699 0 -0.032027184552260321 -0.1797962178774288 0 -0.01313453253209872 -0.19319172228948639 0 -0.01023197163334176 -0.17567076170182699 0 -0.023599151553723659 -0.16621555800102111 0 -0.032027184552260321 -0.1797962178774288 0 -0.01323721371719239 -0.15449133976249291 0 -0.023599151553723659 -0.16621555800102111 0 -0.037055581386688997 -0.1582311015271427 0 -0.01323721371719239 -0.15449133976249291 0 -0.037055581386688997 -0.1582311015271427 0 -0.023599151553723659 -0.16621555800102111 0 -0.037055581386688997 -0.1582311015271427 0 -0.032027184552260321 -0.1797962178774288 0 -0.037055581386688997 -0.1582311015271427 0 -0.032027184552260321 -0.1797962178774288 0 -0.049558153622150547 -0.17525193794813171 0 -0.032027184552260321 -0.1797962178774288 0 -0.049558153622150547 -0.17525193794813171 0 -0.052649261506216453 -0.19144511258064581 0 -0.049558153622150547 -0.17525193794813171 0 -0.052649261506216453 -0.19144511258064581 0 -0.068632725267631561 -0.1792319408821037 0 -0.049558153622150547 -0.17525193794813171 0 -0.06087394905618565 -0.16197086329179261 0 -0.068632725267631561 -0.1792319408821037 0 -0.037055581386688997 -0.1582311015271427 0 -0.049558153622150547 -0.17525193794813171 0 -0.06087394905618565 -0.16197086329179261 0 -0.037055581386688997 -0.1582311015271427 0 -0.06087394905618565 -0.16197086329179261 0 -0.06087394905618565 -0.16197086329179261 0 -0.058807373005754927 -0.14255587822777019 0 -0.041993245987200757 -0.14257379485946839 0 -0.058807373005754927 -0.14255587822777019 0 -0.047585037857068517 -0.1306387767134109 0 -0.041993245987200757 -0.14257379485946839 0 -0.053317939547206969 -0.1201336971282219 0 -0.047585037857068517 -0.1306387767134109 0 -0.064498805031184242 -0.13094026206350751 0 -0.058807373005754927 -0.14255587822777019 0 -0.047585037857068517 -0.1306387767134109 0 -0.064498805031184242 -0.13094026206350751 0 -0.030461850469713139 -0.13354252248666981 0 -0.022665257513126879 -0.1444595934205638 0 -0.041993245987200757 -0.14257379485946839 0 -0.047585037857068517 -0.1306387767134109 0 -0.036786070052580472 -0.12750778329275589 0 -0.041993245987200757 -0.14257379485946839 0 -0.038640907476804223 -0.11894039347701491 0 -0.047585037857068517 -0.1306387767134109 0 -0.036786070052580472 -0.12750778329275589 0 -0.02926161116768938 -0.1244879087691122 0 -0.030461850469713139 -0.13354252248666981 0 -0.036786070052580472 -0.12750778329275589 0 -0.030461850469713139 -0.13354252248666981 0 -0.036786070052580472 -0.12750778329275589 0 -0.041993245987200757 -0.14257379485946839 0 -0.022665257513126879 -0.1444595934205638 0 -0.037055581386688997 -0.1582311015271427 0 -0.041993245987200757 -0.14257379485946839 0 -0.037055581386688997 -0.1582311015271427 0 -0.06087394905618565 -0.16197086329179261 0 -0.041993245987200757 -0.14257379485946839 0 -0.035048457109909108 -0.25191726237852002 0 -0.016865782978689219 -0.25155655483064587 0 -0.022674230519212989 -0.24247058125287529 0 -0.035048457109909108 -0.25191726237852002 0 -0.022674230519212989 -0.24247058125287529 0 -0.031880550585207938 -0.2368548311222681 0 -0.022674230519212989 -0.24247058125287529 0 -0.01688819825133164 -0.2333703170104485 0 -0.031880550585207938 -0.2368548311222681 0 -0.022674230519212989 -0.24247058125287529 0 -0.013426746146382271 -0.2424255837669039 0 -0.01688819825133164 -0.2333703170104485 0 -0.016865782978689219 -0.25155655483064587 0 -0.022674230519212989 -0.24247058125287529 0 -0.013426746146382271 -0.2424255837669039 0 -0.016865782978689219 -0.25155655483064587 0 -0.013426746146382271 -0.2424255837669039 0 0.0011525424753294591 -0.25402225885389901 0 -0.01185806145800696 -0.2307082068866507 0 0.0011525424753294591 -0.25402225885389901 0 -0.013426746146382271 -0.2424255837669039 0 -0.01185806145800696 -0.2307082068866507 0 0.0011525424753294591 -0.25402225885389901 0 -0.01185806145800696 -0.2307082068866507 0 0.0011525424753294591 -0.25402225885389901 0 0.008727991604793487 -0.2345073506002591 0 -0.013426746146382271 -0.2424255837669039 0 -0.01185806145800696 -0.2307082068866507 0 -0.01688819825133164 -0.2333703170104485 0 -0.01688819825133164 -0.2333703170104485 0 -0.017146343274475302 -0.21672231928491309 0 0.0056415927376127703 -0.21380244259047201 0 -0.01688819825133164 -0.2333703170104485 0 0.0056415927376127703 -0.21380244259047201 0 -0.01185806145800696 -0.2307082068866507 0 -0.01688819825133164 -0.2333703170104485 0 0.0056415927376127703 -0.21380244259047201 0 -0.017146343274475302 -0.21672231928491309 0 -0.043746478547194378 -0.2270511470851572 0 -0.031880550585207938 -0.2368548311222681 0 -0.017146343274475302 -0.21672231928491309 0 -0.043746478547194378 -0.2270511470851572 0 -0.01688819825133164 -0.2333703170104485 0 -0.017146343274475302 -0.21672231928491309 0 -0.031880550585207938 -0.2368548311222681 0 -0.017146343274475302 -0.21672231928491309 0 -0.028440505539646561 -0.21012143468732181 0 -0.009501790685066961 -0.20516733012208491 0 -0.017146343274475302 -0.21672231928491309 0 -0.028440505539646561 -0.21012143468732181 0 -0.043746478547194378 -0.2270511470851572 0 -0.017146343274475302 -0.21672231928491309 0 -0.009501790685066961 -0.20516733012208491 0 0.0094537919982438379 -0.20639349148466901 0 -0.017146343274475302 -0.21672231928491309 0 0.0056415927376127703 -0.21380244259047201 0 0.0094537919982438379 -0.20639349148466901 0 -0.017146343274475302 -0.21672231928491309 0 0.0094537919982438379 -0.20639349148466901 0 -0.01313453253209872 -0.19319172228948639 0 0.0004106526282338385 -0.19734612325876619 0 0.0037925995437396161 -0.18550716017365751 0 -0.009501790685066961 -0.20516733012208491 0 -0.01313453253209872 -0.19319172228948639 0 0.0004106526282338385 -0.19734612325876619 0 -0.028440505539646561 -0.21012143468732181 0 -0.009501790685066961 -0.20516733012208491 0 -0.01313453253209872 -0.19319172228948639 0 -0.028440505539646561 -0.21012143468732181 0 -0.01313453253209872 -0.19319172228948639 0 -0.035067571103820909 -0.19637605179800341 0 -0.028440505539646561 -0.21012143468732181 0 -0.01313453253209872 -0.19319172228948639 0 -0.032027184552260321 -0.1797962178774288 0 -0.01313453253209872 -0.19319172228948639 0 -0.035067571103820909 -0.19637605179800341 0 -0.035067571103820909 -0.19637605179800341 0 -0.052649261506216453 -0.19144511258064581 0 -0.0462739051852568 -0.20780357227432811 0 -0.032027184552260321 -0.1797962178774288 0 -0.035067571103820909 -0.19637605179800341 0 -0.052649261506216453 -0.19144511258064581 0 -0.052649261506216453 -0.19144511258064581 0 -0.061171825851602787 -0.20576131492675401 0 -0.0462739051852568 -0.20780357227432811 0 -0.058415000953737528 -0.21749901536208771 0 -0.0462739051852568 -0.20780357227432811 0 -0.043746478547194378 -0.2270511470851572 0 -0.061171825851602787 -0.20576131492675401 0 -0.058415000953737528 -0.21749901536208771 0 -0.0462739051852568 -0.20780357227432811 0 -0.028440505539646561 -0.21012143468732181 0 -0.043746478547194378 -0.2270511470851572 0 -0.028440505539646561 -0.21012143468732181 0 -0.0462739051852568 -0.20780357227432811 0 -0.043746478547194378 -0.2270511470851572 0 -0.028440505539646561 -0.21012143468732181 0 -0.035067571103820909 -0.19637605179800341 0 -0.0462739051852568 -0.20780357227432811 0 -0.058415000953737528 -0.21749901536208771 0 -0.043746478547194378 -0.2270511470851572 0 -0.068413415557037935 -0.2315316173913724 0 -0.043746478547194378 -0.2270511470851572 0 -0.07150317915602912 -0.2378290689999234 0 -0.043746478547194378 -0.2270511470851572 0 -0.07150317915602912 -0.2378290689999234 0 -0.068413415557037935 -0.2315316173913724 0 -0.043746478547194378 -0.2270511470851572 0 -0.060107596207235783 -0.2451479395174353 0 -0.07150317915602912 -0.2378290689999234 0 -0.043746478547194378 -0.2270511470851572 0 -0.060107596207235783 -0.2451479395174353 0 -0.035048457109909108 -0.25191726237852002 0 -0.060107596207235783 -0.2451479395174353 0 -0.031880550585207938 -0.2368548311222681 0 -0.043746478547194378 -0.2270511470851572 0 -0.060107596207235783 -0.2451479395174353 0 -0.031880550585207938 -0.2368548311222681 0 -0.076468713867277174 -0.26324473194971337 0 -0.07150317915602912 -0.2378290689999234 0 -0.099259879764864944 -0.24860699091468741 0 -0.07150317915602912 -0.2378290689999234 0 -0.089062153911698819 -0.22464060344247411 0 -0.099259879764864944 -0.24860699091468741 0 -0.07150317915602912 -0.2378290689999234 0 -0.099259879764864944 -0.24860699091468741 0 -0.076468713867277174 -0.26324473194971337 0 -0.060107596207235783 -0.2451479395174353 0 -0.07150317915602912 -0.2378290689999234 0 -0.068413415557037935 -0.2315316173913724 0 -0.089062153911698819 -0.22464060344247411 0 -0.073324443366041436 -0.2162863580077112 0 -0.07150317915602912 -0.2378290689999234 0 -0.068413415557037935 -0.2315316173913724 0 -0.089062153911698819 -0.22464060344247411 0 -0.058415000953737528 -0.21749901536208771 0 -0.068413415557037935 -0.2315316173913724 0 -0.073324443366041436 -0.2162863580077112 0 -0.089062153911698819 -0.22464060344247411 0 -0.073324443366041436 -0.2162863580077112 0 -0.068413415557037935 -0.2315316173913724 0 -0.089062153911698819 -0.22464060344247411 0 -0.089062153911698819 -0.22464060344247411 0 -0.089804848802907025 -0.20951576482172651 0 -0.073324443366041436 -0.2162863580077112 0 -0.089804848802907025 -0.20951576482172651 0 -0.073324443366041436 -0.2162863580077112 0 -0.075489290506178711 -0.1969450822743132 0 -0.061171825851602787 -0.20576131492675401 0 -0.073324443366041436 -0.2162863580077112 0 -0.075489290506178711 -0.1969450822743132 0 -0.061171825851602787 -0.20576131492675401 0 -0.058415000953737528 -0.21749901536208771 0 -0.073324443366041436 -0.2162863580077112 0 -0.052649261506216453 -0.19144511258064581 0 -0.061171825851602787 -0.20576131492675401 0 -0.075489290506178711 -0.1969450822743132 0 -0.052649261506216453 -0.19144511258064581 0 -0.075489290506178711 -0.1969450822743132 0 -0.068632725267631561 -0.1792319408821037 0 -0.089804848802907025 -0.20951576482172651 0 -0.075489290506178711 -0.1969450822743132 0 -0.092990252669613735 -0.19597880156771649 0 -0.075489290506178711 -0.1969450822743132 0 -0.092990252669613735 -0.19597880156771649 0 -0.088533380189375746 -0.18406802414129689 0 -0.104570682431184 -0.203163905596525 0 -0.1065530614184232 -0.18620123100472119 0 -0.092990252669613735 -0.19597880156771649 0 -0.104570682431184 -0.203163905596525 0 -0.1065530614184232 -0.18620123100472119 0 -0.092990252669613735 -0.19597880156771649 0 -0.088533380189375746 -0.18406802414129689 0 -0.1065530614184232 -0.18620123100472119 0 -0.1163067811321728 -0.19739194123699089 0 -0.104570682431184 -0.203163905596525 0 -0.1065530614184232 -0.18620123100472119 0 -0.089804848802907025 -0.20951576482172651 0 -0.092990252669613735 -0.19597880156771649 0 -0.104570682431184 -0.203163905596525 0 -0.1065530614184232 -0.18620123100472119 0 -0.12988585219796681 -0.1889634146860627 0 -0.1163067811321728 -0.19739194123699089 0 -0.1227601259326592 -0.21339472530417811 0 -0.12988585219796681 -0.1889634146860627 0 -0.1163067811321728 -0.19739194123699089 0 -0.1065530614184232 -0.18620123100472119 0 -0.12988585219796681 -0.1889634146860627 0 -0.1227601259326592 -0.21339472530417811 0 -0.104570682431184 -0.203163905596525 0 -0.10258830344394609 -0.2201265801883289 0 -0.1227601259326592 -0.21339472530417811 0 -0.10258830344394609 -0.2201265801883289 0 -0.1163067811321728 -0.19739194123699089 0 -0.1227601259326592 -0.21339472530417811 0 -0.104570682431184 -0.203163905596525 0 -0.104570682431184 -0.203163905596525 0 -0.10258830344394609 -0.2201265801883289 0 -0.089804848802907025 -0.20951576482172651 0 -0.104570682431184 -0.203163905596525 0 -0.10258830344394609 -0.2201265801883289 0 -0.089062153911698819 -0.22464060344247411 0 -0.089804848802907025 -0.20951576482172651 0 -0.10258830344394609 -0.2201265801883289 0 -0.089062153911698819 -0.22464060344247411 0 -0.10258830344394609 -0.2201265801883289 0 -0.089062153911698819 -0.22464060344247411 0 -0.1013014600324276 -0.23113774716532889 0 -0.10258830344394609 -0.2201265801883289 0 -0.089062153911698819 -0.22464060344247411 0 -0.1013014600324276 -0.23113774716532889 0 -0.1013014600324276 -0.23113774716532889 0 -0.10258830344394609 -0.2201265801883289 0 -0.11324339978286541 -0.2257345922609808 0 -0.1013014600324276 -0.23113774716532889 0 -0.10258830344394609 -0.2201265801883289 0 -0.1227601259326592 -0.21339472530417811 0 -0.11324339978286541 -0.2257345922609808 0 -0.1233813038004392 -0.23022446553991599 0 -0.1227601259326592 -0.21339472530417811 0 -0.10258830344394609 -0.2201265801883289 0 -0.11324339978286541 -0.2257345922609808 0 -0.1013014600324276 -0.23113774716532889 0 -0.11324339978286541 -0.2257345922609808 0 -0.1144322143935607 -0.23201394829888991 0 -0.11324339978286541 -0.2257345922609808 0 -0.1233813038004392 -0.23022446553991599 0 -0.1144322143935607 -0.23201394829888991 0 -0.1013014600324276 -0.23113774716532889 0 -0.11980269395851161 -0.24095898822933401 0 -0.12258632727195 -0.25766464633718772 0 -0.099259879764864944 -0.24860699091468741 0 -0.1080407165610425 -0.24077926337204719 0 -0.12258632727195 -0.25766464633718772 0 -0.11980269395851161 -0.24095898822933401 0 -0.1080407165610425 -0.24077926337204719 0 -0.1013014600324276 -0.23113774716532889 0 -0.11980269395851161 -0.24095898822933401 0 -0.1080407165610425 -0.24077926337204719 0 -0.1013014600324276 -0.23113774716532889 0 -0.1144322143935607 -0.23201394829888991 0 -0.11980269395851161 -0.24095898822933401 0 -0.1233813038004392 -0.23022446553991599 0 -0.1144322143935607 -0.23201394829888991 0 -0.11980269395851161 -0.24095898822933401 0 -0.1233813038004392 -0.23022446553991599 0 -0.11980269395851161 -0.24095898822933401 0 -0.13106962818348361 -0.23730881781956481 0 -0.1013014600324276 -0.23113774716532889 0 -0.099259879764864944 -0.24860699091468741 0 -0.1013014600324276 -0.23113774716532889 0 -0.099259879764864944 -0.24860699091468741 0 -0.1080407165610425 -0.24077926337204719 0 -0.089062153911698819 -0.22464060344247411 0 -0.1013014600324276 -0.23113774716532889 0 -0.099259879764864944 -0.24860699091468741 0 -0.09351055048923515 -0.15345183259991829 0 -0.086239638492104254 -0.14563011540430751 0 -0.08469231672568231 -0.16571062505644241 0 -0.086239638492104254 -0.14563011540430751 0 -0.07240832358226644 -0.14684041397169331 0 -0.08469231672568231 -0.16571062505644241 0 -0.086239638492104254 -0.14563011540430751 0 -0.07933785918268732 -0.1342347397863396 0 -0.07240832358226644 -0.14684041397169331 0 -0.09351055048923515 -0.15345183259991829 0 -0.086239638492104254 -0.14563011540430751 0 -0.095523808245546543 -0.14413639397266401 0 -0.086239638492104254 -0.14563011540430751 0 -0.091377109090662267 -0.13248652794303489 0 -0.095523808245546543 -0.14413639397266401 0 -0.073597715826568599 -0.1245578533939206 0 -0.082124736204948756 -0.12473520456349139 0 -0.07933785918268732 -0.1342347397863396 0 -0.082124736204948756 -0.12473520456349139 0 -0.091377109090662267 -0.13248652794303489 0 -0.07933785918268732 -0.1342347397863396 0 -0.086239638492104254 -0.14563011540430751 0 -0.091377109090662267 -0.13248652794303489 0 -0.07933785918268732 -0.1342347397863396 0 -0.07933785918268732 -0.1342347397863396 0 -0.064498805031184242 -0.13094026206350751 0 -0.07240832358226644 -0.14684041397169331 0 -0.058807373005754927 -0.14255587822777019 0 -0.064498805031184242 -0.13094026206350751 0 -0.07240832358226644 -0.14684041397169331 0 -0.073597715826568599 -0.1245578533939206 0 -0.07933785918268732 -0.1342347397863396 0 -0.064498805031184242 -0.13094026206350751 0 -0.06087394905618565 -0.16197086329179261 0 -0.058807373005754927 -0.14255587822777019 0 -0.07240832358226644 -0.14684041397169331 0 -0.06087394905618565 -0.16197086329179261 0 -0.08469231672568231 -0.16571062505644241 0 -0.06087394905618565 -0.16197086329179261 0 -0.068632725267631561 -0.1792319408821037 0 -0.08469231672568231 -0.16571062505644241 0 -0.06087394905618565 -0.16197086329179261 0 -0.07240832358226644 -0.14684041397169331 0 -0.08469231672568231 -0.16571062505644241 0 -0.075489290506178711 -0.1969450822743132 0 -0.068632725267631561 -0.1792319408821037 0 -0.088533380189375746 -0.18406802414129689 0 -0.088533380189375746 -0.18406802414129689 0 -0.08469231672568231 -0.16571062505644241 0 -0.097072360682164988 -0.1763575667558884 0 -0.068632725267631561 -0.1792319408821037 0 -0.088533380189375746 -0.18406802414129689 0 -0.08469231672568231 -0.16571062505644241 0 -0.09351055048923515 -0.15345183259991829 0 -0.08469231672568231 -0.16571062505644241 0 -0.099630366363340911 -0.1595917851564706 0 -0.08469231672568231 -0.16571062505644241 0 -0.1085106843951788 -0.16945038682109301 0 -0.08469231672568231 -0.16571062505644241 0 -0.1085106843951788 -0.16945038682109301 0 -0.097072360682164988 -0.1763575667558884 0 -0.08469231672568231 -0.16571062505644241 0 -0.099630366363340911 -0.1595917851564706 0 -0.1085106843951788 -0.16945038682109301 0 -0.1085106843951788 -0.16945038682109301 0 -0.1100911836591506 -0.15592648706230031 0 -0.099630366363340911 -0.1595917851564706 0 -0.1085106843951788 -0.16945038682109301 0 -0.1100911836591506 -0.15592648706230031 0 -0.1085106843951788 -0.16945038682109301 0 -0.1065530614184232 -0.18620123100472119 0 -0.1085106843951788 -0.16945038682109301 0 -0.097072360682164988 -0.1763575667558884 0 -0.1065530614184232 -0.18620123100472119 0 -0.088533380189375746 -0.18406802414129689 0 -0.1065530614184232 -0.18620123100472119 0 -0.088533380189375746 -0.18406802414129689 0 -0.097072360682164988 -0.1763575667558884 0 -0.1065530614184232 -0.18620123100472119 0 -0.1065530614184232 -0.18620123100472119 0 -0.11887561898831039 -0.1793815752565944 0 -0.12988585219796681 -0.1889634146860627 0 -0.1085106843951788 -0.16945038682109301 0 -0.1065530614184232 -0.18620123100472119 0 -0.11887561898831039 -0.1793815752565944 0 -0.1085106843951788 -0.16945038682109301 0 -0.11887561898831039 -0.1793815752565944 0 -0.1305528779416732 -0.17291126851449989 0 -0.1085106843951788 -0.16945038682109301 0 -0.1305528779416732 -0.17291126851449989 0 -0.1100911836591506 -0.15592648706230031 0 -0.12779956320216859 -0.15649023985981619 0 -0.1305528779416732 -0.17291126851449989 0 -0.1100911836591506 -0.15592648706230031 0 -0.1305528779416732 -0.17291126851449989 0 -0.1085106843951788 -0.16945038682109301 0 -0.1100911836591506 -0.15592648706230031 0 -0.1305528779416732 -0.17291126851449989 0 -0.1100911836591506 -0.15592648706230031 0 -0.1126512203982754 -0.13402095314151721 0 -0.1232936266479477 -0.14423849737553221 0 -0.1100911836591506 -0.15592648706230031 0 -0.1126512203982754 -0.13402095314151721 0 -0.1232936266479477 -0.14423849737553221 0 -0.1100911836591506 -0.15592648706230031 0 -0.12779956320216859 -0.15649023985981619 0 -0.1100911836591506 -0.15592648706230031 0 -0.1035707487113588 -0.1396557334508107 0 -0.1126512203982754 -0.13402095314151721 0 -0.099630366363340911 -0.1595917851564706 0 -0.1100911836591506 -0.15592648706230031 0 -0.10249460158801681 -0.14962073913740609 0 -0.1100911836591506 -0.15592648706230031 0 -0.10249460158801681 -0.14962073913740609 0 -0.1100911836591506 -0.15592648706230031 0 -0.10249460158801681 -0.14962073913740609 0 -0.1035707487113588 -0.1396557334508107 0 -0.10249460158801681 -0.14962073913740609 0 -0.095523808245546543 -0.14413639397266401 0 -0.1035707487113588 -0.1396557334508107 0 -0.09351055048923515 -0.15345183259991829 0 -0.099630366363340911 -0.1595917851564706 0 -0.10249460158801681 -0.14962073913740609 0 -0.09351055048923515 -0.15345183259991829 0 -0.10249460158801681 -0.14962073913740609 0 -0.095523808245546543 -0.14413639397266401 0 -0.1020167416427827 -0.1245220206167555 0 -0.091377109090662267 -0.13248652794303489 0 -0.1035707487113588 -0.1396557334508107 0 -0.091377109090662267 -0.13248652794303489 0 -0.095523808245546543 -0.14413639397266401 0 -0.1035707487113588 -0.1396557334508107 0 -0.1020167416427827 -0.1245220206167555 0 -0.1035707487113588 -0.1396557334508107 0 -0.1126512203982754 -0.13402095314151721 0 -0.1232936266479477 -0.14423849737553221 0 -0.1126512203982754 -0.13402095314151721 0 -0.12885287378670199 -0.12870177913502259 0 -0.1232936266479477 -0.14423849737553221 0 -0.12885287378670199 -0.12870177913502259 0 -0.1370732921934408 -0.14605302767900469 0 -0.12885287378670199 -0.12870177913502259 0 -0.14607068595275149 -0.13117741892535681 0 -0.1370732921934408 -0.14605302767900469 0 -0.14607068595275149 -0.13117741892535681 0 -0.1370732921934408 -0.14605302767900469 0 -0.1598821023301159 -0.14719627001746319 0 -0.1370732921934408 -0.14605302767900469 0 -0.14367851358117251 -0.16072315390087499 0 -0.1598821023301159 -0.14719627001746319 0 -0.1370732921934408 -0.14605302767900469 0 -0.12779956320216859 -0.15649023985981619 0 -0.14367851358117251 -0.16072315390087499 0 -0.1232936266479477 -0.14423849737553221 0 -0.1370732921934408 -0.14605302767900469 0 -0.12779956320216859 -0.15649023985981619 0 -0.12779956320216859 -0.15649023985981619 0 -0.1305528779416732 -0.17291126851449989 0 -0.14367851358117251 -0.16072315390087499 0 -0.1305528779416732 -0.17291126851449989 0 -0.12988585219796681 -0.1889634146860627 0 -0.15321864297751059 -0.19172559836740141 0 -0.11887561898831039 -0.1793815752565944 0 -0.1305528779416732 -0.17291126851449989 0 -0.12988585219796681 -0.1889634146860627 0 -0.1305528779416732 -0.17291126851449989 0 -0.14812306120234531 -0.17566999238961581 0 -0.1305528779416732 -0.17291126851449989 0 -0.14812306120234531 -0.17566999238961581 0 -0.15321864297751059 -0.19172559836740141 0 -0.14812306120234531 -0.17566999238961581 0 -0.16569324446301781 -0.17842871626473009 0 -0.15321864297751059 -0.19172559836740141 0 -0.1305528779416732 -0.17291126851449989 0 -0.15321864297751059 -0.19172559836740141 0 -0.1305528779416732 -0.17291126851449989 0 -0.14812306120234531 -0.17566999238961581 0 -0.14367851358117251 -0.16072315390087499 0 -0.14367851358117251 -0.16072315390087499 0 -0.1608139275799858 -0.1651918749280322 0 -0.1598821023301159 -0.14719627001746319 0 -0.14812306120234531 -0.17566999238961581 0 -0.14367851358117251 -0.16072315390087499 0 -0.1608139275799858 -0.1651918749280322 0 -0.1608139275799858 -0.1651918749280322 0 -0.16569324446301781 -0.17842871626473009 0 -0.18669271632327769 -0.16394124206747421 0 -0.1608139275799858 -0.1651918749280322 0 -0.18669271632327769 -0.16394124206747421 0 -0.1598821023301159 -0.14719627001746319 0 -0.14812306120234531 -0.17566999238961581 0 -0.1608139275799858 -0.1651918749280322 0 -0.16569324446301781 -0.17842871626473009 0 -0.16942328296196929 -0.1850878104131124 0 -0.16569324446301781 -0.17842871626473009 0 -0.15321864297751059 -0.19172559836740141 0 -0.14812306120234531 -0.17566999238961581 0 -0.16569324446301781 -0.17842871626473009 0 -0.16942328296196929 -0.1850878104131124 0 -0.16569324446301781 -0.17842871626473009 0 -0.18986529261991689 -0.1822240099945496 0 -0.16569324446301781 -0.17842871626473009 0 -0.18669271632327769 -0.16394124206747421 0 -0.18986529261991689 -0.1822240099945496 0 -0.16942328296196929 -0.1850878104131124 0 -0.1733964284973846 -0.1941142860479779 0 -0.18986529261991689 -0.1822240099945496 0 -0.16569324446301781 -0.17842871626473009 0 -0.18986529261991689 -0.1822240099945496 0 -0.16569324446301781 -0.17842871626473009 0 -0.18669271632327769 -0.16394124206747421 0 -0.18669271632327769 -0.16394124206747421 0 -0.18552434520082339 -0.13645946428119049 0 -0.1598821023301159 -0.14719627001746319 0 -0.18552434520082339 -0.13645946428119049 0 -0.16335650221810749 -0.1234651606921613 0 -0.18552434520082339 -0.13645946428119049 0 -0.1834369409203665 -0.1185088791517297 0 -0.16335650221810749 -0.1234651606921613 0 -0.14607068595275149 -0.13117741892535681 0 -0.1598821023301159 -0.14719627001746319 0 -0.16335650221810749 -0.1234651606921613 0 -0.18552434520082339 -0.13645946428119049 0 -0.1598821023301159 -0.14719627001746319 0 -0.16335650221810749 -0.1234651606921613 0 -0.13830392788459439 -0.25078022929334121 0 -0.15343837188373369 -0.24355053103281951 0 -0.14135036570303799 -0.23486670551089539 0 -0.15343837188373369 -0.24355053103281951 0 -0.14135036570303799 -0.23486670551089539 0 -0.1518111235454537 -0.22681512682467631 0 -0.13830392788459439 -0.25078022929334121 0 -0.11980269395851161 -0.24095898822933401 0 -0.13106962818348361 -0.23730881781956481 0 -0.13830392788459439 -0.25078022929334121 0 -0.14135036570303799 -0.23486670551089539 0 -0.13106962818348361 -0.23730881781956481 0 -0.13830392788459439 -0.25078022929334121 0 -0.11980269395851161 -0.24095898822933401 0 -0.13830392788459439 -0.25078022929334121 0 -0.12258632727195 -0.25766464633718772 0 -0.11980269395851161 -0.24095898822933401 0 -0.1233813038004392 -0.23022446553991599 0 -0.13678418033453391 -0.22854050698484199 0 -0.1437626250548367 -0.21550945336632599 0 -0.14135036570303799 -0.23486670551089539 0 -0.13106962818348361 -0.23730881781956481 0 -0.13678418033453391 -0.22854050698484199 0 -0.1227601259326592 -0.21339472530417811 0 -0.1233813038004392 -0.23022446553991599 0 -0.1437626250548367 -0.21550945336632599 0 -0.1233813038004392 -0.23022446553991599 0 -0.1437626250548367 -0.21550945336632599 0 -0.1233813038004392 -0.23022446553991599 0 -0.13106962818348361 -0.23730881781956481 0 -0.13678418033453391 -0.22854050698484199 0 -0.1443569789308719 -0.22479309268750799 0 -0.15235093078019629 -0.21706047721130531 0 -0.1437626250548367 -0.21550945336632599 0 -0.13678418033453391 -0.22854050698484199 0 -0.1443569789308719 -0.22479309268750799 0 -0.1437626250548367 -0.21550945336632599 0 -0.14135036570303799 -0.23486670551089539 0 -0.13678418033453391 -0.22854050698484199 0 -0.1443569789308719 -0.22479309268750799 0 -0.14135036570303799 -0.23486670551089539 0 -0.1443569789308719 -0.22479309268750799 0 -0.1518111235454537 -0.22681512682467631 0 -0.1518111235454537 -0.22681512682467631 0 -0.15235093078019629 -0.21706047721130531 0 -0.16103204631112239 -0.21795652594806811 0 -0.1443569789308719 -0.22479309268750799 0 -0.1518111235454537 -0.22681512682467631 0 -0.15235093078019629 -0.21706047721130531 0 -0.14293194842137141 -0.2066628704200244 0 -0.1437626250548367 -0.21550945336632599 0 -0.16414394630923571 -0.2007944411927379 0 -0.1437626250548367 -0.21550945336632599 0 -0.16414394630923571 -0.2007944411927379 0 -0.15776242534906881 -0.2123182280095218 0 -0.1437626250548367 -0.21550945336632599 0 -0.16414394630923571 -0.2007944411927379 0 -0.14293194842137141 -0.2066628704200244 0 -0.16414394630923571 -0.2007944411927379 0 -0.15235093078019629 -0.21706047721130531 0 -0.1437626250548367 -0.21550945336632599 0 -0.15776242534906881 -0.2123182280095218 0 -0.1227601259326592 -0.21339472530417811 0 -0.14293194842137141 -0.2066628704200244 0 -0.1437626250548367 -0.21550945336632599 0 -0.1227601259326592 -0.21339472530417811 0 -0.14293194842137141 -0.2066628704200244 0 -0.1227601259326592 -0.21339472530417811 0 -0.14293194842137141 -0.2066628704200244 0 -0.12988585219796681 -0.1889634146860627 0 -0.14293194842137141 -0.2066628704200244 0 -0.12988585219796681 -0.1889634146860627 0 -0.15321864297751059 -0.19172559836740141 0 -0.12988585219796681 -0.1889634146860627 0 -0.15321864297751059 -0.19172559836740141 0 -0.14293194842137141 -0.2066628704200244 0 -0.15321864297751059 -0.19172559836740141 0 -0.16414394630923571 -0.2007944411927379 0 -0.16942328296196929 -0.1850878104131124 0 -0.15321864297751059 -0.19172559836740141 0 -0.1733964284973846 -0.1941142860479779 0 -0.15321864297751059 -0.19172559836740141 0 -0.16726185790246251 -0.19854335518718039 0 -0.1733964284973846 -0.1941142860479779 0 -0.15321864297751059 -0.19172559836740141 0 -0.1733964284973846 -0.1941142860479779 0 -0.15321864297751059 -0.19172559836740141 0 -0.16726185790246251 -0.19854335518718039 0 -0.16414394630923571 -0.2007944411927379 0 -0.15321864297751059 -0.19172559836740141 0 -0.16414394630923571 -0.2007944411927379 0 -0.16726185790246251 -0.19854335518718039 0 -0.16414394630923571 -0.2007944411927379 0 -0.17317952342621951 -0.20065452360240421 0 -0.16726185790246251 -0.19854335518718039 0 -0.16414394630923571 -0.2007944411927379 0 -0.16726185790246251 -0.19854335518718039 0 -0.1733964284973846 -0.1941142860479779 0 -0.1733964284973846 -0.1941142860479779 0 -0.1786646541569577 -0.1947379494187248 0 -0.18986529261991689 -0.1822240099945496 0 -0.1733964284973846 -0.1941142860479779 0 -0.18986529261991689 -0.1822240099945496 0 -0.16414394630923571 -0.2007944411927379 0 -0.17317952342621951 -0.20065452360240421 0 -0.18035831943960021 -0.20706780592822599 0 -0.1733964284973846 -0.1941142860479779 0 -0.1786646541569577 -0.1947379494187248 0 -0.1786646541569577 -0.1947379494187248 0 -0.1848840910626588 -0.19547421912989499 0 -0.1932066191573506 -0.1898849224714636 0 -0.1786646541569577 -0.1947379494187248 0 -0.1932066191573506 -0.1898849224714636 0 -0.1786646541569577 -0.1947379494187248 0 -0.1932066191573506 -0.1898849224714636 0 -0.18986529261991689 -0.1822240099945496 0 -0.1786646541569577 -0.1947379494187248 0 -0.1848840910626588 -0.19547421912989499 0 -0.1848840910626588 -0.19547421912989499 0 -0.18035831943960021 -0.20706780592822599 0 -0.1924123180188704 -0.20245730101963311 0 -0.1786646541569577 -0.1947379494187248 0 -0.1848840910626588 -0.19547421912989499 0 -0.18035831943960021 -0.20706780592822599 0 -0.16726185790246251 -0.19854335518718039 0 -0.1786646541569577 -0.1947379494187248 0 -0.17317952342621951 -0.20065452360240421 0 -0.16726185790246251 -0.19854335518718039 0 -0.1786646541569577 -0.1947379494187248 0 -0.1786646541569577 -0.1947379494187248 0 -0.17317952342621951 -0.20065452360240421 0 -0.18035831943960021 -0.20706780592822599 0 -0.16726185790246251 -0.19854335518718039 0 -0.1733964284973846 -0.1941142860479779 0 -0.1786646541569577 -0.1947379494187248 0 -0.16414394630923571 -0.2007944411927379 0 -0.185406223952997 -0.2184437684658817 0 -0.16829913621956219 -0.214223918596677 0 -0.16414394630923571 -0.2007944411927379 0 -0.185406223952997 -0.2184437684658817 0 -0.18035831943960021 -0.20706780592822599 0 -0.16414394630923571 -0.2007944411927379 0 -0.185406223952997 -0.2184437684658817 0 -0.185406223952997 -0.2184437684658817 0 -0.18035831943960021 -0.20706780592822599 0 -0.1924123180188704 -0.20245730101963311 0 -0.16829913621956219 -0.214223918596677 0 -0.16103204631112239 -0.21795652594806811 0 -0.1735538913850993 -0.2237394408763545 0 -0.16414394630923571 -0.2007944411927379 0 -0.16829913621956219 -0.214223918596677 0 -0.15776242534906881 -0.2123182280095218 0 -0.15235093078019629 -0.21706047721130531 0 -0.15776242534906881 -0.2123182280095218 0 -0.16103204631112239 -0.21795652594806811 0 -0.16829913621956219 -0.214223918596677 0 -0.15776242534906881 -0.2123182280095218 0 -0.16103204631112239 -0.21795652594806811 0 -0.1518111235454537 -0.22681512682467631 0 -0.16103204631112239 -0.21795652594806811 0 -0.16728118388317401 -0.23424054739097169 0 -0.16103204631112239 -0.21795652594806811 0 -0.16728118388317401 -0.23424054739097169 0 -0.1735538913850993 -0.2237394408763545 0 -0.185406223952997 -0.2184437684658817 0 -0.1735538913850993 -0.2237394408763545 0 -0.18768455716525739 -0.24406993922423609 0 -0.16728118388317401 -0.23424054739097169 0 -0.1735538913850993 -0.2237394408763545 0 -0.18768455716525739 -0.24406993922423609 0 -0.185406223952997 -0.2184437684658817 0 -0.16829913621956219 -0.214223918596677 0 -0.1735538913850993 -0.2237394408763545 0 -0.17522714792334851 -0.25708462077409772 0 -0.16728118388317401 -0.23424054739097169 0 -0.18768455716525739 -0.24406993922423609 0 -0.16728118388317401 -0.23424054739097169 0 -0.18768455716525739 -0.24406993922423609 0 -0.17522714792334851 -0.25708462077409772 0 -0.16728118388317401 -0.23424054739097169 0 -0.16318796637523331 -0.24886929238880931 0 -0.15343837188373369 -0.24355053103281951 0 -0.1518111235454537 -0.22681512682467631 0 -0.16728118388317401 -0.23424054739097169 0 -0.15343837188373369 -0.24355053103281951 0 -0.16728118388317401 -0.23424054739097169 0 -0.16318796637523331 -0.24886929238880931 0 -0.20808793044734061 -0.25389933105750051 0 -0.21035160445020151 -0.2307642345282378 0 -0.224073955715235 -0.2468071783108971 0 -0.20808793044734061 -0.25389933105750051 0 -0.18768455716525739 -0.24406993922423609 0 -0.21035160445020151 -0.2307642345282378 0 -0.20808793044734061 -0.25389933105750051 0 -0.18768455716525739 -0.24406993922423609 0 -0.185406223952997 -0.2184437684658817 0 -0.21035160445020151 -0.2307642345282378 0 -0.2077323600895328 -0.20919709793378349 0 -0.185406223952997 -0.2184437684658817 0 -0.18768455716525739 -0.24406993922423609 0 -0.21035160445020151 -0.2307642345282378 0 -0.2077323600895328 -0.20919709793378349 0 -0.21671747518684911 -0.19844459325726119 0 -0.22752328886543399 -0.21173840034163441 0 -0.21035160445020151 -0.2307642345282378 0 -0.2077323600895328 -0.20919709793378349 0 -0.22752328886543399 -0.21173840034163441 0 -0.185406223952997 -0.2184437684658817 0 -0.2077323600895328 -0.20919709793378349 0 -0.1924123180188704 -0.20245730101963311 0 -0.1924123180188704 -0.20245730101963311 0 -0.1932066191573506 -0.1898849224714636 0 -0.20412005790549789 -0.1967151651485313 0 -0.2077323600895328 -0.20919709793378349 0 -0.1924123180188704 -0.20245730101963311 0 -0.20412005790549789 -0.1967151651485313 0 -0.1848840910626588 -0.19547421912989499 0 -0.1924123180188704 -0.20245730101963311 0 -0.1932066191573506 -0.1898849224714636 0 -0.1932066191573506 -0.1898849224714636 0 -0.20412005790549789 -0.1967151651485313 0 -0.20774858415774389 -0.1850318955242036 0 -0.20412005790549789 -0.1967151651485313 0 -0.21671747518684911 -0.19844459325726119 0 -0.20774858415774389 -0.1850318955242036 0 -0.2077323600895328 -0.20919709793378349 0 -0.20412005790549789 -0.1967151651485313 0 -0.21671747518684911 -0.19844459325726119 0 -0.21671747518684911 -0.19844459325726119 0 -0.2364630849160371 -0.18954040733815231 0 -0.20774858415774389 -0.1850318955242036 0 -0.21671747518684911 -0.19844459325726119 0 -0.2364630849160371 -0.18954040733815231 0 -0.22752328886543399 -0.21173840034163441 0 -0.2364630849160371 -0.18954040733815231 0 -0.249637595880909 -0.21619730966344211 0 -0.22752328886543399 -0.21173840034163441 0 -0.21035160445020151 -0.2307642345282378 0 -0.22752328886543399 -0.21173840034163441 0 -0.23195291491561421 -0.23119392636373171 0 -0.249637595880909 -0.21619730966344211 0 -0.23195291491561421 -0.23119392636373171 0 -0.24787584224564871 -0.23335071866024229 0 -0.249637595880909 -0.21619730966344211 0 -0.22752328886543399 -0.21173840034163441 0 -0.23195291491561421 -0.23119392636373171 0 -0.23195291491561421 -0.23119392636373171 0 -0.24787584224564871 -0.23335071866024229 0 -0.24564221040132861 -0.24971282446878551 0 -0.21035160445020151 -0.2307642345282378 0 -0.23195291491561421 -0.23119392636373171 0 -0.224073955715235 -0.2468071783108971 0 -0.23195291491561421 -0.23119392636373171 0 -0.24564221040132861 -0.24971282446878551 0 -0.224073955715235 -0.2468071783108971 0 -0.20769218818353899 -0.14945376787022011 0 -0.22737425325535829 -0.16099096294155141 0 -0.20769218818353899 -0.14945376787022011 0 -0.22259751532058131 -0.1391706262875923 0 -0.20769218818353899 -0.14945376787022011 0 -0.211485926894632 -0.13179332669679161 0 -0.19834891101658281 -0.1287167103705685 0 -0.211485926894632 -0.13179332669679161 0 -0.2217463460591598 -0.1297845450283944 0 -0.22259751532058131 -0.1391706262875923 0 -0.20769218818353899 -0.14945376787022011 0 -0.211485926894632 -0.13179332669679161 0 -0.22259751532058131 -0.1391706262875923 0 -0.211485926894632 -0.13179332669679161 0 -0.20726861624517071 -0.1219186579720847 0 -0.21618594714036321 -0.1221858074254701 0 -0.211485926894632 -0.13179332669679161 0 -0.2217463460591598 -0.1297845450283944 0 -0.21618594714036321 -0.1221858074254701 0 -0.211485926894632 -0.13179332669679161 0 -0.19834891101658281 -0.1287167103705685 0 -0.20726861624517071 -0.1219186579720847 0 -0.18552434520082339 -0.13645946428119049 0 -0.20769218818353899 -0.14945376787022011 0 -0.19834891101658281 -0.1287167103705685 0 -0.18552434520082339 -0.13645946428119049 0 -0.19834891101658281 -0.1287167103705685 0 -0.1834369409203665 -0.1185088791517297 0 -0.18669271632327769 -0.16394124206747421 0 -0.18552434520082339 -0.13645946428119049 0 -0.20769218818353899 -0.14945376787022011 0 -0.18552434520082339 -0.13645946428119049 0 -0.20769218818353899 -0.14945376787022011 0 -0.18669271632327769 -0.16394124206747421 0 -0.20769218818353899 -0.14945376787022011 0 -0.20486990116308471 -0.1612727026599689 0 -0.18669271632327769 -0.16394124206747421 0 -0.20486990116308471 -0.1612727026599689 0 -0.20498666425514711 -0.1713066035655782 0 -0.18669271632327769 -0.16394124206747421 0 -0.20769218818353899 -0.14945376787022011 0 -0.18986529261991689 -0.1822240099945496 0 -0.20774858415774389 -0.1850318955242036 0 -0.1932066191573506 -0.1898849224714636 0 -0.18986529261991689 -0.1822240099945496 0 -0.20774858415774389 -0.1850318955242036 0 -0.18669271632327769 -0.16394124206747421 0 -0.18986529261991689 -0.1822240099945496 0 -0.20498666425514711 -0.1713066035655782 0 -0.18986529261991689 -0.1822240099945496 0 -0.20774858415774389 -0.1850318955242036 0 -0.20498666425514711 -0.1713066035655782 0 -0.18986529261991689 -0.1822240099945496 0 -0.20498666425514711 -0.1713066035655782 0 -0.1932066191573506 -0.1898849224714636 0 -0.20774858415774389 -0.1850318955242036 0 -0.20774858415774389 -0.1850318955242036 0 -0.22710767304558141 -0.17857127070186521 0 -0.20774858415774389 -0.1850318955242036 0 -0.21700506105990869 -0.17202214190906739 0 -0.22710767304558141 -0.17857127070186521 0 -0.20774858415774389 -0.1850318955242036 0 -0.21700506105990869 -0.17202214190906739 0 -0.20498666425514711 -0.1713066035655782 0 -0.20769218818353899 -0.14945376787022011 0 -0.22010803589037489 -0.16038919713660349 0 -0.22737425325535829 -0.16099096294155141 0 -0.20769218818353899 -0.14945376787022011 0 -0.20486990116308471 -0.1612727026599689 0 -0.22010803589037489 -0.16038919713660349 0 -0.20486990116308471 -0.1612727026599689 0 -0.20498666425514711 -0.1713066035655782 0 -0.22010803589037489 -0.16038919713660349 0 -0.21700506105990869 -0.17202214190906739 0 -0.20498666425514711 -0.1713066035655782 0 -0.22010803589037489 -0.16038919713660349 0 -0.20498666425514711 -0.1713066035655782 0 -0.22010803589037489 -0.16038919713660349 0 -0.22564757126558971 -0.16975695531391649 0 -0.22737425325535829 -0.16099096294155141 0 -0.24705631832717739 -0.17252815801288299 0 -0.22010803589037489 -0.16038919713660349 0 -0.22564757126558971 -0.16975695531391649 0 -0.22737425325535829 -0.16099096294155141 0 -0.21700506105990869 -0.17202214190906739 0 -0.22010803589037489 -0.16038919713660349 0 -0.22564757126558971 -0.16975695531391649 0 -0.22737425325535829 -0.16099096294155141 0 -0.2409093305253287 -0.16045764494363471 0 -0.23410251777158009 -0.1547018317277625 0 -0.22564757126558971 -0.16975695531391649 0 -0.22710767304558141 -0.17857127070186521 0 -0.24705631832717739 -0.17252815801288299 0 -0.2364630849160371 -0.18954040733815231 0 -0.20774858415774389 -0.1850318955242036 0 -0.2364630849160371 -0.18954040733815231 0 -0.20774858415774389 -0.1850318955242036 0 -0.22710767304558141 -0.17857127070186521 0 -0.21700506105990869 -0.17202214190906739 0 -0.22564757126558971 -0.16975695531391649 0 -0.22710767304558141 -0.17857127070186521 0 -0.2364630849160371 -0.18954040733815231 0 -0.24705631832717739 -0.17252815801288299 0 -0.2504970432631623 -0.18458537053644361 0 -0.2364630849160371 -0.18954040733815231 0 -0.22710767304558141 -0.17857127070186521 0 -0.24705631832717739 -0.17252815801288299 0 -0.22737425325535829 -0.16099096294155141 0 -0.24705631832717739 -0.17252815801288299 0 -0.22737425325535829 -0.16099096294155141 0 -0.24705631832717739 -0.17252815801288299 0 -0.2409093305253287 -0.16045764494363471 0 -0.24705631832717739 -0.17252815801288299 0 -0.2409093305253287 -0.16045764494363471 0 -0.25352567449229479 -0.1612171356175249 0 -0.2409093305253287 -0.16045764494363471 0 -0.24357964538017271 -0.15340846770138011 0 -0.25352567449229479 -0.1612171356175249 0 -0.24357964538017271 -0.15340846770138011 0 -0.24882432452637129 -0.14519790410458591 0 -0.23770920581028621 -0.14729550428950319 0 -0.24357964538017271 -0.15340846770138011 0 -0.24882432452637129 -0.14519790410458591 0 -0.25352567449229479 -0.1612171356175249 0 -0.24882432452637129 -0.14519790410458591 0 -0.23770920581028621 -0.14729550428950319 0 -0.24051941509135899 -0.13901892874517571 0 -0.23770920581028621 -0.14729550428950319 0 -0.23300286739783499 -0.1406494776086937 0 -0.24051941509135899 -0.13901892874517571 0 -0.24357964538017271 -0.15340846770138011 0 -0.23770920581028621 -0.14729550428950319 0 -0.23410251777158009 -0.1547018317277625 0 -0.2409093305253287 -0.16045764494363471 0 -0.24357964538017271 -0.15340846770138011 0 -0.23410251777158009 -0.1547018317277625 0 -0.22737425325535829 -0.16099096294155141 0 -0.2266853583093261 -0.1488748440162341 0 -0.23410251777158009 -0.1547018317277625 0 -0.20769218818353899 -0.14945376787022011 0 -0.2266853583093261 -0.1488748440162341 0 -0.22259751532058131 -0.1391706262875923 0 -0.20769218818353899 -0.14945376787022011 0 -0.22737425325535829 -0.16099096294155141 0 -0.2266853583093261 -0.1488748440162341 0 -0.23770920581028621 -0.14729550428950319 0 -0.2266853583093261 -0.1488748440162341 0 -0.23410251777158009 -0.1547018317277625 0 -0.23770920581028621 -0.14729550428950319 0 -0.2266853583093261 -0.1488748440162341 0 -0.23300286739783499 -0.1406494776086937 0 -0.2266853583093261 -0.1488748440162341 0 -0.23300286739783499 -0.1406494776086937 0 -0.22259751532058131 -0.1391706262875923 0 -0.2217463460591598 -0.1297845450283944 0 -0.22259751532058131 -0.1391706262875923 0 -0.23750284245762279 -0.12888748470496339 0 -0.2217463460591598 -0.1297845450283944 0 -0.23750284245762279 -0.12888748470496339 0 -0.22453883541269909 -0.1220197992055882 0 -0.22259751532058131 -0.1391706262875923 0 -0.23750284245762279 -0.12888748470496339 0 -0.23300286739783499 -0.1406494776086937 0 -0.22259751532058131 -0.1391706262875923 0 -0.23750284245762279 -0.12888748470496339 0 -0.23750284245762279 -0.12888748470496339 0 -0.24718131202142851 -0.13298970001545379 0 -0.2301784405724209 -0.1163583816503814 0 -0.23300286739783499 -0.1406494776086937 0 -0.23750284245762279 -0.12888748470496339 0 -0.24051941509135899 -0.13901892874517571 0 -0.23750284245762279 -0.12888748470496339 0 -0.24051941509135899 -0.13901892874517571 0 -0.24718131202142851 -0.13298970001545379 0 -0.24882432452637129 -0.14519790410458591 0 -0.24051941509135899 -0.13901892874517571 0 -0.24718131202142851 -0.13298970001545379 0 -0.24718131202142851 -0.13298970001545379 0 -0.24930110540882561 -0.1226881304432532 0 -0.24271256037542191 -0.1205512643051623 0 -0.24718131202142851 -0.13298970001545379 0 -0.24271256037542191 -0.1205512643051623 0 -0.2301784405724209 -0.1163583816503814 0 -0.24718131202142851 -0.13298970001545379 0 -0.2301784405724209 -0.1163583816503814 0 -0.24930110540882561 -0.1226881304432532 0 -0.24271256037542191 -0.1205512643051623 0 -0.2483699570737615 -0.11680469508589229 0 -0.24271256037542191 -0.1205512643051623 0 -0.24461159672176169 -0.1149871951362883 0 -0.2483699570737615 -0.11680469508589229 0 -0.24271256037542191 -0.1205512643051623 0 -0.23799711649581559 -0.1153882829837075 0 -0.2301784405724209 -0.1163583816503814 0 -0.2426216121737737 -0.1114299616253745 0 -0.24551062641460111 -0.1062856122996412 0 -0.2301784405724209 -0.1163583816503814 0 -0.23799711649581559 -0.1153882829837075 0 -0.2426216121737737 -0.1114299616253745 0 -0.2301784405724209 -0.1163583816503814 0 -0.23799711649581559 -0.1153882829837075 0 -0.24147335639194889 -0.11481227699430969 0 -0.2426216121737737 -0.1114299616253745 0 -0.24271256037542191 -0.1205512643051623 0 -0.23799711649581559 -0.1153882829837075 0 -0.24147335639194889 -0.11481227699430969 0 -0.2426216121737737 -0.1114299616253745 0 -0.2472274137565158 -0.1120751659391188 0 -0.24551062641460111 -0.1062856122996412 0 -0.2426216121737737 -0.1114299616253745 0 -0.24461159672176169 -0.1149871951362883 0 -0.2472274137565158 -0.1120751659391188 0 -0.24271256037542191 -0.1205512643051623 0 -0.24147335639194889 -0.11481227699430969 0 -0.24461159672176169 -0.1149871951362883 0 -0.24147335639194889 -0.11481227699430969 0 -0.2426216121737737 -0.1114299616253745 0 -0.24461159672176169 -0.1149871951362883 0 -0.24461159672176169 -0.1149871951362883 0 -0.2483699570737615 -0.11680469508589229 0 -0.2472274137565158 -0.1120751659391188 0 -0.2483699570737615 -0.11680469508589229 0 -0.2472274137565158 -0.1120751659391188 0 -0.25055289176344459 -0.1138458128943325 0 -0.2472274137565158 -0.1120751659391188 0 -0.24551062641460111 -0.1062856122996412 0 -0.25108768803787179 -0.1103267026602596 0 -0.2472274137565158 -0.1120751659391188 0 -0.25055289176344459 -0.1138458128943325 0 -0.25108768803787179 -0.1103267026602596 0 -0.24776952962449 -0.098699255248078793 0 -0.25108768803787179 -0.1103267026602596 0 -0.24551062641460111 -0.1062856122996412 0 -0.24776952962449 -0.098699255248078793 0 -0.2301784405724209 -0.1163583816503814 0 -0.24776952962449 -0.098699255248078793 0 -0.23331986065327251 -0.10646252580388101 0 -0.2301784405724209 -0.1163583816503814 0 -0.24551062641460111 -0.1062856122996412 0 -0.24776952962449 -0.098699255248078793 0 -0.25108768803787179 -0.1103267026602596 0 -0.24776952962449 -0.098699255248078793 0 -0.2301784405724209 -0.1163583816503814 0 -0.24776952962449 -0.098699255248078793 0 -0.23692099880635711 -0.099919702515294737 0 -0.23737590622226379 -0.092624196837228834 0 -0.23692099880635711 -0.099919702515294737 0 -0.23145384129013891 -0.096796058549941957 0 -0.23737590622226379 -0.092624196837228834 0 -0.24776952962449 -0.098699255248078793 0 -0.23692099880635711 -0.099919702515294737 0 -0.23331986065327251 -0.10646252580388101 0 -0.23331986065327251 -0.10646252580388101 0 -0.23132482850893529 -0.1035602705705673 0 -0.22689553731035059 -0.10715459955792241 0 -0.23692099880635711 -0.099919702515294737 0 -0.23331986065327251 -0.10646252580388101 0 -0.23132482850893529 -0.1035602705705673 0 -0.23132482850893529 -0.1035602705705673 0 -0.22689553731035059 -0.10715459955792241 0 -0.22725992878548479 -0.10130077913002319 0 -0.23331986065327251 -0.10646252580388101 0 -0.22689553731035059 -0.10715459955792241 0 -0.2268298290970818 -0.113082945281041 0 -0.23692099880635711 -0.099919702515294737 0 -0.23132482850893529 -0.1035602705705673 0 -0.23145384129013891 -0.096796058549941957 0 -0.23145384129013891 -0.096796058549941957 0 -0.22725992878548479 -0.10130077913002319 0 -0.22382992255190501 -0.095663827258222048 0 -0.23132482850893529 -0.1035602705705673 0 -0.23145384129013891 -0.096796058549941957 0 -0.22725992878548479 -0.10130077913002319 0 -0.22382992255190501 -0.095663827258222048 0 -0.21910520890091781 -0.099476076872992689 0 -0.2152018172909328 -0.092302748511011931 0 -0.22725992878548479 -0.10130077913002319 0 -0.22382992255190501 -0.095663827258222048 0 -0.2227955142660939 -0.10332913971346221 0 -0.22382992255190501 -0.095663827258222048 0 -0.21910520890091781 -0.099476076872992689 0 -0.2227955142660939 -0.10332913971346221 0 -0.22689553731035059 -0.10715459955792241 0 -0.2227955142660939 -0.10332913971346221 0 -0.2212893146530675 -0.1096944789702726 0 -0.22689553731035059 -0.10715459955792241 0 -0.22725992878548479 -0.10130077913002319 0 -0.2227955142660939 -0.10332913971346221 0 -0.21910520890091781 -0.099476076872992689 0 -0.2227955142660939 -0.10332913971346221 0 -0.2167076253688501 -0.1050731339743257 0 -0.2227955142660939 -0.10332913971346221 0 -0.2212893146530675 -0.1096944789702726 0 -0.2167076253688501 -0.1050731339743257 0 -0.2219144741127258 -0.1162749425466236 0 -0.2268298290970818 -0.113082945281041 0 -0.2301784405724209 -0.1163583816503814 0 -0.22689553731035059 -0.10715459955792241 0 -0.2212893146530675 -0.1096944789702726 0 -0.2268298290970818 -0.113082945281041 0 -0.2212893146530675 -0.1096944789702726 0 -0.2219144741127258 -0.1162749425466236 0 -0.2268298290970818 -0.113082945281041 0 -0.2219144741127258 -0.1162749425466236 0 -0.22453883541269909 -0.1220197992055882 0 -0.2301784405724209 -0.1163583816503814 0 -0.2219144741127258 -0.1162749425466236 0 -0.22453883541269909 -0.1220197992055882 0 -0.21618594714036321 -0.1221858074254701 0 -0.2217463460591598 -0.1297845450283944 0 -0.22453883541269909 -0.1220197992055882 0 -0.21618594714036321 -0.1221858074254701 0 -0.22453883541269909 -0.1220197992055882 0 -0.2301784405724209 -0.1163583816503814 0 -0.23750284245762279 -0.12888748470496339 0 -0.22453883541269909 -0.1220197992055882 0 -0.2301784405724209 -0.1163583816503814 0 -0.23331986065327251 -0.10646252580388101 0 -0.2268298290970818 -0.113082945281041 0 -0.2301784405724209 -0.1163583816503814 0 -0.2268298290970818 -0.113082945281041 0 -0.2301784405724209 -0.1163583816503814 0 -0.24744405596131031 -0.073410624931666335 0 -0.23618329582071759 -0.051452869428485357 0 -0.25200988198892438 -0.063221977312765756 0 -0.24233039497873329 -0.079639510599894395 0 -0.2368912603329778 -0.060579765951709573 0 -0.24744405596131031 -0.073410624931666335 0 -0.24233039497873329 -0.079639510599894395 0 -0.2368912603329778 -0.060579765951709573 0 -0.24233039497873329 -0.079639510599894395 0 -0.23121241550044311 -0.069502281846460595 0 -0.2368912603329778 -0.060579765951709573 0 -0.24744405596131031 -0.073410624931666335 0 -0.2368912603329778 -0.060579765951709573 0 -0.24776952962449 -0.098699255248078793 0 -0.24233039497873329 -0.079639510599894395 0 -0.25611604975633062 -0.090320453140303569 0 -0.24776952962449 -0.098699255248078793 0 -0.24233039497873329 -0.079639510599894395 0 -0.24776952962449 -0.098699255248078793 0 -0.24233039497873329 -0.079639510599894395 0 -0.23737590622226379 -0.092624196837228834 0 -0.24744405596131031 -0.073410624931666335 0 -0.24233039497873329 -0.079639510599894395 0 -0.25611604975633062 -0.090320453140303569 0 -0.24233039497873329 -0.079639510599894395 0 -0.23737590622226379 -0.092624196837228834 0 -0.22939224877923539 -0.088315989762931049 0 -0.24233039497873329 -0.079639510599894395 0 -0.22939224877923539 -0.088315989762931049 0 -0.2259396346956089 -0.079460362215638181 0 -0.23145384129013891 -0.096796058549941957 0 -0.23737590622226379 -0.092624196837228834 0 -0.22939224877923539 -0.088315989762931049 0 -0.23145384129013891 -0.096796058549941957 0 -0.22382992255190501 -0.095663827258222048 0 -0.22939224877923539 -0.088315989762931049 0 -0.22382992255190501 -0.095663827258222048 0 -0.2178206742602786 -0.088062524803782988 0 -0.2152018172909328 -0.092302748511011931 0 -0.22382992255190501 -0.095663827258222048 0 -0.22939224877923539 -0.088315989762931049 0 -0.2178206742602786 -0.088062524803782988 0 -0.22939224877923539 -0.088315989762931049 0 -0.2259396346956089 -0.079460362215638181 0 -0.2178206742602786 -0.088062524803782988 0 -0.24233039497873329 -0.079639510599894395 0 -0.2259396346956089 -0.079460362215638181 0 -0.23121241550044311 -0.069502281846460595 0 -0.2259396346956089 -0.079460362215638181 0 -0.2225696682779354 -0.067074886467558159 0 -0.23121241550044311 -0.069502281846460595 0 -0.2259396346956089 -0.079460362215638181 0 -0.2225696682779354 -0.067074886467558159 0 -0.21383190721055809 -0.073697881661173401 0 -0.23121241550044311 -0.069502281846460595 0 -0.2283311192169597 -0.060756883997503043 0 -0.2368912603329778 -0.060579765951709573 0 -0.2225696682779354 -0.067074886467558159 0 -0.23121241550044311 -0.069502281846460595 0 -0.2283311192169597 -0.060756883997503043 0 -0.2114604565616906 -0.063727513947937922 0 -0.20564188703066119 -0.073761571853164426 0 -0.19790855768175639 -0.06541071102983273 0 -0.2225696682779354 -0.067074886467558159 0 -0.2114604565616906 -0.063727513947937922 0 -0.22097651672939139 -0.058337380447161788 0 -0.2225696682779354 -0.067074886467558159 0 -0.2114604565616906 -0.063727513947937922 0 -0.21383190721055809 -0.073697881661173401 0 -0.2114604565616906 -0.063727513947937922 0 -0.21383190721055809 -0.073697881661173401 0 -0.20564188703066119 -0.073761571853164426 0 -0.21383190721055809 -0.073697881661173401 0 -0.20564188703066119 -0.073761571853164426 0 -0.203051654608261 -0.083426608738907032 0 -0.2259396346956089 -0.079460362215638181 0 -0.2178206742602786 -0.088062524803782988 0 -0.203051654608261 -0.083426608738907032 0 -0.2259396346956089 -0.079460362215638181 0 -0.203051654608261 -0.083426608738907032 0 -0.2259396346956089 -0.079460362215638181 0 -0.21383190721055809 -0.073697881661173401 0 -0.203051654608261 -0.083426608738907032 0 -0.2152018172909328 -0.092302748511011931 0 -0.20714394633307559 -0.092686538574967753 0 -0.21090748628923739 -0.095691151814368353 0 -0.2178206742602786 -0.088062524803782988 0 -0.2152018172909328 -0.092302748511011931 0 -0.20950876763572829 -0.089205612335987741 0 -0.20950876763572829 -0.089205612335987741 0 -0.201034728572034 -0.090462875596008546 0 -0.203051654608261 -0.083426608738907032 0 -0.20950876763572829 -0.089205612335987741 0 -0.20714394633307559 -0.092686538574967753 0 -0.201034728572034 -0.090462875596008546 0 -0.2152018172909328 -0.092302748511011931 0 -0.20950876763572829 -0.089205612335987741 0 -0.20714394633307559 -0.092686538574967753 0 -0.2178206742602786 -0.088062524803782988 0 -0.20950876763572829 -0.089205612335987741 0 -0.203051654608261 -0.083426608738907032 0 -0.19318468511146689 -0.092109406454278855 0 -0.203051654608261 -0.083426608738907032 0 -0.18016367452091309 -0.087392855262175898 0 -0.19875420561944299 -0.081232940453496966 0 -0.203051654608261 -0.083426608738907032 0 -0.18016367452091309 -0.087392855262175898 0 -0.19875420561944299 -0.081232940453496966 0 -0.18016367452091309 -0.087392855262175898 0 -0.18646687421784999 -0.071141961013010901 0 -0.203051654608261 -0.083426608738907032 0 -0.18016367452091309 -0.087392855262175898 0 -0.201034728572034 -0.090462875596008546 0 -0.19318468511146689 -0.092109406454278855 0 -0.19922414726769319 -0.096496373592348444 0 -0.20714394633307559 -0.092686538574967753 0 -0.201034728572034 -0.090462875596008546 0 -0.19922414726769319 -0.096496373592348444 0 -0.201034728572034 -0.090462875596008546 0 -0.19318468511146689 -0.092109406454278855 0 -0.203051654608261 -0.083426608738907032 0 -0.20564188703066119 -0.073761571853164426 0 -0.19875420561944299 -0.081232940453496966 0 -0.203051654608261 -0.083426608738907032 0 -0.19875420561944299 -0.081232940453496966 0 -0.19790855768175639 -0.06541071102983273 0 -0.19875420561944299 -0.081232940453496966 0 -0.19790855768175639 -0.06541071102983273 0 -0.18646687421784999 -0.071141961013010901 0 -0.20564188703066119 -0.073761571853164426 0 -0.19875420561944299 -0.081232940453496966 0 -0.19790855768175639 -0.06541071102983273 0 -0.19790855768175639 -0.06541071102983273 0 -0.18646687421784999 -0.071141961013010901 0 -0.19098486857003821 -0.058503968960808082 0 -0.20726861624517071 -0.1219186579720847 0 -0.21274058155736419 -0.11322859986515039 0 -0.1996504760183021 -0.11331361639604889 0 -0.21274058155736419 -0.11322859986515039 0 -0.21013210194681781 -0.10548658804695429 0 -0.1996504760183021 -0.11331361639604889 0 -0.2219144741127258 -0.1162749425466236 0 -0.21618594714036321 -0.1221858074254701 0 -0.21274058155736419 -0.11322859986515039 0 -0.20726861624517071 -0.1219186579720847 0 -0.21618594714036321 -0.1221858074254701 0 -0.21274058155736419 -0.11322859986515039 0 -0.2212893146530675 -0.1096944789702726 0 -0.2219144741127258 -0.1162749425466236 0 -0.21274058155736419 -0.11322859986515039 0 -0.21274058155736419 -0.11322859986515039 0 -0.2167076253688501 -0.1050731339743257 0 -0.21013210194681781 -0.10548658804695429 0 -0.2212893146530675 -0.1096944789702726 0 -0.21274058155736419 -0.11322859986515039 0 -0.2167076253688501 -0.1050731339743257 0 -0.2167076253688501 -0.1050731339743257 0 -0.2138192829435068 -0.098992364090746271 0 -0.21013210194681781 -0.10548658804695429 0 -0.21910520890091781 -0.099476076872992689 0 -0.2152018172909328 -0.092302748511011931 0 -0.2138192829435068 -0.098992364090746271 0 -0.21910520890091781 -0.099476076872992689 0 -0.2167076253688501 -0.1050731339743257 0 -0.2138192829435068 -0.098992364090746271 0 -0.2152018172909328 -0.092302748511011931 0 -0.2138192829435068 -0.098992364090746271 0 -0.21090748628923739 -0.095691151814368353 0 -0.20714394633307559 -0.092686538574967753 0 -0.20746489858943429 -0.098782956080747455 0 -0.19922414726769319 -0.096496373592348444 0 -0.20714394633307559 -0.092686538574967753 0 -0.21090748628923739 -0.095691151814368353 0 -0.20746489858943429 -0.098782956080747455 0 -0.2138192829435068 -0.098992364090746271 0 -0.20746489858943429 -0.098782956080747455 0 -0.21013210194681781 -0.10548658804695429 0 -0.2138192829435068 -0.098992364090746271 0 -0.21090748628923739 -0.095691151814368353 0 -0.20746489858943429 -0.098782956080747455 0 -0.21013210194681781 -0.10548658804695429 0 -0.2023229345829938 -0.1040205802755934 0 -0.1996504760183021 -0.11331361639604889 0 -0.20746489858943429 -0.098782956080747455 0 -0.21013210194681781 -0.10548658804695429 0 -0.2023229345829938 -0.1040205802755934 0 -0.2023229345829938 -0.1040205802755934 0 -0.18813302582262501 -0.10272512708762351 0 -0.1996504760183021 -0.11331361639604889 0 -0.2023229345829938 -0.1040205802755934 0 -0.19922414726769319 -0.096496373592348444 0 -0.18813302582262501 -0.10272512708762351 0 -0.20746489858943429 -0.098782956080747455 0 -0.2023229345829938 -0.1040205802755934 0 -0.19922414726769319 -0.096496373592348444 0 -0.19318468511146689 -0.092109406454278855 0 -0.19922414726769319 -0.096496373592348444 0 -0.18813302582262501 -0.10272512708762351 0 -0.19834891101658281 -0.1287167103705685 0 -0.1996504760183021 -0.11331361639604889 0 -0.1834369409203665 -0.1185088791517297 0 -0.18813302582262501 -0.10272512708762351 0 -0.1996504760183021 -0.11331361639604889 0 -0.1834369409203665 -0.1185088791517297 0 -0.19834891101658281 -0.1287167103705685 0 -0.20726861624517071 -0.1219186579720847 0 -0.1996504760183021 -0.11331361639604889 0 -0.1834369409203665 -0.1185088791517297 0 -0.16335650221810749 -0.1234651606921613 0 -0.16856900584572929 -0.10575775021733411 0 -0.16335650221810749 -0.1234651606921613 0 -0.16856900584572929 -0.10575775021733411 0 -0.14118865923539151 -0.11047085710313211 0 -0.16856900584572929 -0.10575775021733411 0 -0.18016367452091309 -0.087392855262175898 0 -0.15727569443356529 -0.091359101785444735 0 -0.18813302582262501 -0.10272512708762351 0 -0.16856900584572929 -0.10575775021733411 0 -0.18016367452091309 -0.087392855262175898 0 -0.18813302582262501 -0.10272512708762351 0 -0.1834369409203665 -0.1185088791517297 0 -0.16856900584572929 -0.10575775021733411 0 -0.19318468511146689 -0.092109406454278855 0 -0.18813302582262501 -0.10272512708762351 0 -0.18016367452091309 -0.087392855262175898 0 -0.18646687421784999 -0.071141961013010901 0 -0.17004622544857789 -0.07304124381601021 0 -0.17948577583544059 -0.060109878652331923 0 -0.18016367452091309 -0.087392855262175898 0 -0.18646687421784999 -0.071141961013010901 0 -0.17004622544857789 -0.07304124381601021 0 -0.18646687421784999 -0.071141961013010901 0 -0.17948577583544059 -0.060109878652331923 0 -0.19098486857003821 -0.058503968960808082 0 -0.17004622544857789 -0.07304124381601021 0 -0.16397703021769891 -0.057306464079610743 0 -0.17948577583544059 -0.060109878652331923 0 -0.17004622544857789 -0.07304124381601021 0 -0.15290830346600001 -0.070937202103487113 0 -0.16397703021769891 -0.057306464079610743 0 -0.18016367452091309 -0.087392855262175898 0 -0.15727569443356529 -0.091359101785444735 0 -0.17004622544857789 -0.07304124381601021 0 -0.15727569443356529 -0.091359101785444735 0 -0.15290830346600001 -0.070937202103487113 0 -0.18016367452091309 -0.087392855262175898 0 -0.17004622544857789 -0.07304124381601021 0 -0.15727569443356529 -0.091359101785444735 0 -0.15727569443356529 -0.091359101785444735 0 -0.13438771434621749 -0.095325348308713587 0 -0.15727569443356529 -0.091359101785444735 0 -0.14205262975103181 -0.081465085752913613 0 -0.13438771434621749 -0.095325348308713587 0 -0.15727569443356529 -0.091359101785444735 0 -0.14205262975103181 -0.081465085752913613 0 -0.15290830346600001 -0.070937202103487113 0 -0.15290830346600001 -0.070937202103487113 0 -0.1374901531249135 -0.069005049765209173 0 -0.14512725822577649 -0.054133084674492772 0 -0.14205262975103181 -0.081465085752913613 0 -0.15290830346600001 -0.070937202103487113 0 -0.1374901531249135 -0.069005049765209173 0 -0.14205262975103181 -0.081465085752913613 0 -0.1374901531249135 -0.069005049765209173 0 -0.12820128338446271 -0.080698726801713389 0 -0.1231042230056449 -0.067893890505278651 0 -0.1374901531249135 -0.069005049765209173 0 -0.12820128338446271 -0.080698726801713389 0 -0.1231042230056449 -0.067893890505278651 0 -0.1374901531249135 -0.069005049765209173 0 -0.13183605743416019 -0.057206228931877483 0 -0.14205262975103181 -0.081465085752913613 0 -0.12820128338446271 -0.080698726801713389 0 -0.13438771434621749 -0.095325348308713587 0 -0.1206626991235149 -0.088603031808348678 0 -0.12820128338446271 -0.080698726801713389 0 -0.13438771434621749 -0.095325348308713587 0 -0.1190208162526756 -0.097476553514102893 0 -0.14118865923539151 -0.11047085710313211 0 -0.11521125713739901 -0.11211541922073411 0 -0.1190208162526756 -0.097476553514102893 0 -0.14118865923539151 -0.11047085710313211 0 -0.1190208162526756 -0.097476553514102893 0 -0.13438771434621749 -0.095325348308713587 0 -0.14118865923539151 -0.11047085710313211 0 -0.11521125713739901 -0.11211541922073411 0 -0.12885287378670199 -0.12870177913502259 0 -0.14118865923539151 -0.11047085710313211 0 -0.12885287378670199 -0.12870177913502259 0 -0.14607068595275149 -0.13117741892535681 0 -0.14118865923539151 -0.11047085710313211 0 -0.14607068595275149 -0.13117741892535681 0 -0.16335650221810749 -0.1234651606921613 0 -0.14118865923539151 -0.11047085710313211 0 -0.16335650221810749 -0.1234651606921613 0 -0.14118865923539151 -0.11047085710313211 0 -0.16856900584572929 -0.10575775021733411 0 -0.15727569443356529 -0.091359101785444735 0 -0.14118865923539151 -0.11047085710313211 0 -0.15727569443356529 -0.091359101785444735 0 -0.13438771434621749 -0.095325348308713587 0 -0.14118865923539151 -0.11047085710313211 0 -0.14640486410360021 -0.018137171589231789 0 -0.15776726663393731 -0.037747746424903091 0 -0.16144777814437941 -0.019633991824177612 0 -0.14640486410360021 -0.018137171589231789 0 -0.15639429019384121 -0.0085981368626084284 0 -0.14617263381253279 0.0085748710403351774 0 -0.14640486410360021 -0.018137171589231789 0 -0.16144777814437941 -0.019633991824177612 0 -0.15639429019384121 -0.0085981368626084284 0 -0.14640486410360021 -0.018137171589231789 0 -0.12824419707017101 -0.0061544405190142289 0 -0.14617263381253279 0.0085748710403351774 0 -0.14640486410360021 -0.018137171589231789 0 -0.1254752102395226 -0.02387586125605223 0 -0.13291481795073021 -0.040595139210783997 0 -0.14640486410360021 -0.018137171589231789 0 -0.12824419707017101 -0.0061544405190142289 0 -0.1254752102395226 -0.02387586125605223 0 -0.13291481795073021 -0.040595139210783997 0 -0.13183605743416019 -0.057206228931877483 0 -0.14512725822577649 -0.054133084674492772 0 -0.1181845702790487 -0.054650818724079377 0 -0.13291481795073021 -0.040595139210783997 0 -0.13183605743416019 -0.057206228931877483 0 -0.1374901531249135 -0.069005049765209173 0 -0.13183605743416019 -0.057206228931877483 0 -0.14512725822577649 -0.054133084674492772 0 -0.14512725822577649 -0.054133084674492772 0 -0.15776726663393731 -0.037747746424903091 0 -0.16397703021769891 -0.057306464079610743 0 -0.15290830346600001 -0.070937202103487113 0 -0.14512725822577649 -0.054133084674492772 0 -0.16397703021769891 -0.057306464079610743 0 -0.14640486410360021 -0.018137171589231789 0 -0.13291481795073021 -0.040595139210783997 0 -0.15776726663393731 -0.037747746424903091 0 -0.13291481795073021 -0.040595139210783997 0 -0.14512725822577649 -0.054133084674492772 0 -0.15776726663393731 -0.037747746424903091 0 -0.15776726663393731 -0.037747746424903091 0 -0.16397703021769891 -0.057306464079610743 0 -0.1782659329244459 -0.045363615535157997 0 -0.15776726663393731 -0.037747746424903091 0 -0.1782659329244459 -0.045363615535157997 0 -0.17480281339708131 -0.03088032778167743 0 -0.16397703021769891 -0.057306464079610743 0 -0.17948577583544059 -0.060109878652331923 0 -0.1782659329244459 -0.045363615535157997 0 -0.1859347530178814 -0.051530468701080891 0 -0.1782659329244459 -0.045363615535157997 0 -0.18768917979187311 -0.044268208214715249 0 -0.17948577583544059 -0.060109878652331923 0 -0.1859347530178814 -0.051530468701080891 0 -0.1782659329244459 -0.045363615535157997 0 -0.17948577583544059 -0.060109878652331923 0 -0.1859347530178814 -0.051530468701080891 0 -0.19098486857003821 -0.058503968960808082 0 -0.1782659329244459 -0.045363615535157997 0 -0.18768917979187311 -0.044268208214715249 0 -0.18874274708546929 -0.035568025157392352 0 -0.1782659329244459 -0.045363615535157997 0 -0.17480281339708131 -0.03088032778167743 0 -0.18874274708546929 -0.035568025157392352 0 -0.17480281339708131 -0.03088032778167743 0 -0.1955264628263732 -0.020841275415864939 0 -0.18874274708546929 -0.035568025157392352 0 -0.17480281339708131 -0.03088032778167743 0 -0.18669657653120819 -0.003531985954932391 0 -0.1955264628263732 -0.020841275415864939 0 -0.17480281339708131 -0.03088032778167743 0 -0.18669657653120819 -0.003531985954932391 0 -0.15776726663393731 -0.037747746424903091 0 -0.17480281339708131 -0.03088032778167743 0 -0.16144777814437941 -0.019633991824177612 0 -0.17480281339708131 -0.03088032778167743 0 -0.16144777814437941 -0.019633991824177612 0 -0.17155188471485269 -0.0051962550773594907 0 -0.15639429019384121 -0.0085981368626084284 0 -0.17155188471485269 -0.0051962550773594907 0 -0.14617263381253279 0.0085748710403351774 0 -0.16144777814437941 -0.019633991824177612 0 -0.15639429019384121 -0.0085981368626084284 0 -0.17155188471485269 -0.0051962550773594907 0 -0.17480281339708131 -0.03088032778167743 0 -0.17155188471485269 -0.0051962550773594907 0 -0.18669657653120819 -0.003531985954932391 0 -0.17155188471485269 -0.0051962550773594907 0 -0.18669657653120819 -0.003531985954932391 0 -0.17765711101168691 0.0050835372579574462 0 -0.2019254765814249 -0.004198978970034007 0 -0.1955264628263732 -0.020841275415864939 0 -0.20376609321397959 -0.012957493194060339 0 -0.2019254765814249 -0.004198978970034007 0 -0.1955264628263732 -0.020841275415864939 0 -0.1939900159086764 0.0079059307744385951 0 -0.1955264628263732 -0.020841275415864939 0 -0.1939900159086764 0.0079059307744385951 0 -0.18669657653120819 -0.003531985954932391 0 -0.1955264628263732 -0.020841275415864939 0 -0.1939900159086764 0.0079059307744385951 0 -0.2000289163082011 -0.02706500561222085 0 -0.1955264628263732 -0.020841275415864939 0 -0.20048423579094771 -0.034722095433287067 0 -0.2000289163082011 -0.02706500561222085 0 -0.1955264628263732 -0.020841275415864939 0 -0.19979025399750791 -0.023215198802810019 0 -0.20192707856886549 -0.026038755879288299 0 -0.2000289163082011 -0.02706500561222085 0 -0.19979025399750791 -0.023215198802810019 0 -0.2000289163082011 -0.02706500561222085 0 -0.2024165503573111 -0.030507702529853919 0 -0.20048423579094771 -0.034722095433287067 0 -0.20192707856886549 -0.026038755879288299 0 -0.2000289163082011 -0.02706500561222085 0 -0.2024165503573111 -0.030507702529853919 0 -0.1955264628263732 -0.020841275415864939 0 -0.20241805131067001 -0.018664722855042851 0 -0.20376609321397959 -0.012957493194060339 0 -0.20192707856886549 -0.026038755879288299 0 -0.19979025399750791 -0.023215198802810019 0 -0.20241805131067001 -0.018664722855042851 0 -0.1955264628263732 -0.020841275415864939 0 -0.19979025399750791 -0.023215198802810019 0 -0.20241805131067001 -0.018664722855042851 0 -0.20241805131067001 -0.018664722855042851 0 -0.2077985992509053 -0.016008927179935122 0 -0.2140757804265887 -0.02128002175205165 0 -0.2077985992509053 -0.016008927179935122 0 -0.2140757804265887 -0.02128002175205165 0 -0.21093447205238289 -0.01113347091858565 0 -0.20241805131067001 -0.018664722855042851 0 -0.21576275472301629 -0.034890187048955378 0 -0.20241805131067001 -0.018664722855042851 0 -0.21406331404813039 -0.027047245295380971 0 -0.2140757804265887 -0.02128002175205165 0 -0.20241805131067001 -0.018664722855042851 0 -0.20626684920052779 -0.030642296215854171 0 -0.21576275472301629 -0.034890187048955378 0 -0.20241805131067001 -0.018664722855042851 0 -0.2077985992509053 -0.016008927179935122 0 -0.20376609321397959 -0.012957493194060339 0 -0.20241805131067001 -0.018664722855042851 0 -0.21406331404813039 -0.027047245295380971 0 -0.21576275472301629 -0.034890187048955378 0 -0.20192707856886549 -0.026038755879288299 0 -0.20241805131067001 -0.018664722855042851 0 -0.20626684920052779 -0.030642296215854171 0 -0.20192707856886549 -0.026038755879288299 0 -0.2024165503573111 -0.030507702529853919 0 -0.20626684920052779 -0.030642296215854171 0 -0.21406331404813039 -0.027047245295380971 0 -0.2140757804265887 -0.02128002175205165 0 -0.2202967384961822 -0.027100405921788459 0 -0.21406331404813039 -0.027047245295380971 0 -0.21776324528419469 -0.03330088889906653 0 -0.2202967384961822 -0.027100405921788459 0 -0.2140757804265887 -0.02128002175205165 0 -0.21093447205238289 -0.01113347091858565 0 -0.22420643811467969 -0.0098198510058323061 0 -0.21093447205238289 -0.01113347091858565 0 -0.22420643811467969 -0.0098198510058323061 0 -0.21572218076635499 0.00017724424686144791 0 -0.2019254765814249 -0.004198978970034007 0 -0.21093447205238289 -0.01113347091858565 0 -0.21572218076635499 0.00017724424686144791 0 -0.2019254765814249 -0.004198978970034007 0 -0.20376609321397959 -0.012957493194060339 0 -0.21093447205238289 -0.01113347091858565 0 -0.2077985992509053 -0.016008927179935122 0 -0.20376609321397959 -0.012957493194060339 0 -0.21093447205238289 -0.01113347091858565 0 -0.19790855768175639 -0.06541071102983273 0 -0.19098486857003821 -0.058503968960808082 0 -0.1970629097440699 -0.049588481606168529 0 -0.19790855768175639 -0.06541071102983273 0 -0.1970629097440699 -0.049588481606168529 0 -0.19790855768175639 -0.06541071102983273 0 -0.1970629097440699 -0.049588481606168529 0 -0.2049262907136723 -0.05741014014203881 0 -0.19324800796760941 -0.049406672142391223 0 -0.1970629097440699 -0.049588481606168529 0 -0.18768917979187311 -0.044268208214715249 0 -0.19098486857003821 -0.058503968960808082 0 -0.19324800796760941 -0.049406672142391223 0 -0.1970629097440699 -0.049588481606168529 0 -0.1859347530178814 -0.051530468701080891 0 -0.19098486857003821 -0.058503968960808082 0 -0.19324800796760941 -0.049406672142391223 0 -0.1859347530178814 -0.051530468701080891 0 -0.19324800796760941 -0.049406672142391223 0 -0.18768917979187311 -0.044268208214715249 0 -0.19324800796760941 -0.049406672142391223 0 -0.1970629097440699 -0.049588481606168529 0 -0.1955264628263732 -0.020841275415864939 0 -0.1970629097440699 -0.049588481606168529 0 -0.1955264628263732 -0.020841275415864939 0 -0.1970629097440699 -0.049588481606168529 0 -0.20048423579094771 -0.034722095433287067 0 -0.1955264628263732 -0.020841275415864939 0 -0.1970629097440699 -0.049588481606168529 0 -0.18874274708546929 -0.035568025157392352 0 -0.1970629097440699 -0.049588481606168529 0 -0.20048423579094771 -0.034722095433287067 0 -0.20368284517312729 -0.042685004503217612 0 -0.1970629097440699 -0.049588481606168529 0 -0.18768917979187311 -0.044268208214715249 0 -0.18874274708546929 -0.035568025157392352 0 -0.20048423579094771 -0.034722095433287067 0 -0.2049282591634955 -0.03773079445259208 0 -0.20368284517312729 -0.042685004503217612 0 -0.2024165503573111 -0.030507702529853919 0 -0.20048423579094771 -0.034722095433287067 0 -0.20411516494209159 -0.033819324059796062 0 -0.20626684920052779 -0.030642296215854171 0 -0.21070111383500931 -0.035901368131863842 0 -0.21576275472301629 -0.034890187048955378 0 -0.20626684920052779 -0.030642296215854171 0 -0.20411516494209159 -0.033819324059796062 0 -0.20729737141324259 -0.035634025200816363 0 -0.2024165503573111 -0.030507702529853919 0 -0.20626684920052779 -0.030642296215854171 0 -0.20411516494209159 -0.033819324059796062 0 -0.20411516494209159 -0.033819324059796062 0 -0.2049282591634955 -0.03773079445259208 0 -0.20729737141324259 -0.035634025200816363 0 -0.20048423579094771 -0.034722095433287067 0 -0.20411516494209159 -0.033819324059796062 0 -0.2049282591634955 -0.03773079445259208 0 -0.21070111383500931 -0.035901368131863842 0 -0.21278712008636241 -0.039087046708851388 0 -0.2089892113892225 -0.040917365693902578 0 -0.2049282591634955 -0.03773079445259208 0 -0.20729737141324259 -0.035634025200816363 0 -0.2089892113892225 -0.040917365693902578 0 -0.21070111383500931 -0.035901368131863842 0 -0.20729737141324259 -0.035634025200816363 0 -0.2089892113892225 -0.040917365693902578 0 -0.20626684920052779 -0.030642296215854171 0 -0.21070111383500931 -0.035901368131863842 0 -0.20729737141324259 -0.035634025200816363 0 -0.21406331404813039 -0.027047245295380971 0 -0.21576275472301629 -0.034890187048955378 0 -0.21776324528419469 -0.03330088889906653 0 -0.21070111383500931 -0.035901368131863842 0 -0.21576275472301629 -0.034890187048955378 0 -0.21278712008636241 -0.039087046708851388 0 -0.21576275472301629 -0.034890187048955378 0 -0.21278712008636241 -0.039087046708851388 0 -0.21594634565473589 -0.04327246342381931 0 -0.21594634565473589 -0.04327246342381931 0 -0.2089892113892225 -0.040917365693902578 0 -0.2130851839397159 -0.050352066424519212 0 -0.21278712008636241 -0.039087046708851388 0 -0.21594634565473589 -0.04327246342381931 0 -0.2089892113892225 -0.040917365693902578 0 -0.2089892113892225 -0.040917365693902578 0 -0.20368284517312729 -0.042685004503217612 0 -0.2130851839397159 -0.050352066424519212 0 -0.2049282591634955 -0.03773079445259208 0 -0.2089892113892225 -0.040917365693902578 0 -0.20368284517312729 -0.042685004503217612 0 -0.1970629097440699 -0.049588481606168529 0 -0.2130851839397159 -0.050352066424519212 0 -0.1970629097440699 -0.049588481606168529 0 -0.20368284517312729 -0.042685004503217612 0 -0.2130851839397159 -0.050352066424519212 0 -0.1970629097440699 -0.049588481606168529 0 -0.2130851839397159 -0.050352066424519212 0 -0.2049262907136723 -0.05741014014203881 0 -0.2114604565616906 -0.063727513947937922 0 -0.2130851839397159 -0.050352066424519212 0 -0.22097651672939139 -0.058337380447161788 0 -0.2114604565616906 -0.063727513947937922 0 -0.19790855768175639 -0.06541071102983273 0 -0.2049262907136723 -0.05741014014203881 0 -0.2114604565616906 -0.063727513947937922 0 -0.2130851839397159 -0.050352066424519212 0 -0.2049262907136723 -0.05741014014203881 0 -0.2130851839397159 -0.050352066424519212 0 -0.2291074581353619 -0.051115651242868522 0 -0.2130851839397159 -0.050352066424519212 0 -0.22097651672939139 -0.058337380447161788 0 -0.2291074581353619 -0.051115651242868522 0 -0.21594634565473589 -0.04327246342381931 0 -0.2130851839397159 -0.050352066424519212 0 -0.2291074581353619 -0.051115651242868522 0 -0.2283311192169597 -0.060756883997503043 0 -0.2291074581353619 -0.051115651242868522 0 -0.2368912603329778 -0.060579765951709573 0 -0.2291074581353619 -0.051115651242868522 0 -0.2368912603329778 -0.060579765951709573 0 -0.2225696682779354 -0.067074886467558159 0 -0.2283311192169597 -0.060756883997503043 0 -0.22097651672939139 -0.058337380447161788 0 -0.2283311192169597 -0.060756883997503043 0 -0.22097651672939139 -0.058337380447161788 0 -0.2291074581353619 -0.051115651242868522 0 -0.2291074581353619 -0.051115651242868522 0 -0.23426054150683159 -0.051361235370447407 0 -0.2368912603329778 -0.060579765951709573 0 -0.2291074581353619 -0.051115651242868522 0 -0.23426054150683159 -0.051361235370447407 0 -0.2291074581353619 -0.051115651242868522 0 -0.23426054150683159 -0.051361235370447407 0 -0.23240419926738359 -0.044856265119138761 0 -0.23426054150683159 -0.051361235370447407 0 -0.23240419926738359 -0.044856265119138761 0 -0.23240419926738359 -0.044856265119138761 0 -0.23618329582071759 -0.051452869428485357 0 -0.23426054150683159 -0.051361235370447407 0 -0.23240419926738359 -0.044856265119138761 0 -0.23618329582071759 -0.051452869428485357 0 -0.21576275472301629 -0.034890187048955378 0 -0.21594634565473589 -0.04327246342381931 0 -0.2291074581353619 -0.051115651242868522 0 -0.21576275472301629 -0.034890187048955378 0 -0.2291074581353619 -0.051115651242868522 0 -0.21576275472301629 -0.034890187048955378 0 -0.2291074581353619 -0.051115651242868522 0 -0.23008409018831821 -0.036726169160324583 0 -0.23240419926738359 -0.044856265119138761 0 -0.23008409018831821 -0.036726169160324583 0 -0.2291074581353619 -0.051115651242868522 0 -0.23240419926738359 -0.044856265119138761 0 -0.23008409018831821 -0.036726169160324583 0 -0.21776324528419469 -0.03330088889906653 0 -0.23008409018831821 -0.036726169160324583 0 -0.2202967384961822 -0.027100405921788459 0 -0.21576275472301629 -0.034890187048955378 0 -0.21776324528419469 -0.03330088889906653 0 -0.23008409018831821 -0.036726169160324583 0 -0.21776324528419469 -0.03330088889906653 0 -0.23008409018831821 -0.036726169160324583 0 -0.23008409018831821 -0.036726169160324583 0 -0.24316189043184561 -0.032366010585385033 0 -0.25080362157571362 -0.04248634246305287 0 -0.23008409018831821 -0.036726169160324583 0 -0.25080362157571362 -0.04248634246305287 0 -0.23008409018831821 -0.036726169160324583 0 -0.24081175992020651 -0.045547271177453691 0 -0.25080362157571362 -0.04248634246305287 0 -0.23008409018831821 -0.036726169160324583 0 -0.24316189043184561 -0.032366010585385033 0 -0.23540461670715859 -0.026690598052271801 0 -0.24316189043184561 -0.032366010585385033 0 -0.25541003409904289 -0.03054075655150203 0 -0.25080362157571362 -0.04248634246305287 0 -0.24081175992020651 -0.045547271177453691 0 -0.25080362157571362 -0.04248634246305287 0 -0.25423805202648719 -0.05231331767505544 0 -0.23240419926738359 -0.044856265119138761 0 -0.23008409018831821 -0.036726169160324583 0 -0.24081175992020651 -0.045547271177453691 0 -0.23618329582071759 -0.051452869428485357 0 -0.25423805202648719 -0.05231331767505544 0 -0.24744405596131031 -0.073410624931666335 0 -0.23618329582071759 -0.051452869428485357 0 -0.2368912603329778 -0.060579765951709573 0 -0.23618329582071759 -0.051452869428485357 0 -0.25423805202648719 -0.05231331767505544 0 -0.25200988198892438 -0.063221977312765756 0 -0.24081175992020651 -0.045547271177453691 0 -0.23618329582071759 -0.051452869428485357 0 -0.25423805202648719 -0.05231331767505544 0 -0.24744405596131031 -0.073410624931666335 0 -0.23618329582071759 -0.051452869428485357 0 -0.23426054150683159 -0.051361235370447407 0 -0.23618329582071759 -0.051452869428485357 0 -0.2368912603329778 -0.060579765951709573 0 -0.23240419926738359 -0.044856265119138761 0 -0.24081175992020651 -0.045547271177453691 0 -0.23618329582071759 -0.051452869428485357 0 -0.23426054150683159 -0.051361235370447407 0 -0.23618329582071759 -0.051452869428485357 0 -0.23426054150683159 -0.051361235370447407 0 -0.2368912603329778 -0.060579765951709573 0 -0.22420643811467969 -0.0098198510058323061 0 -0.24118838398416581 -0.0052626334370533103 0 -0.22980685801452211 0.0048618803449108072 0 -0.22420643811467969 -0.0098198510058323061 0 -0.23721336149703831 -0.017141441154380509 0 -0.24118838398416581 -0.0052626334370533103 0 -0.22420643811467969 -0.0098198510058323061 0 -0.21572218076635499 0.00017724424686144791 0 -0.22980685801452211 0.0048618803449108072 0 -0.2140757804265887 -0.02128002175205165 0 -0.22420643811467969 -0.0098198510058323061 0 -0.22551274121014139 -0.02070730772437877 0 -0.2140757804265887 -0.02128002175205165 0 -0.22551274121014139 -0.02070730772437877 0 -0.2202967384961822 -0.027100405921788459 0 -0.23008409018831821 -0.036726169160324583 0 -0.22551274121014139 -0.02070730772437877 0 -0.23540461670715859 -0.026690598052271801 0 -0.23008409018831821 -0.036726169160324583 0 -0.22551274121014139 -0.02070730772437877 0 -0.23008409018831821 -0.036726169160324583 0 -0.22551274121014139 -0.02070730772437877 0 -0.2202967384961822 -0.027100405921788459 0 -0.22551274121014139 -0.02070730772437877 0 -0.23721336149703831 -0.017141441154380509 0 -0.23540461670715859 -0.026690598052271801 0 -0.22420643811467969 -0.0098198510058323061 0 -0.22551274121014139 -0.02070730772437877 0 -0.23721336149703831 -0.017141441154380509 0 -0.23721336149703831 -0.017141441154380509 0 -0.24483234643255899 -0.024961039306070281 0 -0.2528559146335258 -0.016582461782173971 0 -0.23721336149703831 -0.017141441154380509 0 -0.23540461670715859 -0.026690598052271801 0 -0.24483234643255899 -0.024961039306070281 0 -0.24316189043184561 -0.032366010585385033 0 -0.23540461670715859 -0.026690598052271801 0 -0.24483234643255899 -0.024961039306070281 0 -0.24316189043184561 -0.032366010585385033 0 -0.24483234643255899 -0.024961039306070281 0 -0.25541003409904289 -0.03054075655150203 0 -0.23721336149703831 -0.017141441154380509 0 -0.24118838398416581 -0.0052626334370533103 0 -0.2528559146335258 -0.016582461782173971 0 -0.24118838398416581 -0.0052626334370533103 0 -0.25817912032164159 -0.001189089740970712 0 -0.2528559146335258 -0.016582461782173971 0 -0.25817912032164159 -0.001189089740970712 0 -0.2528559146335258 -0.016582461782173971 0 -0.26595745806190801 -0.013967391123354361 0 -0.24483234643255899 -0.024961039306070281 0 -0.25541003409904289 -0.03054075655150203 0 -0.2528559146335258 -0.016582461782173971 0 -0.2528559146335258 -0.016582461782173971 0 -0.2665953674534155 -0.024265043800396079 0 -0.26595745806190801 -0.013967391123354361 0 -0.25541003409904289 -0.03054075655150203 0 -0.2528559146335258 -0.016582461782173971 0 -0.2665953674534155 -0.024265043800396079 0 -0.25541003409904289 -0.03054075655150203 0 -0.2665953674534155 -0.024265043800396079 0 -0.26543242028812442 -0.03246963366972673 0 -0.27695125355667161 -0.021316209151671341 0 -0.27520563434428569 -0.0064841511415596863 0 -0.29112202335001269 -0.01956672155271956 0 -0.2665953674534155 -0.024265043800396079 0 -0.27413132308388288 -0.033362372380308362 0 -0.26543242028812442 -0.03246963366972673 0 -0.2665953674534155 -0.024265043800396079 0 -0.27695125355667161 -0.021316209151671341 0 -0.27413132308388288 -0.033362372380308362 0 -0.2665953674534155 -0.024265043800396079 0 -0.27695125355667161 -0.021316209151671341 0 -0.26595745806190801 -0.013967391123354361 0 -0.27695125355667161 -0.021316209151671341 0 -0.28485067281374532 -0.034956598314312137 0 -0.27413132308388288 -0.033362372380308362 0 -0.25817912032164159 -0.001189089740970712 0 -0.26595745806190801 -0.013967391123354361 0 -0.27520563434428569 -0.0064841511415596863 0 -0.27695125355667161 -0.021316209151671341 0 -0.26595745806190801 -0.013967391123354361 0 -0.27520563434428569 -0.0064841511415596863 0 -0.27520563434428569 -0.0064841511415596863 0 -0.29112202335001269 -0.01956672155271956 0 -0.28499154041886687 0.0089392766707816068 0 -0.29112202335001269 -0.01956672155271956 0 -0.3002649957965276 -0.0028578451550066008 0 -0.28499154041886687 0.0089392766707816068 0 -0.29112202335001269 -0.01956672155271956 0 -0.28499154041886687 0.0089392766707816068 0 -0.27695125355667161 -0.021316209151671341 0 -0.29112202335001269 -0.01956672155271956 0 -0.28485067281374532 -0.034956598314312137 0 -0.30502667292810359 -0.017207382384346461 0 -0.30847303878627402 -0.03448715403954053 0 -0.30140376839483141 -0.031949221810101222 0 -0.30502667292810359 -0.017207382384346461 0 -0.30847303878627402 -0.03448715403954053 0 -0.3200506228046639 -0.032860238793088213 0 -0.29112202335001269 -0.01956672155271956 0 -0.30502667292810359 -0.017207382384346461 0 -0.30140376839483141 -0.031949221810101222 0 -0.30502667292810359 -0.017207382384346461 0 -0.3002649957965276 -0.0028578451550066008 0 -0.31350150359346979 -0.0012260699301545339 0 -0.29112202335001269 -0.01956672155271956 0 -0.30502667292810359 -0.017207382384346461 0 -0.3002649957965276 -0.0028578451550066008 0 -0.29725250628115851 -0.048072719776220733 0 -0.303382989212304 -0.076578717999721935 0 -0.29725250628115851 -0.048072719776220733 0 -0.30720032160640309 -0.058701723308772623 0 -0.303382989212304 -0.076578717999721935 0 -0.29725250628115851 -0.048072719776220733 0 -0.30720032160640309 -0.058701723308772623 0 -0.30751307274322659 -0.050112919254608888 0 -0.30720032160640309 -0.058701723308772623 0 -0.31154406413348612 -0.054534616837506378 0 -0.31474710051199661 -0.059263441617989618 0 -0.31154406413348612 -0.054534616837506378 0 -0.30751307274322659 -0.050112919254608888 0 -0.31671576167231819 -0.050060383168654438 0 -0.30720032160640309 -0.058701723308772623 0 -0.31154406413348612 -0.054534616837506378 0 -0.30751307274322659 -0.050112919254608888 0 -0.29725250628115851 -0.048072719776220733 0 -0.30514460062860832 -0.040412131297678802 0 -0.30140376839483141 -0.031949221810101222 0 -0.30751307274322659 -0.050112919254608888 0 -0.30514460062860832 -0.040412131297678802 0 -0.31427132125368501 -0.041601320436518881 0 -0.30514460062860832 -0.040412131297678802 0 -0.30847303878627402 -0.03448715403954053 0 -0.31427132125368501 -0.041601320436518881 0 -0.30514460062860832 -0.040412131297678802 0 -0.30847303878627402 -0.03448715403954053 0 -0.30140376839483141 -0.031949221810101222 0 -0.29725250628115851 -0.048072719776220733 0 -0.30751307274322659 -0.050112919254608888 0 -0.30514460062860832 -0.040412131297678802 0 -0.29112202335001269 -0.01956672155271956 0 -0.29725250628115851 -0.048072719776220733 0 -0.29112202335001269 -0.01956672155271956 0 -0.29725250628115851 -0.048072719776220733 0 -0.28485067281374532 -0.034956598314312137 0 -0.29725250628115851 -0.048072719776220733 0 -0.28485067281374532 -0.034956598314312137 0 -0.28791743147299081 -0.046176869808256929 0 -0.29112202335001269 -0.01956672155271956 0 -0.29725250628115851 -0.048072719776220733 0 -0.30140376839483141 -0.031949221810101222 0 -0.28485067281374532 -0.034956598314312137 0 -0.28325971248820431 -0.040084851644830631 0 -0.27990213398950931 -0.037556648341535812 0 -0.28791743147299081 -0.046176869808256929 0 -0.28325971248820431 -0.040084851644830631 0 -0.27736682757220482 -0.041822771026692122 0 -0.28485067281374532 -0.034956598314312137 0 -0.28791743147299081 -0.046176869808256929 0 -0.28325971248820431 -0.040084851644830631 0 -0.29224268435050449 -0.05400668906850796 0 -0.27152315296310903 -0.048246515765780422 0 -0.29725250628115851 -0.048072719776220733 0 -0.29286779362093379 -0.05901041269910972 0 -0.29653157631522459 -0.06505402583229522 0 -0.28791743147299081 -0.046176869808256929 0 -0.29224268435050449 -0.05400668906850796 0 -0.27152315296310903 -0.048246515765780422 0 -0.29725250628115851 -0.048072719776220733 0 -0.28791743147299081 -0.046176869808256929 0 -0.29224268435050449 -0.05400668906850796 0 -0.29725250628115851 -0.048072719776220733 0 -0.29224268435050449 -0.05400668906850796 0 -0.29286779362093379 -0.05901041269910972 0 -0.29286779362093379 -0.05901041269910972 0 -0.28739521891276659 -0.058920305016591713 0 -0.28844629236000668 -0.067532058350366186 0 -0.29224268435050449 -0.05400668906850796 0 -0.29286779362093379 -0.05901041269910972 0 -0.28739521891276659 -0.058920305016591713 0 -0.29224268435050449 -0.05400668906850796 0 -0.28739521891276659 -0.058920305016591713 0 -0.27914955047478618 -0.057872145632111453 0 -0.27914955047478618 -0.057872145632111453 0 -0.27229280823225682 -0.053173765921627952 0 -0.27184468163734032 -0.061963035055146991 0 -0.29224268435050449 -0.05400668906850796 0 -0.27914955047478618 -0.057872145632111453 0 -0.27152315296310903 -0.048246515765780422 0 -0.27152315296310903 -0.048246515765780422 0 -0.27229280823225682 -0.053173765921627952 0 -0.25423805202648719 -0.05231331767505544 0 -0.27914955047478618 -0.057872145632111453 0 -0.27152315296310903 -0.048246515765780422 0 -0.27229280823225682 -0.053173765921627952 0 -0.27229280823225682 -0.053173765921627952 0 -0.27184468163734032 -0.061963035055146991 0 -0.26274683058027543 -0.06362529844630084 0 -0.28791743147299081 -0.046176869808256929 0 -0.27152315296310903 -0.048246515765780422 0 -0.27736682757220482 -0.041822771026692122 0 -0.28485067281374532 -0.034956598314312137 0 -0.27413132308388288 -0.033362372380308362 0 -0.27990213398950931 -0.037556648341535812 0 -0.27413132308388288 -0.033362372380308362 0 -0.27990213398950931 -0.037556648341535812 0 -0.27736682757220482 -0.041822771026692122 0 -0.27413132308388288 -0.033362372380308362 0 -0.27736682757220482 -0.041822771026692122 0 -0.27008648581198508 -0.039314615723923189 0 -0.28325971248820431 -0.040084851644830631 0 -0.27990213398950931 -0.037556648341535812 0 -0.27736682757220482 -0.041822771026692122 0 -0.27152315296310903 -0.048246515765780422 0 -0.27736682757220482 -0.041822771026692122 0 -0.27008648581198508 -0.039314615723923189 0 -0.27152315296310903 -0.048246515765780422 0 -0.27008648581198508 -0.039314615723923189 0 -0.26245845213256452 -0.039487488143407891 0 -0.27413132308388288 -0.033362372380308362 0 -0.27008648581198508 -0.039314615723923189 0 -0.26543242028812442 -0.03246963366972673 0 -0.27008648581198508 -0.039314615723923189 0 -0.26543242028812442 -0.03246963366972673 0 -0.26245845213256452 -0.039487488143407891 0 -0.27152315296310903 -0.048246515765780422 0 -0.25080362157571362 -0.04248634246305287 0 -0.27152315296310903 -0.048246515765780422 0 -0.26245845213256452 -0.039487488143407891 0 -0.25080362157571362 -0.04248634246305287 0 -0.25541003409904289 -0.03054075655150203 0 -0.26543242028812442 -0.03246963366972673 0 -0.26245845213256452 -0.039487488143407891 0 -0.25541003409904289 -0.03054075655150203 0 -0.26245845213256452 -0.039487488143407891 0 -0.25080362157571362 -0.04248634246305287 0 -0.27229280823225682 -0.053173765921627952 0 -0.25423805202648719 -0.05231331767505544 0 -0.26274683058027543 -0.06362529844630084 0 -0.27152315296310903 -0.048246515765780422 0 -0.25080362157571362 -0.04248634246305287 0 -0.25423805202648719 -0.05231331767505544 0 -0.27229280823225682 -0.053173765921627952 0 -0.25423805202648719 -0.05231331767505544 0 -0.25423805202648719 -0.05231331767505544 0 -0.25200988198892438 -0.063221977312765756 0 -0.26274683058027543 -0.06362529844630084 0 -0.24744405596131031 -0.073410624931666335 0 -0.25200988198892438 -0.063221977312765756 0 -0.25923223995996592 -0.074166486426648748 0 -0.25200988198892438 -0.063221977312765756 0 -0.26274683058027543 -0.06362529844630084 0 -0.25923223995996592 -0.074166486426648748 0 -0.26274683058027543 -0.06362529844630084 0 -0.25923223995996592 -0.074166486426648748 0 -0.2731895372620427 -0.073180930220547724 0 -0.24744405596131031 -0.073410624931666335 0 -0.25611604975633062 -0.090320453140303569 0 -0.2589838556113207 -0.087441555424505671 0 -0.24744405596131031 -0.073410624931666335 0 -0.2589838556113207 -0.087441555424505671 0 -0.24744405596131031 -0.073410624931666335 0 -0.25611604975633062 -0.090320453140303569 0 -0.24744405596131031 -0.073410624931666335 0 -0.25923223995996592 -0.074166486426648748 0 -0.2589838556113207 -0.087441555424505671 0 -0.25611604975633062 -0.090320453140303569 0 -0.2589838556113207 -0.087441555424505671 0 -0.25611604975633062 -0.090320453140303569 0 -0.2589838556113207 -0.087441555424505671 0 -0.26978196856801667 -0.1005706891135012 0 -0.25923223995996592 -0.074166486426648748 0 -0.2589838556113207 -0.087441555424505671 0 -0.2731895372620427 -0.073180930220547724 0 -0.27282187135820718 -0.087065463610389138 0 -0.26978196856801667 -0.1005706891135012 0 -0.28658247889015998 -0.088574703556611178 0 -0.2589838556113207 -0.087441555424505671 0 -0.27282187135820718 -0.087065463610389138 0 -0.2731895372620427 -0.073180930220547724 0 -0.2589838556113207 -0.087441555424505671 0 -0.2731895372620427 -0.073180930220547724 0 -0.2589838556113207 -0.087441555424505671 0 -0.27282187135820718 -0.087065463610389138 0 -0.26978196856801667 -0.1005706891135012 0 -0.27282187135820718 -0.087065463610389138 0 -0.2731895372620427 -0.073180930220547724 0 -0.28658247889015998 -0.088574703556611178 0 -0.27914955047478618 -0.057872145632111453 0 -0.27184468163734032 -0.061963035055146991 0 -0.2731895372620427 -0.073180930220547724 0 -0.28739521891276659 -0.058920305016591713 0 -0.27914955047478618 -0.057872145632111453 0 -0.2731895372620427 -0.073180930220547724 0 -0.28739521891276659 -0.058920305016591713 0 -0.2731895372620427 -0.073180930220547724 0 -0.27184468163734032 -0.061963035055146991 0 -0.26274683058027543 -0.06362529844630084 0 -0.2731895372620427 -0.073180930220547724 0 -0.25903513797402022 -0.12096739679808451 0 -0.25452858301887898 -0.1251992734030731 0 -0.26344721183274161 -0.12737854793298861 0 -0.26445254494031428 -0.11938305474760071 0 -0.25903513797402022 -0.12096739679808451 0 -0.26344721183274161 -0.12737854793298861 0 -0.26445254494031428 -0.11938305474760071 0 -0.25903513797402022 -0.12096739679808451 0 -0.25903423552352878 -0.11498038850007571 0 -0.25903513797402022 -0.12096739679808451 0 -0.25371311455463719 -0.1178957194066846 0 -0.25452858301887898 -0.1251992734030731 0 -0.24930110540882561 -0.1226881304432532 0 -0.25371311455463719 -0.1178957194066846 0 -0.25452858301887898 -0.1251992734030731 0 -0.24930110540882561 -0.1226881304432532 0 -0.2483699570737615 -0.11680469508589229 0 -0.25371311455463719 -0.1178957194066846 0 -0.25903513797402022 -0.12096739679808451 0 -0.25371311455463719 -0.1178957194066846 0 -0.25903423552352878 -0.11498038850007571 0 -0.25371311455463719 -0.1178957194066846 0 -0.25364917185141239 -0.1120899104165318 0 -0.25903423552352878 -0.11498038850007571 0 -0.25371311455463719 -0.1178957194066846 0 -0.25055289176344459 -0.1138458128943325 0 -0.25364917185141239 -0.1120899104165318 0 -0.2483699570737615 -0.11680469508589229 0 -0.25371311455463719 -0.1178957194066846 0 -0.25055289176344459 -0.1138458128943325 0 -0.25055289176344459 -0.1138458128943325 0 -0.25108768803787179 -0.1103267026602596 0 -0.25364917185141239 -0.1120899104165318 0 -0.25364917185141239 -0.1120899104165318 0 -0.25903423552352878 -0.11498038850007571 0 -0.2636266882903161 -0.1049657135439522 0 -0.26445254494031428 -0.11938305474760071 0 -0.25903423552352878 -0.11498038850007571 0 -0.2636266882903161 -0.1049657135439522 0 -0.25364917185141239 -0.1120899104165318 0 -0.2636266882903161 -0.1049657135439522 0 -0.2636266882903161 -0.1049657135439522 0 -0.25531547933348309 -0.1050750057417993 0 -0.25570693675115452 -0.099765106918533616 0 -0.24776952962449 -0.098699255248078793 0 -0.25108768803787179 -0.1103267026602596 0 -0.25531547933348309 -0.1050750057417993 0 -0.25364917185141239 -0.1120899104165318 0 -0.2636266882903161 -0.1049657135439522 0 -0.25531547933348309 -0.1050750057417993 0 -0.25108768803787179 -0.1103267026602596 0 -0.25364917185141239 -0.1120899104165318 0 -0.25531547933348309 -0.1050750057417993 0 -0.24776952962449 -0.098699255248078793 0 -0.25531547933348309 -0.1050750057417993 0 -0.25570693675115452 -0.099765106918533616 0 -0.24776952962449 -0.098699255248078793 0 -0.25611604975633062 -0.090320453140303569 0 -0.24776952962449 -0.098699255248078793 0 -0.25611604975633062 -0.090320453140303569 0 -0.25570693675115452 -0.099765106918533616 0 -0.25611604975633062 -0.090320453140303569 0 -0.2636266882903161 -0.1049657135439522 0 -0.26978196856801667 -0.1005706891135012 0 -0.25611604975633062 -0.090320453140303569 0 -0.2636266882903161 -0.1049657135439522 0 -0.25570693675115452 -0.099765106918533616 0 -0.2589838556113207 -0.087441555424505671 0 -0.26978196856801667 -0.1005706891135012 0 -0.25611604975633062 -0.090320453140303569 0 -0.2636266882903161 -0.1049657135439522 0 -0.26978196856801667 -0.1005706891135012 0 -0.28533551520417971 -0.105129334349779 0 -0.28658247889015998 -0.088574703556611178 0 -0.26978196856801667 -0.1005706891135012 0 -0.28658247889015998 -0.088574703556611178 0 -0.26978196856801667 -0.1005706891135012 0 -0.28680644452556547 -0.12127028928698801 0 -0.28533551520417971 -0.105129334349779 0 -0.2636266882903161 -0.1049657135439522 0 -0.26978196856801667 -0.1005706891135012 0 -0.27389265872353302 -0.1136607241714952 0 -0.2636266882903161 -0.1049657135439522 0 -0.26978196856801667 -0.1005706891135012 0 -0.26445254494031428 -0.11938305474760071 0 -0.2636266882903161 -0.1049657135439522 0 -0.27535553351023379 -0.12783620474153931 0 -0.26978196856801667 -0.1005706891135012 0 -0.28680644452556547 -0.12127028928698801 0 -0.2636266882903161 -0.1049657135439522 0 -0.27389265872353302 -0.1136607241714952 0 -0.27535553351023379 -0.12783620474153931 0 -0.26978196856801667 -0.1005706891135012 0 -0.27389265872353302 -0.1136607241714952 0 -0.28680644452556547 -0.12127028928698801 0 -0.2636266882903161 -0.1049657135439522 0 -0.27535553351023379 -0.12783620474153931 0 -0.27389265872353302 -0.1136607241714952 0 -0.28680644452556547 -0.12127028928698801 0 -0.27535553351023379 -0.12783620474153931 0 -0.26445254494031428 -0.11938305474760071 0 -0.26344721183274161 -0.12737854793298861 0 -0.27535553351023379 -0.12783620474153931 0 -0.28680644452556547 -0.12127028928698801 0 -0.29353926209993131 -0.1125192253622125 0 -0.28533551520417971 -0.105129334349779 0 -0.28680644452556547 -0.12127028928698801 0 -0.29353926209993131 -0.1125192253622125 0 -0.2997148191546839 -0.12727824896615181 0 -0.28533551520417971 -0.105129334349779 0 -0.29311624165205241 -0.10114164524496209 0 -0.28658247889015998 -0.088574703556611178 0 -0.29353926209993131 -0.1125192253622125 0 -0.29311624165205241 -0.10114164524496209 0 -0.30154189752619021 -0.1049120065182735 0 -0.29353926209993131 -0.1125192253622125 0 -0.28533551520417971 -0.105129334349779 0 -0.29311624165205241 -0.10114164524496209 0 -0.29622011465786469 -0.094301317656656766 0 -0.29311624165205241 -0.10114164524496209 0 -0.28658247889015998 -0.088574703556611178 0 -0.29622011465786469 -0.094301317656656766 0 -0.30154189752619021 -0.1049120065182735 0 -0.30336897589769651 -0.082545764070395294 0 -0.30721540851069362 -0.094399000502519662 0 -0.30154189752619021 -0.1049120065182735 0 -0.30336897589769651 -0.082545764070395294 0 -0.29622011465786469 -0.094301317656656766 0 -0.29311624165205241 -0.10114164524496209 0 -0.30154189752619021 -0.1049120065182735 0 -0.30721540851069362 -0.094399000502519662 0 -0.31295808653043011 -0.10428553132529041 0 -0.31627890530804947 -0.095310727822502037 0 -0.30721540851069362 -0.094399000502519662 0 -0.30154189752619021 -0.1049120065182735 0 -0.31295808653043011 -0.10428553132529041 0 -0.30154189752619021 -0.1049120065182735 0 -0.31214219157931311 -0.11935157254322989 0 -0.2997148191546839 -0.12727824896615181 0 -0.29353926209993131 -0.1125192253622125 0 -0.30154189752619021 -0.1049120065182735 0 -0.2997148191546839 -0.12727824896615181 0 -0.30154189752619021 -0.1049120065182735 0 -0.2997148191546839 -0.12727824896615181 0 -0.30154189752619021 -0.1049120065182735 0 -0.31214219157931311 -0.11935157254322989 0 -0.31295808653043011 -0.10428553132529041 0 -0.29436967914887902 -0.073743557276828686 0 -0.28844629236000668 -0.067532058350366186 0 -0.28632394890019353 -0.075283119056824138 0 -0.29436967914887902 -0.073743557276828686 0 -0.29653157631522459 -0.06505402583229522 0 -0.28844629236000668 -0.067532058350366186 0 -0.29286779362093379 -0.05901041269910972 0 -0.29653157631522459 -0.06505402583229522 0 -0.28844629236000668 -0.067532058350366186 0 -0.28739521891276659 -0.058920305016591713 0 -0.2731895372620427 -0.073180930220547724 0 -0.28844629236000668 -0.067532058350366186 0 -0.2731895372620427 -0.073180930220547724 0 -0.28844629236000668 -0.067532058350366186 0 -0.28632394890019353 -0.075283119056824138 0 -0.2731895372620427 -0.073180930220547724 0 -0.28632394890019353 -0.075283119056824138 0 -0.28658247889015998 -0.088574703556611178 0 -0.29622011465786469 -0.094301317656656766 0 -0.28658247889015998 -0.088574703556611178 0 -0.30336897589769651 -0.082545764070395294 0 -0.28658247889015998 -0.088574703556611178 0 -0.303382989212304 -0.076578717999721935 0 -0.29436967914887902 -0.073743557276828686 0 -0.28658247889015998 -0.088574703556611178 0 -0.303382989212304 -0.076578717999721935 0 -0.29436967914887902 -0.073743557276828686 0 -0.28632394890019353 -0.075283119056824138 0 -0.28658247889015998 -0.088574703556611178 0 -0.28658247889015998 -0.088574703556611178 0 -0.30336897589769651 -0.082545764070395294 0 -0.303382989212304 -0.076578717999721935 0 -0.30721540851069362 -0.094399000502519662 0 -0.30336897589769651 -0.082545764070395294 0 -0.303382989212304 -0.076578717999721935 0 -0.30154189752619021 -0.1049120065182735 0 -0.30336897589769651 -0.082545764070395294 0 -0.30721540851069362 -0.094399000502519662 0 -0.303382989212304 -0.076578717999721935 0 -0.30721540851069362 -0.094399000502519662 0 -0.303382989212304 -0.076578717999721935 0 -0.31307765228442241 -0.086197433992429004 0 -0.30721540851069362 -0.094399000502519662 0 -0.31307765228442241 -0.086197433992429004 0 -0.31627890530804947 -0.095310727822502037 0 -0.3116827037579577 -0.078548359071093227 0 -0.303382989212304 -0.076578717999721935 0 -0.31307765228442241 -0.086197433992429004 0 -0.3116827037579577 -0.078548359071093227 0 -0.303382989212304 -0.076578717999721935 0 -0.31810044645045432 -0.073317174028337151 0 -0.30720032160640309 -0.058701723308772623 0 -0.303382989212304 -0.076578717999721935 0 -0.31474710051199661 -0.059263441617989618 0 -0.29725250628115851 -0.048072719776220733 0 -0.29653157631522459 -0.06505402583229522 0 -0.303382989212304 -0.076578717999721935 0 -0.29436967914887902 -0.073743557276828686 0 -0.29653157631522459 -0.06505402583229522 0 -0.303382989212304 -0.076578717999721935 0 -0.303382989212304 -0.076578717999721935 0 -0.31810044645045432 -0.073317174028337151 0 -0.32433269740795789 -0.061620101141226742 0 -0.32499249874531427 -0.082206490022504408 0 -0.32918782204222041 -0.075838129677243488 0 -0.32636166481616619 -0.061940793044023383 0 -0.31810044645045432 -0.073317174028337151 0 -0.32499249874531427 -0.082206490022504408 0 -0.32636166481616619 -0.061940793044023383 0 -0.303382989212304 -0.076578717999721935 0 -0.31474710051199661 -0.059263441617989618 0 -0.32433269740795789 -0.061620101141226742 0 -0.32499249874531427 -0.082206490022504408 0 -0.32636166481616619 -0.061940793044023383 0 -0.303382989212304 -0.076578717999721935 0 -0.32433269740795789 -0.061620101141226742 0 -0.31810044645045432 -0.073317174028337151 0 -0.32636166481616619 -0.061940793044023383 0 -0.32433269740795789 -0.061620101141226742 0 -0.3116827037579577 -0.078548359071093227 0 -0.31810044645045432 -0.073317174028337151 0 -0.3173732572747055 -0.079789894245074544 0 -0.31810044645045432 -0.073317174028337151 0 -0.3173732572747055 -0.079789894245074544 0 -0.32499249874531427 -0.082206490022504408 0 -0.3116827037579577 -0.078548359071093227 0 -0.3173732572747055 -0.079789894245074544 0 -0.31307765228442241 -0.086197433992429004 0 -0.3173732572747055 -0.079789894245074544 0 -0.31307765228442241 -0.086197433992429004 0 -0.32499249874531427 -0.082206490022504408 0 -0.31307765228442241 -0.086197433992429004 0 -0.32499249874531427 -0.082206490022504408 0 -0.31307765228442241 -0.086197433992429004 0 -0.32499249874531427 -0.082206490022504408 0 -0.31627890530804947 -0.095310727822502037 0 -0.32499249874531427 -0.082206490022504408 0 -0.34185111215537278 -0.07655960386656277 0 -0.32499249874531427 -0.082206490022504408 0 -0.33820840424380838 -0.093673297602972813 0 -0.34185111215537278 -0.07655960386656277 0 -0.32499249874531427 -0.082206490022504408 0 -0.34185111215537278 -0.07655960386656277 0 -0.32918782204222041 -0.075838129677243488 0 -0.34185111215537278 -0.07655960386656277 0 -0.33988382454175659 -0.073746102776411054 0 -0.32918782204222041 -0.075838129677243488 0 -0.34185111215537278 -0.07655960386656277 0 -0.33988382454175659 -0.073746102776411054 0 -0.33988382454175659 -0.073746102776411054 0 -0.33566960443130411 -0.070837419989697226 0 -0.33242545707622262 -0.072227015060790462 0 -0.33988382454175659 -0.073746102776411054 0 -0.33808128302893192 -0.068168475300917589 0 -0.33566960443130411 -0.070837419989697226 0 -0.33988382454175659 -0.073746102776411054 0 -0.34297650062724577 -0.069385157802625691 0 -0.33808128302893192 -0.068168475300917589 0 -0.34185111215537278 -0.07655960386656277 0 -0.33988382454175659 -0.073746102776411054 0 -0.34297650062724577 -0.069385157802625691 0 -0.34297650062724577 -0.069385157802625691 0 -0.33808128302893192 -0.068168475300917589 0 -0.33936254499926127 -0.06237321491993654 0 -0.33808128302893192 -0.068168475300917589 0 -0.33484383526420952 -0.06587205856732771 0 -0.33936254499926127 -0.06237321491993654 0 -0.32979344143427802 -0.06687894467590616 0 -0.32918782204222041 -0.075838129677243488 0 -0.32636166481616619 -0.061940793044023383 0 -0.33808128302893192 -0.068168475300917589 0 -0.33289604739783268 -0.068608813327920487 0 -0.33566960443130411 -0.070837419989697226 0 -0.33808128302893192 -0.068168475300917589 0 -0.33289604739783268 -0.068608813327920487 0 -0.33484383526420952 -0.06587205856732771 0 -0.33289604739783268 -0.068608813327920487 0 -0.33484383526420952 -0.06587205856732771 0 -0.33250226667627047 -0.065896260740125043 0 -0.33484383526420952 -0.06587205856732771 0 -0.33247574260876162 -0.062225226389345807 0 -0.33936254499926127 -0.06237321491993654 0 -0.33484383526420952 -0.06587205856732771 0 -0.33250226667627047 -0.065896260740125043 0 -0.33247574260876162 -0.062225226389345807 0 -0.33250226667627047 -0.065896260740125043 0 -0.32979344143427802 -0.06687894467590616 0 -0.33247574260876162 -0.062225226389345807 0 -0.32979344143427802 -0.06687894467590616 0 -0.32636166481616619 -0.061940793044023383 0 -0.33247574260876162 -0.062225226389345807 0 -0.33289604739783268 -0.068608813327920487 0 -0.32979344143427802 -0.06687894467590616 0 -0.33242545707622262 -0.072227015060790462 0 -0.33289604739783268 -0.068608813327920487 0 -0.33250226667627047 -0.065896260740125043 0 -0.32979344143427802 -0.06687894467590616 0 -0.33988382454175659 -0.073746102776411054 0 -0.32918782204222041 -0.075838129677243488 0 -0.33242545707622262 -0.072227015060790462 0 -0.32979344143427802 -0.06687894467590616 0 -0.32918782204222041 -0.075838129677243488 0 -0.33242545707622262 -0.072227015060790462 0 -0.33289604739783268 -0.068608813327920487 0 -0.33566960443130411 -0.070837419989697226 0 -0.33242545707622262 -0.072227015060790462 0 -0.32315088046938711 -0.1094651832697667 0 -0.32130926219346112 -0.13672387651702911 0 -0.32315088046938711 -0.1094651832697667 0 -0.33083841201800512 -0.1231838869789062 0 -0.32130926219346112 -0.13672387651702911 0 -0.31214219157931311 -0.11935157254322989 0 -0.32315088046938711 -0.1094651832697667 0 -0.32130926219346112 -0.13672387651702911 0 -0.31214219157931311 -0.11935157254322989 0 -0.32315088046938711 -0.1094651832697667 0 -0.31295808653043011 -0.10428553132529041 0 -0.32499249874531427 -0.082206490022504408 0 -0.32315088046938711 -0.1094651832697667 0 -0.32499249874531427 -0.082206490022504408 0 -0.32315088046938711 -0.1094651832697667 0 -0.31627890530804947 -0.095310727822502037 0 -0.32315088046938711 -0.1094651832697667 0 -0.31295808653043011 -0.10428553132529041 0 -0.31627890530804947 -0.095310727822502037 0 -0.33820840424380838 -0.093673297602972813 0 -0.32315088046938711 -0.1094651832697667 0 -0.33910745269660669 -0.1096051366705881 0 -0.32499249874531427 -0.082206490022504408 0 -0.33820840424380838 -0.093673297602972813 0 -0.32315088046938711 -0.1094651832697667 0 -0.32315088046938711 -0.1094651832697667 0 -0.33910745269660669 -0.1096051366705881 0 -0.33083841201800512 -0.1231838869789062 0 -0.33910745269660669 -0.1096051366705881 0 -0.33083841201800512 -0.1231838869789062 0 -0.34367616603863521 -0.1262685122541724 0 -0.35319582725629423 -0.1147187523507026 0 -0.34367616603863521 -0.1262685122541724 0 -0.3612332496997766 -0.12634705463833851 0 -0.33910745269660669 -0.1096051366705881 0 -0.35319582725629423 -0.1147187523507026 0 -0.34367616603863521 -0.1262685122541724 0 -0.35319582725629423 -0.1147187523507026 0 -0.35553269473445881 -0.096126212853889836 0 -0.36921427731354423 -0.11569282184121731 0 -0.33910745269660669 -0.1096051366705881 0 -0.35319582725629423 -0.1147187523507026 0 -0.35553269473445881 -0.096126212853889836 0 -0.33820840424380838 -0.093673297602972813 0 -0.33910745269660669 -0.1096051366705881 0 -0.35553269473445881 -0.096126212853889836 0 -0.35553269473445881 -0.096126212853889836 0 -0.36921427731354423 -0.11569282184121731 0 -0.35553269473445881 -0.096126212853889836 0 -0.36921427731354423 -0.11569282184121731 0 -0.37644597749320818 -0.088748154985691732 0 -0.35319582725629423 -0.1147187523507026 0 -0.36921427731354423 -0.11569282184121731 0 -0.3612332496997766 -0.12634705463833851 0 -0.34185111215537278 -0.07655960386656277 0 -0.34967927409851512 -0.06636456814801843 0 -0.36138864282221372 -0.070015399502878078 0 -0.34185111215537278 -0.07655960386656277 0 -0.36138864282221372 -0.070015399502878078 0 -0.34185111215537278 -0.07655960386656277 0 -0.35760540068182939 -0.082674993172757782 0 -0.36138864282221372 -0.070015399502878078 0 -0.34297650062724577 -0.069385157802625691 0 -0.34967927409851512 -0.06636456814801843 0 -0.33936254499926127 -0.06237321491993654 0 -0.34185111215537278 -0.07655960386656277 0 -0.34297650062724577 -0.069385157802625691 0 -0.34967927409851512 -0.06636456814801843 0 -0.33820840424380838 -0.093673297602972813 0 -0.34185111215537278 -0.07655960386656277 0 -0.35553269473445881 -0.096126212853889836 0 -0.34185111215537278 -0.07655960386656277 0 -0.35553269473445881 -0.096126212853889836 0 -0.35760540068182939 -0.082674993172757782 0 -0.34185111215537278 -0.07655960386656277 0 -0.35553269473445881 -0.096126212853889836 0 -0.35760540068182939 -0.082674993172757782 0 -0.36138864282221372 -0.070015399502878078 0 -0.37644597749320818 -0.088748154985691732 0 -0.35553269473445881 -0.096126212853889836 0 -0.35760540068182939 -0.082674993172757782 0 -0.37644597749320818 -0.088748154985691732 0 -0.36138864282221372 -0.070015399502878078 0 -0.38092617348905378 -0.063471195139190847 0 -0.36138864282221372 -0.070015399502878078 0 -0.38092617348905378 -0.063471195139190847 0 -0.37644597749320818 -0.088748154985691732 0 -0.36138864282221372 -0.070015399502878078 0 -0.36107355390415019 -0.049262293928833058 0 -0.38092617348905378 -0.063471195139190847 0 -0.36107355390415019 -0.049262293928833058 0 -0.34587003521872922 -0.053708587855805123 0 -0.34144155128369558 -0.040058810300846397 0 -0.34967927409851512 -0.06636456814801843 0 -0.36107355390415019 -0.049262293928833058 0 -0.34587003521872922 -0.053708587855805123 0 -0.34967927409851512 -0.06636456814801843 0 -0.36138864282221372 -0.070015399502878078 0 -0.36107355390415019 -0.049262293928833058 0 -0.34967927409851512 -0.06636456814801843 0 -0.34587003521872922 -0.053708587855805123 0 -0.33936254499926127 -0.06237321491993654 0 -0.36107355390415019 -0.049262293928833058 0 -0.35148821293611782 -0.02531727891986801 0 -0.34144155128369558 -0.040058810300846397 0 -0.36107355390415019 -0.049262293928833058 0 -0.37387642891435952 -0.029225158752674521 0 -0.3839181124705166 -0.0459373528113831 0 -0.36107355390415019 -0.049262293928833058 0 -0.37387642891435952 -0.029225158752674521 0 -0.35148821293611782 -0.02531727891986801 0 -0.37387642891435952 -0.029225158752674521 0 -0.35148821293611782 -0.02531727891986801 0 -0.3689136781206136 0.00042714381548027928 0 -0.37387642891435952 -0.029225158752674521 0 -0.35148821293611782 -0.02531727891986801 0 -0.34615832920195849 -0.0054131808653042606 0 -0.35148821293611782 -0.02531727891986801 0 -0.3689136781206136 0.00042714381548027928 0 -0.35148821293611782 -0.02531727891986801 0 -0.3290999969578759 -0.021409399087061829 0 -0.34144155128369558 -0.040058810300846397 0 -0.35148821293611782 -0.02531727891986801 0 -0.3290999969578759 -0.021409399087061829 0 -0.34615832920195849 -0.0054131808653042606 0 -0.35148821293611782 -0.02531727891986801 0 -0.3290999969578759 -0.021409399087061829 0 -0.3290999969578759 -0.021409399087061829 0 -0.3308171934014667 0.0040076657374513609 0 -0.34615832920195849 -0.0054131808653042606 0 -0.3290999969578759 -0.021409399087061829 0 -0.3308171934014667 0.0040076657374513609 0 -0.3290999969578759 -0.021409399087061829 0 -0.31350150359346979 -0.0012260699301545339 0 -0.3308171934014667 0.0040076657374513609 0 -0.30502667292810359 -0.017207382384346461 0 -0.3290999969578759 -0.021409399087061829 0 -0.31350150359346979 -0.0012260699301545339 0 -0.30502667292810359 -0.017207382384346461 0 -0.3290999969578759 -0.021409399087061829 0 -0.30502667292810359 -0.017207382384346461 0 -0.3290999969578759 -0.021409399087061829 0 -0.3200506228046639 -0.032860238793088213 0 -0.30847303878627402 -0.03448715403954053 0 -0.3200506228046639 -0.032860238793088213 0 -0.31427132125368501 -0.041601320436518881 0 -0.3290999969578759 -0.021409399087061829 0 -0.3200506228046639 -0.032860238793088213 0 -0.32773083088701949 -0.041675096065542483 0 -0.3200506228046639 -0.032860238793088213 0 -0.32773083088701949 -0.041675096065542483 0 -0.31427132125368501 -0.041601320436518881 0 -0.32773083088701949 -0.041675096065542483 0 -0.31427132125368501 -0.041601320436518881 0 -0.31671576167231819 -0.050060383168654438 0 -0.31671576167231819 -0.050060383168654438 0 -0.31474710051199661 -0.059263441617989618 0 -0.32227622296217451 -0.054685817683981917 0 -0.31154406413348612 -0.054534616837506378 0 -0.31671576167231819 -0.050060383168654438 0 -0.31474710051199661 -0.059263441617989618 0 -0.30751307274322659 -0.050112919254608888 0 -0.31427132125368501 -0.041601320436518881 0 -0.31671576167231819 -0.050060383168654438 0 -0.32773083088701949 -0.041675096065542483 0 -0.32636166481616619 -0.061940793044023383 0 -0.32773083088701949 -0.041675096065542483 0 -0.32636166481616619 -0.061940793044023383 0 -0.32227622296217451 -0.054685817683981917 0 -0.31474710051199661 -0.059263441617989618 0 -0.32433269740795789 -0.061620101141226742 0 -0.32227622296217451 -0.054685817683981917 0 -0.32636166481616619 -0.061940793044023383 0 -0.32433269740795789 -0.061620101141226742 0 -0.32227622296217451 -0.054685817683981917 0 -0.32773083088701949 -0.041675096065542483 0 -0.31671576167231819 -0.050060383168654438 0 -0.32227622296217451 -0.054685817683981917 0 -0.32773083088701949 -0.041675096065542483 0 -0.32636166481616619 -0.061940793044023383 0 -0.33463069155502739 -0.052593209971917902 0 -0.33463069155502739 -0.052593209971917902 0 -0.33247574260876162 -0.062225226389345807 0 -0.33936254499926127 -0.06237321491993654 0 -0.32636166481616619 -0.061940793044023383 0 -0.33463069155502739 -0.052593209971917902 0 -0.33247574260876162 -0.062225226389345807 0 -0.34587003521872922 -0.053708587855805123 0 -0.33463069155502739 -0.052593209971917902 0 -0.33936254499926127 -0.06237321491993654 0 -0.34587003521872922 -0.053708587855805123 0 -0.33463069155502739 -0.052593209971917902 0 -0.34144155128369558 -0.040058810300846397 0 -0.3290999969578759 -0.021409399087061829 0 -0.32773083088701949 -0.041675096065542483 0 -0.34144155128369558 -0.040058810300846397 0 -0.3290999969578759 -0.021409399087061829 0 -0.32773083088701949 -0.041675096065542483 0 -0.32773083088701949 -0.041675096065542483 0 -0.33463069155502739 -0.052593209971917902 0 -0.34144155128369558 -0.040058810300846397 0 -0.3013411934988251 -0.2512866027063696 0 -0.29945072370424508 -0.23625987690171429 0 -0.31444700313138563 -0.24530833583511691 0 -0.29945072370424508 -0.23625987690171429 0 -0.31154728501600298 -0.2331339944345952 0 -0.31444700313138563 -0.24530833583511691 0 -0.29945072370424508 -0.23625987690171429 0 -0.31154728501600298 -0.2331339944345952 0 -0.30457332182651292 -0.22389391570154801 0 -0.29945072370424508 -0.23625987690171429 0 -0.30457332182651292 -0.22389391570154801 0 -0.29276294560700772 -0.220246909963868 0 -0.31154728501600298 -0.2331339944345952 0 -0.30457332182651292 -0.22389391570154801 0 -0.31640866247798088 -0.22484120251661799 0 -0.30457332182651292 -0.22389391570154801 0 -0.30656150019445488 -0.21479964772897289 0 -0.31640866247798088 -0.22484120251661799 0 -0.30457332182651292 -0.22389391570154801 0 -0.29276294560700772 -0.220246909963868 0 -0.30656150019445488 -0.21479964772897289 0 -0.29945072370424508 -0.23625987690171429 0 -0.28734286918991669 -0.23107998994325779 0 -0.29276294560700772 -0.220246909963868 0 -0.28734286918991669 -0.23107998994325779 0 -0.29276294560700772 -0.220246909963868 0 -0.27411094647718742 -0.21588321184877901 0 -0.28734286918991669 -0.23107998994325779 0 -0.28590705104310588 -0.2486234061923861 0 -0.2768874012283894 -0.23846688210817729 0 -0.29945072370424508 -0.23625987690171429 0 -0.28734286918991669 -0.23107998994325779 0 -0.28590705104310588 -0.2486234061923861 0 -0.3013411934988251 -0.2512866027063696 0 -0.29945072370424508 -0.23625987690171429 0 -0.28590705104310588 -0.2486234061923861 0 -0.26559705098913089 -0.25453757187253878 0 -0.2768874012283894 -0.23846688210817729 0 -0.26427064778474291 -0.23629881414501 0 -0.26559705098913089 -0.25453757187253878 0 -0.28590705104310588 -0.2486234061923861 0 -0.2768874012283894 -0.23846688210817729 0 -0.24787584224564871 -0.23335071866024229 0 -0.24564221040132861 -0.24971282446878551 0 -0.26427064778474291 -0.23629881414501 0 -0.26559705098913089 -0.25453757187253878 0 -0.24564221040132861 -0.24971282446878551 0 -0.26427064778474291 -0.23629881414501 0 -0.249637595880909 -0.21619730966344211 0 -0.24787584224564871 -0.23335071866024229 0 -0.26427064778474291 -0.23629881414501 0 -0.249637595880909 -0.21619730966344211 0 -0.26427064778474291 -0.23629881414501 0 -0.27411094647718742 -0.21588321184877901 0 -0.28734286918991669 -0.23107998994325779 0 -0.2768874012283894 -0.23846688210817729 0 -0.27411094647718742 -0.21588321184877901 0 -0.2768874012283894 -0.23846688210817729 0 -0.26427064778474291 -0.23629881414501 0 -0.27411094647718742 -0.21588321184877901 0 -0.249637595880909 -0.21619730966344211 0 -0.27411094647718742 -0.21588321184877901 0 -0.26517758567433047 -0.19404891915210001 0 -0.2364630849160371 -0.18954040733815231 0 -0.26517758567433047 -0.19404891915210001 0 -0.2504970432631623 -0.18458537053644361 0 -0.2364630849160371 -0.18954040733815231 0 -0.26517758567433047 -0.19404891915210001 0 -0.2364630849160371 -0.18954040733815231 0 -0.249637595880909 -0.21619730966344211 0 -0.26517758567433047 -0.19404891915210001 0 -0.26517758567433047 -0.19404891915210001 0 -0.27011070188289232 -0.18702258175234271 0 -0.26024508538434049 -0.18707788809213161 0 -0.26517758567433047 -0.19404891915210001 0 -0.26024508538434049 -0.18707788809213161 0 -0.2504970432631623 -0.18458537053644361 0 -0.26517758567433047 -0.19404891915210001 0 -0.29389208643262388 -0.19855743096604719 0 -0.26517758567433047 -0.19404891915210001 0 -0.27910814184419769 -0.18781654155930971 0 -0.27011070188289232 -0.18702258175234271 0 -0.27411094647718742 -0.21588321184877901 0 -0.26517758567433047 -0.19404891915210001 0 -0.29389208643262388 -0.19855743096604719 0 -0.26517758567433047 -0.19404891915210001 0 -0.27910814184419769 -0.18781654155930971 0 -0.29389208643262388 -0.19855743096604719 0 -0.27910814184419769 -0.18781654155930971 0 -0.29389208643262388 -0.19855743096604719 0 -0.28691427829150251 -0.18655409334285489 0 -0.29389208643262388 -0.19855743096604719 0 -0.28998537521697881 -0.18181061745310831 0 -0.28691427829150251 -0.18655409334285489 0 -0.27411094647718742 -0.21588321184877901 0 -0.29389208643262388 -0.19855743096604719 0 -0.29310941481980102 -0.20813853231483739 0 -0.29276294560700772 -0.220246909963868 0 -0.27411094647718742 -0.21588321184877901 0 -0.29310941481980102 -0.20813853231483739 0 -0.29389208643262388 -0.19855743096604719 0 -0.29310941481980102 -0.20813853231483739 0 -0.29310941481980102 -0.20813853231483739 0 -0.30656150019445488 -0.21479964772897289 0 -0.30748130682083541 -0.20069109719894709 0 -0.29276294560700772 -0.220246909963868 0 -0.29310941481980102 -0.20813853231483739 0 -0.30656150019445488 -0.21479964772897289 0 -0.30748130682083541 -0.20069109719894709 0 -0.30880819396660281 -0.19122667237738869 0 -0.30351625574973168 -0.1978154176882416 0 -0.30748130682083541 -0.20069109719894709 0 -0.30351625574973168 -0.1978154176882416 0 -0.30748130682083541 -0.20069109719894709 0 -0.30880819396660281 -0.19122667237738869 0 -0.31890928835888072 -0.19070892686304219 0 -0.30880819396660281 -0.19122667237738869 0 -0.30221409246563291 -0.19336740752036111 0 -0.30351625574973168 -0.1978154176882416 0 -0.29389208643262388 -0.19855743096604719 0 -0.30221409246563291 -0.19336740752036111 0 -0.30263983371357323 -0.18587010904976631 0 -0.29389208643262388 -0.19855743096604719 0 -0.29958720183396748 -0.18324069730137069 0 -0.30263983371357323 -0.18587010904976631 0 -0.30880819396660281 -0.19122667237738869 0 -0.30221409246563291 -0.19336740752036111 0 -0.30263983371357323 -0.18587010904976631 0 -0.29389208643262388 -0.19855743096604719 0 -0.30748130682083541 -0.20069109719894709 0 -0.29389208643262388 -0.19855743096604719 0 -0.30221409246563291 -0.19336740752036111 0 -0.30351625574973168 -0.1978154176882416 0 -0.29389208643262388 -0.19855743096604719 0 -0.29310941481980102 -0.20813853231483739 0 -0.30748130682083541 -0.20069109719894709 0 -0.29389208643262388 -0.19855743096604719 0 -0.30748130682083541 -0.20069109719894709 0 -0.30351625574973168 -0.1978154176882416 0 -0.29958720183396748 -0.18324069730137069 0 -0.30592697358176962 -0.1744342879996299 0 -0.29588991360790329 -0.1741009611900389 0 -0.29958720183396748 -0.18324069730137069 0 -0.30263983371357323 -0.18587010904976631 0 -0.30592697358176962 -0.1744342879996299 0 -0.30880819396660281 -0.19122667237738869 0 -0.30263983371357323 -0.18587010904976631 0 -0.31402165699509871 -0.18069366932361849 0 -0.30263983371357323 -0.18587010904976631 0 -0.30592697358176962 -0.1744342879996299 0 -0.31402165699509871 -0.18069366932361849 0 -0.29588991360790329 -0.1741009611900389 0 -0.29788774078317709 -0.14964449141403 0 -0.30592697358176962 -0.1744342879996299 0 -0.30617769662644789 -0.1621168831635775 0 -0.31946764391753513 -0.1639825697642914 0 -0.30617769662644789 -0.1621168831635775 0 -0.29588991360790329 -0.1741009611900389 0 -0.29788774078317709 -0.14964449141403 0 -0.30617769662644789 -0.1621168831635775 0 -0.31171621124185439 -0.14842210544989731 0 -0.31946764391753513 -0.1639825697642914 0 -0.30592697358176962 -0.1744342879996299 0 -0.30617769662644789 -0.1621168831635775 0 -0.29588991360790329 -0.1741009611900389 0 -0.28118705491944362 -0.1662523367455985 0 -0.29788774078317709 -0.14964449141403 0 -0.29588991360790329 -0.1741009611900389 0 -0.28118705491944362 -0.1662523367455985 0 -0.29788774078317709 -0.14964449141403 0 -0.29023937676666361 -0.17510684388198 0 -0.29588991360790329 -0.1741009611900389 0 -0.28118705491944362 -0.1662523367455985 0 -0.29023937676666361 -0.17510684388198 0 -0.28118705491944362 -0.1662523367455985 0 -0.29389208643262388 -0.19855743096604719 0 -0.29958720183396748 -0.18324069730137069 0 -0.29588991360790329 -0.1741009611900389 0 -0.29389208643262388 -0.19855743096604719 0 -0.29588991360790329 -0.1741009611900389 0 -0.28998537521697881 -0.18181061745310831 0 -0.29389208643262388 -0.19855743096604719 0 -0.29588991360790329 -0.1741009611900389 0 -0.28378695693084421 -0.17960461866479741 0 -0.29023937676666361 -0.17510684388198 0 -0.28118705491944362 -0.1662523367455985 0 -0.28378695693084421 -0.17960461866479741 0 -0.29023937676666361 -0.17510684388198 0 -0.28998537521697881 -0.18181061745310831 0 -0.29023937676666361 -0.17510684388198 0 -0.29588991360790329 -0.1741009611900389 0 -0.28998537521697881 -0.18181061745310831 0 -0.27910814184419769 -0.18781654155930971 0 -0.28378695693084421 -0.17960461866479741 0 -0.28691427829150251 -0.18655409334285489 0 -0.28378695693084421 -0.17960461866479741 0 -0.28998537521697881 -0.18181061745310831 0 -0.28691427829150251 -0.18655409334285489 0 -0.27476724185299289 -0.18111160547771599 0 -0.26024508538434049 -0.18707788809213161 0 -0.28118705491944362 -0.1662523367455985 0 -0.26024508538434049 -0.18707788809213161 0 -0.26395853519294121 -0.16973290388091661 0 -0.28118705491944362 -0.1662523367455985 0 -0.27910814184419769 -0.18781654155930971 0 -0.28378695693084421 -0.17960461866479741 0 -0.27476724185299289 -0.18111160547771599 0 -0.26024508538434049 -0.18707788809213161 0 -0.28118705491944362 -0.1662523367455985 0 -0.27910814184419769 -0.18781654155930971 0 -0.27476724185299289 -0.18111160547771599 0 -0.27011070188289232 -0.18702258175234271 0 -0.28378695693084421 -0.17960461866479741 0 -0.27476724185299289 -0.18111160547771599 0 -0.28118705491944362 -0.1662523367455985 0 -0.27476724185299289 -0.18111160547771599 0 -0.27011070188289232 -0.18702258175234271 0 -0.26024508538434049 -0.18707788809213161 0 -0.26024508538434049 -0.18707788809213161 0 -0.25539400129339329 -0.17731160628388151 0 -0.26395853519294121 -0.16973290388091661 0 -0.24705631832717739 -0.17252815801288299 0 -0.25539400129339329 -0.17731160628388151 0 -0.2504970432631623 -0.18458537053644361 0 -0.26024508538434049 -0.18707788809213161 0 -0.25539400129339329 -0.17731160628388151 0 -0.2504970432631623 -0.18458537053644361 0 -0.26395853519294121 -0.16973290388091661 0 -0.25352567449229479 -0.1612171356175249 0 -0.26418418347043598 -0.14962101838052611 0 -0.25539400129339329 -0.17731160628388151 0 -0.26395853519294121 -0.16973290388091661 0 -0.25352567449229479 -0.1612171356175249 0 -0.24705631832717739 -0.17252815801288299 0 -0.25539400129339329 -0.17731160628388151 0 -0.25352567449229479 -0.1612171356175249 0 -0.28118705491944362 -0.1662523367455985 0 -0.26418418347043598 -0.14962101838052611 0 -0.26395853519294121 -0.16973290388091661 0 -0.28118705491944362 -0.1662523367455985 0 -0.26418418347043598 -0.14962101838052611 0 -0.28118705491944362 -0.1662523367455985 0 -0.28018236567199611 -0.15027244951828639 0 -0.26418418347043598 -0.14962101838052611 0 -0.28018236567199611 -0.15027244951828639 0 -0.26418418347043598 -0.14962101838052611 0 -0.27139064361176102 -0.13765582020461531 0 -0.28018236567199611 -0.15027244951828639 0 -0.27139064361176102 -0.13765582020461531 0 -0.28513440447526972 -0.1359315134060646 0 -0.24718131202142851 -0.13298970001545379 0 -0.26418418347043598 -0.14962101838052611 0 -0.24882432452637129 -0.14519790410458591 0 -0.25352567449229479 -0.1612171356175249 0 -0.26418418347043598 -0.14962101838052611 0 -0.24882432452637129 -0.14519790410458591 0 -0.24718131202142851 -0.13298970001545379 0 -0.26418418347043598 -0.14962101838052611 0 -0.26418418347043598 -0.14962101838052611 0 -0.26004016270988939 -0.13489518724828681 0 -0.27139064361176102 -0.13765582020461531 0 -0.24718131202142851 -0.13298970001545379 0 -0.26418418347043598 -0.14962101838052611 0 -0.26004016270988939 -0.13489518724828681 0 -0.24718131202142851 -0.13298970001545379 0 -0.25452858301887898 -0.1251992734030731 0 -0.26004016270988939 -0.13489518724828681 0 -0.24718131202142851 -0.13298970001545379 0 -0.24930110540882561 -0.1226881304432532 0 -0.25452858301887898 -0.1251992734030731 0 -0.26004016270988939 -0.13489518724828681 0 -0.26344721183274161 -0.12737854793298861 0 -0.27139064361176102 -0.13765582020461531 0 -0.25452858301887898 -0.1251992734030731 0 -0.26004016270988939 -0.13489518724828681 0 -0.26344721183274161 -0.12737854793298861 0 -0.26344721183274161 -0.12737854793298861 0 -0.27139064361176102 -0.13765582020461531 0 -0.27535553351023379 -0.12783620474153931 0 -0.27139064361176102 -0.13765582020461531 0 -0.27535553351023379 -0.12783620474153931 0 -0.28513440447526972 -0.1359315134060646 0 -0.28513440447526972 -0.1359315134060646 0 -0.29788774078317709 -0.14964449141403 0 -0.2997148191546839 -0.12727824896615181 0 -0.28680644452556547 -0.12127028928698801 0 -0.27535553351023379 -0.12783620474153931 0 -0.28513440447526972 -0.1359315134060646 0 -0.28680644452556547 -0.12127028928698801 0 -0.28513440447526972 -0.1359315134060646 0 -0.2997148191546839 -0.12727824896615181 0 -0.28018236567199611 -0.15027244951828639 0 -0.28513440447526972 -0.1359315134060646 0 -0.29788774078317709 -0.14964449141403 0 -0.28118705491944362 -0.1662523367455985 0 -0.28018236567199611 -0.15027244951828639 0 -0.29788774078317709 -0.14964449141403 0 -0.29788774078317709 -0.14964449141403 0 -0.31171621124185439 -0.14842210544989731 0 -0.31417820360172671 -0.1334445886628679 0 -0.29788774078317709 -0.14964449141403 0 -0.31417820360172671 -0.1334445886628679 0 -0.30617769662644789 -0.1621168831635775 0 -0.29788774078317709 -0.14964449141403 0 -0.31171621124185439 -0.14842210544989731 0 -0.29788774078317709 -0.14964449141403 0 -0.2997148191546839 -0.12727824896615181 0 -0.29788774078317709 -0.14964449141403 0 -0.2997148191546839 -0.12727824896615181 0 -0.31417820360172671 -0.1334445886628679 0 -0.31214219157931311 -0.11935157254322989 0 -0.2997148191546839 -0.12727824896615181 0 -0.31417820360172671 -0.1334445886628679 0 -0.31214219157931311 -0.11935157254322989 0 -0.32130926219346112 -0.13672387651702911 0 -0.31417820360172671 -0.1334445886628679 0 -0.32130926219346112 -0.13672387651702911 0 -0.33034064094056892 -0.14587225826318759 0 -0.33165114548587088 -0.13380918876581621 0 -0.33083841201800512 -0.1231838869789062 0 -0.32130926219346112 -0.13672387651702911 0 -0.33165114548587088 -0.13380918876581621 0 -0.31171621124185439 -0.14842210544989731 0 -0.32130926219346112 -0.13672387651702911 0 -0.31417820360172671 -0.1334445886628679 0 -0.31171621124185439 -0.14842210544989731 0 -0.32130926219346112 -0.13672387651702911 0 -0.31946764391753513 -0.1639825697642914 0 -0.32130926219346112 -0.13672387651702911 0 -0.33034064094056892 -0.14587225826318759 0 -0.31946764391753513 -0.1639825697642914 0 -0.32130926219346112 -0.13672387651702911 0 -0.31946764391753513 -0.1639825697642914 0 -0.33034064094056892 -0.14587225826318759 0 -0.34151011439909479 -0.15511198841750429 0 -0.31946764391753513 -0.1639825697642914 0 -0.33034064094056892 -0.14587225826318759 0 -0.34151011439909479 -0.15511198841750429 0 -0.33925814198798709 -0.14045373575537939 0 -0.33925814198798709 -0.14045373575537939 0 -0.33165114548587088 -0.13380918876581621 0 -0.34367616603863521 -0.1262685122541724 0 -0.33034064094056892 -0.14587225826318759 0 -0.33925814198798709 -0.14045373575537939 0 -0.33165114548587088 -0.13380918876581621 0 -0.33083841201800512 -0.1231838869789062 0 -0.33165114548587088 -0.13380918876581621 0 -0.34367616603863521 -0.1262685122541724 0 -0.33925814198798709 -0.14045373575537939 0 -0.34367616603863521 -0.1262685122541724 0 -0.35718411799777983 -0.1397957559170552 0 -0.34367616603863521 -0.1262685122541724 0 -0.35718411799777983 -0.1397957559170552 0 -0.3612332496997766 -0.12634705463833851 0 -0.36921427731354423 -0.11569282184121731 0 -0.3612332496997766 -0.12634705463833851 0 -0.38289585989262981 -0.13525943082854491 0 -0.35718411799777983 -0.1397957559170552 0 -0.3612332496997766 -0.12634705463833851 0 -0.38289585989262981 -0.13525943082854491 0 -0.35718411799777983 -0.1397957559170552 0 -0.36571970353857869 -0.15597417831575011 0 -0.38289585989262981 -0.13525943082854491 0 -0.34151011439909479 -0.15511198841750429 0 -0.35718411799777983 -0.1397957559170552 0 -0.36571970353857869 -0.15597417831575011 0 -0.34151011439909479 -0.15511198841750429 0 -0.33925814198798709 -0.14045373575537939 0 -0.35718411799777983 -0.1397957559170552 0 -0.34151011439909479 -0.15511198841750429 0 -0.35390130306119572 -0.1683890550407629 0 -0.3415766325432833 -0.18058344694362141 0 -0.34151011439909479 -0.15511198841750429 0 -0.36571970353857869 -0.15597417831575011 0 -0.35390130306119572 -0.1683890550407629 0 -0.36571970353857869 -0.15597417831575011 0 -0.36869685170085592 -0.17048835684376731 0 -0.38184053697013742 -0.1633662469636343 0 -0.36571970353857869 -0.15597417831575011 0 -0.35390130306119572 -0.1683890550407629 0 -0.36869685170085592 -0.17048835684376731 0 -0.36869685170085592 -0.17048835684376731 0 -0.35925045625513502 -0.18091559830364051 0 -0.37791319376516208 -0.18133266909237489 0 -0.35925045625513502 -0.18091559830364051 0 -0.36916764753475462 -0.1947269720370455 0 -0.37791319376516208 -0.18133266909237489 0 -0.35390130306119572 -0.1683890550407629 0 -0.36869685170085592 -0.17048835684376731 0 -0.35925045625513502 -0.18091559830364051 0 -0.35390130306119572 -0.1683890550407629 0 -0.35925045625513502 -0.18091559830364051 0 -0.3415766325432833 -0.18058344694362141 0 -0.35925045625513502 -0.18091559830364051 0 -0.3415766325432833 -0.18058344694362141 0 -0.35201822693178442 -0.19653205661870801 0 -0.3415766325432833 -0.18058344694362141 0 -0.3271700874181902 -0.17675917657836551 0 -0.33141225619840448 -0.1915099443655878 0 -0.34151011439909479 -0.15511198841750429 0 -0.3415766325432833 -0.18058344694362141 0 -0.3271700874181902 -0.17675917657836551 0 -0.34151011439909479 -0.15511198841750429 0 -0.3415766325432833 -0.18058344694362141 0 -0.34151011439909479 -0.15511198841750429 0 -0.31946764391753513 -0.1639825697642914 0 -0.3271700874181902 -0.17675917657836551 0 -0.31946764391753513 -0.1639825697642914 0 -0.31402165699509871 -0.18069366932361849 0 -0.3271700874181902 -0.17675917657836551 0 -0.30592697358176962 -0.1744342879996299 0 -0.31946764391753513 -0.1639825697642914 0 -0.31402165699509871 -0.18069366932361849 0 -0.31402165699509871 -0.18069366932361849 0 -0.3271700874181902 -0.17675917657836551 0 -0.31890928835888072 -0.19070892686304219 0 -0.3271700874181902 -0.17675917657836551 0 -0.31890928835888072 -0.19070892686304219 0 -0.33141225619840448 -0.1915099443655878 0 -0.30748130682083541 -0.20069109719894709 0 -0.31890928835888072 -0.19070892686304219 0 -0.32456222875415319 -0.20337300133434441 0 -0.30748130682083541 -0.20069109719894709 0 -0.32456222875415319 -0.20337300133434441 0 -0.31890928835888072 -0.19070892686304219 0 -0.32456222875415319 -0.20337300133434441 0 -0.33141225619840448 -0.1915099443655878 0 -0.30880819396660281 -0.19122667237738869 0 -0.31402165699509871 -0.18069366932361849 0 -0.31890928835888072 -0.19070892686304219 0 -0.30748130682083541 -0.20069109719894709 0 -0.3245876242399548 -0.21309756703340499 0 -0.32456222875415319 -0.20337300133434441 0 -0.30656150019445488 -0.21479964772897289 0 -0.30748130682083541 -0.20069109719894709 0 -0.3245876242399548 -0.21309756703340499 0 -0.30748130682083541 -0.20069109719894709 0 -0.3245876242399548 -0.21309756703340499 0 -0.30656150019445488 -0.21479964772897289 0 -0.3245876242399548 -0.21309756703340499 0 -0.31640866247798088 -0.22484120251661799 0 -0.3245876242399548 -0.21309756703340499 0 -0.32456222875415319 -0.20337300133434441 0 -0.34164315068747148 -0.20605490546973859 0 -0.3245876242399548 -0.21309756703340499 0 -0.34164315068747148 -0.20605490546973859 0 -0.34169394165907369 -0.22550403686786349 0 -0.34164315068747148 -0.20605490546973859 0 -0.34169394165907369 -0.22550403686786349 0 -0.32456222875415319 -0.20337300133434441 0 -0.34164315068747148 -0.20605490546973859 0 -0.3415766325432833 -0.18058344694362141 0 -0.34164315068747148 -0.20605490546973859 0 -0.33141225619840448 -0.1915099443655878 0 -0.3415766325432833 -0.18058344694362141 0 -0.34164315068747148 -0.20605490546973859 0 -0.32456222875415319 -0.20337300133434441 0 -0.34164315068747148 -0.20605490546973859 0 -0.33141225619840448 -0.1915099443655878 0 -0.3415766325432833 -0.18058344694362141 0 -0.34164315068747148 -0.20605490546973859 0 -0.35201822693178442 -0.19653205661870801 0 -0.35201822693178442 -0.19653205661870801 0 -0.35056322033625859 -0.2074554605318428 0 -0.35201822693178442 -0.19653205661870801 0 -0.36151613199373073 -0.20247483110073991 0 -0.35056322033625859 -0.2074554605318428 0 -0.35201822693178442 -0.19653205661870801 0 -0.36916764753475462 -0.1947269720370455 0 -0.36151613199373073 -0.20247483110073991 0 -0.36916764753475462 -0.1947269720370455 0 -0.36151613199373073 -0.20247483110073991 0 -0.37431543317212501 -0.21118483521536319 0 -0.35925045625513502 -0.18091559830364051 0 -0.35201822693178442 -0.19653205661870801 0 -0.36916764753475462 -0.1947269720370455 0 -0.37431543317212501 -0.21118483521536319 0 -0.35056322033625859 -0.2074554605318428 0 -0.36151613199373073 -0.20247483110073991 0 -0.37431543317212501 -0.21118483521536319 0 -0.35056322033625859 -0.2074554605318428 0 -0.37431543317212501 -0.21118483521536319 0 -0.36127257389350731 -0.2164953456381051 0 -0.35056322033625859 -0.2074554605318428 0 -0.37431543317212501 -0.21118483521536319 0 -0.36127257389350731 -0.2164953456381051 0 -0.37068503125678182 -0.22513560475879671 0 -0.35056322033625859 -0.2074554605318428 0 -0.34758958717222538 -0.229779892764925 0 -0.34164315068747148 -0.20605490546973859 0 -0.35056322033625859 -0.2074554605318428 0 -0.34169394165907369 -0.22550403686786349 0 -0.36127257389350731 -0.2164953456381051 0 -0.35056322033625859 -0.2074554605318428 0 -0.34758958717222538 -0.229779892764925 0 -0.34164315068747148 -0.20605490546973859 0 -0.35201822693178442 -0.19653205661870801 0 -0.35056322033625859 -0.2074554605318428 0 -0.34164315068747148 -0.20605490546973859 0 -0.35056322033625859 -0.2074554605318428 0 -0.35056322033625859 -0.2074554605318428 0 -0.34758958717222538 -0.229779892764925 0 -0.34169394165907369 -0.22550403686786349 0 -0.34758958717222538 -0.229779892764925 0 -0.35996752315453773 -0.2259351967391833 0 -0.36470096084962478 -0.23233258624188111 0 -0.34758958717222538 -0.229779892764925 0 -0.34169394165907369 -0.22550403686786349 0 -0.36127257389350731 -0.2164953456381051 0 -0.34758958717222538 -0.229779892764925 0 -0.35996752315453773 -0.2259351967391833 0 -0.36127257389350731 -0.2164953456381051 0 -0.35996752315453773 -0.2259351967391833 0 -0.37068503125678182 -0.22513560475879671 0 -0.35996752315453773 -0.2259351967391833 0 -0.36470096084962478 -0.23233258624188111 0 -0.37068503125678182 -0.22513560475879671 0 -0.36470096084962478 -0.23233258624188111 0 -0.37068503125678182 -0.22513560475879671 0 -0.37669647987564431 -0.2358189294896699 0 -0.34758958717222538 -0.229779892764925 0 -0.36470096084962478 -0.23233258624188111 0 -0.36856618278893322 -0.24499330745683029 0 -0.36470096084962478 -0.23233258624188111 0 -0.36856618278893322 -0.24499330745683029 0 -0.37669647987564431 -0.2358189294896699 0 -0.35629314022251041 -0.25009765907738241 0 -0.34758958717222538 -0.229779892764925 0 -0.36856618278893322 -0.24499330745683029 0 -0.34758958717222538 -0.229779892764925 0 -0.36856618278893322 -0.24499330745683029 0 -0.34438647566256081 -0.25382712451404371 0 -0.34758958717222538 -0.229779892764925 0 -0.34438647566256081 -0.25382712451404371 0 -0.34758958717222538 -0.229779892764925 0 -0.34171585964419909 -0.233896980716368 0 -0.34438647566256081 -0.25382712451404371 0 -0.35629314022251041 -0.25009765907738241 0 -0.34758958717222538 -0.229779892764925 0 -0.34438647566256081 -0.25382712451404371 0 -0.33146111746708989 -0.24428952813003199 0 -0.34171585964419909 -0.233896980716368 0 -0.33146111746708989 -0.24428952813003199 0 -0.33235113382249731 -0.23608973429108321 0 -0.34171585964419909 -0.233896980716368 0 -0.33146111746708989 -0.24428952813003199 0 -0.33235113382249731 -0.23608973429108321 0 -0.32285671393989063 -0.23536664121797871 0 -0.3245876242399548 -0.21309756703340499 0 -0.34169394165907369 -0.22550403686786349 0 -0.3245876242399548 -0.21309756703340499 0 -0.34169394165907369 -0.22550403686786349 0 -0.3303711522227587 -0.22973010662262389 0 -0.34171585964419909 -0.233896980716368 0 -0.34169394165907369 -0.22550403686786349 0 -0.34758958717222538 -0.229779892764925 0 -0.34171585964419909 -0.233896980716368 0 -0.34169394165907369 -0.22550403686786349 0 -0.34171585964419909 -0.233896980716368 0 -0.34169394165907369 -0.22550403686786349 0 -0.3303711522227587 -0.22973010662262389 0 -0.33235113382249731 -0.23608973429108321 0 -0.3303711522227587 -0.22973010662262389 0 -0.32285671393989063 -0.23536664121797871 0 -0.33235113382249731 -0.23608973429108321 0 -0.34171585964419909 -0.233896980716368 0 -0.3303711522227587 -0.22973010662262389 0 -0.3303711522227587 -0.22973010662262389 0 -0.31640866247798088 -0.22484120251661799 0 -0.32285671393989063 -0.23536664121797871 0 -0.3245876242399548 -0.21309756703340499 0 -0.3303711522227587 -0.22973010662262389 0 -0.31640866247798088 -0.22484120251661799 0 -0.31154728501600298 -0.2331339944345952 0 -0.31640866247798088 -0.22484120251661799 0 -0.32285671393989063 -0.23536664121797871 0 -0.33146111746708989 -0.24428952813003199 0 -0.31444700313138563 -0.24530833583511691 0 -0.32285671393989063 -0.23536664121797871 0 -0.31154728501600298 -0.2331339944345952 0 -0.31444700313138563 -0.24530833583511691 0 -0.32285671393989063 -0.23536664121797871 0 -0.3246131863872373 -0.25564868149974468 0 -0.33146111746708989 -0.24428952813003199 0 -0.31444700313138563 -0.24530833583511691 0 -0.4348516370938682 -0.25389622940154682 0 -0.43720377790449372 -0.2282622075332201 0 -0.41455112673501138 -0.240908174751404 0 -0.43720377790449372 -0.2282622075332201 0 -0.41031891678390719 -0.22400770453731991 0 -0.41712540697603062 -0.20669179788754069 0 -0.43720377790449372 -0.2282622075332201 0 -0.41031891678390719 -0.22400770453731991 0 -0.41455112673501138 -0.240908174751404 0 -0.40498964648786662 -0.25549085411351879 0 -0.41455112673501138 -0.240908174751404 0 -0.38888579207983148 -0.2371195484928201 0 -0.38954277840564272 -0.26020672214873303 0 -0.36856618278893322 -0.24499330745683029 0 -0.38888579207983148 -0.2371195484928201 0 -0.36856618278893322 -0.24499330745683029 0 -0.38888579207983148 -0.2371195484928201 0 -0.37669647987564431 -0.2358189294896699 0 -0.38888579207983148 -0.2371195484928201 0 -0.37669647987564431 -0.2358189294896699 0 -0.39390521911640619 -0.2159137013231687 0 -0.37068503125678182 -0.22513560475879671 0 -0.37669647987564431 -0.2358189294896699 0 -0.39390521911640619 -0.2159137013231687 0 -0.37068503125678182 -0.22513560475879671 0 -0.39390521911640619 -0.2159137013231687 0 -0.41031891678390719 -0.22400770453731991 0 -0.38888579207983148 -0.2371195484928201 0 -0.39390521911640619 -0.2159137013231687 0 -0.41031891678390719 -0.22400770453731991 0 -0.41455112673501138 -0.240908174751404 0 -0.38888579207983148 -0.2371195484928201 0 -0.39390521911640619 -0.2159137013231687 0 -0.40261883018286748 -0.1949086096098307 0 -0.41712540697603062 -0.20669179788754069 0 -0.39390521911640619 -0.2159137013231687 0 -0.41712540697603062 -0.20669179788754069 0 -0.37431543317212501 -0.21118483521536319 0 -0.37068503125678182 -0.22513560475879671 0 -0.39390521911640619 -0.2159137013231687 0 -0.37431543317212501 -0.21118483521536319 0 -0.39390521911640619 -0.2159137013231687 0 -0.38698390817160572 -0.1969785331861392 0 -0.36916764753475462 -0.1947269720370455 0 -0.37431543317212501 -0.21118483521536319 0 -0.38698390817160572 -0.1969785331861392 0 -0.36916764753475462 -0.1947269720370455 0 -0.38698390817160572 -0.1969785331861392 0 -0.37791319376516208 -0.18133266909237489 0 -0.38698390817160572 -0.1969785331861392 0 -0.40261883018286748 -0.1949086096098307 0 -0.39478525797241071 -0.17834081904753971 0 -0.39390521911640619 -0.2159137013231687 0 -0.38698390817160572 -0.1969785331861392 0 -0.40261883018286748 -0.1949086096098307 0 -0.40261883018286748 -0.1949086096098307 0 -0.41712540697603062 -0.20669179788754069 0 -0.42029435867788428 -0.17661819660476499 0 -0.41031891678390719 -0.22400770453731991 0 -0.39390521911640619 -0.2159137013231687 0 -0.41712540697603062 -0.20669179788754069 0 -0.43720377790449372 -0.2282622075332201 0 -0.41712540697603062 -0.20669179788754069 0 -0.44034559483565511 -0.19746989445191271 0 -0.41712540697603062 -0.20669179788754069 0 -0.42029435867788428 -0.17661819660476499 0 -0.44034559483565511 -0.19746989445191271 0 -0.41712540697603062 -0.20669179788754069 0 -0.44034559483565511 -0.19746989445191271 0 -0.42029435867788428 -0.17661819660476499 0 -0.44669691394976641 -0.1756123370582125 0 -0.44034559483565511 -0.19746989445191271 0 -0.42029435867788428 -0.17661819660476499 0 -0.44110936851718968 -0.1535808512043258 0 -0.44669691394976641 -0.1756123370582125 0 -0.42029435867788428 -0.17661819660476499 0 -0.41807912512831202 -0.14659528857587589 0 -0.44110936851718968 -0.1535808512043258 0 -0.42029435867788428 -0.17661819660476499 0 -0.39657744247171522 -0.15482603981587251 0 -0.41807912512831202 -0.14659528857587589 0 -0.40261883018286748 -0.1949086096098307 0 -0.42029435867788428 -0.17661819660476499 0 -0.39478525797241071 -0.17834081904753971 0 -0.38698390817160572 -0.1969785331861392 0 -0.39478525797241071 -0.17834081904753971 0 -0.37791319376516208 -0.18133266909237489 0 -0.39478525797241071 -0.17834081904753971 0 -0.37791319376516208 -0.18133266909237489 0 -0.38184053697013742 -0.1633662469636343 0 -0.36869685170085592 -0.17048835684376731 0 -0.37791319376516208 -0.18133266909237489 0 -0.38184053697013742 -0.1633662469636343 0 -0.39478525797241071 -0.17834081904753971 0 -0.38184053697013742 -0.1633662469636343 0 -0.39657744247171522 -0.15482603981587251 0 -0.42029435867788428 -0.17661819660476499 0 -0.39478525797241071 -0.17834081904753971 0 -0.39657744247171522 -0.15482603981587251 0 -0.39657744247171522 -0.15482603981587251 0 -0.38289585989262981 -0.13525943082854491 0 -0.39997271196545892 -0.13788536272986149 0 -0.39657744247171522 -0.15482603981587251 0 -0.39997271196545892 -0.13788536272986149 0 -0.41807912512831202 -0.14659528857587589 0 -0.39657744247171522 -0.15482603981587251 0 -0.38289585989262981 -0.13525943082854491 0 -0.36571970353857869 -0.15597417831575011 0 -0.38184053697013742 -0.1633662469636343 0 -0.38289585989262981 -0.13525943082854491 0 -0.38184053697013742 -0.1633662469636343 0 -0.39657744247171522 -0.15482603981587251 0 -0.38289585989262981 -0.13525943082854491 0 -0.36921427731354423 -0.11569282184121731 0 -0.38289585989262981 -0.13525943082854491 0 -0.39997271196545892 -0.13788536272986149 0 -0.41413216065440411 -0.1279846350852506 0 -0.39463259056984129 -0.11506452065626969 0 -0.38289585989262981 -0.13525943082854491 0 -0.39997271196545892 -0.13788536272986149 0 -0.39463259056984129 -0.11506452065626969 0 -0.39997271196545892 -0.13788536272986149 0 -0.41413216065440411 -0.1279846350852506 0 -0.41807912512831202 -0.14659528857587589 0 -0.41807912512831202 -0.14659528857587589 0 -0.43819676720461131 -0.12785560457387851 0 -0.44110936851718968 -0.1535808512043258 0 -0.41413216065440411 -0.1279846350852506 0 -0.41807912512831202 -0.14659528857587589 0 -0.43819676720461131 -0.12785560457387851 0 -0.43819676720461131 -0.12785560457387851 0 -0.45812121793815541 -0.14389404323560109 0 -0.46241009980662451 -0.126999329793168 0 -0.43819676720461131 -0.12785560457387851 0 -0.44110936851718968 -0.1535808512043258 0 -0.45812121793815541 -0.14389404323560109 0 -0.44110936851718968 -0.1535808512043258 0 -0.45812121793815541 -0.14389404323560109 0 -0.46816946502282297 -0.16214475201377451 0 -0.45812121793815541 -0.14389404323560109 0 -0.47871136096719069 -0.141623449943375 0 -0.46816946502282297 -0.16214475201377451 0 -0.45812121793815541 -0.14389404323560109 0 -0.46241009980662451 -0.126999329793168 0 -0.47871136096719069 -0.141623449943375 0 -0.46241009980662451 -0.126999329793168 0 -0.47871136096719069 -0.141623449943375 0 -0.4790193332924067 -0.1177660540675757 0 -0.47871136096719069 -0.141623449943375 0 -0.5 -0.16498031926770229 0 -0.46816946502282297 -0.16214475201377451 0 -0.5 -0.13530930391217499 0 -0.47871136096719069 -0.141623449943375 0 -0.4790193332924067 -0.1177660540675757 0 -0.5 -0.13530930391217499 0 -0.47871136096719069 -0.141623449943375 0 -0.5 -0.16498031926770229 0 -0.5 -0.16498031926770229 0 -0.4832200720382846 -0.18104033285801849 0 -0.46816946502282297 -0.16214475201377451 0 -0.5 -0.16498031926770229 0 -0.4832200720382846 -0.18104033285801849 0 -0.50000000000000178 -0.19465133462322959 0 -0.4832200720382846 -0.18104033285801849 0 -0.46816946502282297 -0.16214475201377451 0 -0.4635657826952797 -0.18824799101628459 0 -0.46816946502282297 -0.16214475201377451 0 -0.44669691394976641 -0.1756123370582125 0 -0.4635657826952797 -0.18824799101628459 0 -0.44110936851718968 -0.1535808512043258 0 -0.46816946502282297 -0.16214475201377451 0 -0.44669691394976641 -0.1756123370582125 0 -0.44669691394976641 -0.1756123370582125 0 -0.44034559483565511 -0.19746989445191271 0 -0.4635657826952797 -0.18824799101628459 0 -0.44034559483565511 -0.19746989445191271 0 -0.4635657826952797 -0.18824799101628459 0 -0.43720377790449372 -0.2282622075332201 0 -0.44034559483565511 -0.19746989445191271 0 -0.45813585193632977 -0.21705858322989019 0 -0.45813585193632977 -0.21705858322989019 0 -0.47906792596816589 -0.20585495892656019 0 -0.45813585193632977 -0.21705858322989019 0 -0.4635657826952797 -0.18824799101628459 0 -0.47906792596816589 -0.20585495892656019 0 -0.44034559483565511 -0.19746989445191271 0 -0.45813585193632977 -0.21705858322989019 0 -0.4635657826952797 -0.18824799101628459 0 -0.4832200720382846 -0.18104033285801849 0 -0.4635657826952797 -0.18824799101628459 0 -0.47906792596816589 -0.20585495892656019 0 -0.4832200720382846 -0.18104033285801849 0 -0.50000000000000178 -0.19465133462322959 0 -0.47906792596816589 -0.20585495892656019 0 -0.50000000000000178 -0.19465133462322959 0 -0.47906792596816589 -0.20585495892656019 0 -0.50000000000000178 -0.19465133462322959 0 -0.47906792596816589 -0.20585495892656019 0 -0.5 -0.22190184556825601 0 -0.47906792596816589 -0.20585495892656019 0 -0.47686169619295338 -0.226888821633486 0 -0.5 -0.22190184556825601 0 -0.45813585193632977 -0.21705858322989019 0 -0.47906792596816589 -0.20585495892656019 0 -0.47686169619295338 -0.226888821633486 0 -0.47686169619295338 -0.226888821633486 0 -0.5 -0.22190184556825601 0 -0.5 -0.2491523565132823 0 -0.47686169619295338 -0.226888821633486 0 -0.5 -0.2491523565132823 0 -0.47029630088263658 -0.248490092013747 0 -0.47686169619295338 -0.226888821633486 0 -0.47029630088263658 -0.248490092013747 0 -0.45130842305839858 -0.24033230708178061 0 -0.45813585193632977 -0.21705858322989019 0 -0.47686169619295338 -0.226888821633486 0 -0.45130842305839858 -0.24033230708178061 0 -0.43720377790449372 -0.2282622075332201 0 -0.45813585193632977 -0.21705858322989019 0 -0.43720377790449372 -0.2282622075332201 0 -0.45813585193632977 -0.21705858322989019 0 -0.45130842305839858 -0.24033230708178061 0 -0.4348516370938682 -0.25389622940154682 0 -0.43720377790449372 -0.2282622075332201 0 -0.45130842305839858 -0.24033230708178061 0 -0.41865286087084291 -0.037040918418287522 0 -0.39626464489260121 -0.033133038585481028 0 -0.41979433017356399 -0.056346541219759967 0 -0.40046370415589388 -0.05692699077550363 0 -0.41050909532758428 -0.074095549857307416 0 -0.41865286087084291 -0.037040918418287522 0 -0.41979433017356399 -0.056346541219759967 0 -0.40046370415589388 -0.05692699077550363 0 -0.41979433017356399 -0.056346541219759967 0 -0.44140396655935338 -0.042344362540287117 0 -0.43772402845418551 -0.060277421702700493 0 -0.41865286087084291 -0.037040918418287522 0 -0.43431626646751531 -0.01883588805323733 0 -0.44140396655935338 -0.042344362540287117 0 -0.41865286087084291 -0.037040918418287522 0 -0.41979433017356399 -0.056346541219759967 0 -0.44140396655935338 -0.042344362540287117 0 -0.43431626646751531 -0.01883588805323733 0 -0.41138549099470229 -0.0092680588798224467 0 -0.43405595001239639 0.011481580018787159 0 -0.41865286087084291 -0.037040918418287522 0 -0.41138549099470229 -0.0092680588798224467 0 -0.39626464489260121 -0.033133038585481028 0 -0.41865286087084291 -0.037040918418287522 0 -0.43431626646751531 -0.01883588805323733 0 -0.41138549099470229 -0.0092680588798224467 0 -0.41138549099470229 -0.0092680588798224467 0 -0.38910313998443441 -0.01294917534516532 0 -0.39626464489260121 -0.033133038585481028 0 -0.41138549099470229 -0.0092680588798224467 0 -0.38910313998443441 -0.01294917534516532 0 -0.39417780492998572 0.0049738466972809097 0 -0.37387642891435952 -0.029225158752674521 0 -0.38910313998443441 -0.01294917534516532 0 -0.3689136781206136 0.00042714381548027928 0 -0.38910313998443441 -0.01294917534516532 0 -0.39417780492998572 0.0049738466972809097 0 -0.3689136781206136 0.00042714381548027928 0 -0.37387642891435952 -0.029225158752674521 0 -0.38910313998443441 -0.01294917534516532 0 -0.39626464489260121 -0.033133038585481028 0 -0.37387642891435952 -0.029225158752674521 0 -0.39626464489260121 -0.033133038585481028 0 -0.37387642891435952 -0.029225158752674521 0 -0.3839181124705166 -0.0459373528113831 0 -0.39626464489260121 -0.033133038585481028 0 -0.3839181124705166 -0.0459373528113831 0 -0.39626464489260121 -0.033133038585481028 0 -0.40046370415589388 -0.05692699077550363 0 -0.41865286087084291 -0.037040918418287522 0 -0.39626464489260121 -0.033133038585481028 0 -0.40046370415589388 -0.05692699077550363 0 -0.40046370415589388 -0.05692699077550363 0 -0.38092617348905378 -0.063471195139190847 0 -0.36107355390415019 -0.049262293928833058 0 -0.3839181124705166 -0.0459373528113831 0 -0.38092617348905378 -0.063471195139190847 0 -0.3839181124705166 -0.0459373528113831 0 -0.40046370415589388 -0.05692699077550363 0 -0.38092617348905378 -0.063471195139190847 0 -0.38092617348905378 -0.063471195139190847 0 -0.37644597749320818 -0.088748154985691732 0 -0.3950242407289582 -0.075017419843805971 0 -0.40218472643486541 -0.091980694546423158 0 -0.3950242407289582 -0.075017419843805971 0 -0.41050909532758428 -0.074095549857307416 0 -0.37644597749320818 -0.088748154985691732 0 -0.40218472643486541 -0.091980694546423158 0 -0.3950242407289582 -0.075017419843805971 0 -0.40046370415589388 -0.05692699077550363 0 -0.3950242407289582 -0.075017419843805971 0 -0.41050909532758428 -0.074095549857307416 0 -0.40046370415589388 -0.05692699077550363 0 -0.38092617348905378 -0.063471195139190847 0 -0.3950242407289582 -0.075017419843805971 0 -0.36921427731354423 -0.11569282184121731 0 -0.38289585989262981 -0.13525943082854491 0 -0.39463259056984129 -0.11506452065626969 0 -0.36921427731354423 -0.11569282184121731 0 -0.37644597749320818 -0.088748154985691732 0 -0.39463259056984129 -0.11506452065626969 0 -0.40218472643486541 -0.091980694546423158 0 -0.39463259056984129 -0.11506452065626969 0 -0.41758493197894331 -0.1084192026537284 0 -0.37644597749320818 -0.088748154985691732 0 -0.40218472643486541 -0.091980694546423158 0 -0.39463259056984129 -0.11506452065626969 0 -0.41413216065440411 -0.1279846350852506 0 -0.39463259056984129 -0.11506452065626969 0 -0.41758493197894331 -0.1084192026537284 0 -0.40218472643486541 -0.091980694546423158 0 -0.41758493197894331 -0.1084192026537284 0 -0.42297227131007348 -0.089801906693968842 0 -0.41758493197894331 -0.1084192026537284 0 -0.43723585732236042 -0.10593902406432 0 -0.42297227131007348 -0.089801906693968842 0 -0.43819676720461131 -0.12785560457387851 0 -0.41758493197894331 -0.1084192026537284 0 -0.43723585732236042 -0.10593902406432 0 -0.41413216065440411 -0.1279846350852506 0 -0.43819676720461131 -0.12785560457387851 0 -0.41758493197894331 -0.1084192026537284 0 -0.41979433017356399 -0.056346541219759967 0 -0.41050909532758428 -0.074095549857307416 0 -0.42641725655134372 -0.073768003015410533 0 -0.40218472643486541 -0.091980694546423158 0 -0.41050909532758428 -0.074095549857307416 0 -0.42297227131007348 -0.089801906693968842 0 -0.41050909532758428 -0.074095549857307416 0 -0.42297227131007348 -0.089801906693968842 0 -0.42641725655134372 -0.073768003015410533 0 -0.43723585732236042 -0.10593902406432 0 -0.42297227131007348 -0.089801906693968842 0 -0.44390176024534428 -0.084608966026623655 0 -0.42297227131007348 -0.089801906693968842 0 -0.42641725655134372 -0.073768003015410533 0 -0.44390176024534428 -0.084608966026623655 0 -0.41979433017356399 -0.056346541219759967 0 -0.42641725655134372 -0.073768003015410533 0 -0.43772402845418551 -0.060277421702700493 0 -0.42641725655134372 -0.073768003015410533 0 -0.44390176024534428 -0.084608966026623655 0 -0.43772402845418551 -0.060277421702700493 0 -0.44390176024534428 -0.084608966026623655 0 -0.45566534721432078 -0.064154918698510269 0 -0.43772402845418551 -0.060277421702700493 0 -0.44390176024534428 -0.084608966026623655 0 -0.45566534721432078 -0.064154918698510269 0 -0.47419563021925298 -0.087638624906895585 0 -0.44390176024534428 -0.084608966026623655 0 -0.45613437849699512 -0.1088917013768894 0 -0.47419563021925298 -0.087638624906895585 0 -0.43819676720461131 -0.12785560457387851 0 -0.46241009980662451 -0.126999329793168 0 -0.45613437849699512 -0.1088917013768894 0 -0.43819676720461131 -0.12785560457387851 0 -0.43723585732236042 -0.10593902406432 0 -0.45613437849699512 -0.1088917013768894 0 -0.43723585732236042 -0.10593902406432 0 -0.44390176024534428 -0.084608966026623655 0 -0.45613437849699512 -0.1088917013768894 0 -0.46241009980662451 -0.126999329793168 0 -0.45613437849699512 -0.1088917013768894 0 -0.4790193332924067 -0.1177660540675757 0 -0.45613437849699512 -0.1088917013768894 0 -0.4790193332924067 -0.1177660540675757 0 -0.47419563021925298 -0.087638624906895585 0 -0.4790193332924067 -0.1177660540675757 0 -0.5 -0.1056382885566477 0 -0.47419563021925298 -0.087638624906895585 0 -0.5 -0.13530930391217499 0 -0.4790193332924067 -0.1177660540675757 0 -0.5 -0.1056382885566477 0 -0.45566534721432078 -0.064154918698510269 0 -0.47419563021925298 -0.087638624906895585 0 -0.48021177008905169 -0.061131765523356738 0 -0.5 -0.1056382885566477 0 -0.47419563021925298 -0.087638624906895585 0 -0.5 -0.0759672732011204 0 -0.47419563021925298 -0.087638624906895585 0 -0.5 -0.0759672732011204 0 -0.48021177008905169 -0.061131765523356738 0 -0.5 -0.0759672732011204 0 -0.5 -0.046296257845593103 0 -0.48021177008905169 -0.061131765523356738 0 -0.5 -0.046296257845593103 0 -0.47098033007912332 -0.03596759862968249 0 -0.5 -0.016625242490065809 0 -0.45566534721432078 -0.064154918698510269 0 -0.47098033007912332 -0.03596759862968249 0 -0.48021177008905169 -0.061131765523356738 0 -0.5 -0.046296257845593103 0 -0.47098033007912332 -0.03596759862968249 0 -0.48021177008905169 -0.061131765523356738 0 -0.45566534721432078 -0.064154918698510269 0 -0.47098033007912332 -0.03596759862968249 0 -0.44140396655935338 -0.042344362540287117 0 -0.47098033007912332 -0.03596759862968249 0 -0.44140396655935338 -0.042344362540287117 0 -0.4526946026559226 -0.023787251059831802 0 -0.45566534721432078 -0.064154918698510269 0 -0.44140396655935338 -0.042344362540287117 0 -0.43772402845418551 -0.060277421702700493 0 -0.43431626646751531 -0.01883588805323733 0 -0.45421934743889009 -0.003646612285579158 0 -0.43405595001239639 0.011481580018787159 0 -0.43431626646751531 -0.01883588805323733 0 -0.4526946026559226 -0.023787251059831802 0 -0.45421934743889009 -0.003646612285579158 0 -0.43431626646751531 -0.01883588805323733 0 -0.44140396655935338 -0.042344362540287117 0 -0.4526946026559226 -0.023787251059831802 0 -0.47098033007912332 -0.03596759862968249 0 -0.4526946026559226 -0.023787251059831802 0 -0.47537939300161458 -0.01206129719868348 0 -0.4526946026559226 -0.023787251059831802 0 -0.45421934743889009 -0.003646612285579158 0 -0.47537939300161458 -0.01206129719868348 0 -0.45421934743889009 -0.003646612285579158 0 -0.47537939300161458 -0.01206129719868348 0 -0.47436301290445798 0.010695546219274901 0 -0.47098033007912332 -0.03596759862968249 0 -0.47537939300161458 -0.01206129719868348 0 -0.5 -0.016625242490065809 0 -0.47537939300161458 -0.01206129719868348 0 -0.5 -0.016625242490065809 0 -0.5 0.013045772865461439 0 -0.5 0.013045772865461439 0 -0.5 0.042716788220988733 0 -0.47411408002197819 0.036438830878491563 0 -0.5 0.013045772865461439 0 -0.47436301290445798 0.010695546219274901 0 -0.47411408002197819 0.036438830878491563 0 -0.47537939300161458 -0.01206129719868348 0 -0.5 0.013045772865461439 0 -0.47436301290445798 0.010695546219274901 0 -0.5 0.042716788220988733 0 -0.47522967513034459 0.063051779776667913 0 -0.5 0.07238780357651603 0 -0.5 0.042716788220988733 0 -0.47411408002197819 0.036438830878491563 0 -0.47522967513034459 0.063051779776667913 0 -0.47411408002197819 0.036438830878491563 0 -0.46318732623745013 0.049779890393731568 0 -0.47522967513034459 0.063051779776667913 0 -0.46318732623745013 0.049779890393731568 0 -0.44844019000976693 0.038798370073262659 0 -0.45290807233758318 0.060201878699908708 0 -0.46318732623745013 0.049779890393731568 0 -0.45290807233758318 0.060201878699908708 0 -0.47522967513034459 0.063051779776667913 0 -0.47411408002197819 0.036438830878491563 0 -0.46318732623745013 0.049779890393731568 0 -0.44844019000976693 0.038798370073262659 0 -0.47411408002197819 0.036438830878491563 0 -0.44844019000976693 0.038798370073262659 0 -0.4570385160774979 0.018753542980847419 0 -0.44844019000976693 0.038798370073262659 0 -0.43813403645748328 0.05673972646844732 0 -0.45290807233758318 0.060201878699908708 0 -0.45421934743889009 -0.003646612285579158 0 -0.47436301290445798 0.010695546219274901 0 -0.4570385160774979 0.018753542980847419 0 -0.47436301290445798 0.010695546219274901 0 -0.47411408002197819 0.036438830878491563 0 -0.4570385160774979 0.018753542980847419 0 -0.44844019000976693 0.038798370073262659 0 -0.4570385160774979 0.018753542980847419 0 -0.43405595001239639 0.011481580018787159 0 -0.45421934743889009 -0.003646612285579158 0 -0.4570385160774979 0.018753542980847419 0 -0.43405595001239639 0.011481580018787159 0 -0.41138549099470229 -0.0092680588798224467 0 -0.43405595001239639 0.011481580018787159 0 -0.41109664900582482 0.016481330730786569 0 -0.41109664900582482 0.016481330730786569 0 -0.42366493329180349 0.040655470821980948 0 -0.40504143691415739 0.032280349750499933 0 -0.44844019000976693 0.038798370073262659 0 -0.43405595001239639 0.011481580018787159 0 -0.42366493329180349 0.040655470821980948 0 -0.43405595001239639 0.011481580018787159 0 -0.41109664900582482 0.016481330730786569 0 -0.42366493329180349 0.040655470821980948 0 -0.44844019000976693 0.038798370073262659 0 -0.43813403645748328 0.05673972646844732 0 -0.42366493329180349 0.040655470821980948 0 -0.43813403645748328 0.05673972646844732 0 -0.42366493329180349 0.040655470821980948 0 -0.42501368164239323 0.067264883099924774 0 -0.42366493329180349 0.040655470821980948 0 -0.39932282875021308 0.04890767138517961 0 -0.42501368164239323 0.067264883099924774 0 -0.42366493329180349 0.040655470821980948 0 -0.40504143691415739 0.032280349750499933 0 -0.39932282875021308 0.04890767138517961 0 -0.40504143691415739 0.032280349750499933 0 -0.39932282875021308 0.04890767138517961 0 -0.38608133660878852 0.02307692606405258 0 -0.39932282875021308 0.04890767138517961 0 -0.38967310711975478 0.061905799423801929 0 -0.40488250989096208 0.072346990996645724 0 -0.38967310711975478 0.061905799423801929 0 -0.37756773738251598 0.053425347393097622 0 -0.36991863441129841 0.065266593187418606 0 -0.39932282875021308 0.04890767138517961 0 -0.38967310711975478 0.061905799423801929 0 -0.37756773738251598 0.053425347393097622 0 -0.39932282875021308 0.04890767138517961 0 -0.37756773738251598 0.053425347393097622 0 -0.37778870168960732 0.038783375648139828 0 -0.39932282875021308 0.04890767138517961 0 -0.37778870168960732 0.038783375648139828 0 -0.38608133660878852 0.02307692606405258 0 -0.38608133660878852 0.02307692606405258 0 -0.39417780492998572 0.0049738466972809097 0 -0.3689136781206136 0.00042714381548027928 0 -0.41138549099470229 -0.0092680588798224467 0 -0.41109664900582482 0.016481330730786569 0 -0.39417780492998572 0.0049738466972809097 0 -0.41109664900582482 0.016481330730786569 0 -0.38608133660878852 0.02307692606405258 0 -0.39417780492998572 0.0049738466972809097 0 -0.41109664900582482 0.016481330730786569 0 -0.40504143691415739 0.032280349750499933 0 -0.38608133660878852 0.02307692606405258 0 -0.41109664900582482 0.016481330730786569 0 -0.38608133660878852 0.02307692606405258 0 -0.39638255678069079 0.09837588406077355 0 -0.40600895693057282 0.10895282860700049 0 -0.41008119897050788 0.09276446370516267 0 -0.39638255678069079 0.09837588406077355 0 -0.40600895693057282 0.10895282860700049 0 -0.38780650016554152 0.1099863735204351 0 -0.40600895693057282 0.10895282860700049 0 -0.38780650016554152 0.1099863735204351 0 -0.39973574737009998 0.12586660102890351 0 -0.38780650016554152 0.1099863735204351 0 -0.38100672748882569 0.120155844537844 0 -0.39973574737009998 0.12586660102890351 0 -0.38100672748882569 0.120155844537844 0 -0.37542065491148141 0.11468937193625819 0 -0.37018919534687161 0.1248374978929942 0 -0.38780650016554152 0.1099863735204351 0 -0.38100672748882569 0.120155844537844 0 -0.37542065491148141 0.11468937193625819 0 -0.38780650016554152 0.1099863735204351 0 -0.37542065491148141 0.11468937193625819 0 -0.37313280218419792 0.1052055569553639 0 -0.39638255678069079 0.09837588406077355 0 -0.38780650016554152 0.1099863735204351 0 -0.38224918428767268 0.093477688986918064 0 -0.38780650016554152 0.1099863735204351 0 -0.38224918428767268 0.093477688986918064 0 -0.37313280218419792 0.1052055569553639 0 -0.38224918428767268 0.093477688986918064 0 -0.38435441308940621 0.075459729094443831 0 -0.36752610090576587 0.083543500138743815 0 -0.38224918428767268 0.093477688986918064 0 -0.38435441308940621 0.075459729094443831 0 -0.39575998176719113 0.08592943564769992 0 -0.38967310711975478 0.061905799423801929 0 -0.38435441308940621 0.075459729094443831 0 -0.36991863441129841 0.065266593187418606 0 -0.38967310711975478 0.061905799423801929 0 -0.38435441308940621 0.075459729094443831 0 -0.40488250989096208 0.072346990996645724 0 -0.38435441308940621 0.075459729094443831 0 -0.40488250989096208 0.072346990996645724 0 -0.39575998176719113 0.08592943564769992 0 -0.40488250989096208 0.072346990996645724 0 -0.39575998176719113 0.08592943564769992 0 -0.41008119897050788 0.09276446370516267 0 -0.39638255678069079 0.09837588406077355 0 -0.38224918428767268 0.093477688986918064 0 -0.39575998176719113 0.08592943564769992 0 -0.39638255678069079 0.09837588406077355 0 -0.39575998176719113 0.08592943564769992 0 -0.41008119897050788 0.09276446370516267 0 -0.40488250989096208 0.072346990996645724 0 -0.41008119897050788 0.09276446370516267 0 -0.42167851098400427 0.082257873965207493 0 -0.41008119897050788 0.09276446370516267 0 -0.42167851098400427 0.082257873965207493 0 -0.43216212495138079 0.095331272822188409 0 -0.40488250989096208 0.072346990996645724 0 -0.42167851098400427 0.082257873965207493 0 -0.42501368164239323 0.067264883099924774 0 -0.39932282875021308 0.04890767138517961 0 -0.40488250989096208 0.072346990996645724 0 -0.42501368164239323 0.067264883099924774 0 -0.43813403645748328 0.05673972646844732 0 -0.42501368164239323 0.067264883099924774 0 -0.44064330500586962 0.076778029647159518 0 -0.42167851098400427 0.082257873965207493 0 -0.42501368164239323 0.067264883099924774 0 -0.44064330500586962 0.076778029647159518 0 -0.42167851098400427 0.082257873965207493 0 -0.43216212495138079 0.095331272822188409 0 -0.44064330500586962 0.076778029647159518 0 -0.43216212495138079 0.095331272822188409 0 -0.42096971378183412 0.1055118633942288 0 -0.44283836278581451 0.11439955169672129 0 -0.40600895693057282 0.10895282860700049 0 -0.41008119897050788 0.09276446370516267 0 -0.42096971378183412 0.1055118633942288 0 -0.41008119897050788 0.09276446370516267 0 -0.43216212495138079 0.095331272822188409 0 -0.42096971378183412 0.1055118633942288 0 -0.42128705507795727 0.12013307636281249 0 -0.39973574737009998 0.12586660102890351 0 -0.40600895693057282 0.10895282860700049 0 -0.42128705507795727 0.12013307636281249 0 -0.39973574737009998 0.12586660102890351 0 -0.40600895693057282 0.10895282860700049 0 -0.42096971378183412 0.1055118633942288 0 -0.42128705507795727 0.12013307636281249 0 -0.42096971378183412 0.1055118633942288 0 -0.42128705507795727 0.12013307636281249 0 -0.44283836278581451 0.11439955169672129 0 -0.42128705507795727 0.12013307636281249 0 -0.44283836278581451 0.11439955169672129 0 -0.4329198040722021 0.13012277665238431 0 -0.42128705507795727 0.12013307636281249 0 -0.44283836278581451 0.11439955169672129 0 -0.44283836278581451 0.11439955169672129 0 -0.46095331264687872 0.1230790349040172 0 -0.44702581079910642 0.13237531210224479 0 -0.44283836278581451 0.11439955169672129 0 -0.4329198040722021 0.13012277665238431 0 -0.43216212495138079 0.095331272822188409 0 -0.44283836278581451 0.11439955169672129 0 -0.45363546690065759 0.097283627723369973 0 -0.44283836278581451 0.11439955169672129 0 -0.45363546690065759 0.097283627723369973 0 -0.44283836278581451 0.11439955169672129 0 -0.45363546690065759 0.097283627723369973 0 -0.47120992154375457 0.1068515627691265 0 -0.45363546690065759 0.097283627723369973 0 -0.46443257101550112 0.080167703750018943 0 -0.47120992154375457 0.1068515627691265 0 -0.44283836278581451 0.11439955169672129 0 -0.46095331264687872 0.1230790349040172 0 -0.47120992154375457 0.1068515627691265 0 -0.44283836278581451 0.11439955169672129 0 -0.47120992154375457 0.1068515627691265 0 -0.45290807233758318 0.060201878699908708 0 -0.44064330500586962 0.076778029647159518 0 -0.46443257101550112 0.080167703750018943 0 -0.43813403645748328 0.05673972646844732 0 -0.45290807233758318 0.060201878699908708 0 -0.44064330500586962 0.076778029647159518 0 -0.43216212495138079 0.095331272822188409 0 -0.45363546690065759 0.097283627723369973 0 -0.44064330500586962 0.076778029647159518 0 -0.45363546690065759 0.097283627723369973 0 -0.44064330500586962 0.076778029647159518 0 -0.46443257101550112 0.080167703750018943 0 -0.45363546690065759 0.097283627723369973 0 -0.46443257101550112 0.080167703750018943 0 -0.45290807233758318 0.060201878699908708 0 -0.46443257101550112 0.080167703750018943 0 -0.47522967513034459 0.063051779776667913 0 -0.46443257101550112 0.080167703750018943 0 -0.47522967513034459 0.063051779776667913 0 -0.48288519745774411 0.088392307897674244 0 -0.46443257101550112 0.080167703750018943 0 -0.47522967513034459 0.063051779776667913 0 -0.46443257101550112 0.080167703750018943 0 -0.48288519745774411 0.088392307897674244 0 -0.47120992154375457 0.1068515627691265 0 -0.48288519745774411 0.088392307897674244 0 -0.5 0.07238780357651603 0 -0.5 0.1020588189320433 0 -0.47522967513034459 0.063051779776667913 0 -0.48288519745774411 0.088392307897674244 0 -0.5 0.07238780357651603 0 -0.46095331264687872 0.1230790349040172 0 -0.47120992154375457 0.1068515627691265 0 -0.47982276053387318 0.12581826441080959 0 -0.47120992154375457 0.1068515627691265 0 -0.5 0.1020588189320433 0 -0.47982276053387318 0.12581826441080959 0 -0.48288519745774411 0.088392307897674244 0 -0.47120992154375457 0.1068515627691265 0 -0.5 0.1020588189320433 0 -0.5 0.1020588189320433 0 -0.5 0.1317298342875706 0 -0.47982276053387318 0.12581826441080959 0 -0.5 0.1317298342875706 0 -0.47982276053387318 0.12581826441080959 0 -0.47961896179629487 0.15272880210816919 0 -0.47982276053387318 0.12581826441080959 0 -0.47961896179629487 0.15272880210816919 0 -0.46297042399843058 0.13899669462704509 0 -0.5 0.1317298342875706 0 -0.47961896179629487 0.15272880210816919 0 -0.5 0.16140084964309789 0 -0.47961896179629487 0.15272880210816919 0 -0.5 0.16140084964309789 0 -0.48614619576236301 0.1728216173432516 0 -0.5 0.16140084964309789 0 -0.48614619576236301 0.1728216173432516 0 -0.5 0.19107186499862519 0 -0.48614619576236301 0.1728216173432516 0 -0.481975623214425 0.18612742327983681 0 -0.5 0.19107186499862519 0 -0.48614619576236301 0.1728216173432516 0 -0.481975623214425 0.18612742327983681 0 -0.4691363938010949 0.17277914668652911 0 -0.481975623214425 0.18612742327983681 0 -0.4691363938010949 0.17277914668652911 0 -0.46899650605497212 0.1957813702331242 0 -0.47961896179629487 0.15272880210816919 0 -0.4691363938010949 0.17277914668652911 0 -0.45777889994767668 0.1578925800346995 0 -0.47961896179629487 0.15272880210816919 0 -0.48614619576236301 0.1728216173432516 0 -0.4691363938010949 0.17277914668652911 0 -0.4691363938010949 0.17277914668652911 0 -0.45777889994767668 0.1578925800346995 0 -0.44994028299585681 0.1750927273457607 0 -0.44994028299585681 0.1750927273457607 0 -0.46899650605497212 0.1957813702331242 0 -0.4691363938010949 0.17277914668652911 0 -0.44994028299585681 0.1750927273457607 0 -0.4691363938010949 0.17277914668652911 0 -0.44994028299585681 0.1750927273457607 0 -0.46899650605497212 0.1957813702331242 0 -0.44994028299585681 0.1750927273457607 0 -0.42760836707671401 0.177784245918366 0 -0.44994028299585681 0.1750927273457607 0 -0.44663255068447139 0.1953266211481457 0 -0.42760836707671401 0.177784245918366 0 -0.45777889994767668 0.1578925800346995 0 -0.44994028299585681 0.1750927273457607 0 -0.43647076417722469 0.16046936447690449 0 -0.44994028299585681 0.1750927273457607 0 -0.43647076417722469 0.16046936447690449 0 -0.42760836707671401 0.177784245918366 0 -0.44994028299585681 0.1750927273457607 0 -0.43647076417722469 0.16046936447690449 0 -0.44809319816980642 0.14562002777234831 0 -0.43551766450411578 0.14234461406060059 0 -0.43647076417722469 0.16046936447690449 0 -0.45777889994767668 0.1578925800346995 0 -0.44809319816980642 0.14562002777234831 0 -0.43647076417722469 0.16046936447690449 0 -0.44283836278581451 0.11439955169672129 0 -0.44702581079910642 0.13237531210224479 0 -0.4329198040722021 0.13012277665238431 0 -0.44809319816980642 0.14562002777234831 0 -0.44702581079910642 0.13237531210224479 0 -0.43551766450411578 0.14234461406060059 0 -0.44809319816980642 0.14562002777234831 0 -0.44702581079910642 0.13237531210224479 0 -0.46297042399843058 0.13899669462704509 0 -0.44702581079910642 0.13237531210224479 0 -0.4329198040722021 0.13012277665238431 0 -0.43551766450411578 0.14234461406060059 0 -0.46095331264687872 0.1230790349040172 0 -0.47982276053387318 0.12581826441080959 0 -0.46297042399843058 0.13899669462704509 0 -0.46095331264687872 0.1230790349040172 0 -0.44702581079910642 0.13237531210224479 0 -0.46297042399843058 0.13899669462704509 0 -0.47961896179629487 0.15272880210816919 0 -0.45777889994767668 0.1578925800346995 0 -0.46297042399843058 0.13899669462704509 0 -0.45777889994767668 0.1578925800346995 0 -0.44809319816980642 0.14562002777234831 0 -0.46297042399843058 0.13899669462704509 0 -0.48367539436760681 0.2409679995510853 0 -0.47556341156039772 0.2265491983558493 0 -0.46309369074953022 0.2449331556781276 0 -0.48367539436760681 0.2409679995510853 0 -0.46309369074953022 0.2449331556781276 0 -0.48367539436760681 0.2409679995510853 0 -0.46309369074953022 0.2449331556781276 0 -0.47558422990623123 0.25436836586593442 0 -0.48367539436760681 0.2409679995510853 0 -0.5 0.25041389570967992 0 -0.47558422990623123 0.25436836586593442 0 -0.48367539436760681 0.2409679995510853 0 -0.4894583070084183 0.231028797418251 0 -0.5 0.25041389570967992 0 -0.4894583070084183 0.231028797418251 0 -0.5 0.2207428803541526 0 -0.5 0.25041389570967992 0 -0.4894583070084183 0.231028797418251 0 -0.5 0.2207428803541526 0 -0.48805272911408731 0.2164700131204878 0 -0.4894583070084183 0.231028797418251 0 -0.47556341156039772 0.2265491983558493 0 -0.48805272911408731 0.2164700131204878 0 -0.48367539436760681 0.2409679995510853 0 -0.4894583070084183 0.231028797418251 0 -0.47556341156039772 0.2265491983558493 0 -0.48805272911408731 0.2164700131204878 0 -0.46899650605497212 0.1957813702331242 0 -0.47456734525542099 0.21291739452184719 0 -0.48805272911408731 0.2164700131204878 0 -0.46899650605497212 0.1957813702331242 0 -0.48805272911408731 0.2164700131204878 0 -0.48750028189365008 0.20168312586243561 0 -0.46899650605497212 0.1957813702331242 0 -0.47456734525542099 0.21291739452184719 0 -0.46899650605497212 0.1957813702331242 0 -0.46565673429222698 0.21286899637792739 0 -0.47556341156039772 0.2265491983558493 0 -0.47456734525542099 0.21291739452184719 0 -0.46565673429222698 0.21286899637792739 0 -0.47556341156039772 0.2265491983558493 0 -0.47456734525542099 0.21291739452184719 0 -0.48805272911408731 0.2164700131204878 0 -0.5 0.2207428803541526 0 -0.48805272911408731 0.2164700131204878 0 -0.48750028189365008 0.20168312586243561 0 -0.5 0.2207428803541526 0 -0.48750028189365008 0.20168312586243561 0 -0.5 0.19107186499862519 0 -0.481975623214425 0.18612742327983681 0 -0.48750028189365008 0.20168312586243561 0 -0.5 0.19107186499862519 0 -0.481975623214425 0.18612742327983681 0 -0.48750028189365008 0.20168312586243561 0 -0.46899650605497212 0.1957813702331242 0 -0.46899650605497212 0.1957813702331242 0 -0.44663255068447139 0.1953266211481457 0 -0.46565673429222698 0.21286899637792739 0 -0.44994028299585681 0.1750927273457607 0 -0.46899650605497212 0.1957813702331242 0 -0.44663255068447139 0.1953266211481457 0 -0.44663255068447139 0.1953266211481457 0 -0.44760180806259758 0.21436920734021689 0 -0.42322627663706319 0.21049036109253291 0 -0.44760180806259758 0.21436920734021689 0 -0.46565673429222698 0.21286899637792739 0 -0.46161244104577948 0.22559105837243171 0 -0.44663255068447139 0.1953266211481457 0 -0.46565673429222698 0.21286899637792739 0 -0.44663255068447139 0.1953266211481457 0 -0.44760180806259758 0.21436920734021689 0 -0.46565673429222698 0.21286899637792739 0 -0.47556341156039772 0.2265491983558493 0 -0.46161244104577948 0.22559105837243171 0 -0.46309369074953022 0.2449331556781276 0 -0.46161244104577948 0.22559105837243171 0 -0.44967174601065202 0.22799165315217201 0 -0.46309369074953022 0.2449331556781276 0 -0.47556341156039772 0.2265491983558493 0 -0.46565673429222698 0.21286899637792739 0 -0.46161244104577948 0.22559105837243171 0 -0.44967174601065202 0.22799165315217201 0 -0.44095116899608588 0.23656449816785671 0 -0.43404554515620208 0.2245286024653009 0 -0.44760180806259758 0.21436920734021689 0 -0.46161244104577948 0.22559105837243171 0 -0.44967174601065202 0.22799165315217201 0 -0.44760180806259758 0.21436920734021689 0 -0.44967174601065202 0.22799165315217201 0 -0.43404554515620208 0.2245286024653009 0 -0.44251198713145401 0.24889831180517161 0 -0.46309369074953022 0.2449331556781276 0 -0.44095116899608588 0.23656449816785671 0 -0.44251198713145401 0.24889831180517161 0 -0.46309369074953022 0.2449331556781276 0 -0.44967174601065202 0.22799165315217201 0 -0.44095116899608588 0.23656449816785671 0 -0.46309369074953022 0.2449331556781276 0 -0.4136683923509093 0.24119826182055959 0 -0.42438372575089178 0.25239080144643689 0 -0.40625546437032989 0.25588329108770391 0 -0.4136683923509093 0.24119826182055959 0 -0.40252281995927802 0.24477700328977281 0 -0.40625546437032989 0.25588329108770391 0 -0.40767412762137978 0.2383510476904257 0 -0.4136683923509093 0.24119826182055959 0 -0.40252281995927802 0.24477700328977281 0 -0.41034925839126729 0.23518035539888341 0 -0.4136683923509093 0.24119826182055959 0 -0.41638790130717168 0.22877411809597339 0 -0.40767412762137978 0.2383510476904257 0 -0.41034925839126729 0.23518035539888341 0 -0.40366661228560868 0.23239799398857511 0 -0.40767412762137978 0.2383510476904257 0 -0.41034925839126729 0.23518035539888341 0 -0.4136683923509093 0.24119826182055959 0 -0.4136683923509093 0.24119826182055959 0 -0.42760014829108067 0.23579189469735681 0 -0.41638790130717168 0.22877411809597339 0 -0.4136683923509093 0.24119826182055959 0 -0.42760014829108067 0.23579189469735681 0 -0.42438372575089178 0.25239080144643689 0 -0.44251198713145401 0.24889831180517161 0 -0.42760014829108067 0.23579189469735681 0 -0.42438372575089178 0.25239080144643689 0 -0.44251198713145401 0.24889831180517161 0 -0.42760014829108067 0.23579189469735681 0 -0.44095116899608588 0.23656449816785671 0 -0.44251198713145401 0.24889831180517161 0 -0.42760014829108067 0.23579189469735681 0 -0.42760014829108067 0.23579189469735681 0 -0.43404554515620208 0.2245286024653009 0 -0.41638790130717168 0.22877411809597339 0 -0.43404554515620208 0.2245286024653009 0 -0.41638790130717168 0.22877411809597339 0 -0.42322627663706319 0.21049036109253291 0 -0.44095116899608588 0.23656449816785671 0 -0.42760014829108067 0.23579189469735681 0 -0.43404554515620208 0.2245286024653009 0 -0.41638790130717168 0.22877411809597339 0 -0.42322627663706319 0.21049036109253291 0 -0.40366661228560868 0.23239799398857511 0 -0.42322627663706319 0.21049036109253291 0 -0.40302279952868242 0.22716080464266111 0 -0.40366661228560868 0.23239799398857511 0 -0.42322627663706319 0.21049036109253291 0 -0.40366661228560868 0.23239799398857511 0 -0.41034925839126729 0.23518035539888341 0 -0.41638790130717168 0.22877411809597339 0 -0.40366661228560868 0.23239799398857511 0 -0.42322627663706319 0.21049036109253291 0 -0.40289494092784062 0.2103436362076051 0 -0.40544178028299421 0.21678875809485759 0 -0.42322627663706319 0.21049036109253291 0 -0.40544178028299421 0.21678875809485759 0 -0.40302279952868242 0.22716080464266111 0 -0.42322627663706319 0.21049036109253291 0 -0.40598205807849591 0.19862469779105379 0 -0.40289494092784062 0.2103436362076051 0 -0.44760180806259758 0.21436920734021689 0 -0.43404554515620208 0.2245286024653009 0 -0.42322627663706319 0.21049036109253291 0 -0.44663255068447139 0.1953266211481457 0 -0.42155604460123258 0.19299284141884379 0 -0.42760836707671401 0.177784245918366 0 -0.44663255068447139 0.1953266211481457 0 -0.42322627663706319 0.21049036109253291 0 -0.42155604460123258 0.19299284141884379 0 -0.42155604460123258 0.19299284141884379 0 -0.40598205807849591 0.19862469779105379 0 -0.40081697477430578 0.1810132357743672 0 -0.42322627663706319 0.21049036109253291 0 -0.42155604460123258 0.19299284141884379 0 -0.40598205807849591 0.19862469779105379 0 -0.40598205807849591 0.19862469779105379 0 -0.39078926497406141 0.19690949061661461 0 -0.40081697477430578 0.1810132357743672 0 -0.39078926497406141 0.19690949061661461 0 -0.40081697477430578 0.1810132357743672 0 -0.40598205807849591 0.19862469779105379 0 -0.39078926497406141 0.19690949061661461 0 -0.39457915587192549 0.2062316262235373 0 -0.3840067099477017 0.20723742850923349 0 -0.38395518996732392 0.18304547551320571 0 -0.39078926497406141 0.19690949061661461 0 -0.3840067099477017 0.20723742850923349 0 -0.38395518996732392 0.18304547551320571 0 -0.3840067099477017 0.20723742850923349 0 -0.38395518996732392 0.18304547551320571 0 -0.37475360977384697 0.19516110285897331 0 -0.3840067099477017 0.20723742850923349 0 -0.37190355927385799 0.2069279729245497 0 -0.37475360977384697 0.19516110285897331 0 -0.39078926497406141 0.19690949061661461 0 -0.3840067099477017 0.20723742850923349 0 -0.39457915587192549 0.2062316262235373 0 -0.3840067099477017 0.20723742850923349 0 -0.39457915587192549 0.2062316262235373 0 -0.39262310403839068 0.21916023043663141 0 -0.39457915587192549 0.2062316262235373 0 -0.40289494092784062 0.2103436362076051 0 -0.39262310403839068 0.21916023043663141 0 -0.40598205807849591 0.19862469779105379 0 -0.39457915587192549 0.2062316262235373 0 -0.40289494092784062 0.2103436362076051 0 -0.40289494092784062 0.2103436362076051 0 -0.40544178028299421 0.21678875809485759 0 -0.39262310403839068 0.21916023043663141 0 -0.40302279952868242 0.22716080464266111 0 -0.38405822992807842 0.2314293815052611 0 -0.40302279952868242 0.22716080464266111 0 -0.39262310403839068 0.21916023043663141 0 -0.38405822992807842 0.2314293815052611 0 -0.40302279952868242 0.22716080464266111 0 -0.40366661228560868 0.23239799398857511 0 -0.38405822992807842 0.2314293815052611 0 -0.40544178028299421 0.21678875809485759 0 -0.40302279952868242 0.22716080464266111 0 -0.39262310403839068 0.21916023043663141 0 -0.3840067099477017 0.20723742850923349 0 -0.38405822992807842 0.2314293815052611 0 -0.3681851056133113 0.21844991379260681 0 -0.3840067099477017 0.20723742850923349 0 -0.39262310403839068 0.21916023043663141 0 -0.38405822992807842 0.2314293815052611 0 -0.3840067099477017 0.20723742850923349 0 -0.38405822992807842 0.2314293815052611 0 -0.38405822992807842 0.2314293815052611 0 -0.3841069479341534 0.25430562688461672 0 -0.40366661228560868 0.23239799398857511 0 -0.38405822992807842 0.2314293815052611 0 -0.3841069479341534 0.25430562688461672 0 -0.38405822992807842 0.2314293815052611 0 -0.37352074623491371 0.24451467571538249 0 -0.3841069479341534 0.25430562688461672 0 -0.40366661228560868 0.23239799398857511 0 -0.3841069479341534 0.25430562688461672 0 -0.40366661228560868 0.23239799398857511 0 -0.40252281995927802 0.24477700328977281 0 -0.3841069479341534 0.25430562688461672 0 -0.40767412762137978 0.2383510476904257 0 -0.40366661228560868 0.23239799398857511 0 -0.40252281995927802 0.24477700328977281 0 -0.41043706825420878 0.14800897203188779 0 -0.42300124535859218 0.14584600160804889 0 -0.41195768840434782 0.16335261071486429 0 -0.42300124535859218 0.14584600160804889 0 -0.41195768840434782 0.16335261071486429 0 -0.41838696223686778 0.140836443554996 0 -0.41043706825420878 0.14800897203188779 0 -0.42300124535859218 0.14584600160804889 0 -0.41838696223686778 0.140836443554996 0 -0.42300124535859218 0.14584600160804889 0 -0.41838696223686778 0.140836443554996 0 -0.41043706825420878 0.14800897203188779 0 -0.40641022976339181 0.137650515738936 0 -0.42128705507795727 0.12013307636281249 0 -0.41368735708779858 0.13116943592336511 0 -0.39973574737009998 0.12586660102890351 0 -0.41838696223686778 0.140836443554996 0 -0.40641022976339181 0.137650515738936 0 -0.41368735708779858 0.13116943592336511 0 -0.40641022976339181 0.137650515738936 0 -0.41368735708779858 0.13116943592336511 0 -0.39973574737009998 0.12586660102890351 0 -0.42128705507795727 0.12013307636281249 0 -0.41368735708779858 0.13116943592336511 0 -0.42185648476668369 0.13362154682032129 0 -0.41838696223686778 0.140836443554996 0 -0.42185648476668369 0.13362154682032129 0 -0.42300124535859218 0.14584600160804889 0 -0.41838696223686778 0.140836443554996 0 -0.41368735708779858 0.13116943592336511 0 -0.42185648476668369 0.13362154682032129 0 -0.42185648476668369 0.13362154682032129 0 -0.4329198040722021 0.13012277665238431 0 -0.42300124535859218 0.14584600160804889 0 -0.4329198040722021 0.13012277665238431 0 -0.43551766450411578 0.14234461406060059 0 -0.42300124535859218 0.14584600160804889 0 -0.4329198040722021 0.13012277665238431 0 -0.42300124535859218 0.14584600160804889 0 -0.42128705507795727 0.12013307636281249 0 -0.42185648476668369 0.13362154682032129 0 -0.4329198040722021 0.13012277665238431 0 -0.43551766450411578 0.14234461406060059 0 -0.42300124535859218 0.14584600160804889 0 -0.43647076417722469 0.16046936447690449 0 -0.42300124535859218 0.14584600160804889 0 -0.43647076417722469 0.16046936447690449 0 -0.43647076417722469 0.16046936447690449 0 -0.42760836707671401 0.177784245918366 0 -0.41195768840434782 0.16335261071486429 0 -0.42300124535859218 0.14584600160804889 0 -0.43647076417722469 0.16046936447690449 0 -0.41195768840434782 0.16335261071486429 0 -0.44663255068447139 0.1953266211481457 0 -0.42760836707671401 0.177784245918366 0 -0.41195768840434782 0.16335261071486429 0 -0.40081697477430578 0.1810132357743672 0 -0.42760836707671401 0.177784245918366 0 -0.41195768840434782 0.16335261071486429 0 -0.40081697477430578 0.1810132357743672 0 -0.42155604460123258 0.19299284141884379 0 -0.42760836707671401 0.177784245918366 0 -0.40081697477430578 0.1810132357743672 0 -0.42760836707671401 0.177784245918366 0 -0.40081697477430578 0.1810132357743672 0 -0.42760836707671401 0.177784245918366 0 -0.41195768840434782 0.16335261071486429 0 -0.41195768840434782 0.16335261071486429 0 -0.39400501436413887 0.1717652522980227 0 -0.38390618516270419 0.1600345597224207 0 -0.41195768840434782 0.16335261071486429 0 -0.39400501436413887 0.1717652522980227 0 -0.40081697477430578 0.1810132357743672 0 -0.39078926497406141 0.19690949061661461 0 -0.40081697477430578 0.1810132357743672 0 -0.38395518996732392 0.18304547551320571 0 -0.40081697477430578 0.1810132357743672 0 -0.38395518996732392 0.18304547551320571 0 -0.39400501436413887 0.1717652522980227 0 -0.40081697477430578 0.1810132357743672 0 -0.38395518996732392 0.18304547551320571 0 -0.38395518996732392 0.18304547551320571 0 -0.38390618516270419 0.1600345597224207 0 -0.38395518996732392 0.18304547551320571 0 -0.38390618516270419 0.1600345597224207 0 -0.36780718489087721 0.1723346873211225 0 -0.39400501436413887 0.1717652522980227 0 -0.38395518996732392 0.18304547551320571 0 -0.38390618516270419 0.1600345597224207 0 -0.38390618516270419 0.1600345597224207 0 -0.39107344187560827 0.14409505430393069 0 -0.3737876942057109 0.14390513561237461 0 -0.41043706825420878 0.14800897203188779 0 -0.40641022976339181 0.137650515738936 0 -0.39107344187560827 0.14409505430393069 0 -0.41043706825420878 0.14800897203188779 0 -0.41195768840434782 0.16335261071486429 0 -0.39107344187560827 0.14409505430393069 0 -0.41195768840434782 0.16335261071486429 0 -0.39107344187560827 0.14409505430393069 0 -0.41195768840434782 0.16335261071486429 0 -0.38390618516270419 0.1600345597224207 0 -0.39107344187560827 0.14409505430393069 0 -0.40641022976339181 0.137650515738936 0 -0.39107344187560827 0.14409505430393069 0 -0.39973574737009998 0.12586660102890351 0 -0.39107344187560827 0.14409505430393069 0 -0.39973574737009998 0.12586660102890351 0 -0.3778805091359333 0.13192972930116409 0 -0.38100672748882569 0.120155844537844 0 -0.39973574737009998 0.12586660102890351 0 -0.3778805091359333 0.13192972930116409 0 -0.39107344187560827 0.14409505430393069 0 -0.3778805091359333 0.13192972930116409 0 -0.3737876942057109 0.14390513561237461 0 -0.39973574737009998 0.12586660102890351 0 -0.3778805091359333 0.13192972930116409 0 -0.39107344187560827 0.14409505430393069 0 -0.3778805091359333 0.13192972930116409 0 -0.38100672748882569 0.120155844537844 0 -0.3778805091359333 0.13192972930116409 0 -0.37018919534687161 0.1248374978929942 0 -0.36470412010486408 0.13488010286358479 0 -0.3737876942057109 0.14390513561237461 0 -0.37018919534687161 0.1248374978929942 0 -0.3778805091359333 0.13192972930116409 0 -0.3737876942057109 0.14390513561237461 0 -0.37018919534687161 0.1248374978929942 0 -0.3778805091359333 0.13192972930116409 0 -0.37018919534687161 0.1248374978929942 0 -0.36470412010486408 0.13488010286358479 0 -0.37018919534687161 0.1248374978929942 0 -0.35899399712413949 0.122881494090831 0 -0.35345640723047639 0.136984602828219 0 -0.33928246378446519 0.13297478606022911 0 -0.34573437606542029 0.1165686363259416 0 -0.35345640723047639 0.136984602828219 0 -0.34573437606542029 0.1165686363259416 0 -0.36470412010486408 0.13488010286358479 0 -0.35345640723047639 0.136984602828219 0 -0.35899399712413949 0.122881494090831 0 -0.35345640723047639 0.136984602828219 0 -0.35899399712413949 0.122881494090831 0 -0.34573437606542029 0.1165686363259416 0 -0.35345640723047639 0.136984602828219 0 -0.33928246378446519 0.13297478606022911 0 -0.34038632568945237 0.14464855732502491 0 -0.35345640723047639 0.136984602828219 0 -0.34727010574333378 0.15452390654594611 0 -0.36120797565461621 0.1573893484072087 0 -0.35345640723047639 0.136984602828219 0 -0.36120797565461621 0.1573893484072087 0 -0.35345640723047639 0.136984602828219 0 -0.34727010574333378 0.15452390654594611 0 -0.34038632568945237 0.14464855732502491 0 -0.36470412010486408 0.13488010286358479 0 -0.35345640723047639 0.136984602828219 0 -0.36120797565461621 0.1573893484072087 0 -0.38390618516270419 0.1600345597224207 0 -0.3737876942057109 0.14390513561237461 0 -0.36120797565461621 0.1573893484072087 0 -0.36470412010486408 0.13488010286358479 0 -0.3737876942057109 0.14390513561237461 0 -0.36120797565461621 0.1573893484072087 0 -0.38390618516270419 0.1600345597224207 0 -0.36120797565461621 0.1573893484072087 0 -0.36780718489087721 0.1723346873211225 0 -0.36120797565461621 0.1573893484072087 0 -0.36780718489087721 0.1723346873211225 0 -0.35113434950655242 0.16883645680738341 0 -0.38395518996732392 0.18304547551320571 0 -0.36293690554704039 0.18557867074313361 0 -0.38395518996732392 0.18304547551320571 0 -0.36780718489087721 0.1723346873211225 0 -0.36293690554704039 0.18557867074313361 0 -0.36780718489087721 0.1723346873211225 0 -0.36293690554704039 0.18557867074313361 0 -0.3535351687053489 0.17875853497920141 0 -0.36293690554704039 0.18557867074313361 0 -0.34191862112675703 0.1881118659730617 0 -0.36293690554704039 0.18557867074313361 0 -0.3535351687053489 0.17875853497920141 0 -0.34191862112675703 0.1881118659730617 0 -0.36780718489087721 0.1723346873211225 0 -0.3535351687053489 0.17875853497920141 0 -0.35113434950655242 0.16883645680738341 0 -0.34387878245551728 0.17893099405130611 0 -0.35113434950655242 0.16883645680738341 0 -0.33666735511440621 0.1742940953642258 0 -0.3535351687053489 0.17875853497920141 0 -0.34387878245551728 0.17893099405130611 0 -0.35113434950655242 0.16883645680738341 0 -0.3535351687053489 0.17875853497920141 0 -0.34387878245551728 0.17893099405130611 0 -0.34191862112675703 0.1881118659730617 0 -0.34727010574333378 0.15452390654594611 0 -0.36120797565461621 0.1573893484072087 0 -0.35113434950655242 0.16883645680738341 0 -0.34727010574333378 0.15452390654594611 0 -0.35113434950655242 0.16883645680738341 0 -0.34065737229752158 0.16450452164973009 0 -0.34727010574333378 0.15452390654594611 0 -0.34065737229752158 0.16450452164973009 0 -0.33285706838397061 0.15561079743419859 0 -0.35113434950655242 0.16883645680738341 0 -0.34065737229752158 0.16450452164973009 0 -0.33666735511440621 0.1742940953642258 0 -0.34065737229752158 0.16450452164973009 0 -0.32960086273105649 0.16949064355854149 0 -0.33666735511440621 0.1742940953642258 0 -0.32960086273105649 0.16949064355854149 0 -0.3248226833471955 0.16130797311670769 0 -0.33285706838397061 0.15561079743419859 0 -0.34065737229752158 0.16450452164973009 0 -0.32960086273105649 0.16949064355854149 0 -0.33285706838397061 0.15561079743419859 0 -0.34387878245551728 0.17893099405130611 0 -0.33530691169740029 0.18275900572639131 0 -0.34191862112675703 0.1881118659730617 0 -0.33530691169740029 0.18275900572639131 0 -0.34191862112675703 0.1881118659730617 0 -0.33565805236939178 0.18933372215871461 0 -0.34387878245551728 0.17893099405130611 0 -0.33666735511440621 0.1742940953642258 0 -0.33530691169740029 0.18275900572639131 0 -0.32960086273105649 0.16949064355854149 0 -0.33666735511440621 0.1742940953642258 0 -0.33054189160446462 0.17819099619515491 0 -0.33666735511440621 0.1742940953642258 0 -0.33054189160446462 0.17819099619515491 0 -0.33530691169740029 0.18275900572639131 0 -0.33054189160446462 0.17819099619515491 0 -0.33530691169740029 0.18275900572639131 0 -0.33565805236939178 0.18933372215871461 0 -0.33530691169740029 0.18275900572639131 0 -0.33565805236939178 0.18933372215871461 0 -0.33054189160446462 0.17819099619515491 0 -0.31655831722180189 0.1763305773413725 0 -0.33565805236939178 0.18933372215871461 0 -0.31655831722180189 0.1763305773413725 0 -0.33565805236939178 0.18933372215871461 0 -0.31655831722180189 0.1763305773413725 0 -0.33565805236939178 0.18933372215871461 0 -0.32457414618900721 0.18987167583408401 0 -0.32960086273105649 0.16949064355854149 0 -0.33054189160446462 0.17819099619515491 0 -0.31655831722180189 0.1763305773413725 0 -0.31655831722180189 0.1763305773413725 0 -0.31805348122129212 0.19095371633568539 0 -0.30395464706591208 0.18329149717108381 0 -0.31655831722180189 0.1763305773413725 0 -0.32457414618900721 0.18987167583408401 0 -0.31805348122129212 0.19095371633568539 0 -0.31655831722180189 0.1763305773413725 0 -0.3248226833471955 0.16130797311670769 0 -0.31510612831408052 0.15918686363563581 0 -0.32960086273105649 0.16949064355854149 0 -0.31655831722180189 0.1763305773413725 0 -0.3248226833471955 0.16130797311670769 0 -0.3248226833471955 0.16130797311670769 0 -0.31510612831408052 0.15918686363563581 0 -0.31938060920325972 0.1511782351570789 0 -0.31510612831408052 0.15918686363563581 0 -0.31938060920325972 0.1511782351570789 0 -0.31077796531758362 0.1513873048278514 0 -0.31938060920325972 0.1511782351570789 0 -0.31202722204461292 0.14279917862473621 0 -0.31077796531758362 0.1513873048278514 0 -0.31938060920325972 0.1511782351570789 0 -0.32683826607401029 0.14294541957782461 0 -0.33285706838397061 0.15561079743419859 0 -0.3248226833471955 0.16130797311670769 0 -0.31938060920325972 0.1511782351570789 0 -0.33285706838397061 0.15561079743419859 0 -0.31938060920325972 0.1511782351570789 0 -0.32683826607401029 0.14294541957782461 0 -0.31202722204461292 0.14279917862473621 0 -0.32683826607401029 0.14294541957782461 0 -0.31895498524616311 0.13435453132901659 0 -0.31202722204461292 0.14279917862473621 0 -0.31895498524616311 0.13435453132901659 0 -0.30818699402443961 0.13228690497616291 0 -0.31202722204461292 0.14279917862473621 0 -0.31895498524616311 0.13435453132901659 0 -0.30818699402443961 0.13228690497616291 0 -0.31944912569452399 0.124605406313756 0 -0.31895498524616311 0.13435453132901659 0 -0.32827331839322821 0.12913574715260329 0 -0.31944912569452399 0.124605406313756 0 -0.32683826607401029 0.14294541957782461 0 -0.31895498524616311 0.13435453132901659 0 -0.32827331839322821 0.12913574715260329 0 -0.32683826607401029 0.14294541957782461 0 -0.32827331839322821 0.12913574715260329 0 -0.33928246378446519 0.13297478606022911 0 -0.32683826607401029 0.14294541957782461 0 -0.33928246378446519 0.13297478606022911 0 -0.34038632568945237 0.14464855732502491 0 -0.32827331839322821 0.12913574715260329 0 -0.33928246378446519 0.13297478606022911 0 -0.33479559338968828 0.12181620717802839 0 -0.34727010574333378 0.15452390654594611 0 -0.34038632568945237 0.14464855732502491 0 -0.33285706838397061 0.15561079743419859 0 -0.32683826607401029 0.14294541957782461 0 -0.34038632568945237 0.14464855732502491 0 -0.33285706838397061 0.15561079743419859 0 -0.36125636147732731 0.23656166397424111 0 -0.33845449302657632 0.24169394644322159 0 -0.36125636147732731 0.23656166397424111 0 -0.35074180005679101 0.25204363919486988 0 -0.36466144560009589 0.25576203049741131 0 -0.36125636147732731 0.23656166397424111 0 -0.33845449302657632 0.24169394644322159 0 -0.35074180005679101 0.25204363919486988 0 -0.36125636147732731 0.23656166397424111 0 -0.37352074623491371 0.24451467571538249 0 -0.36466144560009589 0.25576203049741131 0 -0.38405822992807842 0.2314293815052611 0 -0.36125636147732731 0.23656166397424111 0 -0.37352074623491371 0.24451467571538249 0 -0.38405822992807842 0.2314293815052611 0 -0.36125636147732731 0.23656166397424111 0 -0.3681851056133113 0.21844991379260681 0 -0.38405822992807842 0.2314293815052611 0 -0.36125636147732731 0.23656166397424111 0 -0.36125636147732731 0.23656166397424111 0 -0.35221501674668559 0.22309711277520619 0 -0.3681851056133113 0.21844991379260681 0 -0.36125636147732731 0.23656166397424111 0 -0.35221501674668559 0.22309711277520619 0 -0.33845449302657632 0.24169394644322159 0 -0.35221501674668559 0.22309711277520619 0 -0.35612285091822771 0.20326620536499371 0 -0.33705627269798571 0.21551383430096799 0 -0.35221501674668559 0.22309711277520619 0 -0.35612285091822771 0.20326620536499371 0 -0.3681851056133113 0.21844991379260681 0 -0.35612285091822771 0.20326620536499371 0 -0.3681851056133113 0.21844991379260681 0 -0.37190355927385799 0.2069279729245497 0 -0.3840067099477017 0.20723742850923349 0 -0.3681851056133113 0.21844991379260681 0 -0.37190355927385799 0.2069279729245497 0 -0.35612285091822771 0.20326620536499371 0 -0.37190355927385799 0.2069279729245497 0 -0.37475360977384697 0.19516110285897331 0 -0.36293690554704039 0.18557867074313361 0 -0.35612285091822771 0.20326620536499371 0 -0.37475360977384697 0.19516110285897331 0 -0.38395518996732392 0.18304547551320571 0 -0.36293690554704039 0.18557867074313361 0 -0.37475360977384697 0.19516110285897331 0 -0.35612285091822771 0.20326620536499371 0 -0.33565805236939178 0.18933372215871461 0 -0.36293690554704039 0.18557867074313361 0 -0.35612285091822771 0.20326620536499371 0 -0.34191862112675703 0.1881118659730617 0 -0.35612285091822771 0.20326620536499371 0 -0.34191862112675703 0.1881118659730617 0 -0.33565805236939178 0.18933372215871461 0 -0.33565805236939178 0.18933372215871461 0 -0.3280267339435427 0.20286868750056369 0 -0.33705627269798571 0.21551383430096799 0 -0.35612285091822771 0.20326620536499371 0 -0.33565805236939178 0.18933372215871461 0 -0.33705627269798571 0.21551383430096799 0 -0.33565805236939178 0.18933372215871461 0 -0.33705627269798571 0.21551383430096799 0 -0.33565805236939178 0.18933372215871461 0 -0.32457414618900721 0.18987167583408401 0 -0.3280267339435427 0.20286868750056369 0 -0.31805348122129212 0.19095371633568539 0 -0.3280267339435427 0.20286868750056369 0 -0.30895105326377309 0.21144654721389239 0 -0.32457414618900721 0.18987167583408401 0 -0.31805348122129212 0.19095371633568539 0 -0.3280267339435427 0.20286868750056369 0 -0.31805348122129212 0.19095371633568539 0 -0.30895105326377309 0.21144654721389239 0 -0.3280267339435427 0.20286868750056369 0 -0.32115625390429797 0.2250875785429183 0 -0.30895105326377309 0.21144654721389239 0 -0.3280267339435427 0.20286868750056369 0 -0.33705627269798571 0.21551383430096799 0 -0.32115625390429797 0.2250875785429183 0 -0.33705627269798571 0.21551383430096799 0 -0.33845449302657632 0.24169394644322159 0 -0.35221501674668559 0.22309711277520619 0 -0.33705627269798571 0.21551383430096799 0 -0.33845449302657632 0.24169394644322159 0 -0.33705627269798571 0.21551383430096799 0 -0.32115625390429797 0.2250875785429183 0 -0.33845449302657632 0.24169394644322159 0 -0.31460034518765662 0.24706307770676469 0 -0.33845449302657632 0.24169394644322159 0 -0.31460034518765662 0.24706307770676469 0 -0.33845449302657632 0.24169394644322159 0 -0.3285343761704651 0.25355518112315539 0 -0.32115625390429797 0.2250875785429183 0 -0.31460034518765662 0.24706307770676469 0 -0.33845449302657632 0.24169394644322159 0 -0.29984862530625411 0.23193937809209961 0 -0.28543989750390791 0.23228225699040461 0 -0.29074619734873658 0.25243220897030738 0 -0.29984862530625411 0.23193937809209961 0 -0.29074619734873658 0.25243220897030738 0 -0.28543989750390791 0.23228225699040461 0 -0.27596615692409082 0.24153455699009291 0 -0.29074619734873658 0.25243220897030738 0 -0.31460034518765662 0.24706307770676469 0 -0.29074619734873658 0.25243220897030738 0 -0.32115625390429797 0.2250875785429183 0 -0.31460034518765662 0.24706307770676469 0 -0.29984862530625411 0.23193937809209961 0 -0.31460034518765662 0.24706307770676469 0 -0.29984862530625411 0.23193937809209961 0 -0.29074619734873658 0.25243220897030738 0 -0.32115625390429797 0.2250875785429183 0 -0.29984862530625411 0.23193937809209961 0 -0.30895105326377309 0.21144654721389239 0 -0.29984862530625411 0.23193937809209961 0 -0.28855656809454933 0.21569739810768979 0 -0.30895105326377309 0.21144654721389239 0 -0.29984862530625411 0.23193937809209961 0 -0.30895105326377309 0.21144654721389239 0 -0.29984862530625411 0.23193937809209961 0 -0.28543989750390791 0.23228225699040461 0 -0.28855656809454933 0.21569739810768979 0 -0.28543989750390791 0.23228225699040461 0 -0.28855656809454933 0.21569739810768979 0 -0.27178044213918051 0.2260932675754691 0 -0.28855656809454933 0.21569739810768979 0 -0.29814223237921689 0.19966715074454519 0 -0.27123300318286803 0.20376686358701571 0 -0.28855656809454933 0.21569739810768979 0 -0.30895105326377309 0.21144654721389239 0 -0.29814223237921689 0.19966715074454519 0 -0.31805348122129212 0.19095371633568539 0 -0.29814223237921689 0.19966715074454519 0 -0.30395464706591208 0.18329149717108381 0 -0.29814223237921689 0.19966715074454519 0 -0.30395464706591208 0.18329149717108381 0 -0.28956062243304009 0.18617860890978191 0 -0.31805348122129212 0.19095371633568539 0 -0.30895105326377309 0.21144654721389239 0 -0.29814223237921689 0.19966715074454519 0 -0.29814223237921689 0.19966715074454519 0 -0.27123300318286803 0.20376686358701571 0 -0.28956062243304009 0.18617860890978191 0 -0.27123300318286803 0.20376686358701571 0 -0.28956062243304009 0.18617860890978191 0 -0.27052085369069229 0.17531367849934021 0 -0.25259339037997969 0.19219395951802801 0 -0.27123300318286803 0.20376686358701571 0 -0.24529820004220371 0.21094513160347569 0 -0.25259339037997969 0.19219395951802801 0 -0.27123300318286803 0.20376686358701571 0 -0.27052085369069229 0.17531367849934021 0 -0.27123300318286803 0.20376686358701571 0 -0.25491005090595248 0.22540674284680309 0 -0.24529820004220371 0.21094513160347569 0 -0.27123300318286803 0.20376686358701571 0 -0.27178044213918051 0.2260932675754691 0 -0.25491005090595248 0.22540674284680309 0 -0.28855656809454933 0.21569739810768979 0 -0.27123300318286803 0.20376686358701571 0 -0.27178044213918051 0.2260932675754691 0 -0.28543989750390791 0.23228225699040461 0 -0.27178044213918051 0.2260932675754691 0 -0.27596615692409082 0.24153455699009291 0 -0.27178044213918051 0.2260932675754691 0 -0.25491005090595248 0.22540674284680309 0 -0.25432028203104129 0.24270748593351471 0 -0.27178044213918051 0.2260932675754691 0 -0.25432028203104129 0.24270748593351471 0 -0.27596615692409082 0.24153455699009291 0 -0.25432028203104129 0.24270748593351471 0 -0.27596615692409082 0.24153455699009291 0 -0.27213741944932329 0.25662070364514522 0 -0.29123082239450188 0.14614715873123249 0 -0.29745858207420961 0.16332743252403389 0 -0.27841844756737139 0.15036486396373841 0 -0.29123082239450188 0.14614715873123249 0 -0.28250218484613909 0.12961124428201651 0 -0.27841844756737139 0.15036486396373841 0 -0.29123082239450188 0.14614715873123249 0 -0.29643473913677892 0.13624935545353889 0 -0.30282278804932389 0.14780716875009819 0 -0.29123082239450188 0.14614715873123249 0 -0.28250218484613909 0.12961124428201651 0 -0.29643473913677892 0.13624935545353889 0 -0.28250218484613909 0.12961124428201651 0 -0.29643473913677892 0.13624935545353889 0 -0.29545434095462242 0.1229294013967749 0 -0.29643473913677892 0.13624935545353889 0 -0.30818699402443961 0.13228690497616291 0 -0.30282278804932389 0.14780716875009819 0 -0.29643473913677892 0.13624935545353889 0 -0.30818699402443961 0.13228690497616291 0 -0.29545434095462242 0.1229294013967749 0 -0.30818699402443961 0.13228690497616291 0 -0.31202722204461292 0.14279917862473621 0 -0.30818699402443961 0.13228690497616291 0 -0.30282278804932389 0.14780716875009819 0 -0.30818699402443961 0.13228690497616291 0 -0.31202722204461292 0.14279917862473621 0 -0.30282278804932389 0.14780716875009819 0 -0.29123082239450188 0.14614715873123249 0 -0.30282278804932389 0.14780716875009819 0 -0.29745858207420961 0.16332743252403389 0 -0.31202722204461292 0.14279917862473621 0 -0.30282278804932389 0.14780716875009819 0 -0.31077796531758362 0.1513873048278514 0 -0.30282278804932389 0.14780716875009819 0 -0.30541357787737439 0.15738974924745119 0 -0.29745858207420961 0.16332743252403389 0 -0.30282278804932389 0.14780716875009819 0 -0.29745858207420961 0.16332743252403389 0 -0.30282278804932389 0.14780716875009819 0 -0.31077796531758362 0.1513873048278514 0 -0.30541357787737439 0.15738974924745119 0 -0.31510612831408052 0.15918686363563581 0 -0.31077796531758362 0.1513873048278514 0 -0.30541357787737439 0.15738974924745119 0 -0.31655831722180189 0.1763305773413725 0 -0.31510612831408052 0.15918686363563581 0 -0.30541357787737439 0.15738974924745119 0 -0.31655831722180189 0.1763305773413725 0 -0.29745858207420961 0.16332743252403389 0 -0.31655831722180189 0.1763305773413725 0 -0.30541357787737439 0.15738974924745119 0 -0.29745858207420961 0.16332743252403389 0 -0.29745858207420961 0.16332743252403389 0 -0.30395464706591208 0.18329149717108381 0 -0.28956062243304009 0.18617860890978191 0 -0.31655831722180189 0.1763305773413725 0 -0.29745858207420961 0.16332743252403389 0 -0.30395464706591208 0.18329149717108381 0 -0.29745858207420961 0.16332743252403389 0 -0.28956062243304009 0.18617860890978191 0 -0.27052085369069229 0.17531367849934021 0 -0.29745858207420961 0.16332743252403389 0 -0.28956062243304009 0.18617860890978191 0 -0.29745858207420961 0.16332743252403389 0 -0.27052085369069229 0.17531367849934021 0 -0.27841844756737139 0.15036486396373841 0 -0.29745858207420961 0.16332743252403389 0 -0.27841844756737139 0.15036486396373841 0 -0.27052085369069229 0.17531367849934021 0 -0.25591125070958259 0.1538576222313196 0 -0.27841844756737139 0.15036486396373841 0 -0.25259339037997969 0.19219395951802801 0 -0.27052085369069229 0.17531367849934021 0 -0.24746113360106001 0.17393299545228461 0 -0.27052085369069229 0.17531367849934021 0 -0.25591125070958259 0.1538576222313196 0 -0.24746113360106001 0.17393299545228461 0 -0.25591125070958259 0.1538576222313196 0 -0.26541275862914648 0.1354265207955995 0 -0.2461653922018433 0.13320972317879329 0 -0.25591125070958259 0.1538576222313196 0 -0.27841844756737139 0.15036486396373841 0 -0.26541275862914648 0.1354265207955995 0 -0.28250218484613909 0.12961124428201651 0 -0.26541275862914648 0.1354265207955995 0 -0.26406651782079632 0.11008915032212981 0 -0.28250218484613909 0.12961124428201651 0 -0.27841844756737139 0.15036486396373841 0 -0.26541275862914648 0.1354265207955995 0 -0.26541275862914648 0.1354265207955995 0 -0.26406651782079632 0.11008915032212981 0 -0.2461653922018433 0.13320972317879329 0 -0.26406651782079632 0.11008915032212981 0 -0.2849685307263996 0.1076002719838499 0 -0.27395963296646447 0.085570920936774986 0 -0.28250218484613909 0.12961124428201651 0 -0.26406651782079632 0.11008915032212981 0 -0.2849685307263996 0.1076002719838499 0 -0.28250218484613909 0.12961124428201651 0 -0.29545434095462242 0.1229294013967749 0 -0.2849685307263996 0.1076002719838499 0 -0.29545434095462242 0.1229294013967749 0 -0.2849685307263996 0.1076002719838499 0 -0.30029781011252848 0.1106909841844015 0 -0.2849685307263996 0.1076002719838499 0 -0.30029781011252848 0.1106909841844015 0 -0.29240862620061642 0.089095063392640367 0 -0.2849685307263996 0.1076002719838499 0 -0.29240862620061642 0.089095063392640367 0 -0.27395963296646447 0.085570920936774986 0 -0.30029781011252848 0.1106909841844015 0 -0.29240862620061642 0.089095063392640367 0 -0.30798682846349279 0.094806597840436352 0 -0.30029781011252848 0.1106909841844015 0 -0.29240862620061642 0.089095063392640367 0 -0.30798682846349279 0.094806597840436352 0 -0.30029781011252848 0.1106909841844015 0 -0.31578033794671129 0.1103170736261737 0 -0.30818699402443961 0.13228690497616291 0 -0.30029781011252848 0.1106909841844015 0 -0.30818699402443961 0.13228690497616291 0 -0.29545434095462242 0.1229294013967749 0 -0.30029781011252848 0.1106909841844015 0 -0.30818699402443961 0.13228690497616291 0 -0.31578033794671129 0.1103170736261737 0 -0.30818699402443961 0.13228690497616291 0 -0.30029781011252848 0.1106909841844015 0 -0.31578033794671129 0.1103170736261737 0 -0.30798682846349279 0.094806597840436352 0 -0.30715897184336122 0.067882684377593039 0 -0.29240862620061642 0.089095063392640367 0 -0.29240862620061642 0.089095063392640367 0 -0.28451944228870429 0.067499142600879303 0 -0.29240862620061642 0.089095063392640367 0 -0.28451944228870429 0.067499142600879303 0 -0.27395963296646447 0.085570920936774986 0 -0.30715897184336122 0.067882684377593039 0 -0.29240862620061642 0.089095063392640367 0 -0.28451944228870429 0.067499142600879303 0 -0.28451944228870429 0.067499142600879303 0 -0.27395963296646447 0.085570920936774986 0 -0.26514142349082309 0.066264484750761396 0 -0.26406651782079632 0.11008915032212981 0 -0.27395963296646447 0.085570920936774986 0 -0.24866172691815619 0.078890763089557031 0 -0.27395963296646447 0.085570920936774986 0 -0.26514142349082309 0.066264484750761396 0 -0.24866172691815619 0.078890763089557031 0 -0.26514142349082309 0.066264484750761396 0 -0.24942163780031201 0.051326967561118542 0 -0.24866172691815619 0.078890763089557031 0 -0.26514142349082309 0.066264484750761396 0 -0.26914467748047882 0.048034629565477133 0 -0.24942163780031201 0.051326967561118542 0 -0.26070088579531608 0.034480599136908832 0 -0.26914467748047882 0.048034629565477133 0 -0.24942163780031201 0.051326967561118542 0 -0.26070088579531608 0.034480599136908832 0 -0.24576610333036999 0.031283544236800437 0 -0.24942163780031201 0.051326967561118542 0 -0.26070088579531608 0.034480599136908832 0 -0.26914467748047882 0.048034629565477133 0 -0.27472955179211439 0.026953568580409738 0 -0.26914467748047882 0.048034629565477133 0 -0.27472955179211439 0.026953568580409738 0 -0.2909442618177378 0.047418126479001399 0 -0.28451944228870429 0.067499142600879303 0 -0.26514142349082309 0.066264484750761396 0 -0.26914467748047882 0.048034629565477133 0 -0.25817912032164159 -0.001189089740970712 0 -0.25611184719486663 0.01837952051823143 0 -0.24448225645583449 0.0069967218110599501 0 -0.25817912032164159 -0.001189089740970712 0 -0.25611184719486663 0.01837952051823143 0 -0.26900583184351168 0.0089935626881751315 0 -0.26070088579531608 0.034480599136908832 0 -0.25611184719486663 0.01837952051823143 0 -0.27472955179211439 0.026953568580409738 0 -0.26070088579531608 0.034480599136908832 0 -0.25611184719486663 0.01837952051823143 0 -0.24576610333036999 0.031283544236800437 0 -0.25611184719486663 0.01837952051823143 0 -0.27472955179211439 0.026953568580409738 0 -0.26900583184351168 0.0089935626881751315 0 -0.25817912032164159 -0.001189089740970712 0 -0.27520563434428569 -0.0064841511415596863 0 -0.26900583184351168 0.0089935626881751315 0 -0.27520563434428569 -0.0064841511415596863 0 -0.26900583184351168 0.0089935626881751315 0 -0.28499154041886687 0.0089392766707816068 0 -0.27472955179211439 0.026953568580409738 0 -0.26900583184351168 0.0089935626881751315 0 -0.28499154041886687 0.0089392766707816068 0 -0.27472955179211439 0.026953568580409738 0 -0.28499154041886687 0.0089392766707816068 0 -0.29775826368737268 0.028550099894943309 0 -0.28499154041886687 0.0089392766707816068 0 -0.29775826368737268 0.028550099894943309 0 -0.30668323869218522 0.01477167142140595 0 -0.29775826368737268 0.028550099894943309 0 -0.30668323869218522 0.01477167142140595 0 -0.3181655899856522 0.030354244154210609 0 -0.3002649957965276 -0.0028578451550066008 0 -0.31350150359346979 -0.0012260699301545339 0 -0.30668323869218522 0.01477167142140595 0 -0.3002649957965276 -0.0028578451550066008 0 -0.28499154041886687 0.0089392766707816068 0 -0.30668323869218522 0.01477167142140595 0 -0.28451944228870429 0.067499142600879303 0 -0.26914467748047882 0.048034629565477133 0 -0.2909442618177378 0.047418126479001399 0 -0.30715897184336122 0.067882684377593039 0 -0.28451944228870429 0.067499142600879303 0 -0.2909442618177378 0.047418126479001399 0 -0.27472955179211439 0.026953568580409738 0 -0.29775826368737268 0.028550099894943309 0 -0.2909442618177378 0.047418126479001399 0 -0.27472955179211439 0.026953568580409738 0 -0.2909442618177378 0.047418126479001399 0 -0.29775826368737268 0.028550099894943309 0 -0.31103539941767983 0.042863712063850583 0 -0.3181655899856522 0.030354244154210609 0 -0.29775826368737268 0.028550099894943309 0 -0.2909442618177378 0.047418126479001399 0 -0.31103539941767983 0.042863712063850583 0 -0.30715897184336122 0.067882684377593039 0 -0.2909442618177378 0.047418126479001399 0 -0.31103539941767983 0.042863712063850583 0 -0.30715897184336122 0.067882684377593039 0 -0.2909442618177378 0.047418126479001399 0 -0.30715897184336122 0.067882684377593039 0 -0.31103539941767983 0.042863712063850583 0 -0.32419304060701182 0.059356355930540568 0 -0.31103539941767983 0.042863712063850583 0 -0.32419304060701182 0.059356355930540568 0 -0.32934288330690531 0.047766676451844119 0 -0.31103539941767983 0.042863712063850583 0 -0.33605071181471602 0.036268116730584582 0 -0.3181655899856522 0.030354244154210609 0 -0.31103539941767983 0.042863712063850583 0 -0.33605071181471602 0.036268116730584582 0 -0.31103539941767983 0.042863712063850583 0 -0.33605071181471602 0.036268116730584582 0 -0.32934288330690531 0.047766676451844119 0 -0.33605071181471602 0.036268116730584582 0 -0.33863701642901017 0.04547848552480923 0 -0.32934288330690531 0.047766676451844119 0 -0.33605071181471602 0.036268116730584582 0 -0.3181655899856522 0.030354244154210609 0 -0.33253438984506067 0.029424730561964371 0 -0.33605071181471602 0.036268116730584582 0 -0.33863701642901017 0.04547848552480923 0 -0.34819589993376632 0.045094283721001688 0 -0.33863701642901017 0.04547848552480923 0 -0.33679824826610871 0.054866712009435673 0 -0.34819589993376632 0.045094283721001688 0 -0.33679824826610871 0.054866712009435673 0 -0.35079716999596178 0.06091025691539801 0 -0.3374781766955115 0.064926181314253692 0 -0.32419304060701182 0.059356355930540568 0 -0.33679824826610871 0.054866712009435673 0 -0.3374781766955115 0.064926181314253692 0 -0.33863701642901017 0.04547848552480923 0 -0.33679824826610871 0.054866712009435673 0 -0.32934288330690531 0.047766676451844119 0 -0.32419304060701182 0.059356355930540568 0 -0.33679824826610871 0.054866712009435673 0 -0.32934288330690531 0.047766676451844119 0 -0.31350150359346979 -0.0012260699301545339 0 -0.32034038310356688 0.01546644838897555 0 -0.3308171934014667 0.0040076657374513609 0 -0.31350150359346979 -0.0012260699301545339 0 -0.30668323869218522 0.01477167142140595 0 -0.32034038310356688 0.01546644838897555 0 -0.32034038310356688 0.01546644838897555 0 -0.33253438984506067 0.029424730561964371 0 -0.3308171934014667 0.0040076657374513609 0 -0.30668323869218522 0.01477167142140595 0 -0.32034038310356688 0.01546644838897555 0 -0.3181655899856522 0.030354244154210609 0 -0.32034038310356688 0.01546644838897555 0 -0.3181655899856522 0.030354244154210609 0 -0.33253438984506067 0.029424730561964371 0 -0.33605071181471602 0.036268116730584582 0 -0.33253438984506067 0.029424730561964371 0 -0.34627332444498882 0.015692304529420519 0 -0.33253438984506067 0.029424730561964371 0 -0.3308171934014667 0.0040076657374513609 0 -0.34627332444498882 0.015692304529420519 0 -0.33253438984506067 0.029424730561964371 0 -0.3308171934014667 0.0040076657374513609 0 -0.34615832920195849 -0.0054131808653042606 0 -0.3308171934014667 0.0040076657374513609 0 -0.34627332444498882 0.015692304529420519 0 -0.34615832920195849 -0.0054131808653042606 0 -0.34627332444498882 0.015692304529420519 0 -0.3689136781206136 0.00042714381548027928 0 -0.34627332444498882 0.015692304529420519 0 -0.36106602421175232 0.029672521397318571 0 -0.3689136781206136 0.00042714381548027928 0 -0.33605071181471602 0.036268116730584582 0 -0.34627332444498882 0.015692304529420519 0 -0.36106602421175232 0.029672521397318571 0 -0.38608133660878852 0.02307692606405258 0 -0.36106602421175232 0.029672521397318571 0 -0.3689136781206136 0.00042714381548027928 0 -0.38608133660878852 0.02307692606405258 0 -0.36106602421175232 0.029672521397318571 0 -0.37778870168960732 0.038783375648139828 0 -0.38608133660878852 0.02307692606405258 0 -0.36106602421175232 0.029672521397318571 0 -0.35079716999596178 0.06091025691539801 0 -0.34819589993376632 0.045094283721001688 0 -0.36397936998243929 0.046563732131622751 0 -0.33679824826610871 0.054866712009435673 0 -0.35079716999596178 0.06091025691539801 0 -0.34819589993376632 0.045094283721001688 0 -0.33605071181471602 0.036268116730584582 0 -0.36106602421175232 0.029672521397318571 0 -0.33605071181471602 0.036268116730584582 0 -0.36106602421175232 0.029672521397318571 0 -0.34819589993376632 0.045094283721001688 0 -0.36106602421175232 0.029672521397318571 0 -0.34819589993376632 0.045094283721001688 0 -0.36397936998243929 0.046563732131622751 0 -0.37778870168960732 0.038783375648139828 0 -0.36106602421175232 0.029672521397318571 0 -0.36397936998243929 0.046563732131622751 0 -0.37756773738251598 0.053425347393097622 0 -0.37778870168960732 0.038783375648139828 0 -0.36397936998243929 0.046563732131622751 0 -0.35079716999596178 0.06091025691539801 0 -0.36397936998243929 0.046563732131622751 0 -0.36991863441129841 0.065266593187418606 0 -0.37756773738251598 0.053425347393097622 0 -0.36397936998243929 0.046563732131622751 0 -0.36991863441129841 0.065266593187418606 0 -0.38435441308940621 0.075459729094443831 0 -0.36991863441129841 0.065266593187418606 0 -0.36752610090576587 0.083543500138743815 0 -0.36991863441129841 0.065266593187418606 0 -0.35466546666602761 0.075471450991411282 0 -0.36752610090576587 0.083543500138743815 0 -0.35079716999596178 0.06091025691539801 0 -0.36991863441129841 0.065266593187418606 0 -0.35466546666602761 0.075471450991411282 0 -0.35466546666602761 0.075471450991411282 0 -0.34349406167891072 0.072175379173003373 0 -0.34237741587011689 0.081413453265347491 0 -0.35079716999596178 0.06091025691539801 0 -0.3374781766955115 0.064926181314253692 0 -0.34349406167891072 0.072175379173003373 0 -0.35079716999596178 0.06091025691539801 0 -0.35466546666602761 0.075471450991411282 0 -0.34349406167891072 0.072175379173003373 0 -0.35229743472142261 0.086827490258369847 0 -0.34905846937646812 0.096786282098025533 0 -0.34297653632012809 0.09066814801159663 0 -0.35229743472142261 0.086827490258369847 0 -0.34237741587011689 0.081413453265347491 0 -0.34297653632012809 0.09066814801159663 0 -0.35466546666602761 0.075471450991411282 0 -0.35229743472142261 0.086827490258369847 0 -0.34237741587011689 0.081413453265347491 0 -0.35466546666602761 0.075471450991411282 0 -0.35229743472142261 0.086827490258369847 0 -0.36752610090576587 0.083543500138743815 0 -0.35229743472142261 0.086827490258369847 0 -0.35896581453204851 0.094708676999365776 0 -0.34905846937646812 0.096786282098025533 0 -0.35229743472142261 0.086827490258369847 0 -0.36752610090576587 0.083543500138743815 0 -0.35896581453204851 0.094708676999365776 0 -0.36752610090576587 0.083543500138743815 0 -0.36923694943654772 0.095151801474240918 0 -0.35896581453204851 0.094708676999365776 0 -0.38224918428767268 0.093477688986918064 0 -0.36752610090576587 0.083543500138743815 0 -0.36923694943654772 0.095151801474240918 0 -0.36923694943654772 0.095151801474240918 0 -0.37313280218419792 0.1052055569553639 0 -0.36218485729206118 0.1035795064453454 0 -0.38224918428767268 0.093477688986918064 0 -0.36923694943654772 0.095151801474240918 0 -0.37313280218419792 0.1052055569553639 0 -0.36218485729206118 0.1035795064453454 0 -0.3649680493719698 0.11326158677465401 0 -0.35491183462523501 0.1107565378595924 0 -0.37313280218419792 0.1052055569553639 0 -0.36218485729206118 0.1035795064453454 0 -0.3649680493719698 0.11326158677465401 0 -0.36923694943654772 0.095151801474240918 0 -0.36218485729206118 0.1035795064453454 0 -0.35896581453204851 0.094708676999365776 0 -0.37542065491148141 0.11468937193625819 0 -0.37018919534687161 0.1248374978929942 0 -0.3649680493719698 0.11326158677465401 0 -0.37542065491148141 0.11468937193625819 0 -0.37313280218419792 0.1052055569553639 0 -0.3649680493719698 0.11326158677465401 0 -0.3649680493719698 0.11326158677465401 0 -0.35899399712413949 0.122881494090831 0 -0.35491183462523501 0.1107565378595924 0 -0.37018919534687161 0.1248374978929942 0 -0.3649680493719698 0.11326158677465401 0 -0.35899399712413949 0.122881494090831 0 -0.35899399712413949 0.122881494090831 0 -0.35491183462523501 0.1107565378595924 0 -0.34573437606542029 0.1165686363259416 0 -0.35491183462523501 0.1107565378595924 0 -0.34573437606542029 0.1165686363259416 0 -0.34866432955511423 0.10549591531066339 0 -0.36218485729206118 0.1035795064453454 0 -0.35896581453204851 0.094708676999365776 0 -0.35382665988390322 0.1023573057353797 0 -0.35896581453204851 0.094708676999365776 0 -0.35382665988390322 0.1023573057353797 0 -0.34905846937646812 0.096786282098025533 0 -0.36218485729206118 0.1035795064453454 0 -0.35491183462523501 0.1107565378595924 0 -0.35382665988390322 0.1023573057353797 0 -0.35491183462523501 0.1107565378595924 0 -0.35382665988390322 0.1023573057353797 0 -0.34866432955511423 0.10549591531066339 0 -0.34573437606542029 0.1165686363259416 0 -0.34866432955511423 0.10549591531066339 0 -0.33979030782454422 0.1010108145343778 0 -0.34905846937646812 0.096786282098025533 0 -0.33979030782454422 0.1010108145343778 0 -0.34297653632012809 0.09066814801159663 0 -0.34866432955511423 0.10549591531066339 0 -0.34905846937646812 0.096786282098025533 0 -0.33979030782454422 0.1010108145343778 0 -0.35382665988390322 0.1023573057353797 0 -0.34866432955511423 0.10549591531066339 0 -0.34905846937646812 0.096786282098025533 0 -0.33979030782454422 0.1010108145343778 0 -0.33455402896720238 0.1024579393010631 0 -0.33387577684275171 0.085441771819526113 0 -0.34573437606542029 0.1165686363259416 0 -0.33979030782454422 0.1010108145343778 0 -0.34573437606542029 0.1165686363259416 0 -0.33979030782454422 0.1010108145343778 0 -0.33455402896720238 0.1024579393010631 0 -0.33455402896720238 0.1024579393010631 0 -0.3339896068124425 0.11289591541786829 0 -0.32635897783295431 0.1054656697234002 0 -0.33455402896720238 0.1024579393010631 0 -0.32337368186898441 0.088347242276184818 0 -0.33928246378446519 0.13297478606022911 0 -0.34573437606542029 0.1165686363259416 0 -0.33479559338968828 0.12181620717802839 0 -0.34573437606542029 0.1165686363259416 0 -0.33455402896720238 0.1024579393010631 0 -0.3339896068124425 0.11289591541786829 0 -0.34573437606542029 0.1165686363259416 0 -0.3339896068124425 0.11289591541786829 0 -0.33479559338968828 0.12181620717802839 0 -0.34573437606542029 0.1165686363259416 0 -0.33455402896720238 0.1024579393010631 0 -0.3339896068124425 0.11289591541786829 0 -0.32610469120246921 0.1169564912647561 0 -0.32635897783295431 0.1054656697234002 0 -0.32827331839322821 0.12913574715260329 0 -0.33479559338968828 0.12181620717802839 0 -0.32610469120246921 0.1169564912647561 0 -0.3339896068124425 0.11289591541786829 0 -0.33479559338968828 0.12181620717802839 0 -0.32610469120246921 0.1169564912647561 0 -0.30818699402443961 0.13228690497616291 0 -0.31578033794671129 0.1103170736261737 0 -0.31944912569452399 0.124605406313756 0 -0.32827331839322821 0.12913574715260329 0 -0.32610469120246921 0.1169564912647561 0 -0.31944912569452399 0.124605406313756 0 -0.32610469120246921 0.1169564912647561 0 -0.31578033794671129 0.1103170736261737 0 -0.31944912569452399 0.124605406313756 0 -0.32610469120246921 0.1169564912647561 0 -0.31578033794671129 0.1103170736261737 0 -0.32635897783295431 0.1054656697234002 0 -0.31578033794671129 0.1103170736261737 0 -0.32337368186898441 0.088347242276184818 0 -0.33455402896720238 0.1024579393010631 0 -0.32635897783295431 0.1054656697234002 0 -0.32337368186898441 0.088347242276184818 0 -0.30798682846349279 0.094806597840436352 0 -0.31578033794671129 0.1103170736261737 0 -0.32337368186898441 0.088347242276184818 0 -0.31578033794671129 0.1103170736261737 0 -0.32635897783295431 0.1054656697234002 0 -0.32337368186898441 0.088347242276184818 0 -0.30798682846349279 0.094806597840436352 0 -0.30715897184336122 0.067882684377593039 0 -0.32337368186898441 0.088347242276184818 0 -0.32337368186898441 0.088347242276184818 0 -0.32908969110622988 0.071809105689360331 0 -0.30715897184336122 0.067882684377593039 0 -0.32337368186898441 0.088347242276184818 0 -0.32908969110622988 0.071809105689360331 0 -0.30715897184336122 0.067882684377593039 0 -0.32337368186898441 0.088347242276184818 0 -0.30715897184336122 0.067882684377593039 0 -0.32419304060701182 0.059356355930540568 0 -0.32908969110622988 0.071809105689360331 0 -0.32419304060701182 0.059356355930540568 0 -0.32908969110622988 0.071809105689360331 0 -0.3374781766955115 0.064926181314253692 0 -0.32908969110622988 0.071809105689360331 0 -0.3374781766955115 0.064926181314253692 0 -0.34349406167891072 0.072175379173003373 0 -0.32908969110622988 0.071809105689360331 0 -0.34349406167891072 0.072175379173003373 0 -0.34237741587011689 0.081413453265347491 0 -0.34237741587011689 0.081413453265347491 0 -0.34297653632012809 0.09066814801159663 0 -0.33387577684275171 0.085441771819526113 0 -0.32337368186898441 0.088347242276184818 0 -0.32908969110622988 0.071809105689360331 0 -0.33387577684275171 0.085441771819526113 0 -0.33455402896720238 0.1024579393010631 0 -0.32337368186898441 0.088347242276184818 0 -0.33387577684275171 0.085441771819526113 0 -0.33979030782454422 0.1010108145343778 0 -0.34297653632012809 0.09066814801159663 0 -0.33387577684275171 0.085441771819526113 0 -0.33979030782454422 0.1010108145343778 0 -0.33387577684275171 0.085441771819526113 0 -0.32908969110622988 0.071809105689360331 0 -0.34237741587011689 0.081413453265347491 0 -0.33387577684275171 0.085441771819526113 0 -0.40220556904967231 0.46890198926625642 0 -0.39079673866752668 0.48179232922613863 0 -0.40772069051837068 0.48235807397629687 0 -0.39079673866752668 0.48179232922613863 0 -0.39902183803553559 0.48869609363014282 0 -0.40772069051837068 0.48235807397629687 0 -0.39902183803553559 0.48869609363014282 0 -0.40435244333028059 0.49773002853048642 0 -0.40772069051837068 0.48235807397629687 0 -0.40435244333028059 0.49773002853048642 0 -0.39065000081959789 0.49048420860278408 0 -0.37717243848698301 0.49546005706097251 0 -0.40435244333028059 0.49773002853048642 0 -0.38370262129316107 0.5 0 -0.4076175347333697 0.5 0 -0.40435244333028059 0.49773002853048642 0 -0.37717243848698301 0.49546005706097251 0 -0.39902183803553559 0.48869609363014282 0 -0.40435244333028059 0.49773002853048642 0 -0.39065000081959789 0.49048420860278408 0 -0.39079673866752668 0.48179232922613863 0 -0.39902183803553559 0.48869609363014282 0 -0.39065000081959789 0.49048420860278408 0 -0.39079673866752668 0.48179232922613863 0 -0.39065000081959789 0.49048420860278408 0 -0.38239895348407438 0.48845547007567758 0 -0.39065000081959789 0.49048420860278408 0 -0.37717243848698301 0.49546005706097251 0 -0.38239895348407438 0.48845547007567758 0 -0.40435244333028059 0.49773002853048642 0 -0.38370262129316107 0.5 0 -0.37717243848698301 0.49546005706097251 0 -0.37717243848698301 0.49546005706097251 0 -0.38239895348407438 0.48845547007567758 0 -0.376573541189618 0.48282239558796258 0 -0.39079673866752668 0.48179232922613863 0 -0.376573541189618 0.48282239558796258 0 -0.37680992875062852 0.46870947044642258 0 -0.40220556904967231 0.46890198926625642 0 -0.39079673866752668 0.48179232922613863 0 -0.37680992875062852 0.46870947044642258 0 -0.39079673866752668 0.48179232922613863 0 -0.38239895348407438 0.48845547007567758 0 -0.376573541189618 0.48282239558796258 0 -0.37680992875062852 0.46870947044642258 0 -0.39727849591957082 0.45306420566963429 0 -0.39727849591957082 0.45306420566963429 0 -0.42060672164325019 0.43498094352939981 0 -0.38673835679243251 0.4296618501279757 0 -0.37680992875062852 0.46870947044642258 0 -0.39727849591957082 0.45306420566963429 0 -0.37179981728900008 0.4474507998765101 0 -0.39727849591957082 0.45306420566963429 0 -0.38673835679243251 0.4296618501279757 0 -0.37179981728900008 0.4474507998765101 0 -0.40220556904967231 0.46890198926625642 0 -0.37680992875062852 0.46870947044642258 0 -0.39727849591957082 0.45306420566963429 0 -0.40220556904967231 0.46890198926625642 0 -0.39727849591957082 0.45306420566963429 0 -0.41719719290008972 0.45679102527625098 0 -0.40220556904967231 0.46890198926625642 0 -0.41719719290008972 0.45679102527625098 0 -0.42412014560400563 0.47370633985399729 0 -0.39727849591957082 0.45306420566963429 0 -0.41719719290008972 0.45679102527625098 0 -0.42060672164325019 0.43498094352939981 0 -0.41719719290008972 0.45679102527625098 0 -0.44315458840826538 0.45932066576437142 0 -0.42060672164325019 0.43498094352939981 0 -0.41719719290008972 0.45679102527625098 0 -0.42412014560400563 0.47370633985399729 0 -0.44315458840826538 0.45932066576437142 0 -0.40220556904967231 0.46890198926625642 0 -0.42412014560400563 0.47370633985399729 0 -0.40772069051837068 0.48235807397629687 0 -0.40435244333028059 0.49773002853048642 0 -0.43153244817357839 0.50000000000000022 0 -0.42412014560400563 0.47370633985399729 0 -0.40772069051837068 0.48235807397629687 0 -0.43153244817357839 0.50000000000000022 0 -0.40435244333028059 0.49773002853048642 0 -0.40772069051837068 0.48235807397629687 0 -0.43153244817357839 0.50000000000000022 0 -0.40435244333028059 0.49773002853048642 0 -0.4076175347333697 0.5 0 -0.43153244817357839 0.50000000000000022 0 -0.42412014560400563 0.47370633985399729 0 -0.46414720257500031 0.47966954416264712 0 -0.44315458840826538 0.45932066576437142 0 -0.43153244817357839 0.50000000000000022 0 -0.46414720257500031 0.47966954416264712 0 -0.5 0.5 0 -0.42412014560400563 0.47370633985399729 0 -0.43153244817357839 0.50000000000000022 0 -0.46414720257500031 0.47966954416264712 0 -0.46414720257500031 0.47966954416264712 0 -0.5 0.5 0 -0.49999999999999978 0.48617008760749181 0 -0.46414720257500031 0.47966954416264712 0 -0.48337054396308082 0.46938003865009331 0 -0.49999999999999978 0.48617008760749181 0 -0.46414720257500031 0.47966954416264712 0 -0.48337054396308082 0.46938003865009331 0 -0.46435335571812708 0.46524005956745162 0 -0.48337054396308082 0.46938003865009331 0 -0.49999999999999978 0.48617008760749181 0 -0.48337054396308082 0.46938003865009331 0 -0.49999999999999978 0.48617008760749181 0 -0.5 0.46309449211104098 0 -0.49999999999999889 0.44001889661459043 0 -0.5 0.46309449211104098 0 -0.48386995734087818 0.44892923403500468 0 -0.49999999999999889 0.44001889661459043 0 -0.48386995734087818 0.44892923403500468 0 -0.48077504572115259 0.42637747264572989 0 -0.48337054396308082 0.46938003865009331 0 -0.5 0.46309449211104098 0 -0.48386995734087818 0.44892923403500468 0 -0.48337054396308082 0.46938003865009331 0 -0.46674108792616198 0.45258998969269471 0 -0.46435335571812708 0.46524005956745162 0 -0.48337054396308082 0.46938003865009331 0 -0.46674108792616198 0.45258998969269471 0 -0.48337054396308082 0.46938003865009331 0 -0.48386995734087818 0.44892923403500468 0 -0.46674108792616198 0.45258998969269471 0 -0.48386995734087818 0.44892923403500468 0 -0.46674108792616198 0.45258998969269471 0 -0.4673403558368891 0.43567270994028318 0 -0.46674108792616198 0.45258998969269471 0 -0.45011163188924319 0.4357999407352961 0 -0.46674108792616198 0.45258998969269471 0 -0.44315458840826538 0.45932066576437142 0 -0.45011163188924319 0.4357999407352961 0 -0.46674108792616198 0.45258998969269471 0 -0.45011163188924319 0.4357999407352961 0 -0.4673403558368891 0.43567270994028318 0 -0.46414720257500031 0.47966954416264712 0 -0.46435335571812708 0.46524005956745162 0 -0.44315458840826538 0.45932066576437142 0 -0.46674108792616198 0.45258998969269471 0 -0.46435335571812708 0.46524005956745162 0 -0.44315458840826538 0.45932066576437142 0 -0.44315458840826538 0.45932066576437142 0 -0.45011163188924319 0.4357999407352961 0 -0.42060672164325019 0.43498094352939981 0 -0.45011163188924319 0.4357999407352961 0 -0.46155009144230658 0.41273604867686903 0 -0.43458736994493202 0.41730608182928619 0 -0.46155009144230658 0.41273604867686903 0 -0.44232513716346072 0.39909462470800799 0 -0.43458736994493202 0.41730608182928619 0 -0.45011163188924319 0.4357999407352961 0 -0.46155009144230658 0.41273604867686903 0 -0.4673403558368891 0.43567270994028318 0 -0.48386995734087818 0.44892923403500468 0 -0.4673403558368891 0.43567270994028318 0 -0.48077504572115259 0.42637747264572989 0 -0.48077504572115259 0.42637747264572989 0 -0.5 0.41190033247446661 0 -0.47769023308542591 0.39416242389752049 0 -0.46155009144230658 0.41273604867686903 0 -0.4673403558368891 0.43567270994028318 0 -0.48077504572115259 0.42637747264572989 0 -0.46155009144230658 0.41273604867686903 0 -0.48077504572115259 0.42637747264572989 0 -0.47769023308542591 0.39416242389752049 0 -0.46155009144230658 0.41273604867686903 0 -0.48077504572115259 0.42637747264572989 0 -0.49999999999999889 0.44001889661459043 0 -0.48077504572115259 0.42637747264572989 0 -0.49999999999999889 0.44001889661459043 0 -0.48077504572115259 0.42637747264572989 0 -0.5 0.41190033247446661 0 -0.5 0.38378176833434291 0 -0.47769023308542591 0.39416242389752049 0 -0.48504778187309472 0.370496892046497 0 -0.5 0.41190033247446661 0 -0.5 0.38378176833434291 0 -0.47769023308542591 0.39416242389752049 0 -0.47769023308542591 0.39416242389752049 0 -0.46612001557004218 0.37244575342641351 0 -0.48504778187309472 0.370496892046497 0 -0.45871538841291348 0.39022858073734967 0 -0.44041544841286551 0.37416181778901292 0 -0.46612001557004218 0.37244575342641351 0 -0.47769023308542591 0.39416242389752049 0 -0.45871538841291348 0.39022858073734967 0 -0.46612001557004218 0.37244575342641351 0 -0.46155009144230658 0.41273604867686903 0 -0.47769023308542591 0.39416242389752049 0 -0.45871538841291348 0.39022858073734967 0 -0.46155009144230658 0.41273604867686903 0 -0.45871538841291348 0.39022858073734967 0 -0.44232513716346072 0.39909462470800799 0 -0.46155009144230658 0.41273604867686903 0 -0.44232513716346072 0.39909462470800799 0 -0.45871538841291348 0.39022858073734967 0 -0.44232513716346072 0.39909462470800799 0 -0.44041544841286551 0.37416181778901292 0 -0.41762216596164609 0.37576523110503057 0 -0.42171604292525428 0.39607654317496699 0 -0.44041544841286551 0.37416181778901292 0 -0.44232513716346072 0.39909462470800799 0 -0.42171604292525428 0.39607654317496699 0 -0.44041544841286551 0.37416181778901292 0 -0.41762216596164609 0.37576523110503057 0 -0.42171604292525428 0.39607654317496699 0 -0.40207079298564291 0.38674519438685062 0 -0.42171604292525428 0.39607654317496699 0 -0.40425363167582712 0.41159980761837739 0 -0.40207079298564291 0.38674519438685062 0 -0.44232513716346072 0.39909462470800799 0 -0.42171604292525428 0.39607654317496699 0 -0.43458736994493202 0.41730608182928619 0 -0.45011163188924319 0.4357999407352961 0 -0.43458736994493202 0.41730608182928619 0 -0.42060672164325019 0.43498094352939981 0 -0.43458736994493202 0.41730608182928619 0 -0.42060672164325019 0.43498094352939981 0 -0.40425363167582712 0.41159980761837739 0 -0.42171604292525428 0.39607654317496699 0 -0.43458736994493202 0.41730608182928619 0 -0.40425363167582712 0.41159980761837739 0 -0.40425363167582712 0.41159980761837739 0 -0.38673835679243251 0.4296618501279757 0 -0.38121020562601421 0.39726304087756731 0 -0.38673835679243251 0.4296618501279757 0 -0.38121020562601421 0.39726304087756731 0 -0.36400741178281892 0.41839097872867809 0 -0.42060672164325019 0.43498094352939981 0 -0.40425363167582712 0.41159980761837739 0 -0.38673835679243251 0.4296618501279757 0 -0.38121020562601421 0.39726304087756731 0 -0.40207079298564291 0.38674519438685062 0 -0.38809594454767787 0.37248722848467908 0 -0.38121020562601421 0.39726304087756731 0 -0.38809594454767787 0.37248722848467908 0 -0.36069825208060602 0.37845458241687152 0 -0.40425363167582712 0.41159980761837739 0 -0.38121020562601421 0.39726304087756731 0 -0.40207079298564291 0.38674519438685062 0 -0.40287001572637199 0.36236820481418158 0 -0.37884253918833283 0.35271055614512892 0 -0.40552197946835272 0.34244036153486729 0 -0.40207079298564291 0.38674519438685062 0 -0.40287001572637199 0.36236820481418158 0 -0.38809594454767787 0.37248722848467908 0 -0.40287001572637199 0.36236820481418158 0 -0.38809594454767787 0.37248722848467908 0 -0.37884253918833283 0.35271055614512892 0 -0.38809594454767787 0.37248722848467908 0 -0.37884253918833283 0.35271055614512892 0 -0.36069825208060602 0.37845458241687152 0 -0.37884253918833283 0.35271055614512892 0 -0.38652633004971332 0.33018528559265242 0 -0.40552197946835272 0.34244036153486729 0 -0.37884253918833283 0.35271055614512892 0 -0.38652633004971332 0.33018528559265242 0 -0.36061709188057378 0.33616871689260103 0 -0.38652633004971332 0.33018528559265242 0 -0.39222826158523139 0.31035051935077029 0 -0.36922969830840202 0.31563881089604318 0 -0.40893230084754428 0.32378295297361581 0 -0.41500197052098492 0.30395496366987163 0 -0.39222826158523139 0.31035051935077029 0 -0.38652633004971332 0.33018528559265242 0 -0.40893230084754428 0.32378295297361581 0 -0.39222826158523139 0.31035051935077029 0 -0.38652633004971332 0.33018528559265242 0 -0.40552197946835272 0.34244036153486729 0 -0.40893230084754428 0.32378295297361581 0 -0.40552197946835272 0.34244036153486729 0 -0.40893230084754428 0.32378295297361581 0 -0.42573367699876941 0.33697377744512691 0 -0.40893230084754428 0.32378295297361581 0 -0.43117455118130771 0.31809247258529288 0 -0.41500197052098492 0.30395496366987163 0 -0.40893230084754428 0.32378295297361581 0 -0.43117455118130771 0.31809247258529288 0 -0.42573367699876941 0.33697377744512691 0 -0.43117455118130771 0.31809247258529288 0 -0.42573367699876941 0.33697377744512691 0 -0.44741284055227692 0.33259438207364722 0 -0.42573367699876941 0.33697377744512691 0 -0.4216087388266157 0.35659209283175042 0 -0.43975165111651893 0.34834040267158789 0 -0.40552197946835272 0.34244036153486729 0 -0.42573367699876941 0.33697377744512691 0 -0.4216087388266157 0.35659209283175042 0 -0.40287001572637199 0.36236820481418158 0 -0.40552197946835272 0.34244036153486729 0 -0.4216087388266157 0.35659209283175042 0 -0.41762216596164609 0.37576523110503057 0 -0.40207079298564291 0.38674519438685062 0 -0.40287001572637199 0.36236820481418158 0 -0.41762216596164609 0.37576523110503057 0 -0.40287001572637199 0.36236820481418158 0 -0.4216087388266157 0.35659209283175042 0 -0.4216087388266157 0.35659209283175042 0 -0.44041544841286551 0.37416181778901292 0 -0.43975165111651893 0.34834040267158789 0 -0.41762216596164609 0.37576523110503057 0 -0.4216087388266157 0.35659209283175042 0 -0.44041544841286551 0.37416181778901292 0 -0.43975165111651893 0.34834040267158789 0 -0.45728249666813131 0.354200279411784 0 -0.44741284055227692 0.33259438207364722 0 -0.44041544841286551 0.37416181778901292 0 -0.43975165111651893 0.34834040267158789 0 -0.45728249666813131 0.354200279411784 0 -0.45728249666813131 0.354200279411784 0 -0.46612001557004218 0.37244575342641351 0 -0.47749318891456999 0.35014845813462497 0 -0.45728249666813131 0.354200279411784 0 -0.47749318891456999 0.35014845813462497 0 -0.46696637196578411 0.32807295409613318 0 -0.44041544841286551 0.37416181778901292 0 -0.45728249666813131 0.354200279411784 0 -0.46612001557004218 0.37244575342641351 0 -0.46612001557004218 0.37244575342641351 0 -0.47749318891456999 0.35014845813462497 0 -0.48504778187309472 0.370496892046497 0 -0.47749318891456999 0.35014845813462497 0 -0.5 0.35566320419421887 0 -0.5 0.327544640054095 0 -0.47749318891456999 0.35014845813462497 0 -0.5 0.35566320419421887 0 -0.48504778187309472 0.370496892046497 0 -0.5 0.38378176833434291 0 -0.5 0.35566320419421887 0 -0.48504778187309472 0.370496892046497 0 -0.5 0.327544640054095 0 -0.46696637196578411 0.32807295409613318 0 -0.47864458624147321 0.30690724795569618 0 -0.47749318891456999 0.35014845813462497 0 -0.5 0.327544640054095 0 -0.46696637196578411 0.32807295409613318 0 -0.46696637196578411 0.32807295409613318 0 -0.45394842443022632 0.31234802373226273 0 -0.47864458624147321 0.30690724795569618 0 -0.46696637196578411 0.32807295409613318 0 -0.44741284055227692 0.33259438207364722 0 -0.45394842443022632 0.31234802373226273 0 -0.45728249666813131 0.354200279411784 0 -0.46696637196578411 0.32807295409613318 0 -0.44741284055227692 0.33259438207364722 0 -0.42573367699876941 0.33697377744512691 0 -0.43975165111651893 0.34834040267158789 0 -0.44741284055227692 0.33259438207364722 0 -0.43117455118130771 0.31809247258529288 0 -0.44741284055227692 0.33259438207364722 0 -0.45394842443022632 0.31234802373226273 0 -0.43117455118130771 0.31809247258529288 0 -0.4377756794567384 0.29755940798897301 0 -0.45394842443022632 0.31234802373226273 0 -0.4377756794567384 0.29755940798897301 0 -0.46054938839249188 0.29116385230807429 0 -0.45394842443022632 0.31234802373226273 0 -0.4377756794567384 0.29755940798897301 0 -0.46054938839249188 0.29116385230807429 0 -0.43768501237626217 0.27199120841961227 0 -0.4377756794567384 0.29755940798897301 0 -0.46054938839249188 0.29116385230807429 0 -0.46054938839249188 0.29116385230807429 0 -0.45394842443022632 0.31234802373226273 0 -0.47864458624147321 0.30690724795569618 0 -0.46054938839249188 0.29116385230807429 0 -0.4833230973282453 0.28476829662717551 0 -0.46054938839249188 0.29116385230807429 0 -0.47864458624147321 0.30690724795569618 0 -0.4833230973282453 0.28476829662717551 0 -0.4833230973282453 0.28476829662717551 0 -0.49999999999999828 0.29942607591397141 0 -0.4833230973282453 0.28476829662717551 0 -0.49999999999999828 0.29942607591397141 0 -0.50000000000000355 0.28008491106520728 0 -0.4833230973282453 0.28476829662717551 0 -0.50000000000000355 0.28008491106520728 0 -0.47864458624147321 0.30690724795569618 0 -0.4833230973282453 0.28476829662717551 0 -0.49999999999999828 0.29942607591397141 0 -0.5 0.327544640054095 0 -0.47864458624147321 0.30690724795569618 0 -0.49999999999999828 0.29942607591397141 0 -0.48683766414510349 0.26524940338744568 0 -0.5 0.25041389570967992 0 -0.47558422990623123 0.25436836586593442 0 -0.48683766414510349 0.26524940338744568 0 -0.5 0.25041389570967992 0 -0.50000000000000355 0.28008491106520728 0 -0.4833230973282453 0.28476829662717551 0 -0.48683766414510349 0.26524940338744568 0 -0.50000000000000355 0.28008491106520728 0 -0.4833230973282453 0.28476829662717551 0 -0.46291754222984882 0.26683330421617452 0 -0.4833230973282453 0.28476829662717551 0 -0.48683766414510349 0.26524940338744568 0 -0.46291754222984882 0.26683330421617452 0 -0.46054938839249188 0.29116385230807429 0 -0.4833230973282453 0.28476829662717551 0 -0.46291754222984882 0.26683330421617452 0 -0.48683766414510349 0.26524940338744568 0 -0.47558422990623123 0.25436836586593442 0 -0.46291754222984882 0.26683330421617452 0 -0.46309369074953022 0.2449331556781276 0 -0.47558422990623123 0.25436836586593442 0 -0.46291754222984882 0.26683330421617452 0 -0.44251198713145401 0.24889831180517161 0 -0.46309369074953022 0.2449331556781276 0 -0.46291754222984882 0.26683330421617452 0 -0.46054938839249188 0.29116385230807429 0 -0.46291754222984882 0.26683330421617452 0 -0.43768501237626217 0.27199120841961227 0 -0.44251198713145401 0.24889831180517161 0 -0.46291754222984882 0.26683330421617452 0 -0.44251198713145401 0.24889831180517161 0 -0.46291754222984882 0.26683330421617452 0 -0.43768501237626217 0.27199120841961227 0 -0.43768501237626217 0.27199120841961227 0 -0.42438372575089178 0.25239080144643689 0 -0.41741033446421733 0.26681055824322392 0 -0.44251198713145401 0.24889831180517161 0 -0.42438372575089178 0.25239080144643689 0 -0.44251198713145401 0.24889831180517161 0 -0.43768501237626217 0.27199120841961227 0 -0.42438372575089178 0.25239080144643689 0 -0.42438372575089178 0.25239080144643689 0 -0.40625546437032989 0.25588329108770391 0 -0.41741033446421733 0.26681055824322392 0 -0.42438372575089178 0.25239080144643689 0 -0.40625546437032989 0.25588329108770391 0 -0.40625546437032989 0.25588329108770391 0 -0.41741033446421733 0.26681055824322392 0 -0.40038168160390131 0.27116829689730571 0 -0.41741033446421733 0.26681055824322392 0 -0.41834578821970092 0.28261919336506092 0 -0.40038168160390131 0.27116829689730571 0 -0.43768501237626217 0.27199120841961227 0 -0.41741033446421733 0.26681055824322392 0 -0.41834578821970092 0.28261919336506092 0 -0.4377756794567384 0.29755940798897301 0 -0.43768501237626217 0.27199120841961227 0 -0.41834578821970092 0.28261919336506092 0 -0.4377756794567384 0.29755940798897301 0 -0.41500197052098492 0.30395496366987163 0 -0.41834578821970092 0.28261919336506092 0 -0.4377756794567384 0.29755940798897301 0 -0.41500197052098492 0.30395496366987163 0 -0.43117455118130771 0.31809247258529288 0 -0.4377756794567384 0.29755940798897301 0 -0.41500197052098492 0.30395496366987163 0 -0.41500197052098492 0.30395496366987163 0 -0.41834578821970092 0.28261919336506092 0 -0.39813964178844069 0.29080709364775509 0 -0.41834578821970092 0.28261919336506092 0 -0.39813964178844069 0.29080709364775509 0 -0.40038168160390131 0.27116829689730571 0 -0.39813964178844069 0.29080709364775509 0 -0.38553622368970442 0.28282366435574979 0 -0.40038168160390131 0.27116829689730571 0 -0.41500197052098492 0.30395496366987163 0 -0.39222826158523139 0.31035051935077029 0 -0.41500197052098492 0.30395496366987163 0 -0.39813964178844069 0.29080709364775509 0 -0.39222826158523139 0.31035051935077029 0 -0.39813964178844069 0.29080709364775509 0 -0.39222826158523139 0.31035051935077029 0 -0.37627939536674881 0.29521209943849891 0 -0.39222826158523139 0.31035051935077029 0 -0.37627939536674881 0.29521209943849891 0 -0.36922969830840202 0.31563881089604318 0 -0.39813964178844069 0.29080709364775509 0 -0.37627939536674881 0.29521209943849891 0 -0.38553622368970442 0.28282366435574979 0 -0.37627939536674881 0.29521209943849891 0 -0.38553622368970442 0.28282366435574979 0 -0.36540940656085957 0.27524764639499999 0 -0.38553622368970442 0.28282366435574979 0 -0.38413844821978332 0.26909704224955189 0 -0.40038168160390131 0.27116829689730571 0 -0.38553622368970442 0.28282366435574979 0 -0.38413844821978332 0.26909704224955189 0 -0.36540940656085957 0.27524764639499999 0 -0.38413844821978332 0.26909704224955189 0 -0.3841069479341534 0.25430562688461672 0 -0.36540940656085957 0.27524764639499999 0 -0.38413844821978332 0.26909704224955189 0 -0.3841069479341534 0.25430562688461672 0 -0.38413844821978332 0.26909704224955189 0 -0.3841069479341534 0.25430562688461672 0 -0.3954810724174892 0.25904625208179022 0 -0.40252281995927802 0.24477700328977281 0 -0.3841069479341534 0.25430562688461672 0 -0.3954810724174892 0.25904625208179022 0 -0.40252281995927802 0.24477700328977281 0 -0.40625546437032989 0.25588329108770391 0 -0.3954810724174892 0.25904625208179022 0 -0.40625546437032989 0.25588329108770391 0 -0.3954810724174892 0.25904625208179022 0 -0.40038168160390131 0.27116829689730571 0 -0.38413844821978332 0.26909704224955189 0 -0.3954810724174892 0.25904625208179022 0 -0.40038168160390131 0.27116829689730571 0 -0.34998857955090468 0.26937332627273858 0 -0.36540940656085957 0.27524764639499999 0 -0.34671186518756503 0.29618966590538282 0 -0.34998857955090468 0.26937332627273858 0 -0.35074180005679101 0.25204363919486988 0 -0.33944486143843983 0.26023748751065717 0 -0.34998857955090468 0.26937332627273858 0 -0.35074180005679101 0.25204363919486988 0 -0.36466144560009589 0.25576203049741131 0 -0.37352074623491371 0.24451467571538249 0 -0.3841069479341534 0.25430562688461672 0 -0.36466144560009589 0.25576203049741131 0 -0.3841069479341534 0.25430562688461672 0 -0.36466144560009589 0.25576203049741131 0 -0.36540940656085957 0.27524764639499999 0 -0.3841069479341534 0.25430562688461672 0 -0.36540940656085957 0.27524764639499999 0 -0.34998857955090468 0.26937332627273858 0 -0.36466144560009589 0.25576203049741131 0 -0.36540940656085957 0.27524764639499999 0 -0.37627939536674881 0.29521209943849891 0 -0.36540940656085957 0.27524764639499999 0 -0.34671186518756503 0.29618966590538282 0 -0.37627939536674881 0.29521209943849891 0 -0.34671186518756503 0.29618966590538282 0 -0.36922969830840202 0.31563881089604318 0 -0.34671186518756503 0.29618966590538282 0 -0.34819093626611891 0.3202056672401023 0 -0.36922969830840202 0.31563881089604318 0 -0.36540940656085957 0.27524764639499999 0 -0.34671186518756503 0.29618966590538282 0 -0.34671186518756503 0.29618966590538282 0 -0.32633785377674712 0.29516011008418769 0 -0.33301046886637181 0.27846461749507112 0 -0.34998857955090468 0.26937332627273858 0 -0.34671186518756503 0.29618966590538282 0 -0.33301046886637181 0.27846461749507112 0 -0.34671186518756503 0.29618966590538282 0 -0.32633785377674712 0.29516011008418769 0 -0.32801432381427048 0.31713168541576547 0 -0.34671186518756503 0.29618966590538282 0 -0.32801432381427048 0.31713168541576547 0 -0.34819093626611891 0.3202056672401023 0 -0.34671186518756503 0.29618966590538282 0 -0.32801432381427048 0.31713168541576547 0 -0.32633785377674712 0.29516011008418769 0 -0.31014995071657397 0.30570306607627862 0 -0.32801432381427048 0.31713168541576547 0 -0.32633785377674712 0.29516011008418769 0 -0.3144412005016094 0.28218723029657589 0 -0.33301046886637181 0.27846461749507112 0 -0.32633785377674712 0.29516011008418769 0 -0.3144412005016094 0.28218723029657589 0 -0.31014995071657397 0.30570306607627862 0 -0.3144412005016094 0.28218723029657589 0 -0.33301046886637181 0.27846461749507112 0 -0.32163780502918782 0.26522621283197839 0 -0.3144412005016094 0.28218723029657589 0 -0.32163780502918782 0.26522621283197839 0 -0.3032020973622902 0.2666764959472967 0 -0.34998857955090468 0.26937332627273858 0 -0.33301046886637181 0.27846461749507112 0 -0.33944486143843983 0.26023748751065717 0 -0.33301046886637181 0.27846461749507112 0 -0.33944486143843983 0.26023748751065717 0 -0.32163780502918782 0.26522621283197839 0 -0.3285343761704651 0.25355518112315539 0 -0.33944486143843983 0.26023748751065717 0 -0.32163780502918782 0.26522621283197839 0 -0.33845449302657632 0.24169394644322159 0 -0.3285343761704651 0.25355518112315539 0 -0.33944486143843983 0.26023748751065717 0 -0.33845449302657632 0.24169394644322159 0 -0.35074180005679101 0.25204363919486988 0 -0.33944486143843983 0.26023748751065717 0 -0.33845449302657632 0.24169394644322159 0 -0.33944486143843983 0.26023748751065717 0 -0.31460034518765662 0.24706307770676469 0 -0.32163780502918782 0.26522621283197839 0 -0.3032020973622902 0.2666764959472967 0 -0.31460034518765662 0.24706307770676469 0 -0.3285343761704651 0.25355518112315539 0 -0.32163780502918782 0.26522621283197839 0 -0.31460034518765662 0.24706307770676469 0 -0.3032020973622902 0.2666764959472967 0 -0.29074619734873658 0.25243220897030738 0 -0.3144412005016094 0.28218723029657589 0 -0.3032020973622902 0.2666764959472967 0 -0.29591060691956289 0.28445638839659437 0 -0.28428241733925241 0.26698449668809587 0 -0.27764474288179047 0.28373307000244502 0 -0.29591060691956289 0.28445638839659437 0 -0.3032020973622902 0.2666764959472967 0 -0.28428241733925241 0.26698449668809587 0 -0.29591060691956289 0.28445638839659437 0 -0.28428241733925241 0.26698449668809587 0 -0.29074619734873658 0.25243220897030738 0 -0.27213741944932329 0.25662070364514522 0 -0.3032020973622902 0.2666764959472967 0 -0.28428241733925241 0.26698449668809587 0 -0.29074619734873658 0.25243220897030738 0 -0.29074619734873658 0.25243220897030738 0 -0.27213741944932329 0.25662070364514522 0 -0.28428241733925241 0.26698449668809587 0 -0.29074619734873658 0.25243220897030738 0 -0.27596615692409082 0.24153455699009291 0 -0.29074619734873658 0.25243220897030738 0 -0.27213741944932329 0.25662070364514522 0 -0.28428241733925241 0.26698449668809587 0 -0.27213741944932329 0.25662070364514522 0 -0.26953137977161179 0.27083149279134788 0 -0.26953137977161179 0.27083149279134788 0 -0.25878052051392741 0.28242341878028149 0 -0.27764474288179047 0.28373307000244502 0 -0.28428241733925241 0.26698449668809587 0 -0.26953137977161179 0.27083149279134788 0 -0.27764474288179047 0.28373307000244502 0 -0.26953137977161179 0.27083149279134788 0 -0.25481179867376541 0.26439577484077198 0 -0.25878052051392741 0.28242341878028149 0 -0.25481179867376541 0.26439577484077198 0 -0.25878052051392741 0.28242341878028149 0 -0.24064371999178141 0.27866728061568241 0 -0.27213741944932329 0.25662070364514522 0 -0.26953137977161179 0.27083149279134788 0 -0.25481179867376541 0.26439577484077198 0 -0.25432028203104129 0.24270748593351471 0 -0.27213741944932329 0.25662070364514522 0 -0.25481179867376541 0.26439577484077198 0 -0.26779084560203842 0.3021965272598246 0 -0.25326016159684078 0.31814715040416019 0 -0.23752449851801249 0.29789860412978209 0 -0.25878052051392741 0.28242341878028149 0 -0.26779084560203842 0.3021965272598246 0 -0.23752449851801249 0.29789860412978209 0 -0.25878052051392741 0.28242341878028149 0 -0.27764474288179047 0.28373307000244502 0 -0.26779084560203842 0.3021965272598246 0 -0.27764474288179047 0.28373307000244502 0 -0.26779084560203842 0.3021965272598246 0 -0.28896002554952899 0.30452867549826168 0 -0.26779084560203842 0.3021965272598246 0 -0.28896002554952899 0.30452867549826168 0 -0.27829963841621852 0.32210424400312732 0 -0.27764474288179047 0.28373307000244502 0 -0.28896002554952899 0.30452867549826168 0 -0.29591060691956289 0.28445638839659437 0 -0.3144412005016094 0.28218723029657589 0 -0.29591060691956289 0.28445638839659437 0 -0.31014995071657397 0.30570306607627862 0 -0.28896002554952899 0.30452867549826168 0 -0.29591060691956289 0.28445638839659437 0 -0.31014995071657397 0.30570306607627862 0 -0.28896002554952899 0.30452867549826168 0 -0.31014995071657397 0.30570306607627862 0 -0.29952271000552011 0.32533336878467922 0 -0.31014995071657397 0.30570306607627862 0 -0.29952271000552011 0.32533336878467922 0 -0.31686302741696559 0.32919244954094651 0 -0.29952271000552011 0.32533336878467922 0 -0.30651476386965371 0.34234769065079129 0 -0.31686302741696559 0.32919244954094651 0 -0.29952271000552011 0.32533336878467922 0 -0.30651476386965371 0.34234769065079129 0 -0.29126826306771397 0.34402404539329989 0 -0.29952271000552011 0.32533336878467922 0 -0.27829963841621852 0.32210424400312732 0 -0.29126826306771397 0.34402404539329989 0 -0.28896002554952899 0.30452867549826168 0 -0.29952271000552011 0.32533336878467922 0 -0.27829963841621852 0.32210424400312732 0 -0.26779084560203842 0.3021965272598246 0 -0.27829963841621852 0.32210424400312732 0 -0.25326016159684078 0.31814715040416019 0 -0.27829963841621852 0.32210424400312732 0 -0.26899582467566929 0.33839569667853819 0 -0.25326016159684078 0.31814715040416019 0 -0.27829963841621852 0.32210424400312732 0 -0.26899582467566929 0.33839569667853819 0 -0.29126826306771397 0.34402404539329989 0 -0.26899582467566929 0.33839569667853819 0 -0.25326016159684078 0.31814715040416019 0 -0.26899582467566929 0.33839569667853819 0 -0.25326016159684078 0.31814715040416019 0 -0.23911195087455489 0.34015891855728858 0 -0.26899582467566929 0.33839569667853819 0 -0.25276327110935393 0.35150101910436238 0 -0.23911195087455489 0.34015891855728858 0 -0.25030474689960719 0.36306381865126242 0 -0.26699586219067772 0.35678587053800742 0 -0.26581084053630533 0.37457917506109067 0 -0.25030474689960719 0.36306381865126242 0 -0.26581084053630533 0.37457917506109067 0 -0.2500573066794391 0.38441154480449458 0 -0.25030474689960719 0.36306381865126242 0 -0.26581084053630533 0.37457917506109067 0 -0.25030474689960719 0.36306381865126242 0 -0.25276327110935393 0.35150101910436238 0 -0.26699586219067772 0.35678587053800742 0 -0.26899582467566929 0.33839569667853819 0 -0.25276327110935393 0.35150101910436238 0 -0.26699586219067772 0.35678587053800742 0 -0.26899582467566929 0.33839569667853819 0 -0.26699586219067772 0.35678587053800742 0 -0.28473148775449758 0.35864424295291619 0 -0.26899582467566929 0.33839569667853819 0 -0.28473148775449758 0.35864424295291619 0 -0.26699586219067772 0.35678587053800742 0 -0.27548401459741972 0.36686444107297861 0 -0.26581084053630533 0.37457917506109067 0 -0.26699586219067772 0.35678587053800742 0 -0.27548401459741972 0.36686444107297861 0 -0.28473148775449758 0.35864424295291619 0 -0.27548401459741972 0.36686444107297861 0 -0.2878568639937395 0.36686060180839358 0 -0.28131693417300208 0.38609453147092082 0 -0.27548401459741972 0.36686444107297861 0 -0.2878568639937395 0.36686060180839358 0 -0.28473148775449758 0.35864424295291619 0 -0.2878568639937395 0.36686060180839358 0 -0.28473148775449758 0.35864424295291619 0 -0.29340508932948878 0.35872858755798681 0 -0.2878568639937395 0.36686060180839358 0 -0.29340508932948878 0.35872858755798681 0 -0.29792008391937858 0.36709887266032598 0 -0.2878568639937395 0.36686060180839358 0 -0.29452190555694452 0.37312922284631339 0 -0.29092687988369631 0.37937667836212302 0 -0.2878568639937395 0.36686060180839358 0 -0.29452190555694452 0.37312922284631339 0 -0.29792008391937858 0.36709887266032598 0 -0.26899582467566929 0.33839569667853819 0 -0.28473148775449758 0.35864424295291619 0 -0.29126826306771397 0.34402404539329989 0 -0.28473148775449758 0.35864424295291619 0 -0.29340508932948878 0.35872858755798681 0 -0.29126826306771397 0.34402404539329989 0 -0.29340508932948878 0.35872858755798681 0 -0.29126826306771397 0.34402404539329989 0 -0.30524874791211459 0.35701517497499807 0 -0.30651476386965371 0.34234769065079129 0 -0.29126826306771397 0.34402404539329989 0 -0.30524874791211459 0.35701517497499807 0 -0.30651476386965371 0.34234769065079129 0 -0.30524874791211459 0.35701517497499807 0 -0.32059471395599259 0.34873942922744561 0 -0.30039156315654331 0.37352794765139358 0 -0.29792008391937858 0.36709887266032598 0 -0.30844087145953131 0.36980779529019009 0 -0.30039156315654331 0.37352794765139358 0 -0.30844087145953131 0.36980779529019009 0 -0.30510613332208308 0.37485954899911972 0 -0.29452190555694452 0.37312922284631339 0 -0.30039156315654331 0.37352794765139358 0 -0.29792008391937858 0.36709887266032598 0 -0.30524874791211459 0.35701517497499807 0 -0.29792008391937858 0.36709887266032598 0 -0.30844087145953131 0.36980779529019009 0 -0.29340508932948878 0.35872858755798681 0 -0.30524874791211459 0.35701517497499807 0 -0.29792008391937858 0.36709887266032598 0 -0.30524874791211459 0.35701517497499807 0 -0.30844087145953131 0.36980779529019009 0 -0.31866114148457197 0.36224699978508612 0 -0.30844087145953131 0.36980779529019009 0 -0.30510613332208308 0.37485954899911972 0 -0.30801904826189591 0.37802190500189881 0 -0.30844087145953131 0.36980779529019009 0 -0.31755877782373437 0.37598242129164738 0 -0.30801904826189591 0.37802190500189881 0 -0.31866114148457197 0.36224699978508612 0 -0.3414625962714869 0.3596901781411489 0 -0.31755877782373437 0.37598242129164738 0 -0.30844087145953131 0.36980779529019009 0 -0.31866114148457197 0.36224699978508612 0 -0.31755877782373437 0.37598242129164738 0 -0.3414625962714869 0.3596901781411489 0 -0.33330055961353422 0.38442193634906391 0 -0.31755877782373437 0.37598242129164738 0 -0.3414625962714869 0.3596901781411489 0 -0.32059471395599259 0.34873942922744561 0 -0.3363817021397828 0.33589945709071911 0 -0.31866114148457197 0.36224699978508612 0 -0.3414625962714869 0.3596901781411489 0 -0.32059471395599259 0.34873942922744561 0 -0.30524874791211459 0.35701517497499807 0 -0.31866114148457197 0.36224699978508612 0 -0.32059471395599259 0.34873942922744561 0 -0.32059471395599259 0.34873942922744561 0 -0.31686302741696559 0.32919244954094651 0 -0.3363817021397828 0.33589945709071911 0 -0.30651476386965371 0.34234769065079129 0 -0.32059471395599259 0.34873942922744561 0 -0.31686302741696559 0.32919244954094651 0 -0.31014995071657397 0.30570306607627862 0 -0.31686302741696559 0.32919244954094651 0 -0.32801432381427048 0.31713168541576547 0 -0.31686302741696559 0.32919244954094651 0 -0.32801432381427048 0.31713168541576547 0 -0.3363817021397828 0.33589945709071911 0 -0.32801432381427048 0.31713168541576547 0 -0.3363817021397828 0.33589945709071911 0 -0.34819093626611891 0.3202056672401023 0 -0.3363817021397828 0.33589945709071911 0 -0.34819093626611891 0.3202056672401023 0 -0.36061709188057378 0.33616871689260103 0 -0.34819093626611891 0.3202056672401023 0 -0.36922969830840202 0.31563881089604318 0 -0.36061709188057378 0.33616871689260103 0 -0.38652633004971332 0.33018528559265242 0 -0.36922969830840202 0.31563881089604318 0 -0.36061709188057378 0.33616871689260103 0 -0.37884253918833283 0.35271055614512892 0 -0.3414625962714869 0.3596901781411489 0 -0.36069825208060602 0.37845458241687152 0 -0.37884253918833283 0.35271055614512892 0 -0.3414625962714869 0.3596901781411489 0 -0.36061709188057378 0.33616871689260103 0 -0.3414625962714869 0.3596901781411489 0 -0.36069825208060602 0.37845458241687152 0 -0.33330055961353422 0.38442193634906391 0 -0.3414625962714869 0.3596901781411489 0 -0.3363817021397828 0.33589945709071911 0 -0.36061709188057378 0.33616871689260103 0 -0.35591610838843629 0.39720872837397558 0 -0.36069825208060602 0.37845458241687152 0 -0.33330055961353422 0.38442193634906391 0 -0.36069825208060602 0.37845458241687152 0 -0.33330055961353422 0.38442193634906391 0 -0.38809594454767787 0.37248722848467908 0 -0.36069825208060602 0.37845458241687152 0 -0.38121020562601421 0.39726304087756731 0 -0.35591610838843629 0.39720872837397558 0 -0.36400741178281892 0.41839097872867809 0 -0.38121020562601421 0.39726304087756731 0 -0.35591610838843629 0.39720872837397558 0 -0.36069825208060602 0.37845458241687152 0 -0.36400741178281892 0.41839097872867809 0 -0.34477018215904792 0.43076253576753648 0 -0.37179981728900008 0.4474507998765101 0 -0.38673835679243251 0.4296618501279757 0 -0.36400741178281892 0.41839097872867809 0 -0.37179981728900008 0.4474507998765101 0 -0.35591610838843629 0.39720872837397558 0 -0.36400741178281892 0.41839097872867809 0 -0.34036411283920809 0.40751310349769759 0 -0.36400741178281892 0.41839097872867809 0 -0.34477018215904792 0.43076253576753648 0 -0.34036411283920809 0.40751310349769759 0 -0.34477018215904792 0.43076253576753648 0 -0.34036411283920809 0.40751310349769759 0 -0.31959654628327139 0.41452228297349408 0 -0.34477018215904792 0.43076253576753648 0 -0.31959654628327139 0.41452228297349408 0 -0.32448162295374272 0.4421900862262888 0 -0.31959654628327139 0.41452228297349408 0 -0.30063332513008439 0.43554496212438948 0 -0.32448162295374272 0.4421900862262888 0 -0.34036411283920809 0.40751310349769759 0 -0.31959654628327139 0.41452228297349408 0 -0.32314135527024851 0.39818430476288558 0 -0.31959654628327139 0.41452228297349408 0 -0.32314135527024851 0.39818430476288558 0 -0.30590286714646209 0.3903892902812563 0 -0.32314135527024851 0.39818430476288558 0 -0.33330055961353422 0.38442193634906391 0 -0.30590286714646209 0.3903892902812563 0 -0.34036411283920809 0.40751310349769759 0 -0.32314135527024851 0.39818430476288558 0 -0.33330055961353422 0.38442193634906391 0 -0.35591610838843629 0.39720872837397558 0 -0.34036411283920809 0.40751310349769759 0 -0.33330055961353422 0.38442193634906391 0 -0.33330055961353422 0.38442193634906391 0 -0.30590286714646209 0.3903892902812563 0 -0.33330055961353422 0.38442193634906391 0 -0.31755877782373437 0.37598242129164738 0 -0.30590286714646209 0.3903892902812563 0 -0.31755877782373437 0.37598242129164738 0 -0.30801904826189591 0.37802190500189881 0 -0.30644531546651083 0.38328734590720998 0 -0.30510613332208308 0.37485954899911972 0 -0.30801904826189591 0.37802190500189881 0 -0.30247922794223669 0.37831109958343401 0 -0.30801904826189591 0.37802190500189881 0 -0.30644531546651083 0.38328734590720998 0 -0.30340162465552328 0.38175922508477478 0 -0.31755877782373437 0.37598242129164738 0 -0.30590286714646209 0.3903892902812563 0 -0.30644531546651083 0.38328734590720998 0 -0.30590286714646209 0.3903892902812563 0 -0.30644531546651083 0.38328734590720998 0 -0.30267746573702492 0.38817836566120423 0 -0.30644531546651083 0.38328734590720998 0 -0.3014087054999206 0.38489855786885702 0 -0.30340162465552328 0.38175922508477478 0 -0.30644531546651083 0.38328734590720998 0 -0.3014087054999206 0.38489855786885702 0 -0.30267746573702492 0.38817836566120423 0 -0.3014087054999206 0.38489855786885702 0 -0.30267746573702492 0.38817836566120423 0 -0.29902203080186612 0.39068996025822922 0 -0.30590286714646209 0.3903892902812563 0 -0.30267746573702492 0.38817836566120423 0 -0.29902203080186612 0.39068996025822922 0 -0.3014087054999206 0.38489855786885702 0 -0.29968247804312981 0.3813663647409653 0 -0.29643845346393177 0.383695399571369 0 -0.3014087054999206 0.38489855786885702 0 -0.29902203080186612 0.39068996025822922 0 -0.29643845346393177 0.383695399571369 0 -0.29968247804312981 0.3813663647409653 0 -0.29686137425788162 0.37838065928799508 0 -0.29643845346393177 0.383695399571369 0 -0.29968247804312981 0.3813663647409653 0 -0.30247922794223669 0.37831109958343401 0 -0.29686137425788162 0.37838065928799508 0 -0.29452190555694452 0.37312922284631339 0 -0.30039156315654331 0.37352794765139358 0 -0.29686137425788162 0.37838065928799508 0 -0.30039156315654331 0.37352794765139358 0 -0.30247922794223669 0.37831109958343401 0 -0.29686137425788162 0.37838065928799508 0 -0.30039156315654331 0.37352794765139358 0 -0.30510613332208308 0.37485954899911972 0 -0.30247922794223669 0.37831109958343401 0 -0.30801904826189591 0.37802190500189881 0 -0.30247922794223669 0.37831109958343401 0 -0.30340162465552328 0.38175922508477478 0 -0.3014087054999206 0.38489855786885702 0 -0.29968247804312981 0.3813663647409653 0 -0.30340162465552328 0.38175922508477478 0 -0.29968247804312981 0.3813663647409653 0 -0.30247922794223669 0.37831109958343401 0 -0.30340162465552328 0.38175922508477478 0 -0.31959654628327139 0.41452228297349408 0 -0.29535768102353671 0.39652167115111658 0 -0.31959654628327139 0.41452228297349408 0 -0.30590286714646209 0.3903892902812563 0 -0.29535768102353671 0.39652167115111658 0 -0.30590286714646209 0.3903892902812563 0 -0.29902203080186612 0.39068996025822922 0 -0.29535768102353671 0.39652167115111658 0 -0.30590286714646209 0.3903892902812563 0 -0.29535768102353671 0.39652167115111658 0 -0.29535768102353671 0.39652167115111658 0 -0.28131693417300208 0.38609453147092082 0 -0.27417156369857931 0.40710906173116063 0 -0.29535768102353671 0.39652167115111658 0 -0.27417156369857931 0.40710906173116063 0 -0.29902203080186612 0.39068996025822922 0 -0.29535768102353671 0.39652167115111658 0 -0.2919742077325263 0.38706074757267073 0 -0.29535768102353671 0.39652167115111658 0 -0.28131693417300208 0.38609453147092082 0 -0.2878568639937395 0.36686060180839358 0 -0.28131693417300208 0.38609453147092082 0 -0.2878568639937395 0.36686060180839358 0 -0.29092687988369631 0.37937667836212302 0 -0.28131693417300208 0.38609453147092082 0 -0.29452190555694452 0.37312922284631339 0 -0.29092687988369631 0.37937667836212302 0 -0.29686137425788162 0.37838065928799508 0 -0.29092687988369631 0.37937667836212302 0 -0.29686137425788162 0.37838065928799508 0 -0.29643845346393177 0.383695399571369 0 -0.29092687988369631 0.37937667836212302 0 -0.29643845346393177 0.383695399571369 0 -0.2919742077325263 0.38706074757267073 0 -0.29535768102353671 0.39652167115111658 0 -0.2919742077325263 0.38706074757267073 0 -0.28131693417300208 0.38609453147092082 0 -0.29902203080186612 0.39068996025822922 0 -0.29643845346393177 0.383695399571369 0 -0.2919742077325263 0.38706074757267073 0 -0.29092687988369631 0.37937667836212302 0 -0.2919742077325263 0.38706074757267073 0 -0.28131693417300208 0.38609453147092082 0 -0.27548401459741972 0.36686444107297861 0 -0.26581084053630533 0.37457917506109067 0 -0.28131693417300208 0.38609453147092082 0 -0.26581084053630533 0.37457917506109067 0 -0.28131693417300208 0.38609453147092082 0 -0.26581084053630533 0.37457917506109067 0 -0.28131693417300208 0.38609453147092082 0 -0.26682931455503378 0.38940534517520092 0 -0.28131693417300208 0.38609453147092082 0 -0.27417156369857931 0.40710906173116063 0 -0.26682931455503378 0.38940534517520092 0 -0.25621503135605211 0.39766959647395628 0 -0.27417156369857931 0.40710906173116063 0 -0.28131693417300208 0.38609453147092082 0 -0.26682931455503378 0.38940534517520092 0 -0.27417156369857931 0.40710906173116063 0 -0.25621503135605211 0.39766959647395628 0 -0.25149904136729467 0.40734374439931759 0 -0.27417156369857931 0.40710906173116063 0 -0.25621503135605211 0.39766959647395628 0 -0.25149904136729467 0.40734374439931759 0 -0.24383238961997791 0.39710751361316682 0 -0.25621503135605211 0.39766959647395628 0 -0.2500573066794391 0.38441154480449458 0 -0.24383238961997791 0.39710751361316682 0 -0.26682931455503378 0.38940534517520092 0 -0.25621503135605211 0.39766959647395628 0 -0.2500573066794391 0.38441154480449458 0 -0.26581084053630533 0.37457917506109067 0 -0.26682931455503378 0.38940534517520092 0 -0.2500573066794391 0.38441154480449458 0 -0.2545550914736322 0.43077552236516331 0 -0.26679423722667001 0.42880577444025408 0 -0.25941691075476131 0.45050248714934787 0 -0.2545550914736322 0.43077552236516331 0 -0.2614586892957248 0.4214304717235321 0 -0.26679423722667001 0.42880577444025408 0 -0.2545550914736322 0.43077552236516331 0 -0.25031386478401751 0.41903152835755009 0 -0.2614586892957248 0.4214304717235321 0 -0.2545550914736322 0.43077552236516331 0 -0.25031386478401751 0.41903152835755009 0 -0.24514562877163221 0.42754586932109823 0 -0.25031386478401751 0.41903152835755009 0 -0.25149904136729467 0.40734374439931759 0 -0.27417156369857931 0.40710906173116063 0 -0.25031386478401751 0.41903152835755009 0 -0.27417156369857931 0.40710906173116063 0 -0.25031386478401751 0.41903152835755009 0 -0.2614586892957248 0.4214304717235321 0 -0.27417156369857931 0.40710906173116063 0 -0.27417156369857931 0.40710906173116063 0 -0.26679423722667001 0.42880577444025408 0 -0.28291167777465909 0.42737388413174382 0 -0.2614586892957248 0.4214304717235321 0 -0.27417156369857931 0.40710906173116063 0 -0.26679423722667001 0.42880577444025408 0 -0.27417156369857931 0.40710906173116063 0 -0.26679423722667001 0.42880577444025408 0 -0.26679423722667001 0.42880577444025408 0 -0.28291167777465909 0.42737388413174382 0 -0.27893161355033919 0.44503530821803988 0 -0.28291167777465909 0.42737388413174382 0 -0.30063332513008439 0.43554496212438948 0 -0.27893161355033919 0.44503530821803988 0 -0.28291167777465909 0.42737388413174382 0 -0.29448811246253498 0.41659254894260772 0 -0.30063332513008439 0.43554496212438948 0 -0.29535768102353671 0.39652167115111658 0 -0.27417156369857931 0.40710906173116063 0 -0.29448811246253498 0.41659254894260772 0 -0.27417156369857931 0.40710906173116063 0 -0.28291167777465909 0.42737388413174382 0 -0.29448811246253498 0.41659254894260772 0 -0.31959654628327139 0.41452228297349408 0 -0.29535768102353671 0.39652167115111658 0 -0.29448811246253498 0.41659254894260772 0 -0.31959654628327139 0.41452228297349408 0 -0.29448811246253498 0.41659254894260772 0 -0.30063332513008439 0.43554496212438948 0 -0.30063332513008439 0.43554496212438948 0 -0.30603377913450919 0.46581349418406631 0 -0.32448162295374272 0.4421900862262888 0 -0.30603377913450919 0.46581349418406631 0 -0.27893161355033919 0.44503530821803988 0 -0.27903668170868112 0.46900634702125421 0 -0.30603377913450919 0.46581349418406631 0 -0.27903668170868112 0.46900634702125421 0 -0.30063332513008439 0.43554496212438948 0 -0.30603377913450919 0.46581349418406631 0 -0.27893161355033919 0.44503530821803988 0 -0.26679423722667001 0.42880577444025408 0 -0.27893161355033919 0.44503530821803988 0 -0.25941691075476131 0.45050248714934787 0 -0.27893161355033919 0.44503530821803988 0 -0.25941691075476131 0.45050248714934787 0 -0.27903668170868112 0.46900634702125421 0 -0.25941691075476131 0.45050248714934787 0 -0.25203958428285311 0.47219919985844178 0 -0.25941691075476131 0.45050248714934787 0 -0.25203958428285311 0.47219919985844178 0 -0.27903668170868112 0.46900634702125421 0 -0.25941691075476131 0.45050248714934787 0 -0.25203958428285311 0.47219919985844178 0 -0.24198371995245069 0.45770021323019378 0 -0.2545550914736322 0.43077552236516331 0 -0.25941691075476131 0.45050248714934787 0 -0.2457156715254056 0.43746694125286839 0 -0.26679423722667001 0.42880577444025408 0 -0.25941691075476131 0.45050248714934787 0 -0.26684140555457603 0.48372222130752468 0 -0.26742493748138052 0.5 0 -0.2425867431278578 0.50000000000000411 0 -0.25203958428285311 0.47219919985844178 0 -0.26684140555457603 0.48372222130752468 0 -0.2425867431278578 0.50000000000000411 0 -0.25203958428285311 0.47219919985844178 0 -0.27903668170868112 0.46900634702125421 0 -0.25203958428285311 0.47219919985844178 0 -0.27903668170868112 0.46900634702125421 0 -0.26684140555457603 0.48372222130752468 0 -0.27903668170868112 0.46900634702125421 0 -0.26684140555457603 0.48372222130752468 0 -0.29226313183490321 0.5 0 -0.26684140555457603 0.48372222130752468 0 -0.26742493748138052 0.5 0 -0.29226313183490321 0.5 0 -0.27903668170868112 0.46900634702125421 0 -0.29226313183490321 0.5 0 -0.30493536637133051 0.48437796213362222 0 -0.30603377913450919 0.46581349418406631 0 -0.27903668170868112 0.46900634702125421 0 -0.30493536637133051 0.48437796213362222 0 -0.29226313183490321 0.5 0 -0.30493536637133051 0.48437796213362222 0 -0.3171013261884259 0.49999999999999978 0 -0.3171013261884259 0.49999999999999978 0 -0.33383848859626841 0.47630256198056897 0 -0.30493536637133051 0.48437796213362222 0 -0.3171013261884259 0.49999999999999978 0 -0.33383848859626841 0.47630256198056897 0 -0.33587279441274409 0.49999999999999939 0 -0.33383848859626841 0.47630256198056897 0 -0.35634136158168611 0.48435473522321082 0 -0.3171013261884259 0.49999999999999978 0 -0.33587279441274409 0.49999999999999939 0 -0.33383848859626841 0.47630256198056897 0 -0.30603377913450919 0.46581349418406631 0 -0.30493536637133051 0.48437796213362222 0 -0.33383848859626841 0.47630256198056897 0 -0.30603377913450919 0.46581349418406631 0 -0.33383848859626841 0.47630256198056897 0 -0.32384166882461402 0.46070512857391782 0 -0.30603377913450919 0.46581349418406631 0 -0.32384166882461402 0.46070512857391782 0 -0.32448162295374272 0.4421900862262888 0 -0.34477018215904792 0.43076253576753648 0 -0.32448162295374272 0.4421900862262888 0 -0.35057565100411098 0.45260512396113828 0 -0.32384166882461402 0.46070512857391782 0 -0.32448162295374272 0.4421900862262888 0 -0.35057565100411098 0.45260512396113828 0 -0.33383848859626841 0.47630256198056897 0 -0.35057565100411098 0.45260512396113828 0 -0.33383848859626841 0.47630256198056897 0 -0.32384166882461402 0.46070512857391782 0 -0.35057565100411098 0.45260512396113828 0 -0.33383848859626841 0.47630256198056897 0 -0.35057565100411098 0.45260512396113828 0 -0.35957228825975318 0.46736967041248551 0 -0.34477018215904792 0.43076253576753648 0 -0.35057565100411098 0.45260512396113828 0 -0.37179981728900008 0.4474507998765101 0 -0.37680992875062852 0.46870947044642258 0 -0.37179981728900008 0.4474507998765101 0 -0.35957228825975318 0.46736967041248551 0 -0.35057565100411098 0.45260512396113828 0 -0.37179981728900008 0.4474507998765101 0 -0.35957228825975318 0.46736967041248551 0 -0.376573541189618 0.48282239558796258 0 -0.37680992875062852 0.46870947044642258 0 -0.35634136158168611 0.48435473522321082 0 -0.37680992875062852 0.46870947044642258 0 -0.35634136158168611 0.48435473522321082 0 -0.37680992875062852 0.46870947044642258 0 -0.35957228825975318 0.46736967041248551 0 -0.35634136158168611 0.48435473522321082 0 -0.376573541189618 0.48282239558796258 0 -0.36759803509040978 0.49047455209007418 0 -0.35634136158168611 0.48435473522321082 0 -0.37717243848698301 0.49546005706097251 0 -0.35978770785295272 0.5 0 -0.36759803509040978 0.49047455209007418 0 -0.35978770785295272 0.5 0 -0.36759803509040978 0.49047455209007418 0 -0.35634136158168611 0.48435473522321082 0 -0.38370262129316107 0.5 0 -0.37717243848698301 0.49546005706097251 0 -0.35978770785295272 0.5 0 -0.37717243848698301 0.49546005706097251 0 -0.376573541189618 0.48282239558796258 0 -0.36759803509040978 0.49047455209007418 0 -0.33587279441274409 0.49999999999999939 0 -0.35634136158168611 0.48435473522321082 0 -0.33587279441274409 0.49999999999999939 0 -0.35978770785295272 0.5 0 -0.35634136158168611 0.48435473522321082 0 -0.33383848859626841 0.47630256198056897 0 -0.35957228825975318 0.46736967041248551 0 -0.35634136158168611 0.48435473522321082 0 -0.14894689135179021 0.47526922735607929 0 -0.155799012126107 0.5 0 -0.1379552165029789 0.48803078423925378 0 -0.155799012126107 0.5 0 -0.1379552165029789 0.48803078423925378 0 -0.12742874979165689 0.5 0 -0.1379552165029789 0.48803078423925378 0 -0.12742874979165689 0.5 0 -0.12398377416184821 0.48702518893640129 0 -0.12811597012081199 0.45934932904530418 0 -0.12398377416184821 0.48702518893640129 0 -0.13475046303435731 0.47741863239425958 0 -0.12811597012081199 0.45934932904530418 0 -0.12398377416184821 0.48702518893640129 0 -0.14894689135179021 0.47526922735607929 0 -0.13475046303435731 0.47741863239425958 0 -0.12811597012081199 0.45934932904530418 0 -0.1379552165029789 0.48803078423925378 0 -0.13475046303435731 0.47741863239425958 0 -0.12398377416184821 0.48702518893640129 0 -0.14894689135179021 0.47526922735607929 0 -0.1379552165029789 0.48803078423925378 0 -0.13475046303435731 0.47741863239425958 0 -0.12811597012081199 0.45934932904530418 0 -0.13224816607977591 0.43167346915420701 0 -0.1171262558925196 0.44600662117442902 0 -0.12811597012081199 0.45934932904530418 0 -0.13224816607977591 0.43167346915420701 0 -0.12811597012081199 0.45934932904530418 0 -0.15161629317824049 0.45179709481536467 0 -0.13224816607977591 0.43167346915420701 0 -0.15161629317824049 0.45179709481536467 0 -0.15862010170992569 0.43098912628734581 0 -0.13224816607977591 0.43167346915420701 0 -0.14894689135179021 0.47526922735607929 0 -0.12811597012081199 0.45934932904530418 0 -0.15161629317824049 0.45179709481536467 0 -0.14894689135179021 0.47526922735607929 0 -0.15161629317824049 0.45179709481536467 0 -0.16471668876971779 0.46494780282807879 0 -0.15161629317824049 0.45179709481536467 0 -0.16471668876971779 0.46494780282807879 0 -0.17708202909554929 0.44713279850764959 0 -0.15161629317824049 0.45179709481536467 0 -0.17708202909554929 0.44713279850764959 0 -0.15862010170992569 0.43098912628734581 0 -0.16471668876971779 0.46494780282807879 0 -0.17708202909554929 0.44713279850764959 0 -0.18029480680622181 0.46534403315336659 0 -0.17708202909554929 0.44713279850764959 0 -0.18029480680622181 0.46534403315336659 0 -0.2003256042421683 0.45600467931567901 0 -0.18029480680622181 0.46534403315336659 0 -0.17146487755705961 0.48172849024537467 0 -0.19244015849395299 0.47924781670503702 0 -0.16471668876971779 0.46494780282807879 0 -0.18029480680622181 0.46534403315336659 0 -0.17146487755705961 0.48172849024537467 0 -0.17146487755705961 0.48172849024537467 0 -0.19244015849395299 0.47924781670503702 0 -0.14894689135179021 0.47526922735607929 0 -0.16471668876971779 0.46494780282807879 0 -0.17146487755705961 0.48172849024537467 0 -0.14894689135179021 0.47526922735607929 0 -0.155799012126107 0.5 0 -0.17146487755705961 0.48172849024537467 0 -0.155799012126107 0.5 0 -0.17146487755705961 0.48172849024537467 0 -0.18416927446055731 0.5 0 -0.17146487755705961 0.48172849024537467 0 -0.18416927446055731 0.5 0 -0.19244015849395299 0.47924781670503702 0 -0.18416927446055731 0.5 0 -0.19244015849395299 0.47924781670503702 0 -0.21253953679500759 0.5 0 -0.19244015849395299 0.47924781670503702 0 -0.2134154394308464 0.4767671431646992 0 -0.19244015849395299 0.47924781670503702 0 -0.2134154394308464 0.4767671431646992 0 -0.2003256042421683 0.45600467931567901 0 -0.19244015849395299 0.47924781670503702 0 -0.2134154394308464 0.4767671431646992 0 -0.21253953679500759 0.5 0 -0.2134154394308464 0.4767671431646992 0 -0.21253953679500759 0.5 0 -0.22531387393076291 0.48776340319726608 0 -0.22531387393076291 0.48776340319726608 0 -0.23439072036774011 0.47428646962436388 0 -0.2409097991294579 0.50000000000000089 0 -0.21253953679500759 0.5 0 -0.22531387393076291 0.48776340319726608 0 -0.2409097991294579 0.50000000000000089 0 -0.2134154394308464 0.4767671431646992 0 -0.22531387393076291 0.48776340319726608 0 -0.23439072036774011 0.47428646962436388 0 -0.2134154394308464 0.4767671431646992 0 -0.23439072036774011 0.47428646962436388 0 -0.25203958428285311 0.47219919985844178 0 -0.23439072036774011 0.47428646962436388 0 -0.2425867431278578 0.50000000000000411 0 -0.25203958428285311 0.47219919985844178 0 -0.23439072036774011 0.47428646962436388 0 -0.23439072036774011 0.47428646962436388 0 -0.2409097991294579 0.50000000000000089 0 -0.2425867431278578 0.50000000000000411 0 -0.25203958428285311 0.47219919985844178 0 -0.2425867431278578 0.50000000000000411 0 -0.23439072036774011 0.47428646962436388 0 -0.2409097991294579 0.50000000000000089 0 -0.25941691075476131 0.45050248714934787 0 -0.23823765396078819 0.44661020904162252 0 -0.2457156715254056 0.43746694125286839 0 -0.25941691075476131 0.45050248714934787 0 -0.23823765396078819 0.44661020904162252 0 -0.24198371995245069 0.45770021323019378 0 -0.23823765396078819 0.44661020904162252 0 -0.24198371995245069 0.45770021323019378 0 -0.22713995518355501 0.44568691167685182 0 -0.23823765396078819 0.44661020904162252 0 -0.23653901506216729 0.43765278525527612 0 -0.2457156715254056 0.43746694125286839 0 -0.23439072036774011 0.47428646962436388 0 -0.24198371995245069 0.45770021323019378 0 -0.22713995518355501 0.44568691167685182 0 -0.25203958428285311 0.47219919985844178 0 -0.23439072036774011 0.47428646962436388 0 -0.24198371995245069 0.45770021323019378 0 -0.23439072036774011 0.47428646962436388 0 -0.22713995518355501 0.44568691167685182 0 -0.2134154394308464 0.4767671431646992 0 -0.23439072036774011 0.47428646962436388 0 -0.22713995518355501 0.44568691167685182 0 -0.23653901506216729 0.43765278525527612 0 -0.22713995518355501 0.44568691167685182 0 -0.22645616586945549 0.43095399498393921 0 -0.23823765396078819 0.44661020904162252 0 -0.23653901506216729 0.43765278525527612 0 -0.22713995518355501 0.44568691167685182 0 -0.22713995518355501 0.44568691167685182 0 -0.2003256042421683 0.45600467931567901 0 -0.2012405556004265 0.43369497408332969 0 -0.2134154394308464 0.4767671431646992 0 -0.22713995518355501 0.44568691167685182 0 -0.2003256042421683 0.45600467931567901 0 -0.18029480680622181 0.46534403315336659 0 -0.19244015849395299 0.47924781670503702 0 -0.2003256042421683 0.45600467931567901 0 -0.17708202909554929 0.44713279850764959 0 -0.2003256042421683 0.45600467931567901 0 -0.2012405556004265 0.43369497408332969 0 -0.2012405556004265 0.43369497408332969 0 -0.19314440949068909 0.41177287198129159 0 -0.17864244768880261 0.42658037237415442 0 -0.18921896605761651 0.40800584382677402 0 -0.19314440949068909 0.41177287198129159 0 -0.18469737389017771 0.40700194828327052 0 -0.1928731133941459 0.40944130757540448 0 -0.18921896605761651 0.40800584382677402 0 -0.19314440949068909 0.41177287198129159 0 -0.19480976358334459 0.40871045517867399 0 -0.19263684948669399 0.40712323090662278 0 -0.1960294349657202 0.40602086472567112 0 -0.19480976358334459 0.40871045517867399 0 -0.1928731133941459 0.40944130757540448 0 -0.19263684948669399 0.40712323090662278 0 -0.19480976358334459 0.40871045517867399 0 -0.1928731133941459 0.40944130757540448 0 -0.19314440949068909 0.41177287198129159 0 -0.1928731133941459 0.40944130757540448 0 -0.19263684948669399 0.40712323090662278 0 -0.19108890565729089 0.40810200802851893 0 -0.19263684948669399 0.40712323090662278 0 -0.19108890565729089 0.40810200802851893 0 -0.18921896605761651 0.40800584382677402 0 -0.19263684948669399 0.40712323090662278 0 -0.18921896605761651 0.40800584382677402 0 -0.19055605922587099 0.40429964186779999 0 -0.1928731133941459 0.40944130757540448 0 -0.19108890565729089 0.40810200802851893 0 -0.18921896605761651 0.40800584382677402 0 -0.19314440949068909 0.41177287198129159 0 -0.19862800966591421 0.40829590120728482 0 -0.20546950466837821 0.40863572037564572 0 -0.19862800966591421 0.40829590120728482 0 -0.20546950466837821 0.40863572037564572 0 -0.20009412510829411 0.40278922925830452 0 -0.19480976358334459 0.40871045517867399 0 -0.19314440949068909 0.41177287198129159 0 -0.19862800966591421 0.40829590120728482 0 -0.19480976358334459 0.40871045517867399 0 -0.19862800966591421 0.40829590120728482 0 -0.1960294349657202 0.40602086472567112 0 -0.19314440949068909 0.41177287198129159 0 -0.20546950466837821 0.40863572037564572 0 -0.21988918999937129 0.41708735372933953 0 -0.21988918999937129 0.41708735372933953 0 -0.21590244896051389 0.40136225045179957 0 -0.2012405556004265 0.43369497408332969 0 -0.19314440949068909 0.41177287198129159 0 -0.21988918999937129 0.41708735372933953 0 -0.19314440949068909 0.41177287198129159 0 -0.21988918999937129 0.41708735372933953 0 -0.20546950466837821 0.40863572037564572 0 -0.21988918999937129 0.41708735372933953 0 -0.21590244896051389 0.40136225045179957 0 -0.22713995518355501 0.44568691167685182 0 -0.2012405556004265 0.43369497408332969 0 -0.21988918999937129 0.41708735372933953 0 -0.22713995518355501 0.44568691167685182 0 -0.22645616586945549 0.43095399498393921 0 -0.21988918999937129 0.41708735372933953 0 -0.22645616586945549 0.43095399498393921 0 -0.21988918999937129 0.41708735372933953 0 -0.24587428768029279 0.42125012915572402 0 -0.22713995518355501 0.44568691167685182 0 -0.21988918999937129 0.41708735372933953 0 -0.21988918999937129 0.41708735372933953 0 -0.23037653584736351 0.40951435852623208 0 -0.21590244896051389 0.40136225045179957 0 -0.23037653584736351 0.40951435852623208 0 -0.24195719871166049 0.41527829181047621 0 -0.22896058689128379 0.39665629615916143 0 -0.21988918999937129 0.41708735372933953 0 -0.24587428768029279 0.42125012915572402 0 -0.21988918999937129 0.41708735372933953 0 -0.23037653584736351 0.40951435852623208 0 -0.24195719871166049 0.41527829181047621 0 -0.21988918999937129 0.41708735372933953 0 -0.24195719871166049 0.41527829181047621 0 -0.24587428768029279 0.42125012915572402 0 -0.25031386478401751 0.41903152835755009 0 -0.25149904136729467 0.40734374439931759 0 -0.24647912487105661 0.41375911043641561 0 -0.24195719871166049 0.41527829181047621 0 -0.24647912487105661 0.41375911043641561 0 -0.242799864057024 0.40598917502069709 0 -0.25149904136729467 0.40734374439931759 0 -0.24647912487105661 0.41375911043641561 0 -0.242799864057024 0.40598917502069709 0 -0.24195719871166049 0.41527829181047621 0 -0.24647912487105661 0.41375911043641561 0 -0.24587428768029279 0.42125012915572402 0 -0.25031386478401751 0.41903152835755009 0 -0.24647912487105661 0.41375911043641561 0 -0.24587428768029279 0.42125012915572402 0 -0.25031386478401751 0.41903152835755009 0 -0.24587428768029279 0.42125012915572402 0 -0.22645616586945549 0.43095399498393921 0 -0.24587428768029279 0.42125012915572402 0 -0.24514562877163221 0.42754586932109823 0 -0.23653901506216729 0.43765278525527612 0 -0.22645616586945549 0.43095399498393921 0 -0.24514562877163221 0.42754586932109823 0 -0.25031386478401751 0.41903152835755009 0 -0.24587428768029279 0.42125012915572402 0 -0.24514562877163221 0.42754586932109823 0 -0.22645616586945549 0.43095399498393921 0 -0.24587428768029279 0.42125012915572402 0 -0.23653901506216729 0.43765278525527612 0 -0.24514562877163221 0.42754586932109823 0 -0.2457156715254056 0.43746694125286839 0 -0.2545550914736322 0.43077552236516331 0 -0.24514562877163221 0.42754586932109823 0 -0.2457156715254056 0.43746694125286839 0 -0.2500573066794391 0.38441154480449458 0 -0.236891147128482 0.38825719964885158 0 -0.2365581317527107 0.37721328343085347 0 -0.2500573066794391 0.38441154480449458 0 -0.236891147128482 0.38825719964885158 0 -0.24383238961997791 0.39710751361316682 0 -0.24195719871166049 0.41527829181047621 0 -0.242799864057024 0.40598917502069709 0 -0.22896058689128379 0.39665629615916143 0 -0.24195719871166049 0.41527829181047621 0 -0.22896058689128379 0.39665629615916143 0 -0.25149904136729467 0.40734374439931759 0 -0.24383238961997791 0.39710751361316682 0 -0.242799864057024 0.40598917502069709 0 -0.24383238961997791 0.39710751361316682 0 -0.242799864057024 0.40598917502069709 0 -0.22896058689128379 0.39665629615916143 0 -0.236891147128482 0.38825719964885158 0 -0.24383238961997791 0.39710751361316682 0 -0.22896058689128379 0.39665629615916143 0 -0.23037653584736351 0.40951435852623208 0 -0.22896058689128379 0.39665629615916143 0 -0.21590244896051389 0.40136225045179957 0 -0.22896058689128379 0.39665629615916143 0 -0.2181856797110906 0.39042249857326672 0 -0.21590244896051389 0.40136225045179957 0 -0.22896058689128379 0.39665629615916143 0 -0.21596397507090709 0.37803430050784659 0 -0.2181856797110906 0.39042249857326672 0 -0.22896058689128379 0.39665629615916143 0 -0.21596397507090709 0.37803430050784659 0 -0.22896058689128379 0.39665629615916143 0 -0.22878931291322521 0.38229083760590482 0 -0.21596397507090709 0.37803430050784659 0 -0.236891147128482 0.38825719964885158 0 -0.22896058689128379 0.39665629615916143 0 -0.22878931291322521 0.38229083760590482 0 -0.2365581317527107 0.37721328343085347 0 -0.22878931291322521 0.38229083760590482 0 -0.2260018512702453 0.3708795162380083 0 -0.236891147128482 0.38825719964885158 0 -0.2365581317527107 0.37721328343085347 0 -0.22878931291322521 0.38229083760590482 0 -0.22878931291322521 0.38229083760590482 0 -0.21596397507090709 0.37803430050784659 0 -0.2260018512702453 0.3708795162380083 0 -0.21596397507090709 0.37803430050784659 0 -0.21191570792165759 0.38563714717425951 0 -0.20972639815128871 0.37998992800287262 0 -0.21596397507090709 0.37803430050784659 0 -0.2181856797110906 0.39042249857326672 0 -0.21191570792165759 0.38563714717425951 0 -0.21191570792165759 0.38563714717425951 0 -0.2040037915774762 0.38842189119413523 0 -0.20334816432488029 0.38017456464401111 0 -0.21191570792165759 0.38563714717425951 0 -0.2040037915774762 0.38842189119413523 0 -0.20592906116435161 0.39619059815516899 0 -0.20334816432488029 0.38017456464401111 0 -0.20972639815128871 0.37998992800287262 0 -0.20556083419868521 0.37196668464408278 0 -0.20334816432488029 0.38017456464401111 0 -0.20109425405240741 0.37346839502114543 0 -0.20556083419868521 0.37196668464408278 0 -0.21191570792165759 0.38563714717425951 0 -0.20334816432488029 0.38017456464401111 0 -0.20972639815128871 0.37998992800287262 0 -0.21596397507090709 0.37803430050784659 0 -0.20972639815128871 0.37998992800287262 0 -0.20556083419868521 0.37196668464408278 0 -0.2181856797110906 0.39042249857326672 0 -0.21191570792165759 0.38563714717425951 0 -0.21590244896051389 0.40136225045179957 0 -0.21191570792165759 0.38563714717425951 0 -0.21590244896051389 0.40136225045179957 0 -0.20592906116435161 0.39619059815516899 0 -0.21191570792165759 0.38563714717425951 0 -0.21590244896051389 0.40136225045179957 0 -0.2040037915774762 0.38842189119413523 0 -0.20592906116435161 0.39619059815516899 0 -0.19993733099303321 0.39165162376125168 0 -0.20546950466837821 0.40863572037564572 0 -0.21590244896051389 0.40136225045179957 0 -0.20684878497538439 0.4022444495602297 0 -0.21590244896051389 0.40136225045179957 0 -0.20592906116435161 0.39619059815516899 0 -0.20684878497538439 0.4022444495602297 0 -0.20592906116435161 0.39619059815516899 0 -0.20684878497538439 0.4022444495602297 0 -0.20009412510829411 0.40278922925830452 0 -0.20546950466837821 0.40863572037564572 0 -0.20684878497538439 0.4022444495602297 0 -0.20009412510829411 0.40278922925830452 0 -0.19862800966591421 0.40829590120728482 0 -0.1960294349657202 0.40602086472567112 0 -0.20009412510829411 0.40278922925830452 0 -0.1960294349657202 0.40602086472567112 0 -0.20009412510829411 0.40278922925830452 0 -0.19397842698435411 0.40318550707746942 0 -0.20592906116435161 0.39619059815516899 0 -0.20009412510829411 0.40278922925830452 0 -0.19844420677548999 0.39646567963884688 0 -0.20009412510829411 0.40278922925830452 0 -0.1952942817197609 0.3992790513705729 0 -0.19397842698435411 0.40318550707746942 0 -0.20009412510829411 0.40278922925830452 0 -0.19844420677548999 0.39646567963884688 0 -0.1952942817197609 0.3992790513705729 0 -0.19844420677548999 0.39646567963884688 0 -0.1928584566011369 0.39574553656668798 0 -0.1952942817197609 0.3992790513705729 0 -0.20592906116435161 0.39619059815516899 0 -0.19844420677548999 0.39646567963884688 0 -0.19993733099303321 0.39165162376125168 0 -0.19844420677548999 0.39646567963884688 0 -0.1948476516707093 0.39126832701594472 0 -0.1928584566011369 0.39574553656668798 0 -0.19844420677548999 0.39646567963884688 0 -0.19993733099303321 0.39165162376125168 0 -0.1948476516707093 0.39126832701594472 0 -0.1948476516707093 0.39126832701594472 0 -0.1893256275383455 0.39108553627276921 0 -0.1928584566011369 0.39574553656668798 0 -0.1893256275383455 0.39108553627276921 0 -0.18761426532837469 0.39623157332794579 0 -0.1928584566011369 0.39574553656668798 0 -0.18761426532837469 0.39623157332794579 0 -0.1928584566011369 0.39574553656668798 0 -0.19061835980468131 0.40007220962679518 0 -0.1928584566011369 0.39574553656668798 0 -0.1952942817197609 0.3992790513705729 0 -0.19061835980468131 0.40007220962679518 0 -0.1952942817197609 0.3992790513705729 0 -0.19061835980468131 0.40007220962679518 0 -0.19397842698435411 0.40318550707746942 0 -0.19061835980468131 0.40007220962679518 0 -0.18815495223499071 0.40251224616882081 0 -0.19055605922587099 0.40429964186779999 0 -0.18761426532837469 0.39623157332794579 0 -0.19061835980468131 0.40007220962679518 0 -0.18590322284742769 0.40014749797312421 0 -0.19061835980468131 0.40007220962679518 0 -0.18815495223499071 0.40251224616882081 0 -0.18590322284742769 0.40014749797312421 0 -0.18921896605761651 0.40800584382677402 0 -0.18808607167293981 0.40629074898659218 0 -0.19055605922587099 0.40429964186779999 0 -0.18808607167293981 0.40629074898659218 0 -0.18815495223499071 0.40251224616882081 0 -0.19055605922587099 0.40429964186779999 0 -0.19061835980468131 0.40007220962679518 0 -0.19055605922587099 0.40429964186779999 0 -0.19397842698435411 0.40318550707746942 0 -0.19263684948669399 0.40712323090662278 0 -0.1960294349657202 0.40602086472567112 0 -0.19397842698435411 0.40318550707746942 0 -0.19263684948669399 0.40712323090662278 0 -0.19055605922587099 0.40429964186779999 0 -0.19397842698435411 0.40318550707746942 0 -0.20334816432488029 0.38017456464401111 0 -0.19756091110970689 0.38061370781328041 0 -0.19646194377713899 0.38591162280216262 0 -0.19756091110970689 0.38061370781328041 0 -0.19811443608730719 0.37577644202902899 0 -0.19099735097021009 0.37988395613209358 0 -0.20334816432488029 0.38017456464401111 0 -0.19756091110970689 0.38061370781328041 0 -0.19811443608730719 0.37577644202902899 0 -0.20334816432488029 0.38017456464401111 0 -0.19811443608730719 0.37577644202902899 0 -0.20109425405240741 0.37346839502114543 0 -0.2040037915774762 0.38842189119413523 0 -0.20334816432488029 0.38017456464401111 0 -0.19646194377713899 0.38591162280216262 0 -0.2040037915774762 0.38842189119413523 0 -0.19993733099303321 0.39165162376125168 0 -0.19646194377713899 0.38591162280216262 0 -0.19993733099303321 0.39165162376125168 0 -0.1948476516707093 0.39126832701594472 0 -0.19646194377713899 0.38591162280216262 0 -0.19646194377713899 0.38591162280216262 0 -0.19109858204501329 0.38639220223718629 0 -0.19099735097021009 0.37988395613209358 0 -0.1948476516707093 0.39126832701594472 0 -0.19646194377713899 0.38591162280216262 0 -0.19109858204501329 0.38639220223718629 0 -0.1948476516707093 0.39126832701594472 0 -0.1893256275383455 0.39108553627276921 0 -0.19109858204501329 0.38639220223718629 0 -0.1893256275383455 0.39108553627276921 0 -0.19109858204501329 0.38639220223718629 0 -0.1854782000559754 0.38645795961498153 0 -0.19109858204501329 0.38639220223718629 0 -0.19099735097021009 0.37988395613209358 0 -0.1854782000559754 0.38645795961498153 0 -0.19099735097021009 0.37988395613209358 0 -0.1826936787139338 0.37868674960979548 0 -0.19080097340921251 0.37318051919535911 0 -0.19756091110970689 0.38061370781328041 0 -0.19646194377713899 0.38591162280216262 0 -0.19099735097021009 0.37988395613209358 0 -0.19811443608730719 0.37577644202902899 0 -0.19099735097021009 0.37988395613209358 0 -0.19080097340921251 0.37318051919535911 0 -0.19099735097021009 0.37988395613209358 0 -0.1826936787139338 0.37868674960979548 0 -0.1854782000559754 0.38645795961498153 0 -0.1826936787139338 0.37868674960979548 0 -0.1854782000559754 0.38645795961498153 0 -0.17869597282800281 0.38832095752151052 0 -0.1893256275383455 0.39108553627276921 0 -0.1854782000559754 0.38645795961498153 0 -0.18387828686430011 0.39237937188921129 0 -0.1854782000559754 0.38645795961498153 0 -0.17869597282800281 0.38832095752151052 0 -0.18387828686430011 0.39237937188921129 0 -0.17869597282800281 0.38832095752151052 0 -0.1690065843398548 0.38816764900001333 0 -0.17423206705548869 0.39365848841867501 0 -0.17869597282800281 0.38832095752151052 0 -0.17435083100200849 0.38146133894328449 0 -0.1690065843398548 0.38816764900001333 0 -0.1826936787139338 0.37868674960979548 0 -0.17869597282800281 0.38832095752151052 0 -0.17435083100200849 0.38146133894328449 0 -0.1826936787139338 0.37868674960979548 0 -0.17435083100200849 0.38146133894328449 0 -0.17442482013842769 0.37258714487561972 0 -0.17435083100200849 0.38146133894328449 0 -0.16421121106288469 0.37841061077742988 0 -0.1690065843398548 0.38816764900001333 0 -0.17435083100200849 0.38146133894328449 0 -0.16421121106288469 0.37841061077742988 0 -0.17442482013842769 0.37258714487561972 0 -0.1690065843398548 0.38816764900001333 0 -0.1585067522149318 0.38717850884829402 0 -0.16374957514619889 0.39330850577814752 0 -0.16421121106288469 0.37841061077742988 0 -0.1690065843398548 0.38816764900001333 0 -0.1585067522149318 0.38717850884829402 0 -0.1585067522149318 0.38717850884829402 0 -0.1581246439042735 0.39188369632498138 0 -0.15411993771466501 0.39172430355122873 0 -0.16421121106288469 0.37841061077742988 0 -0.1538351041182815 0.38086321117319072 0 -0.15211992647450229 0.37088714732020822 0 -0.16421121106288469 0.37841061077742988 0 -0.1585067522149318 0.38717850884829402 0 -0.1538351041182815 0.38086321117319072 0 -0.16561156556285481 0.39793122137203268 0 -0.1653921352290304 0.40366742082033641 0 -0.1561223105412981 0.39532346712225569 0 -0.16374957514619889 0.39330850577814752 0 -0.16561156556285481 0.39793122137203268 0 -0.1561223105412981 0.39532346712225569 0 -0.1581246439042735 0.39188369632498138 0 -0.16374957514619889 0.39330850577814752 0 -0.1561223105412981 0.39532346712225569 0 -0.1585067522149318 0.38717850884829402 0 -0.1581246439042735 0.39188369632498138 0 -0.16374957514619889 0.39330850577814752 0 -0.16374957514619889 0.39330850577814752 0 -0.16561156556285481 0.39793122137203268 0 -0.16888896551284971 0.39463076221740639 0 -0.1690065843398548 0.38816764900001333 0 -0.16374957514619889 0.39330850577814752 0 -0.16888896551284971 0.39463076221740639 0 -0.1690065843398548 0.38816764900001333 0 -0.16888896551284971 0.39463076221740639 0 -0.17423206705548869 0.39365848841867501 0 -0.16888896551284971 0.39463076221740639 0 -0.170910352944005 0.39963293529937333 0 -0.17423206705548869 0.39365848841867501 0 -0.16561156556285481 0.39793122137203268 0 -0.16888896551284971 0.39463076221740639 0 -0.170910352944005 0.39963293529937333 0 -0.170910352944005 0.39963293529937333 0 -0.1653921352290304 0.40366742082033641 0 -0.17613183386826961 0.40372752477966739 0 -0.16561156556285481 0.39793122137203268 0 -0.170910352944005 0.39963293529937333 0 -0.1653921352290304 0.40366742082033641 0 -0.1653921352290304 0.40366742082033641 0 -0.17613183386826961 0.40372752477966739 0 -0.18469737389017771 0.40700194828327052 0 -0.170910352944005 0.39963293529937333 0 -0.1759821553947821 0.39933407380395308 0 -0.17613183386826961 0.40372752477966739 0 -0.1759821553947821 0.39933407380395308 0 -0.1792706429216287 0.40159354915348278 0 -0.17613183386826961 0.40372752477966739 0 -0.1759821553947821 0.39933407380395308 0 -0.1792706429216287 0.40159354915348278 0 -0.17980680109433889 0.3992938992138601 0 -0.1792706429216287 0.40159354915348278 0 -0.17613183386826961 0.40372752477966739 0 -0.18181976462795271 0.40413187524224992 0 -0.170910352944005 0.39963293529937333 0 -0.1759821553947821 0.39933407380395308 0 -0.17423206705548869 0.39365848841867501 0 -0.1759821553947821 0.39933407380395308 0 -0.17928282025854489 0.39515767974771621 0 -0.17980680109433889 0.3992938992138601 0 -0.1759821553947821 0.39933407380395308 0 -0.17423206705548869 0.39365848841867501 0 -0.17928282025854489 0.39515767974771621 0 -0.17869597282800281 0.38832095752151052 0 -0.17423206705548869 0.39365848841867501 0 -0.17928282025854489 0.39515767974771621 0 -0.17869597282800281 0.38832095752151052 0 -0.17928282025854489 0.39515767974771621 0 -0.18387828686430011 0.39237937188921129 0 -0.17928282025854489 0.39515767974771621 0 -0.18316778245563209 0.39738662533275898 0 -0.18387828686430011 0.39237937188921129 0 -0.17928282025854489 0.39515767974771621 0 -0.18316778245563209 0.39738662533275898 0 -0.17980680109433889 0.3992938992138601 0 -0.18761426532837469 0.39623157332794579 0 -0.18316778245563209 0.39738662533275898 0 -0.18387828686430011 0.39237937188921129 0 -0.18761426532837469 0.39623157332794579 0 -0.18316778245563209 0.39738662533275898 0 -0.18590322284742769 0.40014749797312421 0 -0.1893256275383455 0.39108553627276921 0 -0.18761426532837469 0.39623157332794579 0 -0.18387828686430011 0.39237937188921129 0 -0.17613183386826961 0.40372752477966739 0 -0.18181976462795271 0.40413187524224992 0 -0.18469737389017771 0.40700194828327052 0 -0.18181976462795271 0.40413187524224992 0 -0.1825212983408066 0.40110972984469739 0 -0.18522572023913489 0.40353226984638091 0 -0.1792706429216287 0.40159354915348278 0 -0.17980680109433889 0.3992938992138601 0 -0.1825212983408066 0.40110972984469739 0 -0.1792706429216287 0.40159354915348278 0 -0.18181976462795271 0.40413187524224992 0 -0.1825212983408066 0.40110972984469739 0 -0.18316778245563209 0.39738662533275898 0 -0.17980680109433889 0.3992938992138601 0 -0.1825212983408066 0.40110972984469739 0 -0.1825212983408066 0.40110972984469739 0 -0.18590322284742769 0.40014749797312421 0 -0.18522572023913489 0.40353226984638091 0 -0.18316778245563209 0.39738662533275898 0 -0.1825212983408066 0.40110972984469739 0 -0.18590322284742769 0.40014749797312421 0 -0.18815495223499071 0.40251224616882081 0 -0.18590322284742769 0.40014749797312421 0 -0.18522572023913489 0.40353226984638091 0 -0.18808607167293981 0.40629074898659218 0 -0.18815495223499071 0.40251224616882081 0 -0.18522572023913489 0.40353226984638091 0 -0.18181976462795271 0.40413187524224992 0 -0.18522572023913489 0.40353226984638091 0 -0.18469737389017771 0.40700194828327052 0 -0.18808607167293981 0.40629074898659218 0 -0.18522572023913489 0.40353226984638091 0 -0.18469737389017771 0.40700194828327052 0 -0.18921896605761651 0.40800584382677402 0 -0.18808607167293981 0.40629074898659218 0 -0.18469737389017771 0.40700194828327052 0 -0.19314440949068909 0.41177287198129159 0 -0.1653921352290304 0.40366742082033641 0 -0.18469737389017771 0.40700194828327052 0 -0.19314440949068909 0.41177287198129159 0 -0.17864244768880261 0.42658037237415442 0 -0.16421663802561701 0.40836085741851869 0 -0.19314440949068909 0.41177287198129159 0 -0.16421663802561701 0.40836085741851869 0 -0.19314440949068909 0.41177287198129159 0 -0.1653921352290304 0.40366742082033641 0 -0.16421663802561701 0.40836085741851869 0 -0.19314440949068909 0.41177287198129159 0 -0.1653921352290304 0.40366742082033641 0 -0.17708202909554929 0.44713279850764959 0 -0.2012405556004265 0.43369497408332969 0 -0.17864244768880261 0.42658037237415442 0 -0.17708202909554929 0.44713279850764959 0 -0.17864244768880261 0.42658037237415442 0 -0.15862010170992569 0.43098912628734581 0 -0.17864244768880261 0.42658037237415442 0 -0.15862010170992569 0.43098912628734581 0 -0.16421663802561701 0.40836085741851869 0 -0.15862010170992569 0.43098912628734581 0 -0.16421663802561701 0.40836085741851869 0 -0.14648061734754469 0.41965205931285759 0 -0.16421663802561701 0.40836085741851869 0 -0.14648061734754469 0.41965205931285759 0 -0.13638036203873971 0.40399760926310979 0 -0.15862010170992569 0.43098912628734581 0 -0.14648061734754469 0.41965205931285759 0 -0.13224816607977591 0.43167346915420701 0 -0.14648061734754469 0.41965205931285759 0 -0.13224816607977591 0.43167346915420701 0 -0.13638036203873971 0.40399760926310979 0 -0.13224816607977591 0.43167346915420701 0 -0.13638036203873971 0.40399760926310979 0 -0.13224816607977591 0.43167346915420701 0 -0.13638036203873971 0.40399760926310979 0 -0.1238664612234469 0.41380467532948989 0 -0.13763986096737149 0.39556196965938217 0 -0.1161686245862277 0.38929098601992029 0 -0.13638036203873971 0.40399760926310979 0 -0.11547281320927109 0.40072041715927692 0 -0.1238664612234469 0.41380467532948989 0 -0.13638036203873971 0.40399760926310979 0 -0.13763986096737149 0.39556196965938217 0 -0.11547281320927109 0.40072041715927692 0 -0.13638036203873971 0.40399760926310979 0 -0.11547281320927109 0.40072041715927692 0 -0.13638036203873971 0.40399760926310979 0 -0.13763986096737149 0.39556196965938217 0 -0.13763986096737149 0.39556196965938217 0 -0.138887736071509 0.38720418196328238 0 -0.13763986096737149 0.39556196965938217 0 -0.13127355017612369 0.38004814266949161 0 -0.1161686245862277 0.38929098601992029 0 -0.13127355017612369 0.38004814266949161 0 -0.138887736071509 0.38720418196328238 0 -0.14412836752418989 0.3795437774687086 0 -0.13127355017612369 0.38004814266949161 0 -0.14412836752418989 0.3795437774687086 0 -0.13944857898270549 0.37180479935500549 0 -0.13763986096737149 0.39556196965938217 0 -0.13127355017612369 0.38004814266949161 0 -0.138887736071509 0.38720418196328238 0 -0.138887736071509 0.38720418196328238 0 -0.14920530932201739 0.38645518233107379 0 -0.14785174325689149 0.39215214875567439 0 -0.138887736071509 0.38720418196328238 0 -0.14412836752418989 0.3795437774687086 0 -0.14920530932201739 0.38645518233107379 0 -0.14412836752418989 0.3795437774687086 0 -0.1538351041182815 0.38086321117319072 0 -0.14920530932201739 0.38645518233107379 0 -0.14412836752418989 0.3795437774687086 0 -0.1538351041182815 0.38086321117319072 0 -0.15211992647450229 0.37088714732020822 0 -0.1585067522149318 0.38717850884829402 0 -0.14920530932201739 0.38645518233107379 0 -0.15411993771466501 0.39172430355122873 0 -0.1585067522149318 0.38717850884829402 0 -0.1538351041182815 0.38086321117319072 0 -0.14920530932201739 0.38645518233107379 0 -0.14920530932201739 0.38645518233107379 0 -0.15411993771466501 0.39172430355122873 0 -0.14785174325689149 0.39215214875567439 0 -0.16421663802561701 0.40836085741851869 0 -0.13638036203873971 0.40399760926310979 0 -0.1653921352290304 0.40366742082033641 0 -0.16421663802561701 0.40836085741851869 0 -0.13638036203873971 0.40399760926310979 0 -0.1581246439042735 0.39188369632498138 0 -0.15411993771466501 0.39172430355122873 0 -0.1561223105412981 0.39532346712225569 0 -0.13763986096737149 0.39556196965938217 0 -0.1561223105412981 0.39532346712225569 0 -0.14785174325689149 0.39215214875567439 0 -0.15411993771466501 0.39172430355122873 0 -0.1561223105412981 0.39532346712225569 0 -0.14785174325689149 0.39215214875567439 0 -0.1653921352290304 0.40366742082033641 0 -0.13638036203873971 0.40399760926310979 0 -0.13763986096737149 0.39556196965938217 0 -0.1653921352290304 0.40366742082033641 0 -0.13763986096737149 0.39556196965938217 0 -0.1653921352290304 0.40366742082033641 0 -0.13763986096737149 0.39556196965938217 0 -0.1561223105412981 0.39532346712225569 0 -0.13763986096737149 0.39556196965938217 0 -0.138887736071509 0.38720418196328238 0 -0.14785174325689149 0.39215214875567439 0 -0.14392544327931489 0.35902324990958512 0 -0.14260616741025439 0.34653810236685278 0 -0.15346534533827161 0.35021109738933542 0 -0.14260616741025439 0.34653810236685278 0 -0.15346534533827161 0.35021109738933542 0 -0.1498446506732295 0.3406072057044629 0 -0.14392544327931489 0.35902324990958512 0 -0.15346534533827161 0.35021109738933542 0 -0.15635267139859321 0.3599016422435653 0 -0.14392544327931489 0.35902324990958512 0 -0.15211992647450229 0.37088714732020822 0 -0.15635267139859321 0.3599016422435653 0 -0.14412836752418989 0.3795437774687086 0 -0.15211992647450229 0.37088714732020822 0 -0.13944857898270549 0.37180479935500549 0 -0.14392544327931489 0.35902324990958512 0 -0.15211992647450229 0.37088714732020822 0 -0.13944857898270549 0.37180479935500549 0 -0.14392544327931489 0.35902324990958512 0 -0.13944857898270549 0.37180479935500549 0 -0.12701635984211779 0.36220374436656938 0 -0.13127355017612369 0.38004814266949161 0 -0.13944857898270549 0.37180479935500549 0 -0.12701635984211779 0.36220374436656938 0 -0.13127355017612369 0.38004814266949161 0 -0.12701635984211779 0.36220374436656938 0 -0.118265723139686 0.37447539003613622 0 -0.13944857898270549 0.37180479935500549 0 -0.12701635984211779 0.36220374436656938 0 -0.14392544327931489 0.35902324990958512 0 -0.12701635984211779 0.36220374436656938 0 -0.13125718649065379 0.35200692977406273 0 -0.14392544327931489 0.35902324990958512 0 -0.14260616741025439 0.34653810236685278 0 -0.13125718649065379 0.35200692977406273 0 -0.14260616741025439 0.34653810236685278 0 -0.13125718649065379 0.35200692977406273 0 -0.12815382122005139 0.33966686284917302 0 -0.12815382122005139 0.33966686284917302 0 -0.12659866972882811 0.32544142406830362 0 -0.14172350173857259 0.32673103632021322 0 -0.12815382122005139 0.33966686284917302 0 -0.14172350173857259 0.32673103632021322 0 -0.14111043333936801 0.33795033516115919 0 -0.12815382122005139 0.33966686284917302 0 -0.14172350173857259 0.32673103632021322 0 -0.14260616741025439 0.34653810236685278 0 -0.12815382122005139 0.33966686284917302 0 -0.14111043333936801 0.33795033516115919 0 -0.12659866972882811 0.32544142406830362 0 -0.14172350173857259 0.32673103632021322 0 -0.1233868643277944 0.32025001752787491 0 -0.14172350173857259 0.32673103632021322 0 -0.1179795764000614 0.31045378404471408 0 -0.14172350173857259 0.32673103632021322 0 -0.1179795764000614 0.31045378404471408 0 -0.1233868643277944 0.32025001752787491 0 -0.13808576527717381 0.32044115437045578 0 -0.14172350173857259 0.32673103632021322 0 -0.1179795764000614 0.31045378404471408 0 -0.13808576527717381 0.32044115437045578 0 -0.1326341190482222 0.3086548903383971 0 -0.1179795764000614 0.31045378404471408 0 -0.13808576527717381 0.32044115437045578 0 -0.14289302129008541 0.31342100585123511 0 -0.1326341190482222 0.3086548903383971 0 -0.1453379355932862 0.32328543645652008 0 -0.15552641752776231 0.32351308836428228 0 -0.16765434351172059 0.33203787283086778 0 -0.14289302129008541 0.31342100585123511 0 -0.14982666543808029 0.31597907451537632 0 -0.1512205051594355 0.31046485424609599 0 -0.14289302129008541 0.31342100585123511 0 -0.14390829844529951 0.31866653726783639 0 -0.14982666543808029 0.31597907451537632 0 -0.13808576527717381 0.32044115437045578 0 -0.14289302129008541 0.31342100585123511 0 -0.14390829844529951 0.31866653726783639 0 -0.14390829844529951 0.31866653726783639 0 -0.14809458619914509 0.32065755188770712 0 -0.14982666543808029 0.31597907451537632 0 -0.14390829844529951 0.31866653726783639 0 -0.14809458619914509 0.32065755188770712 0 -0.1453379355932862 0.32328543645652008 0 -0.14809458619914509 0.32065755188770712 0 -0.1453379355932862 0.32328543645652008 0 -0.13808576527717381 0.32044115437045578 0 -0.1453379355932862 0.32328543645652008 0 -0.14172350173857259 0.32673103632021322 0 -0.13808576527717381 0.32044115437045578 0 -0.14390829844529951 0.31866653726783639 0 -0.1453379355932862 0.32328543645652008 0 -0.13808576527717381 0.32044115437045578 0 -0.1453379355932862 0.32328543645652008 0 -0.1453379355932862 0.32328543645652008 0 -0.14172350173857259 0.32673103632021322 0 -0.14809458619914509 0.32065755188770712 0 -0.1453379355932862 0.32328543645652008 0 -0.15552641752776231 0.32351308836428228 0 -0.14809458619914509 0.32065755188770712 0 -0.15552641752776231 0.32351308836428228 0 -0.15590202129663289 0.31819210580376261 0 -0.15590202129663289 0.31819210580376261 0 -0.16131757197411031 0.31331305899322492 0 -0.1512205051594355 0.31046485424609599 0 -0.14809458619914509 0.32065755188770712 0 -0.15590202129663289 0.31819210580376261 0 -0.14982666543808029 0.31597907451537632 0 -0.15590202129663289 0.31819210580376261 0 -0.14982666543808029 0.31597907451537632 0 -0.1512205051594355 0.31046485424609599 0 -0.14172350173857259 0.32673103632021322 0 -0.1605929754673234 0.33966668953719092 0 -0.1453379355932862 0.32328543645652008 0 -0.14172350173857259 0.32673103632021322 0 -0.1605929754673234 0.33966668953719092 0 -0.14172350173857259 0.32673103632021322 0 -0.1498446506732295 0.3406072057044629 0 -0.1605929754673234 0.33966668953719092 0 -0.14260616741025439 0.34653810236685278 0 -0.14111043333936801 0.33795033516115919 0 -0.1498446506732295 0.3406072057044629 0 -0.14172350173857259 0.32673103632021322 0 -0.14111043333936801 0.33795033516115919 0 -0.1498446506732295 0.3406072057044629 0 -0.15346534533827161 0.35021109738933542 0 -0.1498446506732295 0.3406072057044629 0 -0.1605929754673234 0.33966668953719092 0 -0.1605929754673234 0.33966668953719092 0 -0.16765434351172059 0.33203787283086778 0 -0.1794624491960744 0.35260234275416819 0 -0.1453379355932862 0.32328543645652008 0 -0.1605929754673234 0.33966668953719092 0 -0.16765434351172059 0.33203787283086778 0 -0.1453379355932862 0.32328543645652008 0 -0.16765434351172059 0.33203787283086778 0 -0.15590202129663289 0.31819210580376261 0 -0.16131757197411031 0.31331305899322492 0 -0.16586237665878581 0.32055408456719381 0 -0.15552641752776231 0.32351308836428228 0 -0.16765434351172059 0.33203787283086778 0 -0.16064320103802671 0.32339247484255379 0 -0.15590202129663289 0.31819210580376261 0 -0.16064320103802671 0.32339247484255379 0 -0.16586237665878581 0.32055408456719381 0 -0.15552641752776231 0.32351308836428228 0 -0.15590202129663289 0.31819210580376261 0 -0.16064320103802671 0.32339247484255379 0 -0.16765434351172059 0.33203787283086778 0 -0.16586237665878581 0.32055408456719381 0 -0.1751169030369118 0.31950720065298949 0 -0.16765434351172059 0.33203787283086778 0 -0.16064320103802671 0.32339247484255379 0 -0.16586237665878581 0.32055408456719381 0 -0.16131757197411031 0.31331305899322492 0 -0.16586237665878581 0.32055408456719381 0 -0.1751169030369118 0.31950720065298949 0 -0.1751169030369118 0.31950720065298949 0 -0.1858067898853242 0.313438214767153 0 -0.19000296911713799 0.32709751464572889 0 -0.1751169030369118 0.31950720065298949 0 -0.18997075143015471 0.34079030920521652 0 -0.16765434351172059 0.33203787283086778 0 -0.1751169030369118 0.31950720065298949 0 -0.18997075143015471 0.34079030920521652 0 -0.1751169030369118 0.31950720065298949 0 -0.18997075143015471 0.34079030920521652 0 -0.19000296911713799 0.32709751464572889 0 -0.16765434351172059 0.33203787283086778 0 -0.18997075143015471 0.34079030920521652 0 -0.16765434351172059 0.33203787283086778 0 -0.1794624491960744 0.35260234275416819 0 -0.18997075143015471 0.34079030920521652 0 -0.1794624491960744 0.35260234275416819 0 -0.19181230950219319 0.3533125866810527 0 -0.18997075143015471 0.34079030920521652 0 -0.1794624491960744 0.35260234275416819 0 -0.18591040928746869 0.3597697614149129 0 -0.19181230950219319 0.3533125866810527 0 -0.1794624491960744 0.35260234275416819 0 -0.17584401283917769 0.36245996320138368 0 -0.18591040928746869 0.3597697614149129 0 -0.1794624491960744 0.35260234275416819 0 -0.1657193648685695 0.35489897908058432 0 -0.17584401283917769 0.36245996320138368 0 -0.1605929754673234 0.33966668953719092 0 -0.1794624491960744 0.35260234275416819 0 -0.1605929754673234 0.33966668953719092 0 -0.1794624491960744 0.35260234275416819 0 -0.1657193648685695 0.35489897908058432 0 -0.15346534533827161 0.35021109738933542 0 -0.1657193648685695 0.35489897908058432 0 -0.15635267139859321 0.3599016422435653 0 -0.15346534533827161 0.35021109738933542 0 -0.1605929754673234 0.33966668953719092 0 -0.1657193648685695 0.35489897908058432 0 -0.16421121106288469 0.37841061077742988 0 -0.15211992647450229 0.37088714732020822 0 -0.16543943095082631 0.36598618009729778 0 -0.15211992647450229 0.37088714732020822 0 -0.15635267139859321 0.3599016422435653 0 -0.16543943095082631 0.36598618009729778 0 -0.1657193648685695 0.35489897908058432 0 -0.15635267139859321 0.3599016422435653 0 -0.16543943095082631 0.36598618009729778 0 -0.1657193648685695 0.35489897908058432 0 -0.16543943095082631 0.36598618009729778 0 -0.17584401283917769 0.36245996320138368 0 -0.16421121106288469 0.37841061077742988 0 -0.16543943095082631 0.36598618009729778 0 -0.17442482013842769 0.37258714487561972 0 -0.17442482013842769 0.37258714487561972 0 -0.17584401283917769 0.36245996320138368 0 -0.1840097562617358 0.36851802662452721 0 -0.16543943095082631 0.36598618009729778 0 -0.17442482013842769 0.37258714487561972 0 -0.17584401283917769 0.36245996320138368 0 -0.17584401283917769 0.36245996320138368 0 -0.18591040928746869 0.3597697614149129 0 -0.1840097562617358 0.36851802662452721 0 -0.18591040928746869 0.3597697614149129 0 -0.1840097562617358 0.36851802662452721 0 -0.19254564740018629 0.36540314568740739 0 -0.1826936787139338 0.37868674960979548 0 -0.1840097562617358 0.36851802662452721 0 -0.19080097340921251 0.37318051919535911 0 -0.1826936787139338 0.37868674960979548 0 -0.17442482013842769 0.37258714487561972 0 -0.1840097562617358 0.36851802662452721 0 -0.1840097562617358 0.36851802662452721 0 -0.19080097340921251 0.37318051919535911 0 -0.19254564740018629 0.36540314568740739 0 -0.19811443608730719 0.37577644202902899 0 -0.19080097340921251 0.37318051919535911 0 -0.1969339500592259 0.37064208730694181 0 -0.19080097340921251 0.37318051919535911 0 -0.19254564740018629 0.36540314568740739 0 -0.1969339500592259 0.37064208730694181 0 -0.18591040928746869 0.3597697614149129 0 -0.1942891613391419 0.36030158835688397 0 -0.19254564740018629 0.36540314568740739 0 -0.1942891613391419 0.36030158835688397 0 -0.19254564740018629 0.36540314568740739 0 -0.19821007725533091 0.36361014314451479 0 -0.1942891613391419 0.36030158835688397 0 -0.19821007725533091 0.36361014314451479 0 -0.20296736325053041 0.35941230485653192 0 -0.19254564740018629 0.36540314568740739 0 -0.19821007725533091 0.36361014314451479 0 -0.1969339500592259 0.37064208730694181 0 -0.19821007725533091 0.36361014314451479 0 -0.20296736325053041 0.35941230485653192 0 -0.2020630400741211 0.36594283228169788 0 -0.19821007725533091 0.36361014314451479 0 -0.2020630400741211 0.36594283228169788 0 -0.20151388559193811 0.36878219648166211 0 -0.20151388559193811 0.36878219648166211 0 -0.20109425405240741 0.37346839502114543 0 -0.1969339500592259 0.37064208730694181 0 -0.2020630400741211 0.36594283228169788 0 -0.20151388559193811 0.36878219648166211 0 -0.20556083419868521 0.37196668464408278 0 -0.20151388559193811 0.36878219648166211 0 -0.20109425405240741 0.37346839502114543 0 -0.20556083419868521 0.37196668464408278 0 -0.19811443608730719 0.37577644202902899 0 -0.20109425405240741 0.37346839502114543 0 -0.1969339500592259 0.37064208730694181 0 -0.19821007725533091 0.36361014314451479 0 -0.20151388559193811 0.36878219648166211 0 -0.1969339500592259 0.37064208730694181 0 -0.20296736325053041 0.35941230485653192 0 -0.18997075143015471 0.34079030920521652 0 -0.20296736325053041 0.35941230485653192 0 -0.19181230950219319 0.3533125866810527 0 -0.18997075143015471 0.34079030920521652 0 -0.20296736325053041 0.35941230485653192 0 -0.20369780340405599 0.35512253247863868 0 -0.18997075143015471 0.34079030920521652 0 -0.18591040928746869 0.3597697614149129 0 -0.1942891613391419 0.36030158835688397 0 -0.19181230950219319 0.3533125866810527 0 -0.1942891613391419 0.36030158835688397 0 -0.20296736325053041 0.35941230485653192 0 -0.19181230950219319 0.3533125866810527 0 -0.2028223273319863 0.34583066340567531 0 -0.20369780340405599 0.35512253247863868 0 -0.18997075143015471 0.34079030920521652 0 -0.2028223273319863 0.34583066340567531 0 -0.22385044589186559 0.35407783608867582 0 -0.22175403385744691 0.34247285845313952 0 -0.2028223273319863 0.34583066340567531 0 -0.22385044589186559 0.35407783608867582 0 -0.2028223273319863 0.34583066340567531 0 -0.20974940603168829 0.35580372468882282 0 -0.22385044589186559 0.35407783608867582 0 -0.2028223273319863 0.34583066340567531 0 -0.20369780340405599 0.35512253247863868 0 -0.2028223273319863 0.34583066340567531 0 -0.20369780340405599 0.35512253247863868 0 -0.20974940603168829 0.35580372468882282 0 -0.20296736325053041 0.35941230485653192 0 -0.20369780340405599 0.35512253247863868 0 -0.20974940603168829 0.35580372468882282 0 -0.20974940603168829 0.35580372468882282 0 -0.21540909028000341 0.3645752866145921 0 -0.22385044589186559 0.35407783608867582 0 -0.21596397507090709 0.37803430050784659 0 -0.20296736325053041 0.35941230485653192 0 -0.21540909028000341 0.3645752866145921 0 -0.21596397507090709 0.37803430050784659 0 -0.20296736325053041 0.35941230485653192 0 -0.21596397507090709 0.37803430050784659 0 -0.20296736325053041 0.35941230485653192 0 -0.20556083419868521 0.37196668464408278 0 -0.20296736325053041 0.35941230485653192 0 -0.20974940603168829 0.35580372468882282 0 -0.21540909028000341 0.3645752866145921 0 -0.20296736325053041 0.35941230485653192 0 -0.2020630400741211 0.36594283228169788 0 -0.20556083419868521 0.37196668464408278 0 -0.21596397507090709 0.37803430050784659 0 -0.21540909028000341 0.3645752866145921 0 -0.2260018512702453 0.3708795162380083 0 -0.2365581317527107 0.37721328343085347 0 -0.2260018512702453 0.3708795162380083 0 -0.2384079709062604 0.35910079109671528 0 -0.21540909028000341 0.3645752866145921 0 -0.2260018512702453 0.3708795162380083 0 -0.22385044589186559 0.35407783608867582 0 -0.2260018512702453 0.3708795162380083 0 -0.22385044589186559 0.35407783608867582 0 -0.2384079709062604 0.35910079109671528 0 -0.22385044589186559 0.35407783608867582 0 -0.23911195087455489 0.34015891855728858 0 -0.22175403385744691 0.34247285845313952 0 -0.22385044589186559 0.35407783608867582 0 -0.2384079709062604 0.35910079109671528 0 -0.23911195087455489 0.34015891855728858 0 -0.25276327110935393 0.35150101910436238 0 -0.2384079709062604 0.35910079109671528 0 -0.23911195087455489 0.34015891855728858 0 -0.25030474689960719 0.36306381865126242 0 -0.25276327110935393 0.35150101910436238 0 -0.2384079709062604 0.35910079109671528 0 -0.25030474689960719 0.36306381865126242 0 -0.2500573066794391 0.38441154480449458 0 -0.2365581317527107 0.37721328343085347 0 -0.25030474689960719 0.36306381865126242 0 -0.2365581317527107 0.37721328343085347 0 -0.2384079709062604 0.35910079109671528 0 -0.25326016159684078 0.31814715040416019 0 -0.23640882030099211 0.32255516635633241 0 -0.23752449851801249 0.29789860412978209 0 -0.25326016159684078 0.31814715040416019 0 -0.23640882030099211 0.32255516635633241 0 -0.23911195087455489 0.34015891855728858 0 -0.23640882030099211 0.32255516635633241 0 -0.23911195087455489 0.34015891855728858 0 -0.22123141133138069 0.32982401576091841 0 -0.23911195087455489 0.34015891855728858 0 -0.22175403385744691 0.34247285845313952 0 -0.22123141133138069 0.32982401576091841 0 -0.23640882030099211 0.32255516635633241 0 -0.22123141133138069 0.32982401576091841 0 -0.22337989188104229 0.31263165613365679 0 -0.22123141133138069 0.32982401576091841 0 -0.22337989188104229 0.31263165613365679 0 -0.20015655980465669 0.31753752823816811 0 -0.2028223273319863 0.34583066340567531 0 -0.22175403385744691 0.34247285845313952 0 -0.22123141133138069 0.32982401576091841 0 -0.2028223273319863 0.34583066340567531 0 -0.22123141133138069 0.32982401576091841 0 -0.20015655980465669 0.31753752823816811 0 -0.2028223273319863 0.34583066340567531 0 -0.20015655980465669 0.31753752823816811 0 -0.2028223273319863 0.34583066340567531 0 -0.18997075143015471 0.34079030920521652 0 -0.19000296911713799 0.32709751464572889 0 -0.2028223273319863 0.34583066340567531 0 -0.20015655980465669 0.31753752823816811 0 -0.19000296911713799 0.32709751464572889 0 -0.2028223273319863 0.34583066340567531 0 -0.18997075143015471 0.34079030920521652 0 -0.1858067898853242 0.313438214767153 0 -0.20015655980465669 0.31753752823816811 0 -0.19000296911713799 0.32709751464572889 0 -0.1858067898853242 0.313438214767153 0 -0.20015655980465669 0.31753752823816811 0 -0.18875583594552739 0.30169400795357187 0 -0.20015655980465669 0.31753752823816811 0 -0.18875583594552739 0.30169400795357187 0 -0.19749079227732491 0.28924439307066108 0 -0.20015655980465669 0.31753752823816811 0 -0.19749079227732491 0.28924439307066108 0 -0.19749079227732491 0.28924439307066108 0 -0.18407591416195401 0.27341606778560762 0 -0.18373033216898321 0.28762676146587979 0 -0.18875583594552739 0.30169400795357187 0 -0.19749079227732491 0.28924439307066108 0 -0.18373033216898321 0.28762676146587979 0 -0.19749079227732491 0.28924439307066108 0 -0.21644970663208091 0.29521087646077998 0 -0.20901781884292001 0.27618472893340418 0 -0.21644970663208091 0.29521087646077998 0 -0.22220200281994271 0.27578780360807692 0 -0.20901781884292001 0.27618472893340418 0 -0.20015655980465669 0.31753752823816811 0 -0.19749079227732491 0.28924439307066108 0 -0.21644970663208091 0.29521087646077998 0 -0.22337989188104229 0.31263165613365679 0 -0.20015655980465669 0.31753752823816811 0 -0.21644970663208091 0.29521087646077998 0 -0.22337989188104229 0.31263165613365679 0 -0.21644970663208091 0.29521087646077998 0 -0.23752449851801249 0.29789860412978209 0 -0.23640882030099211 0.32255516635633241 0 -0.22337989188104229 0.31263165613365679 0 -0.23752449851801249 0.29789860412978209 0 -0.23752449851801249 0.29789860412978209 0 -0.24064371999178141 0.27866728061568241 0 -0.22220200281994271 0.27578780360807692 0 -0.21644970663208091 0.29521087646077998 0 -0.23752449851801249 0.29789860412978209 0 -0.22220200281994271 0.27578780360807692 0 -0.25878052051392741 0.28242341878028149 0 -0.23752449851801249 0.29789860412978209 0 -0.24064371999178141 0.27866728061568241 0 -0.25326016159684078 0.31814715040416019 0 -0.23752449851801249 0.29789860412978209 0 -0.25432028203104129 0.24270748593351471 0 -0.25481179867376541 0.26439577484077198 0 -0.23197882531028971 0.25571583461128811 0 -0.25481179867376541 0.26439577484077198 0 -0.24064371999178141 0.27866728061568241 0 -0.23197882531028971 0.25571583461128811 0 -0.24064371999178141 0.27866728061568241 0 -0.22220200281994271 0.27578780360807692 0 -0.23197882531028971 0.25571583461128811 0 -0.22220200281994271 0.27578780360807692 0 -0.23197882531028971 0.25571583461128811 0 -0.21407161171937419 0.26104576089313403 0 -0.23197882531028971 0.25571583461128811 0 -0.21407161171937419 0.26104576089313403 0 -0.21209459799748009 0.2429081262999141 0 -0.21407161171937419 0.26104576089313403 0 -0.19482502474999311 0.2609512579031541 0 -0.21209459799748009 0.2429081262999141 0 -0.21407161171937419 0.26104576089313403 0 -0.20901781884292001 0.27618472893340418 0 -0.19482502474999311 0.2609512579031541 0 -0.22220200281994271 0.27578780360807692 0 -0.21407161171937419 0.26104576089313403 0 -0.20901781884292001 0.27618472893340418 0 -0.19749079227732491 0.28924439307066108 0 -0.19482502474999311 0.2609512579031541 0 -0.19749079227732491 0.28924439307066108 0 -0.19482502474999311 0.2609512579031541 0 -0.18407591416195401 0.27341606778560762 0 -0.19749079227732491 0.28924439307066108 0 -0.20901781884292001 0.27618472893340418 0 -0.19482502474999311 0.2609512579031541 0 -0.19482502474999311 0.2609512579031541 0 -0.17226288588278491 0.2564915843350204 0 -0.17849377319884591 0.24269897425522749 0 -0.19482502474999311 0.2609512579031541 0 -0.17226288588278491 0.2564915843350204 0 -0.18407591416195401 0.27341606778560762 0 -0.17226288588278491 0.2564915843350204 0 -0.15781892419757701 0.26355910736074212 0 -0.15521917341752831 0.25110757725784449 0 -0.17226288588278491 0.2564915843350204 0 -0.15781892419757701 0.26355910736074212 0 -0.17207053573068409 0.27276634215332252 0 -0.15958074763406399 0.27468838430696679 0 -0.17207053573068409 0.27276634215332252 0 -0.16010319219514979 0.28738022609394942 0 -0.15781892419757701 0.26355910736074212 0 -0.15958074763406399 0.27468838430696679 0 -0.17207053573068409 0.27276634215332252 0 -0.17226288588278491 0.2564915843350204 0 -0.17207053573068409 0.27276634215332252 0 -0.18407591416195401 0.27341606778560762 0 -0.17207053573068409 0.27276634215332252 0 -0.18407591416195401 0.27341606778560762 0 -0.18373033216898321 0.28762676146587979 0 -0.18373033216898321 0.28762676146587979 0 -0.16010319219514979 0.28738022609394942 0 -0.17207053573068409 0.27276634215332252 0 -0.18373033216898321 0.28762676146587979 0 -0.16010319219514979 0.28738022609394942 0 -0.18373033216898321 0.28762676146587979 0 -0.17693092447405859 0.30216299386558521 0 -0.17025687587046531 0.29384851838154408 0 -0.1751169030369118 0.31950720065298949 0 -0.1858067898853242 0.313438214767153 0 -0.17693092447405859 0.30216299386558521 0 -0.1858067898853242 0.313438214767153 0 -0.18875583594552739 0.30169400795357187 0 -0.17693092447405859 0.30216299386558521 0 -0.18875583594552739 0.30169400795357187 0 -0.18373033216898321 0.28762676146587979 0 -0.17693092447405859 0.30216299386558521 0 -0.17693092447405859 0.30216299386558521 0 -0.1602630546436698 0.29822409210076201 0 -0.17025687587046531 0.29384851838154408 0 -0.1751169030369118 0.31950720065298949 0 -0.1602630546436698 0.29822409210076201 0 -0.1751169030369118 0.31950720065298949 0 -0.17693092447405859 0.30216299386558521 0 -0.1602630546436698 0.29822409210076201 0 -0.16131757197411031 0.31331305899322492 0 -0.1751169030369118 0.31950720065298949 0 -0.1602630546436698 0.29822409210076201 0 -0.16131757197411031 0.31331305899322492 0 -0.1602630546436698 0.29822409210076201 0 -0.15606863598659421 0.30543113181755371 0 -0.18373033216898321 0.28762676146587979 0 -0.17025687587046531 0.29384851838154408 0 -0.16010319219514979 0.28738022609394942 0 -0.1602630546436698 0.29822409210076201 0 -0.16010319219514979 0.28738022609394942 0 -0.1510427903370942 0.29913801218285652 0 -0.1602630546436698 0.29822409210076201 0 -0.17025687587046531 0.29384851838154408 0 -0.16010319219514979 0.28738022609394942 0 -0.16010319219514979 0.28738022609394942 0 -0.1364760522213164 0.287133690722019 0 -0.14833033841284521 0.2750478616198534 0 -0.1510427903370942 0.29913801218285652 0 -0.13964492006369331 0.30282730197245222 0 -0.1364760522213164 0.287133690722019 0 -0.16010319219514979 0.28738022609394942 0 -0.1364760522213164 0.287133690722019 0 -0.16010319219514979 0.28738022609394942 0 -0.1510427903370942 0.29913801218285652 0 -0.1364760522213164 0.287133690722019 0 -0.16131757197411031 0.31331305899322492 0 -0.15606863598659421 0.30543113181755371 0 -0.1512205051594355 0.31046485424609599 0 -0.15606863598659421 0.30543113181755371 0 -0.1512205051594355 0.31046485424609599 0 -0.1510427903370942 0.29913801218285652 0 -0.1602630546436698 0.29822409210076201 0 -0.15606863598659421 0.30543113181755371 0 -0.1510427903370942 0.29913801218285652 0 -0.1512205051594355 0.31046485424609599 0 -0.1510427903370942 0.29913801218285652 0 -0.13964492006369331 0.30282730197245222 0 -0.14289302129008541 0.31342100585123511 0 -0.1512205051594355 0.31046485424609599 0 -0.13964492006369331 0.30282730197245222 0 -0.14289302129008541 0.31342100585123511 0 -0.13964492006369331 0.30282730197245222 0 -0.1326341190482222 0.3086548903383971 0 -0.13964492006369331 0.30282730197245222 0 -0.12791671599615481 0.29919136448553452 0 -0.1326341190482222 0.3086548903383971 0 -0.12791671599615481 0.29919136448553452 0 -0.1326341190482222 0.3086548903383971 0 -0.1179795764000614 0.31045378404471408 0 -0.13964492006369331 0.30282730197245222 0 -0.12791671599615481 0.29919136448553452 0 -0.1364760522213164 0.287133690722019 0 -0.12791671599615481 0.29919136448553452 0 -0.1364760522213164 0.287133690722019 0 -0.112848912247483 0.28688715535008902 0 -0.1364760522213164 0.287133690722019 0 -0.1312209814600386 0.26595364352183182 0 -0.12153622739311989 0.27719678098094391 0 -0.1364760522213164 0.287133690722019 0 -0.1312209814600386 0.26595364352183182 0 -0.14833033841284521 0.2750478616198534 0 -0.1312209814600386 0.26595364352183182 0 -0.1209958029241234 0.25818286365590759 0 -0.13037591162038581 0.2494816563480477 0 -0.1312209814600386 0.26595364352183182 0 -0.14328539404170859 0.25663489157922009 0 -0.13037591162038581 0.2494816563480477 0 -0.15781892419757701 0.26355910736074212 0 -0.14328539404170859 0.25663489157922009 0 -0.14833033841284521 0.2750478616198534 0 -0.15781892419757701 0.26355910736074212 0 -0.14328539404170859 0.25663489157922009 0 -0.15521917341752831 0.25110757725784449 0 -0.15781892419757701 0.26355910736074212 0 -0.15958074763406399 0.27468838430696679 0 -0.14833033841284521 0.2750478616198534 0 -0.1312209814600386 0.26595364352183182 0 -0.14328539404170859 0.25663489157922009 0 -0.14833033841284521 0.2750478616198534 0 -0.15958074763406399 0.27468838430696679 0 -0.16010319219514979 0.28738022609394942 0 -0.14833033841284521 0.2750478616198534 0 -0.108779320762219 0.2681943411997591 0 -0.1001945284805885 0.27746644857560682 0 -0.085890772090074063 0.27047965860792261 0 -0.108779320762219 0.2681943411997591 0 -0.085890772090074063 0.27047965860792261 0 -0.108779320762219 0.2681943411997591 0 -0.1001945284805885 0.27746644857560682 0 -0.11025901809750489 0.27557627358734998 0 -0.1001945284805885 0.27746644857560682 0 -0.11025901809750489 0.27557627358734998 0 -0.112848912247483 0.28688715535008902 0 -0.108779320762219 0.2681943411997591 0 -0.085890772090074063 0.27047965860792261 0 -0.091301377019159038 0.25543394879796372 0 -0.108779320762219 0.2681943411997591 0 -0.1025455691012197 0.239560911608514 0 -0.11361919422365779 0.24646889857046439 0 -0.108779320762219 0.2681943411997591 0 -0.1025455691012197 0.239560911608514 0 -0.108779320762219 0.2681943411997591 0 -0.091301377019159038 0.25543394879796372 0 -0.1025455691012197 0.239560911608514 0 -0.1312209814600386 0.26595364352183182 0 -0.1209958029241234 0.25818286365590759 0 -0.1111383847493676 0.26795879939787298 0 -0.1209958029241234 0.25818286365590759 0 -0.1111383847493676 0.26795879939787298 0 -0.11361919422365779 0.24646889857046439 0 -0.108779320762219 0.2681943411997591 0 -0.1111383847493676 0.26795879939787298 0 -0.11361919422365779 0.24646889857046439 0 -0.1209958029241234 0.25818286365590759 0 -0.13037591162038581 0.2494816563480477 0 -0.11361919422365779 0.24646889857046439 0 -0.1111383847493676 0.26795879939787298 0 -0.11361919422365779 0.24646889857046439 0 -0.1312209814600386 0.26595364352183182 0 -0.1111383847493676 0.26795879939787298 0 -0.1312209814600386 0.26595364352183182 0 -0.1111383847493676 0.26795879939787298 0 -0.12153622739311989 0.27719678098094391 0 -0.1111383847493676 0.26795879939787298 0 -0.11025901809750489 0.27557627358734998 0 -0.108779320762219 0.2681943411997591 0 -0.1111383847493676 0.26795879939787298 0 -0.11025901809750489 0.27557627358734998 0 -0.108779320762219 0.2681943411997591 0 -0.11025901809750489 0.27557627358734998 0 -0.108779320762219 0.2681943411997591 0 -0.1111383847493676 0.26795879939787298 0 -0.11025901809750489 0.27557627358734998 0 -0.12153622739311989 0.27719678098094391 0 -0.112848912247483 0.28688715535008902 0 -0.11025901809750489 0.27557627358734998 0 -0.112848912247483 0.28688715535008902 0 -0.1111383847493676 0.26795879939787298 0 -0.11025901809750489 0.27557627358734998 0 -0.12153622739311989 0.27719678098094391 0 -0.1364760522213164 0.287133690722019 0 -0.112848912247483 0.28688715535008902 0 -0.1364760522213164 0.287133690722019 0 -0.12153622739311989 0.27719678098094391 0 -0.112848912247483 0.28688715535008902 0 -0.12791671599615481 0.29919136448553452 0 -0.112848912247483 0.28688715535008902 0 -0.1179795764000614 0.31045378404471408 0 -0.112848912247483 0.28688715535008902 0 -0.1179795764000614 0.31045378404471408 0 -0.112848912247483 0.28688715535008902 0 -0.1179795764000614 0.31045378404471408 0 -0.10593370582578431 0.30219593824120777 0 -0.1179795764000614 0.31045378404471408 0 -0.10593370582578431 0.30219593824120777 0 -0.1179795764000614 0.31045378404471408 0 -0.10593370582578431 0.30219593824120777 0 -0.11321821801889249 0.31622326994205729 0 -0.10593370582578431 0.30219593824120777 0 -0.10408213114055199 0.31770883558427332 0 -0.10593370582578431 0.30219593824120777 0 -0.10408213114055199 0.31770883558427332 0 -0.11321821801889249 0.31622326994205729 0 -0.10593370582578431 0.30219593824120777 0 -0.090851883116161075 0.30767727371843251 0 -0.10408213114055199 0.31770883558427332 0 -0.112848912247483 0.28688715535008902 0 -0.083150468288177251 0.28657726947581902 0 -0.112848912247483 0.28688715535008902 0 -0.1073492766654815 0.29033597639724312 0 -0.083150468288177251 0.28657726947581902 0 -0.1001945284805885 0.27746644857560682 0 -0.112848912247483 0.28688715535008902 0 -0.083150468288177251 0.28657726947581902 0 -0.10593370582578431 0.30219593824120777 0 -0.083150468288177251 0.28657726947581902 0 -0.10593370582578431 0.30219593824120777 0 -0.1073492766654815 0.29033597639724312 0 -0.083150468288177251 0.28657726947581902 0 -0.10593370582578431 0.30219593824120777 0 -0.1073492766654815 0.29033597639724312 0 -0.112848912247483 0.28688715535008902 0 -0.10593370582578431 0.30219593824120777 0 -0.1073492766654815 0.29033597639724312 0 -0.10593370582578431 0.30219593824120777 0 -0.083150468288177251 0.28657726947581902 0 -0.090851883116161075 0.30767727371843251 0 -0.083150468288177251 0.28657726947581902 0 -0.090851883116161075 0.30767727371843251 0 -0.078692998548121951 0.30385652655946171 0 -0.090851883116161075 0.30767727371843251 0 -0.078692998548121951 0.30385652655946171 0 -0.081952002299895951 0.31534041571553018 0 -0.078692998548121951 0.30385652655946171 0 -0.072537733542907185 0.31217523472136988 0 -0.081952002299895951 0.31534041571553018 0 -0.078692998548121951 0.30385652655946171 0 -0.072537733542907185 0.31217523472136988 0 -0.063712020897632796 0.30343805038961968 0 -0.078692998548121951 0.30385652655946171 0 -0.063712020897632796 0.30343805038961968 0 -0.070767807918553388 0.29503571917286919 0 -0.063712020897632796 0.30343805038961968 0 -0.070767807918553388 0.29503571917286919 0 -0.058196099880657409 0.29491556746158909 0 -0.072537733542907185 0.31217523472136988 0 -0.063712020897632796 0.30343805038961968 0 -0.062330256501582582 0.31258662656472103 0 -0.083150468288177251 0.28657726947581902 0 -0.070767807918553388 0.29503571917286919 0 -0.06167517786267579 0.28635318739401772 0 -0.083150468288177251 0.28657726947581902 0 -0.063002223417928854 0.27276497601608402 0 -0.06167517786267579 0.28635318739401772 0 -0.083150468288177251 0.28657726947581902 0 -0.06167517786267579 0.28635318739401772 0 -0.083150468288177251 0.28657726947581902 0 -0.078692998548121951 0.30385652655946171 0 -0.070767807918553388 0.29503571917286919 0 -0.070767807918553388 0.29503571917286919 0 -0.058196099880657409 0.29491556746158909 0 -0.06167517786267579 0.28635318739401772 0 -0.063002223417928854 0.27276497601608402 0 -0.085890772090074063 0.27047965860792261 0 -0.083150468288177251 0.28657726947581902 0 -0.063002223417928854 0.27276497601608402 0 -0.083150468288177251 0.28657726947581902 0 -0.063002223417928854 0.27276497601608402 0 -0.085890772090074063 0.27047965860792261 0 -0.063002223417928854 0.27276497601608402 0 -0.085890772090074063 0.27047965860792261 0 -0.07613073261743003 0.25486608990887039 0 -0.1001945284805885 0.27746644857560682 0 -0.083150468288177251 0.28657726947581902 0 -0.085890772090074063 0.27047965860792261 0 -0.085890772090074063 0.27047965860792261 0 -0.091301377019159038 0.25543394879796372 0 -0.07613073261743003 0.25486608990887039 0 -0.091301377019159038 0.25543394879796372 0 -0.07613073261743003 0.25486608990887039 0 -0.086330210438822372 0.2433288885731654 0 -0.063002223417928854 0.27276497601608402 0 -0.07613073261743003 0.25486608990887039 0 -0.058693581299423543 0.24845909965691571 0 -0.063002223417928854 0.27276497601608402 0 -0.043255113703586298 0.25922767407675351 0 -0.058693581299423543 0.24845909965691571 0 -0.063002223417928854 0.27276497601608402 0 -0.043255113703586298 0.25922767407675351 0 -0.063002223417928854 0.27276497601608402 0 -0.055482349226071412 0.28119940960351553 0 -0.042580392915985393 0.27480400284216838 0 -0.063002223417928854 0.27276497601608402 0 -0.042580392915985393 0.27480400284216838 0 -0.063002223417928854 0.27276497601608402 0 -0.042580392915985393 0.27480400284216838 0 -0.043255113703586298 0.25922767407675351 0 -0.063002223417928854 0.27276497601608402 0 -0.055482349226071412 0.28119940960351553 0 -0.06167517786267579 0.28635318739401772 0 -0.042580392915985393 0.27480400284216838 0 -0.031381153300126433 0.27592219594470802 0 -0.02529102086011133 0.25253691470343648 0 -0.042580392915985393 0.27480400284216838 0 -0.031381153300126433 0.27592219594470802 0 -0.04149474264809256 0.28198581047694221 0 -0.042580392915985393 0.27480400284216838 0 -0.031381153300126433 0.27592219594470802 0 -0.043255113703586298 0.25922767407675351 0 -0.023508003989242639 0.24569037213742481 0 -0.042580392915985393 0.27480400284216838 0 -0.02529102086011133 0.25253691470343648 0 -0.042580392915985393 0.27480400284216838 0 -0.043255113703586298 0.25922767407675351 0 -0.02529102086011133 0.25253691470343648 0 -0.043255113703586298 0.25922767407675351 0 -0.02529102086011133 0.25253691470343648 0 -0.023508003989242639 0.24569037213742481 0 -0.02529102086011133 0.25253691470343648 0 -0.022915602828402978 0.26853114834300118 0 -0.01329523633209761 0.26299957412929909 0 -0.031381153300126433 0.27592219594470802 0 -0.02529102086011133 0.25253691470343648 0 -0.02529102086011133 0.25253691470343648 0 -0.015020641229283109 0.25013402953170072 0 -0.01329523633209761 0.26299957412929909 0 -0.031381153300126433 0.27592219594470802 0 -0.02529102086011133 0.25253691470343648 0 -0.022915602828402978 0.26853114834300118 0 -0.028428942714493519 0.27621696073475949 0 -0.016181660935186099 0.27498009620280289 0 -0.026020885236536499 0.28375069896415028 0 -0.031381153300126433 0.27592219594470802 0 -0.028428942714493519 0.27621696073475949 0 -0.022915602828402978 0.26853114834300118 0 -0.031381153300126433 0.27592219594470802 0 -0.028428942714493519 0.27621696073475949 0 -0.026020885236536499 0.28375069896415028 0 -0.031381153300126433 0.27592219594470802 0 -0.028428942714493519 0.27621696073475949 0 -0.016181660935186099 0.27498009620280289 0 -0.022915602828402978 0.26853114834300118 0 -0.01329523633209761 0.26299957412929909 0 -0.028428942714493519 0.27621696073475949 0 -0.016181660935186099 0.27498009620280289 0 -0.022915602828402978 0.26853114834300118 0 -0.015810827975049228 0.28913754439337458 0 0.0055263259544778148 0.2683661113136544 0 -0.016181660935186099 0.27498009620280289 0 -0.015810827975049228 0.28913754439337458 0 0.0055263259544778148 0.2683661113136544 0 -0.016181660935186099 0.27498009620280289 0 -0.01329523633209761 0.26299957412929909 0 0.0055263259544778148 0.2683661113136544 0 -0.0065929851021667473 0.25243062773974151 0 -0.01329523633209761 0.26299957412929909 0 0.0055263259544778148 0.2683661113136544 0 -0.0065929851021667473 0.25243062773974151 0 -0.015020641229283109 0.25013402953170072 0 -0.01329523633209761 0.26299957412929909 0 -0.0030673297121489879 0.30398241260589998 0 -0.015810827975049228 0.28913754439337458 0 -0.018645460958816109 0.30879987671739112 0 -0.0030673297121489879 0.30398241260589998 0 -0.018645460958816109 0.30879987671739112 0 -0.01197531842956702 0.32065364755028802 0 -0.015810827975049228 0.28913754439337458 0 0.0045759126980617452 0.28732757971831202 0 0.0055263259544778148 0.2683661113136544 0 -0.0030673297121489879 0.30398241260589998 0 -0.015810827975049228 0.28913754439337458 0 0.0045759126980617452 0.28732757971831202 0 -0.015810827975049228 0.28913754439337458 0 -0.026020885236536499 0.28375069896415028 0 -0.038301841257825528 0.30249669754510639 0 -0.016181660935186099 0.27498009620280289 0 -0.015810827975049228 0.28913754439337458 0 -0.026020885236536499 0.28375069896415028 0 -0.015810827975049228 0.28913754439337458 0 -0.037147981904575189 0.30990897747309598 0 -0.038301841257825528 0.30249669754510639 0 -0.015810827975049228 0.28913754439337458 0 -0.018645460958816109 0.30879987671739112 0 -0.037147981904575189 0.30990897747309598 0 -0.015810827975049228 0.28913754439337458 0 -0.037147981904575189 0.30990897747309598 0 -0.037147981904575189 0.30990897747309598 0 -0.038301841257825528 0.30249669754510639 0 -0.041279657795098762 0.31393110851974271 0 -0.037147981904575189 0.30990897747309598 0 -0.038301841257825528 0.30249669754510639 0 -0.038301841257825528 0.30249669754510639 0 -0.046156641746657359 0.29321548265801989 0 -0.05161753851169891 0.29891794641642488 0 -0.038301841257825528 0.30249669754510639 0 -0.051857336069569403 0.30736303206446641 0 -0.041279657795098762 0.31393110851974271 0 -0.038301841257825528 0.30249669754510639 0 -0.041279657795098762 0.31393110851974271 0 -0.037147981904575189 0.30990897747309598 0 -0.041279657795098762 0.31393110851974271 0 -0.038301841257825528 0.30249669754510639 0 -0.04149474264809256 0.28198581047694221 0 -0.031381153300126433 0.27592219594470802 0 -0.038301841257825528 0.30249669754510639 0 -0.031381153300126433 0.27592219594470802 0 -0.026020885236536499 0.28375069896415028 0 -0.038301841257825528 0.30249669754510639 0 -0.031381153300126433 0.27592219594470802 0 -0.038301841257825528 0.30249669754510639 0 -0.04149474264809256 0.28198581047694221 0 -0.038301841257825528 0.30249669754510639 0 -0.046156641746657359 0.29321548265801989 0 -0.04149474264809256 0.28198581047694221 0 -0.042580392915985393 0.27480400284216838 0 -0.04149474264809256 0.28198581047694221 0 -0.058196099880657409 0.29491556746158909 0 -0.042580392915985393 0.27480400284216838 0 -0.058196099880657409 0.29491556746158909 0 -0.055482349226071412 0.28119940960351553 0 -0.042580392915985393 0.27480400284216838 0 -0.058196099880657409 0.29491556746158909 0 -0.046156641746657359 0.29321548265801989 0 -0.04149474264809256 0.28198581047694221 0 -0.058196099880657409 0.29491556746158909 0 -0.046156641746657359 0.29321548265801989 0 -0.058196099880657409 0.29491556746158909 0 -0.05161753851169891 0.29891794641642488 0 -0.055482349226071412 0.28119940960351553 0 -0.058196099880657409 0.29491556746158909 0 -0.06167517786267579 0.28635318739401772 0 -0.051857336069569403 0.30736303206446641 0 -0.053506373642425192 0.3153409763357794 0 -0.041279657795098762 0.31393110851974271 0 -0.038301841257825528 0.30249669754510639 0 -0.051857336069569403 0.30736303206446641 0 -0.05161753851169891 0.29891794641642488 0 -0.063712020897632796 0.30343805038961968 0 -0.051857336069569403 0.30736303206446641 0 -0.05161753851169891 0.29891794641642488 0 -0.063712020897632796 0.30343805038961968 0 -0.058196099880657409 0.29491556746158909 0 -0.05161753851169891 0.29891794641642488 0 -0.063712020897632796 0.30343805038961968 0 -0.051857336069569403 0.30736303206446641 0 -0.062330256501582582 0.31258662656472103 0 -0.051857336069569403 0.30736303206446641 0 -0.062330256501582582 0.31258662656472103 0 -0.053506373642425192 0.3153409763357794 0 -0.062330256501582582 0.31258662656472103 0 -0.053506373642425192 0.3153409763357794 0 -0.063691795559127101 0.32255124480608699 0 -0.05250356606727042 0.32485743263674383 0 -0.053506373642425192 0.3153409763357794 0 -0.063691795559127101 0.32255124480608699 0 -0.05250356606727042 0.32485743263674383 0 -0.063727474339443729 0.33578375675374322 0 -0.063691795559127101 0.32255124480608699 0 -0.05250356606727042 0.32485743263674383 0 -0.049049024688586657 0.33325998643649751 0 -0.044408311394630973 0.3259447133226252 0 -0.05250356606727042 0.32485743263674383 0 -0.041279657795098762 0.31393110851974271 0 -0.05250356606727042 0.32485743263674383 0 -0.053506373642425192 0.3153409763357794 0 -0.041279657795098762 0.31393110851974271 0 -0.050322470578242323 0.34327037773521191 0 -0.063727474339443729 0.33578375675374322 0 -0.05250356606727042 0.32485743263674383 0 -0.063727474339443729 0.33578375675374322 0 -0.05250356606727042 0.32485743263674383 0 -0.049049024688586657 0.33325998643649751 0 -0.063727474339443729 0.33578375675374322 0 -0.049049024688586657 0.33325998643649751 0 -0.050322470578242323 0.34327037773521191 0 -0.063727474339443729 0.33578375675374322 0 -0.050322470578242323 0.34327037773521191 0 -0.033200440901145947 0.33526759580222432 0 -0.049049024688586657 0.33325998643649751 0 -0.050322470578242323 0.34327037773521191 0 -0.033200440901145947 0.33526759580222432 0 -0.049049024688586657 0.33325998643649751 0 -0.033200440901145947 0.33526759580222432 0 -0.044408311394630973 0.3259447133226252 0 -0.033200440901145947 0.33526759580222432 0 -0.041279657795098762 0.31393110851974271 0 -0.044408311394630973 0.3259447133226252 0 -0.037147981904575189 0.30990897747309598 0 -0.033200440901145947 0.33526759580222432 0 -0.041279657795098762 0.31393110851974271 0 -0.037147981904575189 0.30990897747309598 0 -0.033200440901145947 0.33526759580222432 0 -0.025225846772741051 0.3203168015642972 0 -0.037147981904575189 0.30990897747309598 0 -0.033200440901145947 0.33526759580222432 0 -0.041279657795098762 0.31393110851974271 0 -0.044408311394630973 0.3259447133226252 0 -0.05250356606727042 0.32485743263674383 0 -0.041279657795098762 0.31393110851974271 0 -0.044408311394630973 0.3259447133226252 0 -0.018645460958816109 0.30879987671739112 0 -0.037147981904575189 0.30990897747309598 0 -0.025225846772741051 0.3203168015642972 0 -0.018645460958816109 0.30879987671739112 0 -0.025225846772741051 0.3203168015642972 0 -0.01197531842956702 0.32065364755028802 0 -0.025225846772741051 0.3203168015642972 0 -0.025334401632934971 0.33159103419551039 0 -0.01197531842956702 0.32065364755028802 0 -0.033200440901145947 0.33526759580222432 0 -0.025334401632934971 0.33159103419551039 0 -0.033200440901145947 0.33526759580222432 0 -0.025225846772741051 0.3203168015642972 0 -0.025334401632934971 0.33159103419551039 0 -0.033200440901145947 0.33526759580222432 0 -0.025334401632934971 0.33159103419551039 0 -0.025771399621148071 0.33964336089769609 0 -0.033200440901145947 0.33526759580222432 0 -0.025771399621148071 0.33964336089769609 0 -0.030205706068632199 0.35450548023423362 0 -0.025771399621148071 0.33964336089769609 0 -0.01418893490168553 0.33590755785216769 0 -0.021298131825381671 0.34477425924484317 0 -0.025334401632934971 0.33159103419551039 0 -0.01418893490168553 0.33590755785216769 0 -0.01197531842956702 0.32065364755028802 0 -0.025334401632934971 0.33159103419551039 0 -0.025771399621148071 0.33964336089769609 0 -0.01418893490168553 0.33590755785216769 0 -0.01418893490168553 0.33590755785216769 0 -0.01197531842956702 0.32065364755028802 0 0.0057291878783164267 0.34399202734520518 0 -0.01197531842956702 0.32065364755028802 0 0.0057291878783164267 0.34399202734520518 0 -0.01418893490168553 0.33590755785216769 0 -0.0096192964651944015 0.34642741458209508 0 0.0057291878783164267 0.34399202734520518 0 -0.01418893490168553 0.33590755785216769 0 -0.0096192964651944015 0.34642741458209508 0 -0.021298131825381671 0.34477425924484317 0 -0.0030673297121489879 0.30398241260589998 0 -0.01197531842956702 0.32065364755028802 0 0.0099120985565268119 0.32243435579998092 0 -0.012175680363167071 0.37470336759171202 0 -0.019523422810711101 0.36047147676756891 0 0.0030972754953377149 0.37310501254050282 0 -0.001591559701283281 0.35963231263529361 0 -0.019523422810711101 0.36047147676756891 0 0.0030972754953377149 0.37310501254050282 0 -0.019523422810711101 0.36047147676756891 0 0.0030972754953377149 0.37310501254050282 0 -0.001591559701283281 0.35963231263529361 0 -0.011707098200637339 0.35459710915052428 0 -0.019523422810711101 0.36047147676756891 0 -0.001591559701283281 0.35963231263529361 0 -0.0096192964651944015 0.34642741458209508 0 -0.011707098200637339 0.35459710915052428 0 -0.001591559701283281 0.35963231263529361 0 -0.0096192964651944015 0.34642741458209508 0 0.0057291878783164267 0.34399202734520518 0 -0.0096192964651944015 0.34642741458209508 0 -0.01557524900266004 0.35098458531887389 0 -0.021298131825381671 0.34477425924484317 0 -0.0096192964651944015 0.34642741458209508 0 -0.01557524900266004 0.35098458531887389 0 -0.011707098200637339 0.35459710915052428 0 -0.01557524900266004 0.35098458531887389 0 -0.011707098200637339 0.35459710915052428 0 -0.016702652184403321 0.35652933560673927 0 -0.011707098200637339 0.35459710915052428 0 -0.016702652184403321 0.35652933560673927 0 -0.019523422810711101 0.36047147676756891 0 -0.016702652184403321 0.35652933560673927 0 -0.020787410918216131 0.35312459758914172 0 -0.019523422810711101 0.36047147676756891 0 -0.016702652184403321 0.35652933560673927 0 -0.019523422810711101 0.36047147676756891 0 -0.01557524900266004 0.35098458531887389 0 -0.016702652184403321 0.35652933560673927 0 -0.020787410918216131 0.35312459758914172 0 -0.01557524900266004 0.35098458531887389 0 -0.020787410918216131 0.35312459758914172 0 -0.021298131825381671 0.34477425924484317 0 -0.025771399621148071 0.33964336089769609 0 -0.021298131825381671 0.34477425924484317 0 -0.030205706068632199 0.35450548023423362 0 -0.020787410918216131 0.35312459758914172 0 -0.021298131825381671 0.34477425924484317 0 -0.030205706068632199 0.35450548023423362 0 -0.020787410918216131 0.35312459758914172 0 -0.030205706068632199 0.35450548023423362 0 -0.019523422810711101 0.36047147676756891 0 -0.030205706068632199 0.35450548023423362 0 -0.019523422810711101 0.36047147676756891 0 -0.019523422810711101 0.36047147676756891 0 -0.027534214368005561 0.37166688231892059 0 -0.030205706068632199 0.35450548023423362 0 -0.019523422810711101 0.36047147676756891 0 -0.027534214368005561 0.37166688231892059 0 -0.030205706068632199 0.35450548023423362 0 -0.027534214368005561 0.37166688231892059 0 -0.012175680363167071 0.37470336759171202 0 -0.019523422810711101 0.36047147676756891 0 -0.027534214368005561 0.37166688231892059 0 -0.039981830573164012 0.36453260213463701 0 -0.054315588094894611 0.36816597879346169 0 -0.035071543078266619 0.38220060437144943 0 -0.030205706068632199 0.35450548023423362 0 -0.027534214368005561 0.37166688231892059 0 -0.039981830573164012 0.36453260213463701 0 -0.027534214368005561 0.37166688231892059 0 -0.039981830573164012 0.36453260213463701 0 -0.035071543078266619 0.38220060437144943 0 -0.050322470578242323 0.34327037773521191 0 -0.033200440901145947 0.33526759580222432 0 -0.030205706068632199 0.35450548023423362 0 -0.033200440901145947 0.33526759580222432 0 -0.030205706068632199 0.35450548023423362 0 -0.050322470578242323 0.34327037773521191 0 -0.030205706068632199 0.35450548023423362 0 -0.039981830573164012 0.36453260213463701 0 -0.050322470578242323 0.34327037773521191 0 -0.030205706068632199 0.35450548023423362 0 -0.050322470578242323 0.34327037773521191 0 -0.073559633111523581 0.35413135321547562 0 -0.050322470578242323 0.34327037773521191 0 -0.054315588094894611 0.36816597879346169 0 -0.073559633111523581 0.35413135321547562 0 -0.050322470578242323 0.34327037773521191 0 -0.039981830573164012 0.36453260213463701 0 -0.054315588094894611 0.36816597879346169 0 -0.054315588094894611 0.36816597879346169 0 -0.072605779745620935 0.36503953071207251 0 -0.070975002605854071 0.37658727360828559 0 -0.054315588094894611 0.36816597879346169 0 -0.073559633111523581 0.35413135321547562 0 -0.054315588094894611 0.36816597879346169 0 -0.072605779745620935 0.36503953071207251 0 -0.073559633111523581 0.35413135321547562 0 -0.072605779745620935 0.36503953071207251 0 -0.086318380588340363 0.36009475099720328 0 -0.070975002605854071 0.37658727360828559 0 -0.072605779745620935 0.36503953071207251 0 -0.086318380588340363 0.36009475099720328 0 -0.073559633111523581 0.35413135321547562 0 -0.086318380588340363 0.36009475099720328 0 -0.078362956118279981 0.37800409094153348 0 -0.070975002605854071 0.37658727360828559 0 -0.090900670513243811 0.36223649865880048 0 -0.078362956118279981 0.37800409094153348 0 -0.086318380588340363 0.36009475099720328 0 -0.070975002605854071 0.37658727360828559 0 -0.090900670513243811 0.36223649865880048 0 -0.087379340113807089 0.37351041605755791 0 -0.078362956118279981 0.37800409094153348 0 -0.086318380588340363 0.36009475099720328 0 -0.090900670513243811 0.36223649865880048 0 -0.078362956118279981 0.37800409094153348 0 -0.086318380588340363 0.36009475099720328 0 -0.090900670513243811 0.36223649865880048 0 -0.090900670513243811 0.36223649865880048 0 -0.087379340113807089 0.37351041605755791 0 -0.098034221459727885 0.36837954455818139 0 -0.090683515510266169 0.34792006296284461 0 -0.078713618358473847 0.35037256689414981 0 -0.095676992533552552 0.33800122787053138 0 -0.086318380588340363 0.36009475099720328 0 -0.10089293290221631 0.34442863537016888 0 -0.086318380588340363 0.36009475099720328 0 -0.090683515510266169 0.34792006296284461 0 -0.10089293290221631 0.34442863537016888 0 -0.078713618358473847 0.35037256689414981 0 -0.095676992533552552 0.33800122787053138 0 -0.086318380588340363 0.36009475099720328 0 -0.090900670513243811 0.36223649865880048 0 -0.099654759843843393 0.35480231983490279 0 -0.086318380588340363 0.36009475099720328 0 -0.073559633111523581 0.35413135321547562 0 -0.086318380588340363 0.36009475099720328 0 -0.090683515510266169 0.34792006296284461 0 -0.078713618358473847 0.35037256689414981 0 -0.086318380588340363 0.36009475099720328 0 -0.078713618358473847 0.35037256689414981 0 -0.073559633111523581 0.35413135321547562 0 -0.086318380588340363 0.36009475099720328 0 -0.078713618358473847 0.35037256689414981 0 -0.078713618358473847 0.35037256689414981 0 -0.073559633111523581 0.35413135321547562 0 -0.063727474339443729 0.33578375675374322 0 -0.050322470578242323 0.34327037773521191 0 -0.073559633111523581 0.35413135321547562 0 -0.063727474339443729 0.33578375675374322 0 -0.078713618358473847 0.35037256689414981 0 -0.073559633111523581 0.35413135321547562 0 -0.063727474339443729 0.33578375675374322 0 -0.080602145713177087 0.32635934546580231 0 -0.078713618358473847 0.35037256689414981 0 -0.063727474339443729 0.33578375675374322 0 -0.080602145713177087 0.32635934546580231 0 -0.078713618358473847 0.35037256689414981 0 -0.063727474339443729 0.33578375675374322 0 -0.063727474339443729 0.33578375675374322 0 -0.075106923324438885 0.32211553897145412 0 -0.080602145713177087 0.32635934546580231 0 -0.062330256501582582 0.31258662656472103 0 -0.068416677232013931 0.31735716126590802 0 -0.063691795559127101 0.32255124480608699 0 -0.072537733542907185 0.31217523472136988 0 -0.062330256501582582 0.31258662656472103 0 -0.068416677232013931 0.31735716126590802 0 -0.063727474339443729 0.33578375675374322 0 -0.063691795559127101 0.32255124480608699 0 -0.075106923324438885 0.32211553897145412 0 -0.068416677232013931 0.31735716126590802 0 -0.063691795559127101 0.32255124480608699 0 -0.075106923324438885 0.32211553897145412 0 -0.075106923324438885 0.32211553897145412 0 -0.080602145713177087 0.32635934546580231 0 -0.072537733542907185 0.31217523472136988 0 -0.068416677232013931 0.31735716126590802 0 -0.075106923324438885 0.32211553897145412 0 -0.072537733542907185 0.31217523472136988 0 -0.075106923324438885 0.32211553897145412 0 -0.081952002299895951 0.31534041571553018 0 -0.081952002299895951 0.31534041571553018 0 -0.080602145713177087 0.32635934546580231 0 -0.091299992594436247 0.32038465673430427 0 -0.075106923324438885 0.32211553897145412 0 -0.081952002299895951 0.31534041571553018 0 -0.080602145713177087 0.32635934546580231 0 -0.080602145713177087 0.32635934546580231 0 -0.091299992594436247 0.32038465673430427 0 -0.094778363687407691 0.32713515971644991 0 -0.080602145713177087 0.32635934546580231 0 -0.091299992594436247 0.32038465673430427 0 -0.090851883116161075 0.30767727371843251 0 -0.081952002299895951 0.31534041571553018 0 -0.091299992594436247 0.32038465673430427 0 -0.078713618358473847 0.35037256689414981 0 -0.080602145713177087 0.32635934546580231 0 -0.095676992533552552 0.33800122787053138 0 -0.080602145713177087 0.32635934546580231 0 -0.095676992533552552 0.33800122787053138 0 -0.094778363687407691 0.32713515971644991 0 -0.080602145713177087 0.32635934546580231 0 -0.095676992533552552 0.33800122787053138 0 -0.1011551355329024 0.34223184443034238 0 -0.095676992533552552 0.33800122787053138 0 -0.1022305564553226 0.33322173292733909 0 -0.090683515510266169 0.34792006296284461 0 -0.095676992533552552 0.33800122787053138 0 -0.10089293290221631 0.34442863537016888 0 -0.1011551355329024 0.34223184443034238 0 -0.095676992533552552 0.33800122787053138 0 -0.10089293290221631 0.34442863537016888 0 -0.1011551355329024 0.34223184443034238 0 -0.095676992533552552 0.33800122787053138 0 -0.1011551355329024 0.34223184443034238 0 -0.10089293290221631 0.34442863537016888 0 -0.095676992533552552 0.33800122787053138 0 -0.1022305564553226 0.33322173292733909 0 -0.094778363687407691 0.32713515971644991 0 -0.095676992533552552 0.33800122787053138 0 -0.1022305564553226 0.33322173292733909 0 -0.1011551355329024 0.34223184443034238 0 -0.1022305564553226 0.33322173292733909 0 -0.1127893478720276 0.3316412365910773 0 -0.1022305564553226 0.33322173292733909 0 -0.11603823212865449 0.3231518355637642 0 -0.1011551355329024 0.34223184443034238 0 -0.1022305564553226 0.33322173292733909 0 -0.1011551355329024 0.34223184443034238 0 -0.1127893478720276 0.3316412365910773 0 -0.1070282012050284 0.34676744872038923 0 -0.1011551355329024 0.34223184443034238 0 -0.1127893478720276 0.3316412365910773 0 -0.090851883116161075 0.30767727371843251 0 -0.091299992594436247 0.32038465673430427 0 -0.10408213114055199 0.31770883558427332 0 -0.091299992594436247 0.32038465673430427 0 -0.094778363687407691 0.32713515971644991 0 -0.10408213114055199 0.31770883558427332 0 -0.1022305564553226 0.33322173292733909 0 -0.094778363687407691 0.32713515971644991 0 -0.10408213114055199 0.31770883558427332 0 -0.1022305564553226 0.33322173292733909 0 -0.10408213114055199 0.31770883558427332 0 -0.1022305564553226 0.33322173292733909 0 -0.10408213114055199 0.31770883558427332 0 -0.11603823212865449 0.3231518355637642 0 -0.10408213114055199 0.31770883558427332 0 -0.11321821801889249 0.31622326994205729 0 -0.11603823212865449 0.3231518355637642 0 -0.1179795764000614 0.31045378404471408 0 -0.11321821801889249 0.31622326994205729 0 -0.1199471078808677 0.31949122685410009 0 -0.11321821801889249 0.31622326994205729 0 -0.11603823212865449 0.3231518355637642 0 -0.1199471078808677 0.31949122685410009 0 -0.12659866972882811 0.32544142406830362 0 -0.1233868643277944 0.32025001752787491 0 -0.1127893478720276 0.3316412365910773 0 -0.1233868643277944 0.32025001752787491 0 -0.1127893478720276 0.3316412365910773 0 -0.11603823212865449 0.3231518355637642 0 -0.1233868643277944 0.32025001752787491 0 -0.1127893478720276 0.3316412365910773 0 -0.11603823212865449 0.3231518355637642 0 -0.1199471078808677 0.31949122685410009 0 -0.1233868643277944 0.32025001752787491 0 -0.1179795764000614 0.31045378404471408 0 -0.1199471078808677 0.31949122685410009 0 -0.1233868643277944 0.32025001752787491 0 -0.1179795764000614 0.31045378404471408 0 -0.1199471078808677 0.31949122685410009 0 -0.12659866972882811 0.32544142406830362 0 -0.1070282012050284 0.34676744872038923 0 -0.12659866972882811 0.32544142406830362 0 -0.1127893478720276 0.3316412365910773 0 -0.1070282012050284 0.34676744872038923 0 -0.12659866972882811 0.32544142406830362 0 -0.1190912082138602 0.34111960625399879 0 -0.1070282012050284 0.34676744872038923 0 -0.12815382122005139 0.33966686284917302 0 -0.12659866972882811 0.32544142406830362 0 -0.1190912082138602 0.34111960625399879 0 -0.1022305564553226 0.33322173292733909 0 -0.11603823212865449 0.3231518355637642 0 -0.1127893478720276 0.3316412365910773 0 -0.12701635984211779 0.36220374436656938 0 -0.13125718649065379 0.35200692977406273 0 -0.1145841407015304 0.35260268937813288 0 -0.13125718649065379 0.35200692977406273 0 -0.12815382122005139 0.33966686284917302 0 -0.1145841407015304 0.35260268937813288 0 -0.12815382122005139 0.33966686284917302 0 -0.1145841407015304 0.35260268937813288 0 -0.12815382122005139 0.33966686284917302 0 -0.1190912082138602 0.34111960625399879 0 -0.1145841407015304 0.35260268937813288 0 -0.1190912082138602 0.34111960625399879 0 -0.1145841407015304 0.35260268937813288 0 -0.1070282012050284 0.34676744872038923 0 -0.1145841407015304 0.35260268937813288 0 -0.1070282012050284 0.34676744872038923 0 -0.12701635984211779 0.36220374436656938 0 -0.1145841407015304 0.35260268937813288 0 -0.12701635984211779 0.36220374436656938 0 -0.118265723139686 0.37447539003613622 0 -0.1160875291135124 0.36460405182495359 0 -0.12701635984211779 0.36220374436656938 0 -0.1145841407015304 0.35260268937813288 0 -0.1160875291135124 0.36460405182495359 0 -0.1145841407015304 0.35260268937813288 0 -0.1160875291135124 0.36460405182495359 0 -0.10001132792488431 0.36649479080678521 0 -0.118265723139686 0.37447539003613622 0 -0.1160875291135124 0.36460405182495359 0 -0.1086429842141185 0.37052919936149409 0 -0.1160875291135124 0.36460405182495359 0 -0.1086429842141185 0.37052919936149409 0 -0.10001132792488431 0.36649479080678521 0 -0.1145841407015304 0.35260268937813288 0 -0.10001132792488431 0.36649479080678521 0 -0.1086429842141185 0.37052919936149409 0 -0.098034221459727885 0.36837954455818139 0 -0.1095665303665152 0.38040746279479593 0 -0.1086429842141185 0.37052919936149409 0 -0.10001132792488431 0.36649479080678521 0 -0.098034221459727885 0.36837954455818139 0 -0.1095665303665152 0.38040746279479593 0 -0.1086429842141185 0.37052919936149409 0 -0.098034221459727885 0.36837954455818139 0 -0.10001132792488431 0.36649479080678521 0 -0.098034221459727885 0.36837954455818139 0 -0.10001132792488431 0.36649479080678521 0 -0.10001132792488431 0.36649479080678521 0 -0.098351762623996947 0.3657191152906788 0 -0.099654759843843393 0.35480231983490279 0 -0.098351762623996947 0.3657191152906788 0 -0.099654759843843393 0.35480231983490279 0 -0.090900670513243811 0.36223649865880048 0 -0.098351762623996947 0.3657191152906788 0 -0.099654759843843393 0.35480231983490279 0 -0.098034221459727885 0.36837954455818139 0 -0.098351762623996947 0.3657191152906788 0 -0.098034221459727885 0.36837954455818139 0 -0.10001132792488431 0.36649479080678521 0 -0.098351762623996947 0.3657191152906788 0 -0.10001132792488431 0.36649479080678521 0 -0.098351762623996947 0.3657191152906788 0 -0.090900670513243811 0.36223649865880048 0 -0.098034221459727885 0.36837954455818139 0 -0.090900670513243811 0.36223649865880048 0 -0.098034221459727885 0.36837954455818139 0 -0.098351762623996947 0.3657191152906788 0 -0.090900670513243811 0.36223649865880048 0 -0.098351762623996947 0.3657191152906788 0 -0.086318380588340363 0.36009475099720328 0 -0.099654759843843393 0.35480231983490279 0 -0.10089293290221631 0.34442863537016888 0 -0.090900670513243811 0.36223649865880048 0 -0.099654759843843393 0.35480231983490279 0 -0.099654759843843393 0.35480231983490279 0 -0.10089293290221631 0.34442863537016888 0 -0.1145841407015304 0.35260268937813288 0 -0.099654759843843393 0.35480231983490279 0 -0.1070282012050284 0.34676744872038923 0 -0.099654759843843393 0.35480231983490279 0 -0.10089293290221631 0.34442863537016888 0 -0.1070282012050284 0.34676744872038923 0 -0.099654759843843393 0.35480231983490279 0 -0.1070282012050284 0.34676744872038923 0 -0.1011551355329024 0.34223184443034238 0 -0.1070282012050284 0.34676744872038923 0 -0.1011551355329024 0.34223184443034238 0 -0.10089293290221631 0.34442863537016888 0 -0.1070282012050284 0.34676744872038923 0 -0.1145841407015304 0.35260268937813288 0 -0.10001132792488431 0.36649479080678521 0 -0.099654759843843393 0.35480231983490279 0 -0.094565264379802755 0.3974432250554425 0 -0.1053175690252063 0.38972849613448513 0 -0.11547281320927109 0.40072041715927692 0 -0.094565264379802755 0.3974432250554425 0 -0.11547281320927109 0.40072041715927692 0 -0.093287525807281918 0.4081483980440887 0 -0.094565264379802755 0.3974432250554425 0 -0.11547281320927109 0.40072041715927692 0 -0.094565264379802755 0.3974432250554425 0 -0.093287525807281918 0.4081483980440887 0 -0.098034221459727885 0.36837954455818139 0 -0.094565264379802755 0.3974432250554425 0 -0.098034221459727885 0.36837954455818139 0 -0.094565264379802755 0.3974432250554425 0 -0.1053175690252063 0.38972849613448513 0 -0.098034221459727885 0.36837954455818139 0 -0.1053175690252063 0.38972849613448513 0 -0.1095665303665152 0.38040746279479593 0 -0.1053175690252063 0.38972849613448513 0 -0.1161686245862277 0.38929098601992029 0 -0.1095665303665152 0.38040746279479593 0 -0.118265723139686 0.37447539003613622 0 -0.1086429842141185 0.37052919936149409 0 -0.1095665303665152 0.38040746279479593 0 -0.118265723139686 0.37447539003613622 0 -0.1161686245862277 0.38929098601992029 0 -0.1095665303665152 0.38040746279479593 0 -0.13127355017612369 0.38004814266949161 0 -0.118265723139686 0.37447539003613622 0 -0.1161686245862277 0.38929098601992029 0 -0.13763986096737149 0.39556196965938217 0 -0.1161686245862277 0.38929098601992029 0 -0.11547281320927109 0.40072041715927692 0 -0.1053175690252063 0.38972849613448513 0 -0.1161686245862277 0.38929098601992029 0 -0.11547281320927109 0.40072041715927692 0 -0.11547281320927109 0.40072041715927692 0 -0.1238664612234469 0.41380467532948989 0 -0.1086142289441233 0.41708035094995238 0 -0.13224816607977591 0.43167346915420701 0 -0.1238664612234469 0.41380467532948989 0 -0.1086142289441233 0.41708035094995238 0 -0.13224816607977591 0.43167346915420701 0 -0.1042601904283425 0.43512242607606111 0 -0.1086142289441233 0.41708035094995238 0 -0.1042601904283425 0.43512242607606111 0 -0.1086142289441233 0.41708035094995238 0 -0.093512079823982089 0.42203439158340511 0 -0.1042601904283425 0.43512242607606111 0 -0.088727204495662126 0.43460644338846011 0 -0.093512079823982089 0.42203439158340511 0 -0.11547281320927109 0.40072041715927692 0 -0.1086142289441233 0.41708035094995238 0 -0.093287525807281918 0.4081483980440887 0 -0.1086142289441233 0.41708035094995238 0 -0.093287525807281918 0.4081483980440887 0 -0.093512079823982089 0.42203439158340511 0 -0.093287525807281918 0.4081483980440887 0 -0.083987268441674451 0.41194877308116862 0 -0.093512079823982089 0.42203439158340511 0 -0.083987268441674451 0.41194877308116862 0 -0.093512079823982089 0.42203439158340511 0 -0.081005205959448573 0.42454270055446852 0 -0.083987268441674451 0.41194877308116862 0 -0.081005205959448573 0.42454270055446852 0 -0.074871236693455273 0.41595780856802278 0 -0.093287525807281918 0.4081483980440887 0 -0.083987268441674451 0.41194877308116862 0 -0.080227085939779869 0.40315325338039992 0 -0.083987268441674451 0.41194877308116862 0 -0.075522559462725 0.40770069159292383 0 -0.074871236693455273 0.41595780856802278 0 -0.083987268441674451 0.41194877308116862 0 -0.075522559462725 0.40770069159292383 0 -0.080227085939779869 0.40315325338039992 0 -0.088727204495662126 0.43460644338846011 0 -0.093512079823982089 0.42203439158340511 0 -0.081005205959448573 0.42454270055446852 0 -0.088727204495662126 0.43460644338846011 0 -0.081005205959448573 0.42454270055446852 0 -0.076472635130544531 0.44006030680897418 0 -0.064261890293606516 0.42299529649683798 0 -0.061505896419821952 0.44345821519364759 0 -0.076472635130544531 0.44006030680897418 0 -0.081005205959448573 0.42454270055446852 0 -0.064261890293606516 0.42299529649683798 0 -0.076472635130544531 0.44006030680897418 0 -0.064261890293606516 0.42299529649683798 0 -0.076472635130544531 0.44006030680897418 0 -0.081005205959448573 0.42454270055446852 0 -0.064261890293606516 0.42299529649683798 0 -0.074871236693455273 0.41595780856802278 0 -0.075522559462725 0.40770069159292383 0 -0.074871236693455273 0.41595780856802278 0 -0.06398736693520797 0.40811023771081317 0 -0.064261890293606516 0.42299529649683798 0 -0.074871236693455273 0.41595780856802278 0 -0.06398736693520797 0.40811023771081317 0 -0.075522559462725 0.40770069159292383 0 -0.06398736693520797 0.40811023771081317 0 -0.069039877609657657 0.40144464765627819 0 -0.06398736693520797 0.40811023771081317 0 -0.062753400571047752 0.40157325928078541 0 -0.069039877609657657 0.40144464765627819 0 -0.062753400571047752 0.40157325928078541 0 -0.069039877609657657 0.40144464765627819 0 -0.061663905063795127 0.39620111949101888 0 -0.069039877609657657 0.40144464765627819 0 -0.064804885170755028 0.39277837981000002 0 -0.061663905063795127 0.39620111949101888 0 -0.064804885170755028 0.39277837981000002 0 -0.061663905063795127 0.39620111949101888 0 -0.069039877609657657 0.40144464765627819 0 -0.064804885170755028 0.39277837981000002 0 -0.080227085939779869 0.40315325338039992 0 -0.075522559462725 0.40770069159292383 0 -0.069039877609657657 0.40144464765627819 0 -0.080227085939779869 0.40315325338039992 0 -0.094565264379802755 0.3974432250554425 0 -0.064804885170755028 0.39277837981000002 0 -0.080227085939779869 0.40315325338039992 0 -0.094565264379802755 0.3974432250554425 0 -0.064804885170755028 0.39277837981000002 0 -0.081615068420052561 0.38403174176236798 0 -0.094565264379802755 0.3974432250554425 0 -0.064804885170755028 0.39277837981000002 0 -0.094565264379802755 0.3974432250554425 0 -0.093287525807281918 0.4081483980440887 0 -0.080227085939779869 0.40315325338039992 0 -0.087379340113807089 0.37351041605755791 0 -0.098034221459727885 0.36837954455818139 0 -0.081615068420052561 0.38403174176236798 0 -0.098034221459727885 0.36837954455818139 0 -0.094565264379802755 0.3974432250554425 0 -0.081615068420052561 0.38403174176236798 0 -0.098034221459727885 0.36837954455818139 0 -0.081615068420052561 0.38403174176236798 0 -0.087379340113807089 0.37351041605755791 0 -0.081615068420052561 0.38403174176236798 0 -0.078362956118279981 0.37800409094153348 0 -0.064804885170755028 0.39277837981000002 0 -0.078362956118279981 0.37800409094153348 0 -0.070975002605854071 0.37658727360828559 0 -0.064804885170755028 0.39277837981000002 0 -0.081615068420052561 0.38403174176236798 0 -0.078362956118279981 0.37800409094153348 0 -0.064804885170755028 0.39277837981000002 0 -0.070975002605854071 0.37658727360828559 0 -0.053001483913900638 0.38171950249115238 0 -0.064804885170755028 0.39277837981000002 0 -0.078362956118279981 0.37800409094153348 0 -0.054315588094894611 0.36816597879346169 0 -0.070975002605854071 0.37658727360828559 0 -0.053001483913900638 0.38171950249115238 0 -0.064804885170755028 0.39277837981000002 0 -0.053001483913900638 0.38171950249115238 0 -0.03984040061973311 0.38886527587256359 0 -0.054315588094894611 0.36816597879346169 0 -0.053001483913900638 0.38171950249115238 0 -0.035071543078266619 0.38220060437144943 0 -0.056322452675530238 0.40053703226503112 0 -0.052051145456668502 0.40593028618470173 0 -0.03984040061973311 0.38886527587256359 0 -0.064804885170755028 0.39277837981000002 0 -0.03984040061973311 0.38886527587256359 0 -0.064804885170755028 0.39277837981000002 0 -0.061663905063795127 0.39620111949101888 0 -0.03984040061973311 0.38886527587256359 0 -0.056322452675530238 0.40053703226503112 0 -0.061663905063795127 0.39620111949101888 0 -0.03984040061973311 0.38886527587256359 0 -0.06398736693520797 0.40811023771081317 0 -0.056322452675530238 0.40053703226503112 0 -0.052051145456668502 0.40593028618470173 0 -0.06398736693520797 0.40811023771081317 0 -0.062753400571047752 0.40157325928078541 0 -0.056322452675530238 0.40053703226503112 0 -0.062753400571047752 0.40157325928078541 0 -0.056322452675530238 0.40053703226503112 0 -0.061663905063795127 0.39620111949101888 0 -0.052051145456668502 0.40593028618470173 0 -0.034875435505302671 0.39909111647418721 0 -0.038318355959267122 0.40965180403411439 0 -0.052051145456668502 0.40593028618470173 0 -0.03984040061973311 0.38886527587256359 0 -0.052051145456668502 0.40593028618470173 0 -0.034875435505302671 0.39909111647418721 0 -0.03984040061973311 0.38886527587256359 0 -0.034875435505302671 0.39909111647418721 0 -0.03984040061973311 0.38886527587256359 0 -0.030380522389925519 0.38738246990181802 0 -0.053001483913900638 0.38171950249115238 0 -0.03984040061973311 0.38886527587256359 0 -0.035071543078266619 0.38220060437144943 0 -0.054315588094894611 0.36816597879346169 0 -0.035071543078266619 0.38220060437144943 0 -0.03984040061973311 0.38886527587256359 0 -0.030380522389925519 0.38738246990181802 0 -0.03984040061973311 0.38886527587256359 0 -0.035071543078266619 0.38220060437144943 0 -0.03984040061973311 0.38886527587256359 0 -0.035071543078266619 0.38220060437144943 0 -0.030380522389925519 0.38738246990181802 0 -0.027534214368005561 0.37166688231892059 0 -0.035071543078266619 0.38220060437144943 0 -0.027534214368005561 0.37166688231892059 0 -0.024719151218520839 0.38975057338589431 0 -0.013697671794224439 0.38574692337499578 0 -0.027534214368005561 0.37166688231892059 0 -0.035071543078266619 0.38220060437144943 0 -0.024719151218520839 0.38975057338589431 0 -0.027534214368005561 0.37166688231892059 0 -0.024719151218520839 0.38975057338589431 0 -0.012175680363167071 0.37470336759171202 0 -0.027534214368005561 0.37166688231892059 0 -0.013697671794224439 0.38574692337499578 0 -0.035071543078266619 0.38220060437144943 0 -0.024719151218520839 0.38975057338589431 0 -0.035071543078266619 0.38220060437144943 0 -0.024719151218520839 0.38975057338589431 0 -0.030380522389925519 0.38738246990181802 0 -0.034875435505302671 0.39909111647418721 0 -0.024719151218520839 0.38975057338589431 0 -0.030380522389925519 0.38738246990181802 0 -0.024719151218520839 0.38975057338589431 0 -0.0073846361924769753 0.40239258434337621 0 -0.034875435505302671 0.39909111647418721 0 -0.024719151218520839 0.38975057338589431 0 -0.021166583182995649 0.41257192389824399 0 -0.024719151218520839 0.38975057338589431 0 -0.021166583182995649 0.41257192389824399 0 -0.024719151218520839 0.38975057338589431 0 -0.0073846361924769753 0.40239258434337621 0 -0.021166583182995649 0.41257192389824399 0 -0.0073846361924769753 0.40239258434337621 0 -0.0021436803485691529 0.3877487984419396 0 -0.013697671794224439 0.38574692337499578 0 -0.024719151218520839 0.38975057338589431 0 -0.0073846361924769753 0.40239258434337621 0 -0.013697671794224439 0.38574692337499578 0 -0.0073846361924769753 0.40239258434337621 0 -0.0095685437998134053 0.40849465358090919 0 -0.0073846361924769753 0.40239258434337621 0 -0.0024493134971683549 0.4059919007072369 0 -0.0073846361924769753 0.40239258434337621 0 -0.0024493134971683549 0.4059919007072369 0 -0.0095685437998134053 0.40849465358090919 0 -0.0073846361924769753 0.40239258434337621 0 -0.00081066008714736565 0.39856173207028811 0 -0.0024493134971683549 0.4059919007072369 0 -0.0073846361924769753 0.40239258434337621 0 -0.00081066008714736565 0.39856173207028811 0 -0.0021436803485691529 0.3877487984419396 0 -0.0073846361924769753 0.40239258434337621 0 -0.0021436803485691529 0.3877487984419396 0 -0.012175680363167071 0.37470336759171202 0 -0.0021436803485691529 0.3877487984419396 0 0.0030972754953377149 0.37310501254050282 0 -0.012175680363167071 0.37470336759171202 0 -0.0021436803485691529 0.3877487984419396 0 -0.013697671794224439 0.38574692337499578 0 -0.01809337264895159 0.43231392858173501 0 -0.0071591205622167919 0.43995345895102028 0 0.00033355075188503422 0.42819317677531121 0 -0.0024153172949307172 0.41828168650904263 0 -0.01809337264895159 0.43231392858173501 0 0.00033355075188503422 0.42819317677531121 0 -0.0024153172949307172 0.41828168650904263 0 -0.0095685437998134053 0.40849465358090919 0 -0.01809337264895159 0.43231392858173501 0 -0.0095685437998134053 0.40849465358090919 0 -0.01809337264895159 0.43231392858173501 0 -0.0024493134971683549 0.4059919007072369 0 -0.0024153172949307172 0.41828168650904263 0 -0.0095685437998134053 0.40849465358090919 0 -0.0024493134971683549 0.4059919007072369 0 -0.0095685437998134053 0.40849465358090919 0 -0.0095685437998134053 0.40849465358090919 0 -0.021166583182995649 0.41257192389824399 0 -0.0073846361924769753 0.40239258434337621 0 -0.0095685437998134053 0.40849465358090919 0 -0.021166583182995649 0.41257192389824399 0 -0.0095685437998134053 0.40849465358090919 0 -0.021166583182995649 0.41257192389824399 0 -0.01809337264895159 0.43231392858173501 0 -0.021166583182995649 0.41257192389824399 0 -0.01809337264895159 0.43231392858173501 0 -0.021166583182995649 0.41257192389824399 0 -0.01809337264895159 0.43231392858173501 0 -0.033930286512787587 0.4321614982556064 0 -0.033930286512787587 0.4321614982556064 0 -0.052365220597625939 0.43227208346543428 0 -0.045452515923666087 0.44413064292683052 0 -0.021166583182995649 0.41257192389824399 0 -0.033930286512787587 0.4321614982556064 0 -0.045180259692101633 0.42101388957932462 0 -0.033930286512787587 0.4321614982556064 0 -0.045180259692101633 0.42101388957932462 0 -0.052365220597625939 0.43227208346543428 0 -0.021166583182995649 0.41257192389824399 0 -0.045180259692101633 0.42101388957932462 0 -0.021166583182995649 0.41257192389824399 0 -0.038318355959267122 0.40965180403411439 0 -0.045180259692101633 0.42101388957932462 0 -0.034875435505302671 0.39909111647418721 0 -0.021166583182995649 0.41257192389824399 0 -0.038318355959267122 0.40965180403411439 0 -0.052051145456668502 0.40593028618470173 0 -0.038318355959267122 0.40965180403411439 0 -0.045180259692101633 0.42101388957932462 0 -0.064261890293606516 0.42299529649683798 0 -0.06398736693520797 0.40811023771081317 0 -0.052051145456668502 0.40593028618470173 0 -0.064261890293606516 0.42299529649683798 0 -0.052051145456668502 0.40593028618470173 0 -0.045180259692101633 0.42101388957932462 0 -0.064261890293606516 0.42299529649683798 0 -0.052051145456668502 0.40593028618470173 0 -0.064261890293606516 0.42299529649683798 0 -0.052365220597625939 0.43227208346543428 0 -0.061505896419821952 0.44345821519364759 0 -0.064261890293606516 0.42299529649683798 0 -0.045180259692101633 0.42101388957932462 0 -0.052365220597625939 0.43227208346543428 0 -0.061505896419821952 0.44345821519364759 0 -0.058106842258634633 0.46118533317686372 0 -0.045452515923666087 0.44413064292683052 0 -0.052365220597625939 0.43227208346543428 0 -0.061505896419821952 0.44345821519364759 0 -0.045452515923666087 0.44413064292683052 0 -0.058106842258634633 0.46118533317686372 0 -0.042165519405021792 0.45975818460610057 0 -0.051296919128373877 0.47544220519147928 0 -0.058106842258634633 0.46118533317686372 0 -0.042165519405021792 0.45975818460610057 0 -0.045452515923666087 0.44413064292683052 0 -0.042165519405021792 0.45975818460610057 0 -0.025219839471893692 0.45222603192641952 0 -0.032346306294832823 0.47213813527110499 0 -0.042165519405021792 0.45975818460610057 0 -0.045452515923666087 0.44413064292683052 0 -0.025219839471893692 0.45222603192641952 0 -0.033930286512787587 0.4321614982556064 0 -0.045452515923666087 0.44413064292683052 0 -0.025219839471893692 0.45222603192641952 0 -0.01809337264895159 0.43231392858173501 0 -0.025219839471893692 0.45222603192641952 0 -0.01479905275891465 0.45347631819918038 0 -0.01809337264895159 0.43231392858173501 0 -0.033930286512787587 0.4321614982556064 0 -0.025219839471893692 0.45222603192641952 0 -0.01809337264895159 0.43231392858173501 0 -0.01479905275891465 0.45347631819918038 0 -0.01809337264895159 0.43231392858173501 0 -0.025219839471893692 0.45222603192641952 0 -0.025219839471893692 0.45222603192641952 0 -0.021444106909560581 0.4648086718914019 0 -0.032346306294832823 0.47213813527110499 0 -0.021444106909560581 0.4648086718914019 0 -0.01479905275891465 0.45347631819918038 0 -0.01150473286888126 0.47463870781662632 0 -0.025219839471893692 0.45222603192641952 0 -0.032346306294832823 0.47213813527110499 0 -0.025219839471893692 0.45222603192641952 0 -0.021444106909560581 0.4648086718914019 0 -0.01479905275891465 0.45347631819918038 0 -0.01479905275891465 0.45347631819918038 0 -1.3738009210028041e-05 0.46323242685025401 0 -0.01150473286888126 0.47463870781662632 0 -0.01479905275891465 0.45347631819918038 0 -0.01150473286888126 0.47463870781662632 0 -0.01479905275891465 0.45347631819918038 0 -1.3738009210028041e-05 0.46323242685025401 0 0.0039223924071169819 0.44583041224785569 0 -0.0071591205622167919 0.43995345895102028 0 0.0039223924071169819 0.44583041224785569 0 0.00033355075188503422 0.42819317677531121 0 -0.01479905275891465 0.45347631819918038 0 -0.0071591205622167919 0.43995345895102028 0 0.0039223924071169819 0.44583041224785569 0 -0.01809337264895159 0.43231392858173501 0 -0.01479905275891465 0.45347631819918038 0 -0.0071591205622167919 0.43995345895102028 0 -0.0059336768482065178 0.49768647508268982 0 -0.016599471926355022 0.5 0 0.0091190189355961349 0.5 0 -0.0059336768482065178 0.49768647508268982 0 -0.016599471926355022 0.5 0 -0.022703224982989208 0.49486835684923741 0 -0.0059336768482065178 0.49768647508268982 0 -0.01269568389636999 0.48698457975119241 0 -0.022703224982989208 0.49486835684923741 0 -0.0059336768482065178 0.49768647508268982 0 -0.022703224982989208 0.49486835684923741 0 -0.0059336768482065178 0.49768647508268982 0 -0.01269568389636999 0.48698457975119241 0 0.0036879015414210039 0.48269365979160311 0 -0.01269568389636999 0.48698457975119241 0 -0.01150473286888126 0.47463870781662632 0 0.0036879015414210039 0.48269365979160311 0 -1.3738009210028041e-05 0.46323242685025401 0 -0.01150473286888126 0.47463870781662632 0 0.0036879015414210039 0.48269365979160311 0 -0.021444106909560581 0.4648086718914019 0 -0.01150473286888126 0.47463870781662632 0 -0.032346306294832823 0.47213813527110499 0 -0.01269568389636999 0.48698457975119241 0 -0.01150473286888126 0.47463870781662632 0 -0.026601910993466659 0.48426535871228121 0 -0.01150473286888126 0.47463870781662632 0 -0.026601910993466659 0.48426535871228121 0 -0.032346306294832823 0.47213813527110499 0 -0.022703224982989208 0.49486835684923741 0 -0.039472773117772829 0.49205023861579023 0 -0.026601910993466659 0.48426535871228121 0 -0.022703224982989208 0.49486835684923741 0 -0.039472773117772829 0.49205023861579023 0 -0.016599471926355022 0.5 0 -0.022703224982989208 0.49486835684923741 0 -0.042317962788306268 0.50000000000000422 0 -0.01269568389636999 0.48698457975119241 0 -0.026601910993466659 0.48426535871228121 0 -0.022703224982989208 0.49486835684923741 0 -0.022703224982989208 0.49486835684923741 0 -0.039472773117772829 0.49205023861579023 0 -0.042317962788306268 0.50000000000000422 0 -0.039472773117772829 0.49205023861579023 0 -0.042317962788306268 0.50000000000000422 0 -0.039472773117772829 0.49205023861579023 0 -0.032346306294832823 0.47213813527110499 0 -0.026601910993466659 0.48426535871228121 0 -0.039472773117772829 0.49205023861579023 0 -0.032346306294832823 0.47213813527110499 0 -0.042165519405021792 0.45975818460610057 0 -0.032346306294832823 0.47213813527110499 0 -0.051296919128373877 0.47544220519147928 0 -0.039472773117772829 0.49205023861579023 0 -0.032346306294832823 0.47213813527110499 0 -0.051296919128373877 0.47544220519147928 0 -0.051296919128373877 0.47544220519147928 0 -0.068519304140185852 0.48716897657849578 0 -0.066343926716976837 0.471949661276229 0 -0.058106842258634633 0.46118533317686372 0 -0.051296919128373877 0.47544220519147928 0 -0.066343926716976837 0.471949661276229 0 -0.039472773117772829 0.49205023861579023 0 -0.068519304140185852 0.48716897657849578 0 -0.039472773117772829 0.49205023861579023 0 -0.051296919128373877 0.47544220519147928 0 -0.068519304140185852 0.48716897657849578 0 -0.039472773117772829 0.49205023861579023 0 -0.042317962788306268 0.50000000000000422 0 -0.068519304140185852 0.48716897657849578 0 -0.042317962788306268 0.50000000000000422 0 -0.068519304140185852 0.48716897657849578 0 -0.07068822512275641 0.5 0 -0.068519304140185852 0.48716897657849578 0 -0.07068822512275641 0.5 0 -0.083957962970687139 0.49236417277992561 0 -0.07068822512275641 0.5 0 -0.083957962970687139 0.49236417277992561 0 -0.099058487457206579 0.5 0 -0.083957962970687139 0.49236417277992561 0 -0.099058487457206579 0.5 0 -0.097565835162599687 0.48228771454120672 0 -0.068519304140185852 0.48716897657849578 0 -0.083957962970687139 0.49236417277992561 0 -0.097565835162599687 0.48228771454120672 0 -0.068519304140185852 0.48716897657849578 0 -0.097565835162599687 0.48228771454120672 0 -0.081006595242486157 0.47523800470800442 0 -0.093189971899755447 0.4677890059724728 0 -0.097565835162599687 0.48228771454120672 0 -0.068519304140185852 0.48716897657849578 0 -0.081006595242486157 0.47523800470800442 0 -0.097565835162599687 0.48228771454120672 0 -0.081006595242486157 0.47523800470800442 0 -0.078773952119614382 0.4657647577699493 0 -0.093189971899755447 0.4677890059724728 0 -0.081006595242486157 0.47523800470800442 0 -0.066343926716976837 0.471949661276229 0 -0.078773952119614382 0.4657647577699493 0 -0.068519304140185852 0.48716897657849578 0 -0.081006595242486157 0.47523800470800442 0 -0.066343926716976837 0.471949661276229 0 -0.066343926716976837 0.471949661276229 0 -0.071598193963597526 0.45561511102417579 0 -0.078773952119614382 0.4657647577699493 0 -0.061505896419821952 0.44345821519364759 0 -0.058106842258634633 0.46118533317686372 0 -0.071598193963597526 0.45561511102417579 0 -0.058106842258634633 0.46118533317686372 0 -0.066343926716976837 0.471949661276229 0 -0.071598193963597526 0.45561511102417579 0 -0.061505896419821952 0.44345821519364759 0 -0.071598193963597526 0.45561511102417579 0 -0.076472635130544531 0.44006030680897418 0 -0.071598193963597526 0.45561511102417579 0 -0.076472635130544531 0.44006030680897418 0 -0.088385911135992951 0.45127239191939139 0 -0.088727204495662126 0.43460644338846011 0 -0.076472635130544531 0.44006030680897418 0 -0.088385911135992951 0.45127239191939139 0 -0.088385911135992951 0.45127239191939139 0 -0.078773952119614382 0.4657647577699493 0 -0.093189971899755447 0.4677890059724728 0 -0.071598193963597526 0.45561511102417579 0 -0.088385911135992951 0.45127239191939139 0 -0.078773952119614382 0.4657647577699493 0 -0.088385911135992951 0.45127239191939139 0 -0.093189971899755447 0.4677890059724728 0 -0.1038806969411479 0.45788126042214372 0 -0.093189971899755447 0.4677890059724728 0 -0.1038806969411479 0.45788126042214372 0 -0.1095268407966916 0.47428990647414182 0 -0.1042601904283425 0.43512242607606111 0 -0.1038806969411479 0.45788126042214372 0 -0.1171262558925196 0.44600662117442902 0 -0.1042601904283425 0.43512242607606111 0 -0.088385911135992951 0.45127239191939139 0 -0.1038806969411479 0.45788126042214372 0 -0.1042601904283425 0.43512242607606111 0 -0.088727204495662126 0.43460644338846011 0 -0.088385911135992951 0.45127239191939139 0 -0.13224816607977591 0.43167346915420701 0 -0.1042601904283425 0.43512242607606111 0 -0.1171262558925196 0.44600662117442902 0 -0.12811597012081199 0.45934932904530418 0 -0.1038806969411479 0.45788126042214372 0 -0.1095268407966916 0.47428990647414182 0 -0.12811597012081199 0.45934932904530418 0 -0.1038806969411479 0.45788126042214372 0 -0.1171262558925196 0.44600662117442902 0 -0.12811597012081199 0.45934932904530418 0 -0.1095268407966916 0.47428990647414182 0 -0.12398377416184821 0.48702518893640129 0 -0.1095268407966916 0.47428990647414182 0 -0.12398377416184821 0.48702518893640129 0 -0.1115127374740006 0.48872056199034991 0 -0.12742874979165689 0.5 0 -0.12398377416184821 0.48702518893640129 0 -0.1115127374740006 0.48872056199034991 0 -0.12742874979165689 0.5 0 -0.1115127374740006 0.48872056199034991 0 -0.099058487457206579 0.5 0 -0.1115127374740006 0.48872056199034991 0 -0.099058487457206579 0.5 0 -0.097565835162599687 0.48228771454120672 0 -0.093189971899755447 0.4677890059724728 0 -0.1095268407966916 0.47428990647414182 0 -0.097565835162599687 0.48228771454120672 0 -0.1095268407966916 0.47428990647414182 0 -0.1115127374740006 0.48872056199034991 0 -0.097565835162599687 0.48228771454120672 0 -0.1732778079805897 0.08297307356059716 0 -0.18049833070852089 0.10896159964213149 0 -0.19436101296937941 0.076155875435190229 0 -0.15725569068189721 0.073139268152403736 0 -0.1732778079805897 0.08297307356059716 0 -0.16138432819531359 0.095225337982682179 0 -0.15725569068189721 0.073139268152403736 0 -0.1732778079805897 0.08297307356059716 0 -0.17288967734783731 0.061383286590578123 0 -0.15725569068189721 0.073139268152403736 0 -0.15002857150577911 0.053122118393849047 0 -0.17288967734783731 0.061383286590578123 0 -0.1732778079805897 0.08297307356059716 0 -0.17288967734783731 0.061383286590578123 0 -0.19436101296937941 0.076155875435190229 0 -0.17288967734783731 0.061383286590578123 0 -0.19066244231241411 0.057289196207856073 0 -0.19436101296937941 0.076155875435190229 0 -0.18049833070852089 0.10896159964213149 0 -0.16314867528919161 0.1152643503158856 0 -0.17898550515640499 0.12918310168739591 0 -0.16314867528919161 0.1152643503158856 0 -0.15643569559827719 0.12897096520979531 0 -0.17898550515640499 0.12918310168739591 0 -0.1732778079805897 0.08297307356059716 0 -0.18049833070852089 0.10896159964213149 0 -0.16138432819531359 0.095225337982682179 0 -0.18049833070852089 0.10896159964213149 0 -0.16138432819531359 0.095225337982682179 0 -0.16314867528919161 0.1152643503158856 0 -0.16138432819531359 0.095225337982682179 0 -0.15092198441102689 0.1079692268029297 0 -0.18049833070852089 0.10896159964213149 0 -0.16314867528919161 0.1152643503158856 0 -0.16138432819531359 0.095225337982682179 0 -0.16138432819531359 0.095225337982682179 0 -0.15092198441102689 0.1079692268029297 0 -0.14460471961703891 0.097505386423658164 0 -0.15092198441102689 0.1079692268029297 0 -0.14460471961703891 0.097505386423658164 0 -0.1403222725145282 0.1088786932539121 0 -0.16314867528919161 0.1152643503158856 0 -0.1477861446903864 0.1186741318909751 0 -0.15643569559827719 0.12897096520979531 0 -0.16314867528919161 0.1152643503158856 0 -0.15092198441102689 0.1079692268029297 0 -0.1477861446903864 0.1186741318909751 0 -0.15092198441102689 0.1079692268029297 0 -0.1477861446903864 0.1186741318909751 0 -0.1403222725145282 0.1088786932539121 0 -0.1477861446903864 0.1186741318909751 0 -0.13854116054057369 0.12067136342041949 0 -0.1403222725145282 0.1088786932539121 0 -0.1477861446903864 0.1186741318909751 0 -0.13854116054057369 0.12067136342041949 0 -0.14418489290791831 0.12866112795494999 0 -0.13854116054057369 0.12067136342041949 0 -0.12862712338883289 0.1164633851577651 0 -0.13511318435829309 0.12870354691668651 0 -0.13854116054057369 0.12067136342041949 0 -0.12862712338883289 0.1164633851577651 0 -0.1403222725145282 0.1088786932539121 0 -0.14460471961703891 0.097505386423658164 0 -0.1403222725145282 0.1088786932539121 0 -0.1314525024393102 0.091988665827725205 0 -0.12862712338883289 0.1164633851577651 0 -0.1314525024393102 0.091988665827725205 0 -0.1193711117173407 0.1025978522562779 0 -0.12862712338883289 0.1164633851577651 0 -0.1314525024393102 0.091988665827725205 0 -0.12862712338883289 0.1164633851577651 0 -0.1403222725145282 0.1088786932539121 0 -0.1314525024393102 0.091988665827725205 0 -0.1314525024393102 0.091988665827725205 0 -0.14227032568210629 0.081489076323232795 0 -0.123156323168899 0.067752814663783412 0 -0.14460471961703891 0.097505386423658164 0 -0.1314525024393102 0.091988665827725205 0 -0.14227032568210629 0.081489076323232795 0 -0.15725569068189721 0.073139268152403736 0 -0.16138432819531359 0.095225337982682179 0 -0.14227032568210629 0.081489076323232795 0 -0.16138432819531359 0.095225337982682179 0 -0.14460471961703891 0.097505386423658164 0 -0.14227032568210629 0.081489076323232795 0 -0.16138432819531359 0.095225337982682179 0 -0.14227032568210629 0.081489076323232795 0 -0.15725569068189721 0.073139268152403736 0 -0.1393209105819842 0.065592601106966297 0 -0.15002857150577911 0.053122118393849047 0 -0.15725569068189721 0.073139268152403736 0 -0.14227032568210629 0.081489076323232795 0 -0.1393209105819842 0.065592601106966297 0 -0.14227032568210629 0.081489076323232795 0 -0.123156323168899 0.067752814663783412 0 -0.14227032568210629 0.081489076323232795 0 -0.1393209105819842 0.065592601106966297 0 -0.123156323168899 0.067752814663783412 0 -0.1393209105819842 0.065592601106966297 0 -0.1271714607644209 0.048230862471032102 0 -0.15002857150577911 0.053122118393849047 0 -0.1393209105819842 0.065592601106966297 0 -0.1271714607644209 0.048230862471032102 0 -0.123156323168899 0.067752814663783412 0 -0.1271714607644209 0.048230862471032102 0 -0.14367521878076139 0.031793616915548481 0 -0.15002857150577911 0.053122118393849047 0 -0.1271714607644209 0.048230862471032102 0 -0.14367521878076139 0.031793616915548481 0 -0.1207933829102136 0.02234599715803123 0 -0.14367521878076139 0.031793616915548481 0 -0.15002857150577911 0.053122118393849047 0 -0.16279467508210019 0.039129461478423833 0 -0.12824419707017101 -0.0061544405190142289 0 -0.14617263381253279 0.0085748710403351774 0 -0.1207933829102136 0.02234599715803123 0 -0.14617263381253279 0.0085748710403351774 0 -0.1207933829102136 0.02234599715803123 0 -0.14367521878076139 0.031793616915548481 0 -0.14617263381253279 0.0085748710403351774 0 -0.1207933829102136 0.02234599715803123 0 -0.14367521878076139 0.031793616915548481 0 -0.1207933829102136 0.02234599715803123 0 -0.14367521878076139 0.031793616915548481 0 -0.14617263381253279 0.0085748710403351774 0 -0.15730659163397689 0.022246237403773829 0 -0.14367521878076139 0.031793616915548481 0 -0.15730659163397689 0.022246237403773829 0 -0.16279467508210019 0.039129461478423833 0 -0.14617263381253279 0.0085748710403351774 0 -0.16486266640794481 0.01031538406261129 0 -0.15730659163397689 0.022246237403773829 0 -0.17155188471485269 -0.0051962550773594907 0 -0.14617263381253279 0.0085748710403351774 0 -0.17155188471485269 -0.0051962550773594907 0 -0.14617263381253279 0.0085748710403351774 0 -0.16486266640794481 0.01031538406261129 0 -0.17155188471485269 -0.0051962550773594907 0 -0.16486266640794481 0.01031538406261129 0 -0.17765711101168691 0.0050835372579574462 0 -0.15730659163397689 0.022246237403773829 0 -0.1731644537240985 0.022140957392018799 0 -0.16279467508210019 0.039129461478423833 0 -0.16486266640794481 0.01031538406261129 0 -0.15730659163397689 0.022246237403773829 0 -0.1731644537240985 0.022140957392018799 0 -0.18569121639536859 0.026220631269196409 0 -0.1731644537240985 0.022140957392018799 0 -0.18491497613297769 0.040452925107098282 0 -0.18569121639536859 0.026220631269196409 0 -0.1731644537240985 0.022140957392018799 0 -0.18449391381342731 0.01463130878821679 0 -0.1731644537240985 0.022140957392018799 0 -0.18449391381342731 0.01463130878821679 0 -0.17765711101168691 0.0050835372579574462 0 -0.16486266640794481 0.01031538406261129 0 -0.1731644537240985 0.022140957392018799 0 -0.17765711101168691 0.0050835372579574462 0 -0.18669657653120819 -0.003531985954932391 0 -0.18449391381342731 0.01463130878821679 0 -0.17765711101168691 0.0050835372579574462 0 -0.15002857150577911 0.053122118393849047 0 -0.16279467508210019 0.039129461478423833 0 -0.17288967734783731 0.061383286590578123 0 -0.1731644537240985 0.022140957392018799 0 -0.16279467508210019 0.039129461478423833 0 -0.18491497613297769 0.040452925107098282 0 -0.18491497613297769 0.040452925107098282 0 -0.17288967734783731 0.061383286590578123 0 -0.19066244231241411 0.057289196207856073 0 -0.16279467508210019 0.039129461478423833 0 -0.18491497613297769 0.040452925107098282 0 -0.17288967734783731 0.061383286590578123 0 -0.2104841027994622 0.051164697698557658 0 -0.19859033966533521 0.02381635587181264 0 -0.21781925314516359 0.019852318789391709 0 -0.19066244231241411 0.057289196207856073 0 -0.2104841027994622 0.051164697698557658 0 -0.19436101296937941 0.076155875435190229 0 -0.18491497613297769 0.040452925107098282 0 -0.19066244231241411 0.057289196207856073 0 -0.2104841027994622 0.051164697698557658 0 -0.18491497613297769 0.040452925107098282 0 -0.2104841027994622 0.051164697698557658 0 -0.19859033966533521 0.02381635587181264 0 -0.2104841027994622 0.051164697698557658 0 -0.19859033966533521 0.02381635587181264 0 -0.18669657653120819 -0.003531985954932391 0 -0.1939900159086764 0.0079059307744385951 0 -0.19859033966533521 0.02381635587181264 0 -0.18669657653120819 -0.003531985954932391 0 -0.18449391381342731 0.01463130878821679 0 -0.19859033966533521 0.02381635587181264 0 -0.1939900159086764 0.0079059307744385951 0 -0.19859033966533521 0.02381635587181264 0 -0.205609453213391 0.0095105741424940781 0 -0.18669657653120819 -0.003531985954932391 0 -0.19859033966533521 0.02381635587181264 0 -0.2019254765814249 -0.004198978970034007 0 -0.1939900159086764 0.0079059307744385951 0 -0.205609453213391 0.0095105741424940781 0 -0.18569121639536859 0.026220631269196409 0 -0.18491497613297769 0.040452925107098282 0 -0.19859033966533521 0.02381635587181264 0 -0.18569121639536859 0.026220631269196409 0 -0.18449391381342731 0.01463130878821679 0 -0.19859033966533521 0.02381635587181264 0 -0.19859033966533521 0.02381635587181264 0 -0.21781925314516359 0.019852318789391709 0 -0.205609453213391 0.0095105741424940781 0 -0.21781925314516359 0.019852318789391709 0 -0.205609453213391 0.0095105741424940781 0 -0.21572218076635499 0.00017724424686144791 0 -0.2019254765814249 -0.004198978970034007 0 -0.205609453213391 0.0095105741424940781 0 -0.21572218076635499 0.00017724424686144791 0 -0.21781925314516359 0.019852318789391709 0 -0.22980685801452211 0.0048618803449108072 0 -0.2371250727639764 0.018193931370181531 0 -0.21781925314516359 0.019852318789391709 0 -0.21572218076635499 0.00017724424686144791 0 -0.22980685801452211 0.0048618803449108072 0 -0.21781925314516359 0.019852318789391709 0 -0.2371250727639764 0.018193931370181531 0 -0.23039752500925809 0.037860878562832767 0 -0.25611184719486663 0.01837952051823143 0 -0.2371250727639764 0.018193931370181531 0 -0.24576610333036999 0.031283544236800437 0 -0.2371250727639764 0.018193931370181531 0 -0.23039752500925809 0.037860878562832767 0 -0.24576610333036999 0.031283544236800437 0 -0.24118838398416581 -0.0052626334370533103 0 -0.25817912032164159 -0.001189089740970712 0 -0.24448225645583449 0.0069967218110599501 0 -0.25611184719486663 0.01837952051823143 0 -0.2371250727639764 0.018193931370181531 0 -0.24448225645583449 0.0069967218110599501 0 -0.22980685801452211 0.0048618803449108072 0 -0.2371250727639764 0.018193931370181531 0 -0.24448225645583449 0.0069967218110599501 0 -0.24118838398416581 -0.0052626334370533103 0 -0.22980685801452211 0.0048618803449108072 0 -0.24448225645583449 0.0069967218110599501 0 -0.2104841027994622 0.051164697698557658 0 -0.21781925314516359 0.019852318789391709 0 -0.23039752500925809 0.037860878562832767 0 -0.2104841027994622 0.051164697698557658 0 -0.22983068019341049 0.057873864844072982 0 -0.23039752500925809 0.037860878562832767 0 -0.23039752500925809 0.037860878562832767 0 -0.24576610333036999 0.031283544236800437 0 -0.24942163780031201 0.051326967561118542 0 -0.22983068019341049 0.057873864844072982 0 -0.23039752500925809 0.037860878562832767 0 -0.24942163780031201 0.051326967561118542 0 -0.22983068019341049 0.057873864844072982 0 -0.24942163780031201 0.051326967561118542 0 -0.24866172691815619 0.078890763089557031 0 -0.24866172691815619 0.078890763089557031 0 -0.2223778659335891 0.078513039525302697 0 -0.2342716290677162 0.10586138135204801 0 -0.2223778659335891 0.078513039525302697 0 -0.2342716290677162 0.10586138135204801 0 -0.2223778659335891 0.078513039525302697 0 -0.20769345895193769 0.096207751237176842 0 -0.2342716290677162 0.10586138135204801 0 -0.22983068019341049 0.057873864844072982 0 -0.24866172691815619 0.078890763089557031 0 -0.2223778659335891 0.078513039525302697 0 -0.2104841027994622 0.051164697698557658 0 -0.22983068019341049 0.057873864844072982 0 -0.2223778659335891 0.078513039525302697 0 -0.2104841027994622 0.051164697698557658 0 -0.2223778659335891 0.078513039525302697 0 -0.19436101296937941 0.076155875435190229 0 -0.2104841027994622 0.051164697698557658 0 -0.2223778659335891 0.078513039525302697 0 -0.2223778659335891 0.078513039525302697 0 -0.19436101296937941 0.076155875435190229 0 -0.20769345895193769 0.096207751237176842 0 -0.18049833070852089 0.10896159964213149 0 -0.19436101296937941 0.076155875435190229 0 -0.20769345895193769 0.096207751237176842 0 -0.18049833070852089 0.10896159964213149 0 -0.20590702926490431 0.11740893135798131 0 -0.17898550515640499 0.12918310168739591 0 -0.18049833070852089 0.10896159964213149 0 -0.20769345895193769 0.096207751237176842 0 -0.20590702926490431 0.11740893135798131 0 -0.20769345895193769 0.096207751237176842 0 -0.20590702926490431 0.11740893135798131 0 -0.2342716290677162 0.10586138135204801 0 -0.20590702926490431 0.11740893135798131 0 -0.2342716290677162 0.10586138135204801 0 -0.2232094400674362 0.1327471864750745 0 -0.26406651782079632 0.11008915032212981 0 -0.24866172691815619 0.078890763089557031 0 -0.2342716290677162 0.10586138135204801 0 -0.2342716290677162 0.10586138135204801 0 -0.2461653922018433 0.13320972317879329 0 -0.26406651782079632 0.11008915032212981 0 -0.2342716290677162 0.10586138135204801 0 -0.2461653922018433 0.13320972317879329 0 -0.2342716290677162 0.10586138135204801 0 -0.2461653922018433 0.13320972317879329 0 -0.2232094400674362 0.1327471864750745 0 -0.2461653922018433 0.13320972317879329 0 -0.2232094400674362 0.1327471864750745 0 -0.2266621362031013 0.1559590264229023 0 -0.25591125070958259 0.1538576222313196 0 -0.2461653922018433 0.13320972317879329 0 -0.2266621362031013 0.1559590264229023 0 -0.25591125070958259 0.1538576222313196 0 -0.2266621362031013 0.1559590264229023 0 -0.24746113360106001 0.17393299545228461 0 -0.24746113360106001 0.17393299545228461 0 -0.2288750003717426 0.1752616250166647 0 -0.23048764481999859 0.1933063021378203 0 -0.25259339037997969 0.19219395951802801 0 -0.24746113360106001 0.17393299545228461 0 -0.23048764481999859 0.1933063021378203 0 -0.2288750003717426 0.1752616250166647 0 -0.2108890868628106 0.17784817605365169 0 -0.23048764481999859 0.1933063021378203 0 -0.2266621362031013 0.1559590264229023 0 -0.2288750003717426 0.1752616250166647 0 -0.2108890868628106 0.17784817605365169 0 -0.2266621362031013 0.1559590264229023 0 -0.24746113360106001 0.17393299545228461 0 -0.2288750003717426 0.1752616250166647 0 -0.2266621362031013 0.1559590264229023 0 -0.2108890868628106 0.17784817605365169 0 -0.1985094678419331 0.16131548240508681 0 -0.2108890868628106 0.17784817605365169 0 -0.18845965945712481 0.18330056410584261 0 -0.20566642488578549 0.19531027112720251 0 -0.2108890868628106 0.17784817605365169 0 -0.18845965945712481 0.18330056410584261 0 -0.1985094678419331 0.16131548240508681 0 -0.18845965945712481 0.18330056410584261 0 -0.1985094678419331 0.16131548240508681 0 -0.17936155474269991 0.16692169686576799 0 -0.1985094678419331 0.16131548240508681 0 -0.2029570882210838 0.1406585215388296 0 -0.1804297817993302 0.1496408125466753 0 -0.20590702926490431 0.11740893135798131 0 -0.2029570882210838 0.1406585215388296 0 -0.17898550515640499 0.12918310168739591 0 -0.20590702926490431 0.11740893135798131 0 -0.2232094400674362 0.1327471864750745 0 -0.2029570882210838 0.1406585215388296 0 -0.2232094400674362 0.1327471864750745 0 -0.2266621362031013 0.1559590264229023 0 -0.2029570882210838 0.1406585215388296 0 -0.2266621362031013 0.1559590264229023 0 -0.1985094678419331 0.16131548240508681 0 -0.2029570882210838 0.1406585215388296 0 -0.23197882531028971 0.25571583461128811 0 -0.23148801338170619 0.22828652191391849 0 -0.21209459799748009 0.2429081262999141 0 -0.25432028203104129 0.24270748593351471 0 -0.23197882531028971 0.25571583461128811 0 -0.23148801338170619 0.22828652191391849 0 -0.25491005090595248 0.22540674284680309 0 -0.23148801338170619 0.22828652191391849 0 -0.24529820004220371 0.21094513160347569 0 -0.25491005090595248 0.22540674284680309 0 -0.25432028203104129 0.24270748593351471 0 -0.23148801338170619 0.22828652191391849 0 -0.23057974672038131 0.2107173937288867 0 -0.23048764481999859 0.1933063021378203 0 -0.21504512863761691 0.21033161926033239 0 -0.23148801338170619 0.22828652191391849 0 -0.23057974672038131 0.2107173937288867 0 -0.21504512863761691 0.21033161926033239 0 -0.23057974672038131 0.2107173937288867 0 -0.24529820004220371 0.21094513160347569 0 -0.23048764481999859 0.1933063021378203 0 -0.23148801338170619 0.22828652191391849 0 -0.23057974672038131 0.2107173937288867 0 -0.24529820004220371 0.21094513160347569 0 -0.25259339037997969 0.19219395951802801 0 -0.24529820004220371 0.21094513160347569 0 -0.23048764481999859 0.1933063021378203 0 -0.2108890868628106 0.17784817605365169 0 -0.23048764481999859 0.1933063021378203 0 -0.20566642488578549 0.19531027112720251 0 -0.23048764481999859 0.1933063021378203 0 -0.20566642488578549 0.19531027112720251 0 -0.21504512863761691 0.21033161926033239 0 -0.18845965945712481 0.18330056410584261 0 -0.20566642488578549 0.19531027112720251 0 -0.18934979779550859 0.20928412962100201 0 -0.20566642488578549 0.19531027112720251 0 -0.18934979779550859 0.20928412962100201 0 -0.21504512863761691 0.21033161926033239 0 -0.18934979779550859 0.20928412962100201 0 -0.21504512863761691 0.21033161926033239 0 -0.2080211643250556 0.2257689115656539 0 -0.23148801338170619 0.22828652191391849 0 -0.21504512863761691 0.21033161926033239 0 -0.2080211643250556 0.2257689115656539 0 -0.2080211643250556 0.2257689115656539 0 -0.19215925722266131 0.2326581227356472 0 -0.21209459799748009 0.2429081262999141 0 -0.23148801338170619 0.22828652191391849 0 -0.2080211643250556 0.2257689115656539 0 -0.21209459799748009 0.2429081262999141 0 -0.18934979779550859 0.20928412962100201 0 -0.2080211643250556 0.2257689115656539 0 -0.19215925722266131 0.2326581227356472 0 -0.19482502474999311 0.2609512579031541 0 -0.19215925722266131 0.2326581227356472 0 -0.17849377319884591 0.24269897425522749 0 -0.19482502474999311 0.2609512579031541 0 -0.19215925722266131 0.2326581227356472 0 -0.19482502474999311 0.2609512579031541 0 -0.19215925722266131 0.2326581227356472 0 -0.21209459799748009 0.2429081262999141 0 -0.17226288588278491 0.2564915843350204 0 -0.16261589891747871 0.24102335722148741 0 -0.17849377319884591 0.24269897425522749 0 -0.16261589891747871 0.24102335722148741 0 -0.17849377319884591 0.24269897425522749 0 -0.17060579922131111 0.22237054908082829 0 -0.17226288588278491 0.2564915843350204 0 -0.15521917341752831 0.25110757725784449 0 -0.16261589891747871 0.24102335722148741 0 -0.18934979779550859 0.20928412962100201 0 -0.19215925722266131 0.2326581227356472 0 -0.17060579922131111 0.22237054908082829 0 -0.19215925722266131 0.2326581227356472 0 -0.17849377319884591 0.24269897425522749 0 -0.17060579922131111 0.22237054908082829 0 -0.17060579922131111 0.22237054908082829 0 -0.1540235068857522 0.21635233008068111 0 -0.16261589891747871 0.24102335722148741 0 -0.17060579922131111 0.22237054908082829 0 -0.1550086627111506 0.22932431964877301 0 -0.17060579922131111 0.22237054908082829 0 -0.1540235068857522 0.21635233008068111 0 -0.1550086627111506 0.22932431964877301 0 -0.17060579922131111 0.22237054908082829 0 -0.16512873190434929 0.20766829243588081 0 -0.1540235068857522 0.21635233008068111 0 -0.16512873190434929 0.20766829243588081 0 -0.1508915201631634 0.20702264836740711 0 -0.1540235068857522 0.21635233008068111 0 -0.18934979779550859 0.20928412962100201 0 -0.16512873190434929 0.20766829243588081 0 -0.17038724595430241 0.19335248834279459 0 -0.18934979779550859 0.20928412962100201 0 -0.17060579922131111 0.22237054908082829 0 -0.16512873190434929 0.20766829243588081 0 -0.18845965945712481 0.18330056410584261 0 -0.18934979779550859 0.20928412962100201 0 -0.17038724595430241 0.19335248834279459 0 -0.16512873190434929 0.20766829243588081 0 -0.17038724595430241 0.19335248834279459 0 -0.15104166373316039 0.19515578365580391 0 -0.17038724595430241 0.19335248834279459 0 -0.15104166373316039 0.19515578365580391 0 -0.15759967676330211 0.18480523321100659 0 -0.15104166373316039 0.19515578365580391 0 -0.15759967676330211 0.18480523321100659 0 -0.14617498233112389 0.1830636304291689 0 -0.1374412145501932 0.21033411108053451 0 -0.13270070635420761 0.18207059632993389 0 -0.1374412145501932 0.21033411108053451 0 -0.13270070635420761 0.18207059632993389 0 -0.11858081317224239 0.2034890969156477 0 -0.15104166373316039 0.19515578365580391 0 -0.1374412145501932 0.21033411108053451 0 -0.13270070635420761 0.18207059632993389 0 -0.1374412145501932 0.21033411108053451 0 -0.12961303252961151 0.21716920605029 0 -0.11858081317224239 0.2034890969156477 0 -0.1374412145501932 0.21033411108053451 0 -0.11858081317224239 0.2034890969156477 0 -0.1374412145501932 0.21033411108053451 0 -0.12961303252961151 0.21716920605029 0 -0.1380060107995508 0.21370149838688471 0 -0.12961303252961151 0.21716920605029 0 -0.1380060107995508 0.21370149838688471 0 -0.13543918107367281 0.221546766677061 0 -0.1374412145501932 0.21033411108053451 0 -0.1380060107995508 0.21370149838688471 0 -0.1374412145501932 0.21033411108053451 0 -0.1540235068857522 0.21635233008068111 0 -0.1374412145501932 0.21033411108053451 0 -0.1508915201631634 0.20702264836740711 0 -0.1540235068857522 0.21635233008068111 0 -0.1374412145501932 0.21033411108053451 0 -0.1380060107995508 0.21370149838688471 0 -0.1540235068857522 0.21635233008068111 0 -0.15104166373316039 0.19515578365580391 0 -0.1374412145501932 0.21033411108053451 0 -0.1508915201631634 0.20702264836740711 0 -0.16512873190434929 0.20766829243588081 0 -0.15104166373316039 0.19515578365580391 0 -0.1508915201631634 0.20702264836740711 0 -0.1380060107995508 0.21370149838688471 0 -0.1540235068857522 0.21635233008068111 0 -0.1440920883529983 0.22664453866280501 0 -0.1540235068857522 0.21635233008068111 0 -0.1550086627111506 0.22932431964877301 0 -0.1440920883529983 0.22664453866280501 0 -0.1550086627111506 0.22932431964877301 0 -0.1440920883529983 0.22664453866280501 0 -0.14370602017821249 0.24023082319806299 0 -0.1380060107995508 0.21370149838688471 0 -0.1440920883529983 0.22664453866280501 0 -0.13543918107367281 0.221546766677061 0 -0.1440920883529983 0.22664453866280501 0 -0.13543918107367281 0.221546766677061 0 -0.1300455926125306 0.2286718236082643 0 -0.12961303252961151 0.21716920605029 0 -0.13543918107367281 0.221546766677061 0 -0.1300455926125306 0.2286718236082643 0 -0.12961303252961151 0.21716920605029 0 -0.1300455926125306 0.2286718236082643 0 -0.1161000036979495 0.22497899774305591 0 -0.1440920883529983 0.22664453866280501 0 -0.1300455926125306 0.2286718236082643 0 -0.14370602017821249 0.24023082319806299 0 -0.1300455926125306 0.2286718236082643 0 -0.13037591162038581 0.2494816563480477 0 -0.14370602017821249 0.24023082319806299 0 -0.14328539404170859 0.25663489157922009 0 -0.13037591162038581 0.2494816563480477 0 -0.14370602017821249 0.24023082319806299 0 -0.16261589891747871 0.24102335722148741 0 -0.1550086627111506 0.22932431964877301 0 -0.14370602017821249 0.24023082319806299 0 -0.14328539404170859 0.25663489157922009 0 -0.15521917341752831 0.25110757725784449 0 -0.14370602017821249 0.24023082319806299 0 -0.15521917341752831 0.25110757725784449 0 -0.16261589891747871 0.24102335722148741 0 -0.14370602017821249 0.24023082319806299 0 -0.16361479841142601 0.14358083056537849 0 -0.16051399451487119 0.16028351657155121 0 -0.14594333757479411 0.14864925912762131 0 -0.16361479841142601 0.14358083056537849 0 -0.1804297817993302 0.1496408125466753 0 -0.16051399451487119 0.16028351657155121 0 -0.16361479841142601 0.14358083056537849 0 -0.15643569559827719 0.12897096520979531 0 -0.14984749575449799 0.13770323100756979 0 -0.16361479841142601 0.14358083056537849 0 -0.15643569559827719 0.12897096520979531 0 -0.17898550515640499 0.12918310168739591 0 -0.2029570882210838 0.1406585215388296 0 -0.17898550515640499 0.12918310168739591 0 -0.1804297817993302 0.1496408125466753 0 -0.16361479841142601 0.14358083056537849 0 -0.17898550515640499 0.12918310168739591 0 -0.1804297817993302 0.1496408125466753 0 -0.1804297817993302 0.1496408125466753 0 -0.17936155474269991 0.16692169686576799 0 -0.16051399451487119 0.16028351657155121 0 -0.1985094678419331 0.16131548240508681 0 -0.1804297817993302 0.1496408125466753 0 -0.17936155474269991 0.16692169686576799 0 -0.18845965945712481 0.18330056410584261 0 -0.17936155474269991 0.16692169686576799 0 -0.16797765160239619 0.1775137092885018 0 -0.18845965945712481 0.18330056410584261 0 -0.17038724595430241 0.19335248834279459 0 -0.16797765160239619 0.1775137092885018 0 -0.16797765160239619 0.1775137092885018 0 -0.15759967676330211 0.18480523321100659 0 -0.1520083682619581 0.17418012132940261 0 -0.17038724595430241 0.19335248834279459 0 -0.16797765160239619 0.1775137092885018 0 -0.15759967676330211 0.18480523321100659 0 -0.17936155474269991 0.16692169686576799 0 -0.16797765160239619 0.1775137092885018 0 -0.16051399451487119 0.16028351657155121 0 -0.16797765160239619 0.1775137092885018 0 -0.16051399451487119 0.16028351657155121 0 -0.1520083682619581 0.17418012132940261 0 -0.16051399451487119 0.16028351657155121 0 -0.1520083682619581 0.17418012132940261 0 -0.14014012250006 0.16394890450963601 0 -0.16051399451487119 0.16028351657155121 0 -0.14014012250006 0.16394890450963601 0 -0.14594333757479411 0.14864925912762131 0 -0.1520083682619581 0.17418012132940261 0 -0.14014012250006 0.16394890450963601 0 -0.1520083682619581 0.17418012132940261 0 -0.14617498233112389 0.1830636304291689 0 -0.14014012250006 0.16394890450963601 0 -0.15104166373316039 0.19515578365580391 0 -0.14617498233112389 0.1830636304291689 0 -0.13270070635420761 0.18207059632993389 0 -0.15759967676330211 0.18480523321100659 0 -0.1520083682619581 0.17418012132940261 0 -0.14617498233112389 0.1830636304291689 0 -0.13270070635420761 0.18207059632993389 0 -0.12716158042229769 0.15664871091839291 0 -0.1213716592072716 0.17931351828339809 0 -0.14617498233112389 0.1830636304291689 0 -0.13270070635420761 0.18207059632993389 0 -0.14014012250006 0.16394890450963601 0 -0.13270070635420761 0.18207059632993389 0 -0.14014012250006 0.16394890450963601 0 -0.12788998693202819 0.1533884732898482 0 -0.13270070635420761 0.18207059632993389 0 -0.12788998693202819 0.1533884732898482 0 -0.13270070635420761 0.18207059632993389 0 -0.12716158042229769 0.15664871091839291 0 -0.12788998693202819 0.1533884732898482 0 -0.14014012250006 0.16394890450963601 0 -0.12788998693202819 0.1533884732898482 0 -0.12716158042229769 0.15664871091839291 0 -0.12788998693202819 0.1533884732898482 0 -0.1241913538104628 0.15488804022307209 0 -0.12788998693202819 0.1533884732898482 0 -0.13338026836120101 0.14665338556991489 0 -0.14594333757479411 0.14864925912762131 0 -0.12788998693202819 0.1533884732898482 0 -0.1246835606361304 0.15062432066712081 0 -0.1241913538104628 0.15488804022307209 0 -0.14014012250006 0.16394890450963601 0 -0.12788998693202819 0.1533884732898482 0 -0.14594333757479411 0.14864925912762131 0 -0.12788998693202819 0.1533884732898482 0 -0.14594333757479411 0.14864925912762131 0 -0.12716158042229769 0.15664871091839291 0 -0.1241913538104628 0.15488804022307209 0 -0.12788998693202819 0.1533884732898482 0 -0.1241913538104628 0.15488804022307209 0 -0.12788998693202819 0.1533884732898482 0 -0.1246835606361304 0.15062432066712081 0 -0.12788998693202819 0.1533884732898482 0 -0.12580174433835481 0.14093810448780489 0 -0.13338026836120101 0.14665338556991489 0 -0.12580174433835481 0.14093810448780489 0 -0.13338026836120101 0.14665338556991489 0 -0.1390587542800743 0.13865397218010411 0 -0.12580174433835481 0.14093810448780489 0 -0.1246835606361304 0.15062432066712081 0 -0.12788998693202819 0.1533884732898482 0 -0.12580174433835481 0.14093810448780489 0 -0.12788998693202819 0.1533884732898482 0 -0.12580174433835481 0.14093810448780489 0 -0.1246835606361304 0.15062432066712081 0 -0.13338026836120101 0.14665338556991489 0 -0.14594333757479411 0.14864925912762131 0 -0.1390587542800743 0.13865397218010411 0 -0.16361479841142601 0.14358083056537849 0 -0.14594333757479411 0.14864925912762131 0 -0.16361479841142601 0.14358083056537849 0 -0.14594333757479411 0.14864925912762131 0 -0.14984749575449799 0.13770323100756979 0 -0.14594333757479411 0.14864925912762131 0 -0.14984749575449799 0.13770323100756979 0 -0.1390587542800743 0.13865397218010411 0 -0.1477861446903864 0.1186741318909751 0 -0.15643569559827719 0.12897096520979531 0 -0.14418489290791831 0.12866112795494999 0 -0.15643569559827719 0.12897096520979531 0 -0.14984749575449799 0.13770323100756979 0 -0.14418489290791831 0.12866112795494999 0 -0.14984749575449799 0.13770323100756979 0 -0.14418489290791831 0.12866112795494999 0 -0.1390587542800743 0.13865397218010411 0 -0.12862712338883289 0.1164633851577651 0 -0.12580174433835481 0.14093810448780489 0 -0.12862712338883289 0.1164633851577651 0 -0.12580174433835481 0.14093810448780489 0 -0.13511318435829309 0.12870354691668651 0 -0.12862712338883289 0.1164633851577651 0 -0.12580174433835481 0.14093810448780489 0 -0.12258642802784731 0.1217679783720414 0 -0.13854116054057369 0.12067136342041949 0 -0.14418489290791831 0.12866112795494999 0 -0.13511318435829309 0.12870354691668651 0 -0.14418489290791831 0.12866112795494999 0 -0.13511318435829309 0.12870354691668651 0 -0.1390587542800743 0.13865397218010411 0 -0.12580174433835481 0.14093810448780489 0 -0.13511318435829309 0.12870354691668651 0 -0.1390587542800743 0.13865397218010411 0 -0.1178606864767943 0.13385239508963831 0 -0.1040655720269585 0.13285024385071709 0 -0.1246835606361304 0.15062432066712081 0 -0.12580174433835481 0.14093810448780489 0 -0.12258642802784731 0.1217679783720414 0 -0.1178606864767943 0.13385239508963831 0 -0.11132822158888291 0.12528461030819529 0 -0.12258642802784731 0.1217679783720414 0 -0.12580174433835481 0.14093810448780489 0 -0.1178606864767943 0.13385239508963831 0 -0.12258642802784731 0.1217679783720414 0 -0.1178606864767943 0.13385239508963831 0 -0.11132822158888291 0.12528461030819529 0 -0.1040655720269585 0.13285024385071709 0 -0.11132822158888291 0.12528461030819529 0 -0.1040655720269585 0.13285024385071709 0 -0.1048307554884331 0.1221057691840169 0 -0.1040655720269585 0.13285024385071709 0 -0.097231663019629294 0.14157164331279579 0 -0.089489655214004482 0.12884656485509219 0 -0.1040655720269585 0.13285024385071709 0 -0.097231663019629294 0.14157164331279579 0 -0.1246835606361304 0.15062432066712081 0 -0.097231663019629294 0.14157164331279579 0 -0.1241913538104628 0.15488804022307209 0 -0.097990321344070958 0.16240287233234671 0 -0.097231663019629294 0.14157164331279579 0 -0.1246835606361304 0.15062432066712081 0 -0.1241913538104628 0.15488804022307209 0 -0.097231663019629294 0.14157164331279579 0 -0.1241913538104628 0.15488804022307209 0 -0.12580174433835481 0.14093810448780489 0 -0.1178606864767943 0.13385239508963831 0 -0.1246835606361304 0.15062432066712081 0 -0.1040655720269585 0.13285024385071709 0 -0.1246835606361304 0.15062432066712081 0 -0.1246835606361304 0.15062432066712081 0 -0.1241913538104628 0.15488804022307209 0 -0.1241913538104628 0.15488804022307209 0 -0.1213716592072716 0.17931351828339809 0 -0.1241913538104628 0.15488804022307209 0 -0.1126361244092545 0.17568210111754659 0 -0.097990321344070958 0.16240287233234671 0 -0.1241913538104628 0.15488804022307209 0 -0.1213716592072716 0.17931351828339809 0 -0.1126361244092545 0.17568210111754659 0 -0.1241913538104628 0.15488804022307209 0 -0.097990321344070958 0.16240287233234671 0 -0.12716158042229769 0.15664871091839291 0 -0.1241913538104628 0.15488804022307209 0 -0.1213716592072716 0.17931351828339809 0 -0.1213716592072716 0.17931351828339809 0 -0.1126361244092545 0.17568210111754659 0 -0.1110146294443618 0.18801055988438259 0 -0.1126361244092545 0.17568210111754659 0 -0.099756103025773091 0.1838322926031348 0 -0.097990321344070958 0.16240287233234671 0 -0.099756103025773091 0.1838322926031348 0 -0.097990321344070958 0.16240287233234671 0 -0.084662587434774866 0.17853019853107049 0 -0.1126361244092545 0.17568210111754659 0 -0.099756103025773091 0.1838322926031348 0 -0.1126361244092545 0.17568210111754659 0 -0.099756103025773091 0.1838322926031348 0 -0.1110146294443618 0.18801055988438259 0 -0.097990321344070958 0.16240287233234671 0 -0.084662587434774866 0.17853019853107049 0 -0.072123775506314117 0.1698217688764784 0 -0.097990321344070958 0.16240287233234671 0 -0.072123775506314117 0.1698217688764784 0 -0.097990321344070958 0.16240287233234671 0 -0.072123775506314117 0.1698217688764784 0 -0.078254360354119437 0.15100348119183929 0 -0.084662587434774866 0.17853019853107049 0 -0.066566655655424495 0.1846115747546673 0 -0.086876081642292186 0.19198248408872379 0 -0.099756103025773091 0.1838322926031348 0 -0.084662587434774866 0.17853019853107049 0 -0.086876081642292186 0.19198248408872379 0 -0.084662587434774866 0.17853019853107049 0 -0.066566655655424495 0.1846115747546673 0 -0.072123775506314117 0.1698217688764784 0 -0.072123775506314117 0.1698217688764784 0 -0.078254360354119437 0.15100348119183929 0 -0.053319583043152728 0.1530618106001948 0 -0.070606458857430138 0.12815931083738061 0 -0.078254360354119437 0.15100348119183929 0 -0.053319583043152728 0.1530618106001948 0 -0.097231663019629294 0.14157164331279579 0 -0.070606458857430138 0.12815931083738061 0 -0.089489655214004482 0.12884656485509219 0 -0.1040655720269585 0.13285024385071709 0 -0.089489655214004482 0.12884656485509219 0 -0.083447583417785895 0.1150761670343141 0 -0.097231663019629294 0.14157164331279579 0 -0.070606458857430138 0.12815931083738061 0 -0.097231663019629294 0.14157164331279579 0 -0.070606458857430138 0.12815931083738061 0 -0.078254360354119437 0.15100348119183929 0 -0.097231663019629294 0.14157164331279579 0 -0.097990321344070958 0.16240287233234671 0 -0.078254360354119437 0.15100348119183929 0 -0.1025455691012197 0.239560911608514 0 -0.11361919422365779 0.24646889857046439 0 -0.1161000036979495 0.22497899774305591 0 -0.1300455926125306 0.2286718236082643 0 -0.13037591162038581 0.2494816563480477 0 -0.11361919422365779 0.24646889857046439 0 -0.11361919422365779 0.24646889857046439 0 -0.1161000036979495 0.22497899774305591 0 -0.1300455926125306 0.2286718236082643 0 -0.11361919422365779 0.24646889857046439 0 -0.1161000036979495 0.22497899774305591 0 -0.1161000036979495 0.22497899774305591 0 -0.1014773032539199 0.22607987931885659 0 -0.1035841925577725 0.21421890061404611 0 -0.1025455691012197 0.239560911608514 0 -0.1161000036979495 0.22497899774305591 0 -0.1014773032539199 0.22607987931885659 0 -0.1025455691012197 0.239560911608514 0 -0.1014773032539199 0.22607987931885659 0 -0.088880332123068201 0.2311865807258828 0 -0.1014773032539199 0.22607987931885659 0 -0.1035841925577725 0.21421890061404611 0 -0.090846558744346384 0.21761193741777249 0 -0.1035841925577725 0.21421890061404611 0 -0.102728447407267 0.1977357905021864 0 -0.09318457504973221 0.20584603843218099 0 -0.1035841925577725 0.21421890061404611 0 -0.11858081317224239 0.2034890969156477 0 -0.102728447407267 0.1977357905021864 0 -0.1035841925577725 0.21421890061404611 0 -0.09318457504973221 0.20584603843218099 0 -0.090846558744346384 0.21761193741777249 0 -0.1161000036979495 0.22497899774305591 0 -0.1035841925577725 0.21421890061404611 0 -0.11858081317224239 0.2034890969156477 0 -0.12961303252961151 0.21716920605029 0 -0.1161000036979495 0.22497899774305591 0 -0.11858081317224239 0.2034890969156477 0 -0.1161000036979495 0.22497899774305591 0 -0.11858081317224239 0.2034890969156477 0 -0.1213716592072716 0.17931351828339809 0 -0.11858081317224239 0.2034890969156477 0 -0.11858081317224239 0.2034890969156477 0 -0.102728447407267 0.1977357905021864 0 -0.11858081317224239 0.2034890969156477 0 -0.1110146294443618 0.18801055988438259 0 -0.102728447407267 0.1977357905021864 0 -0.13270070635420761 0.18207059632993389 0 -0.1213716592072716 0.17931351828339809 0 -0.11858081317224239 0.2034890969156477 0 -0.1213716592072716 0.17931351828339809 0 -0.11858081317224239 0.2034890969156477 0 -0.1110146294443618 0.18801055988438259 0 -0.099756103025773091 0.1838322926031348 0 -0.102728447407267 0.1977357905021864 0 -0.086876081642292186 0.19198248408872379 0 -0.102728447407267 0.1977357905021864 0 -0.086876081642292186 0.19198248408872379 0 -0.102728447407267 0.1977357905021864 0 -0.086876081642292186 0.19198248408872379 0 -0.09318457504973221 0.20584603843218099 0 -0.099756103025773091 0.1838322926031348 0 -0.1110146294443618 0.18801055988438259 0 -0.102728447407267 0.1977357905021864 0 -0.086876081642292186 0.19198248408872379 0 -0.081887594896983482 0.20768107953817469 0 -0.09318457504973221 0.20584603843218099 0 -0.099756103025773091 0.1838322926031348 0 -0.086876081642292186 0.19198248408872379 0 -0.066566655655424495 0.1846115747546673 0 -0.086876081642292186 0.19198248408872379 0 -0.065259282909481575 0.20566111425029801 0 -0.086876081642292186 0.19198248408872379 0 -0.065259282909481575 0.20566111425029801 0 -0.081887594896983482 0.20768107953817469 0 -0.066566655655424495 0.1846115747546673 0 -0.086876081642292186 0.19198248408872379 0 -0.086876081642292186 0.19198248408872379 0 -0.065259282909481575 0.20566111425029801 0 -0.065259282909481575 0.20566111425029801 0 -0.081887594896983482 0.20768107953817469 0 -0.076462077952873783 0.2210372064847744 0 -0.065259282909481575 0.20566111425029801 0 -0.076462077952873783 0.2210372064847744 0 -0.059477584292858772 0.22832111303935501 0 -0.081887594896983482 0.20768107953817469 0 -0.090846558744346384 0.21761193741777249 0 -0.076462077952873783 0.2210372064847744 0 -0.081887594896983482 0.20768107953817469 0 -0.09318457504973221 0.20584603843218099 0 -0.090846558744346384 0.21761193741777249 0 -0.088880332123068201 0.2311865807258828 0 -0.076462077952873783 0.2210372064847744 0 -0.072905343224605457 0.23807962670970781 0 -0.1014773032539199 0.22607987931885659 0 -0.090846558744346384 0.21761193741777249 0 -0.088880332123068201 0.2311865807258828 0 -0.090846558744346384 0.21761193741777249 0 -0.088880332123068201 0.2311865807258828 0 -0.076462077952873783 0.2210372064847744 0 -0.076462077952873783 0.2210372064847744 0 -0.072905343224605457 0.23807962670970781 0 -0.059477584292858772 0.22832111303935501 0 -0.07613073261743003 0.25486608990887039 0 -0.072905343224605457 0.23807962670970781 0 -0.058693581299423543 0.24845909965691571 0 -0.072905343224605457 0.23807962670970781 0 -0.058693581299423543 0.24845909965691571 0 -0.059477584292858772 0.22832111303935501 0 -0.1025455691012197 0.239560911608514 0 -0.088880332123068201 0.2311865807258828 0 -0.086330210438822372 0.2433288885731654 0 -0.091301377019159038 0.25543394879796372 0 -0.1025455691012197 0.239560911608514 0 -0.086330210438822372 0.2433288885731654 0 -0.07613073261743003 0.25486608990887039 0 -0.072905343224605457 0.23807962670970781 0 -0.086330210438822372 0.2433288885731654 0 -0.088880332123068201 0.2311865807258828 0 -0.072905343224605457 0.23807962670970781 0 -0.086330210438822372 0.2433288885731654 0 -0.043255113703586298 0.25922767407675351 0 -0.039902736194096823 0.23734988672256119 0 -0.023508003989242639 0.24569037213742481 0 -0.039902736194096823 0.23734988672256119 0 -0.058693581299423543 0.24845909965691571 0 -0.059477584292858772 0.22832111303935501 0 -0.043255113703586298 0.25922767407675351 0 -0.039902736194096823 0.23734988672256119 0 -0.058693581299423543 0.24845909965691571 0 -0.039902736194096823 0.23734988672256119 0 -0.059477584292858772 0.22832111303935501 0 -0.043642484176671478 0.21933974441187309 0 -0.039902736194096823 0.23734988672256119 0 -0.043642484176671478 0.21933974441187309 0 -0.022025685443861309 0.23301837457344821 0 -0.043642484176671478 0.21933974441187309 0 -0.022025685443861309 0.23301837457344821 0 -0.043642484176671478 0.21933974441187309 0 -0.03055385602932963 0.21178972472618049 0 -0.023622524989506281 0.2218743709729509 0 -0.043642484176671478 0.21933974441187309 0 -0.036932475087619487 0.20027823652880769 0 -0.03055385602932963 0.21178972472618049 0 -0.065259282909481575 0.20566111425029801 0 -0.043642484176671478 0.21933974441187309 0 -0.065259282909481575 0.20566111425029801 0 -0.059477584292858772 0.22832111303935501 0 -0.043642484176671478 0.21933974441187309 0 -0.065259282909481575 0.20566111425029801 0 -0.043642484176671478 0.21933974441187309 0 -0.036932475087619487 0.20027823652880769 0 -0.065259282909481575 0.20566111425029801 0 -0.052455301648121691 0.19182804604899631 0 -0.036932475087619487 0.20027823652880769 0 -0.066566655655424495 0.1846115747546673 0 -0.065259282909481575 0.20566111425029801 0 -0.052455301648121691 0.19182804604899631 0 -0.052455301648121691 0.19182804604899631 0 -0.036932475087619487 0.20027823652880769 0 -0.031213918540078701 0.18155530293129249 0 -0.036932475087619487 0.20027823652880769 0 -0.025544591496760621 0.1901620187188893 0 -0.01910644910132895 0.1972236801205543 0 -0.036932475087619487 0.20027823652880769 0 -0.025544591496760621 0.1901620187188893 0 -0.031213918540078701 0.18155530293129249 0 -0.036932475087619487 0.20027823652880769 0 -0.01910644910132895 0.1972236801205543 0 -0.023416728174347291 0.20558107784096519 0 -0.01910644910132895 0.1972236801205543 0 -0.012549548410622099 0.20538117752680679 0 -0.023416728174347291 0.20558107784096519 0 -0.025544591496760621 0.1901620187188893 0 -0.01910644910132895 0.1972236801205543 0 -0.016170607411600119 0.1858699404419748 0 -0.01910644910132895 0.1972236801205543 0 -0.016170607411600119 0.1858699404419748 0 -0.0032619964912099868 0.18078953405076159 0 -0.01910644910132895 0.1972236801205543 0 -0.0032619964912099868 0.18078953405076159 0 -0.01910644910132895 0.1972236801205543 0 -0.00601507506053435 0.1954740475134854 0 -0.0032619964912099868 0.18078953405076159 0 -0.00601507506053435 0.1954740475134854 0 -0.0032619964912099868 0.18078953405076159 0 0.0071796887690462729 0.18978211263830161 0 -0.00601507506053435 0.1954740475134854 0 -0.0024468295615022932 0.20490349668467339 0 0.0071796887690462729 0.18978211263830161 0 -0.00601507506053435 0.1954740475134854 0 -0.012549548410622099 0.20538117752680679 0 -0.0024468295615022932 0.20490349668467339 0 -0.01910644910132895 0.1972236801205543 0 -0.00601507506053435 0.1954740475134854 0 -0.012549548410622099 0.20538117752680679 0 -0.0024468295615022932 0.20490349668467339 0 -0.0080955371184571988 0.21520750105611111 0 -0.0010678171129113059 0.22133970227153171 0 -0.012549548410622099 0.20538117752680679 0 -0.0024468295615022932 0.20490349668467339 0 -0.0080955371184571988 0.21520750105611111 0 -0.0080955371184571988 0.21520750105611111 0 -0.017941312242836269 0.21323257030247689 0 -0.01472730905131835 0.2197394827800859 0 -0.0080955371184571988 0.21520750105611111 0 -0.01472730905131835 0.2197394827800859 0 -0.0087348295350845075 0.2204768267490877 0 -0.012549548410622099 0.20538117752680679 0 -0.0080955371184571988 0.21520750105611111 0 -0.017941312242836269 0.21323257030247689 0 -0.017941312242836269 0.21323257030247689 0 -0.023622524989506281 0.2218743709729509 0 -0.01472730905131835 0.2197394827800859 0 -0.012549548410622099 0.20538117752680679 0 -0.017941312242836269 0.21323257030247689 0 -0.023416728174347291 0.20558107784096519 0 -0.036932475087619487 0.20027823652880769 0 -0.023416728174347291 0.20558107784096519 0 -0.03055385602932963 0.21178972472618049 0 -0.017941312242836269 0.21323257030247689 0 -0.023416728174347291 0.20558107784096519 0 -0.03055385602932963 0.21178972472618049 0 -0.017941312242836269 0.21323257030247689 0 -0.03055385602932963 0.21178972472618049 0 -0.023622524989506281 0.2218743709729509 0 -0.043642484176671478 0.21933974441187309 0 -0.023622524989506281 0.2218743709729509 0 -0.022025685443861309 0.23301837457344821 0 -0.023622524989506281 0.2218743709729509 0 -0.022025685443861309 0.23301837457344821 0 -0.019553083054124409 0.23050401301212589 0 -0.019553083054124409 0.23050401301212589 0 -0.016474182342830612 0.22592040566970689 0 -0.015954236134418091 0.24051201248330031 0 -0.023622524989506281 0.2218743709729509 0 -0.016474182342830612 0.22592040566970689 0 -0.01472730905131835 0.2197394827800859 0 -0.023622524989506281 0.2218743709729509 0 -0.019553083054124409 0.23050401301212589 0 -0.016474182342830612 0.22592040566970689 0 -0.015954236134418091 0.24051201248330031 0 0.0055414543167647554 0.2257760001634459 0 -0.0010678171129113059 0.22133970227153171 0 -0.015954236134418091 0.24051201248330031 0 0.0055414543167647554 0.2257760001634459 0 -0.011048654857651181 0.22562062088862209 0 -0.0010678171129113059 0.22133970227153171 0 -0.015954236134418091 0.24051201248330031 0 -0.0010678171129113059 0.22133970227153171 0 -0.015954236134418091 0.24051201248330031 0 -0.016474182342830612 0.22592040566970689 0 -0.01472730905131835 0.2197394827800859 0 -0.011048654857651181 0.22562062088862209 0 -0.01472730905131835 0.2197394827800859 0 -0.011048654857651181 0.22562062088862209 0 -0.0087348295350845075 0.2204768267490877 0 -0.011048654857651181 0.22562062088862209 0 -0.0087348295350845075 0.2204768267490877 0 -0.0010678171129113059 0.22133970227153171 0 -0.0080955371184571988 0.21520750105611111 0 -0.0087348295350845075 0.2204768267490877 0 -0.0010678171129113059 0.22133970227153171 0 -0.016474182342830612 0.22592040566970689 0 -0.011048654857651181 0.22562062088862209 0 -0.015954236134418091 0.24051201248330031 0 -0.005819696136999758 0.24206529693386411 0 -0.015954236134418091 0.24051201248330031 0 0.0055414543167647554 0.2257760001634459 0 -0.0065929851021667473 0.25243062773974151 0 -0.005819696136999758 0.24206529693386411 0 0.0038625641132594909 0.24145939712855799 0 -0.015020641229283109 0.25013402953170072 0 -0.005819696136999758 0.24206529693386411 0 -0.015954236134418091 0.24051201248330031 0 -0.0065929851021667473 0.25243062773974151 0 -0.015020641229283109 0.25013402953170072 0 -0.005819696136999758 0.24206529693386411 0 -0.02529102086011133 0.25253691470343648 0 -0.015020641229283109 0.25013402953170072 0 -0.015954236134418091 0.24051201248330031 0 -0.02529102086011133 0.25253691470343648 0 -0.015954236134418091 0.24051201248330031 0 -0.023508003989242639 0.24569037213742481 0 -0.039902736194096823 0.23734988672256119 0 -0.022025685443861309 0.23301837457344821 0 -0.023508003989242639 0.24569037213742481 0 -0.02529102086011133 0.25253691470343648 0 -0.015954236134418091 0.24051201248330031 0 -0.015954236134418091 0.24051201248330031 0 -0.023508003989242639 0.24569037213742481 0 -0.022025685443861309 0.23301837457344821 0 -0.019553083054124409 0.23050401301212589 0 -0.023508003989242639 0.24569037213742481 0 -0.019553083054124409 0.23050401301212589 0 -0.023508003989242639 0.24569037213742481 0 -0.019553083054124409 0.23050401301212589 0 -0.015954236134418091 0.24051201248330031 0 -0.023508003989242639 0.24569037213742481 0 -0.02529102086011133 0.25253691470343648 0 -0.023508003989242639 0.24569037213742481 0 -0.053319583043152728 0.1530618106001948 0 -0.018835660954851351 0.1672885428487029 0 -0.031086562913143111 0.14122176535057809 0 -0.053319583043152728 0.1530618106001948 0 -0.031086562913143111 0.14122176535057809 0 -0.043981254695231002 0.1147469783619655 0 -0.070606458857430138 0.12815931083738061 0 -0.053319583043152728 0.1530618106001948 0 -0.043981254695231002 0.1147469783619655 0 -0.031086562913143111 0.14122176535057809 0 -0.02725266151549598 0.12210141774650871 0 -0.043981254695231002 0.1147469783619655 0 -0.072123775506314117 0.1698217688764784 0 -0.053319583043152728 0.1530618106001948 0 -0.046257229668557213 0.1772406654206099 0 -0.053319583043152728 0.1530618106001948 0 -0.046257229668557213 0.1772406654206099 0 -0.018835660954851351 0.1672885428487029 0 -0.066566655655424495 0.1846115747546673 0 -0.046257229668557213 0.1772406654206099 0 -0.066566655655424495 0.1846115747546673 0 -0.072123775506314117 0.1698217688764784 0 -0.046257229668557213 0.1772406654206099 0 -0.072123775506314117 0.1698217688764784 0 -0.046257229668557213 0.1772406654206099 0 -0.066566655655424495 0.1846115747546673 0 -0.052455301648121691 0.19182804604899631 0 -0.046257229668557213 0.1772406654206099 0 -0.046257229668557213 0.1772406654206099 0 -0.018835660954851351 0.1672885428487029 0 -0.046257229668557213 0.1772406654206099 0 -0.018835660954851351 0.1672885428487029 0 -0.031213918540078701 0.18155530293129249 0 -0.052455301648121691 0.19182804604899631 0 -0.046257229668557213 0.1772406654206099 0 -0.031213918540078701 0.18155530293129249 0 -0.046257229668557213 0.1772406654206099 0 -0.031213918540078701 0.18155530293129249 0 -0.018835660954851351 0.1672885428487029 0 -0.031213918540078701 0.18155530293129249 0 -0.012647183302788771 0.17588277255388329 0 -0.031213918540078701 0.18155530293129249 0 -0.016170607411600119 0.1858699404419748 0 -0.012647183302788771 0.17588277255388329 0 -0.025544591496760621 0.1901620187188893 0 -0.031213918540078701 0.18155530293129249 0 -0.016170607411600119 0.1858699404419748 0 -0.031213918540078701 0.18155530293129249 0 -0.016170607411600119 0.1858699404419748 0 -0.016170607411600119 0.1858699404419748 0 -0.012647183302788771 0.17588277255388329 0 -0.0032619964912099868 0.18078953405076159 0 -0.018835660954851351 0.1672885428487029 0 0.0091569698559822027 0.1571291644466758 0 -0.018835660954851351 0.1672885428487029 0 -0.0045028803545483984 0.15067741716784261 0 0.0091569698559822027 0.1571291644466758 0 -0.018835660954851351 0.1672885428487029 0 -0.012647183302788771 0.17588277255388329 0 0.0091569698559822027 0.1571291644466758 0 -0.012647183302788771 0.17588277255388329 0 -0.0032619964912099868 0.18078953405076159 0 0.0091569698559822027 0.1571291644466758 0 -0.018835660954851351 0.1672885428487029 0 -0.0045028803545483984 0.15067741716784261 0 -0.01465163419937782 0.14805552612749451 0 -0.0045028803545483984 0.15067741716784261 0 -0.0080336740442212978 0.14366305291198039 0 -0.002481879497315161 0.13785522786991969 0 -0.0045028803545483984 0.15067741716784261 0 -0.0080336740442212978 0.14366305291198039 0 -0.01465163419937782 0.14805552612749451 0 -0.0080336740442212978 0.14366305291198039 0 -0.01465163419937782 0.14805552612749451 0 -0.011691836261698139 0.13636074650294991 0 -0.01465163419937782 0.14805552612749451 0 -0.031086562913143111 0.14122176535057809 0 -0.019742326814091091 0.13385589014231261 0 -0.018835660954851351 0.1672885428487029 0 -0.01465163419937782 0.14805552612749451 0 -0.031086562913143111 0.14122176535057809 0 -0.031086562913143111 0.14122176535057809 0 -0.019742326814091091 0.13385589014231261 0 -0.02725266151549598 0.12210141774650871 0 -0.008518377070026447 0.1199328187399263 0 0.00031929639297816748 0.13853099159330101 0 -0.008518377070026447 0.1199328187399263 0 0.006608478788520839 0.1262477455871297 0 0.00031929639297816748 0.13853099159330101 0 -0.002481879497315161 0.13785522786991969 0 -0.013549666753485351 0.1183740354630423 0 -0.008518377070026447 0.1199328187399263 0 -0.011691836261698139 0.13636074650294991 0 -0.002481879497315161 0.13785522786991969 0 -0.013549666753485351 0.1183740354630423 0 -0.002481879497315161 0.13785522786991969 0 -0.008518377070026447 0.1199328187399263 0 0.00031929639297816748 0.13853099159330101 0 -0.019742326814091091 0.13385589014231261 0 -0.011691836261698139 0.13636074650294991 0 -0.013549666753485351 0.1183740354630423 0 -0.002481879497315161 0.13785522786991969 0 -0.013549666753485351 0.1183740354630423 0 -0.01465163419937782 0.14805552612749451 0 -0.019742326814091091 0.13385589014231261 0 -0.011691836261698139 0.13636074650294991 0 -0.0080336740442212978 0.14366305291198039 0 -0.011691836261698139 0.13636074650294991 0 -0.002481879497315161 0.13785522786991969 0 -0.008518377070026447 0.1199328187399263 0 -0.017356050533031089 0.10133464588655169 0 -0.013549666753485351 0.1183740354630423 0 -0.008518377070026447 0.1199328187399263 0 -0.017356050533031089 0.10133464588655169 0 -0.008518377070026447 0.1199328187399263 0 -0.0021506475564198259 0.1033532652427047 0 0.0059791028666131962 0.1148459438749523 0 -0.0021506475564198259 0.1033532652427047 0 -0.017356050533031089 0.10133464588655169 0 0.0068092365749401959 0.089161486083472935 0 -0.008518377070026447 0.1199328187399263 0 -0.0021506475564198259 0.1033532652427047 0 -0.017356050533031089 0.10133464588655169 0 -0.017356050533031089 0.10133464588655169 0 0.0068092365749401959 0.089161486083472935 0 -0.017356050533031089 0.10133464588655169 0 -0.043981254695231002 0.1147469783619655 0 -0.017356050533031089 0.10133464588655169 0 -0.02725266151549598 0.12210141774650871 0 -0.043981254695231002 0.1147469783619655 0 -0.013549666753485351 0.1183740354630423 0 -0.017356050533031089 0.10133464588655169 0 -0.02725266151549598 0.12210141774650871 0 -0.019742326814091091 0.13385589014231261 0 -0.013549666753485351 0.1183740354630423 0 -0.02725266151549598 0.12210141774650871 0 -0.01026126465101837 0.07134425837433972 0 0.0068092365749401959 0.089161486083472935 0 -0.017356050533031089 0.10133464588655169 0 -0.01026126465101837 0.07134425837433972 0 0.0068092365749401959 0.089161486083472935 0 -0.017356050533031089 0.10133464588655169 0 -0.029862826689108151 0.075015141577766495 0 -0.017356050533031089 0.10133464588655169 0 -0.029862826689108151 0.075015141577766495 0 -0.041498651710227603 0.0930495573867446 0 -0.017356050533031089 0.10133464588655169 0 -0.01026126465101837 0.07134425837433972 0 -0.029862826689108151 0.075015141577766495 0 -0.01026126465101837 0.07134425837433972 0 -0.029862826689108151 0.075015141577766495 0 -0.027331765876979001 0.053527030665208607 0 -0.029862826689108151 0.075015141577766495 0 -0.05288693622642307 0.07526416099099198 0 -0.042369602845185317 0.048695637268981157 0 -0.029862826689108151 0.075015141577766495 0 -0.041498651710227603 0.0930495573867446 0 -0.05288693622642307 0.07526416099099198 0 -0.041498651710227603 0.0930495573867446 0 -0.05288693622642307 0.07526416099099198 0 -0.062829594808613387 0.097302090217911252 0 -0.05288693622642307 0.07526416099099198 0 -0.062829594808613387 0.097302090217911252 0 -0.071691599069150819 0.076566589432321142 0 -0.017356050533031089 0.10133464588655169 0 -0.041498651710227603 0.0930495573867446 0 -0.043981254695231002 0.1147469783619655 0 -0.041498651710227603 0.0930495573867446 0 -0.043981254695231002 0.1147469783619655 0 -0.062829594808613387 0.097302090217911252 0 -0.070606458857430138 0.12815931083738061 0 -0.043981254695231002 0.1147469783619655 0 -0.070606458857430138 0.12815931083738061 0 -0.043981254695231002 0.1147469783619655 0 -0.062829594808613387 0.097302090217911252 0 -0.070606458857430138 0.12815931083738061 0 -0.083447583417785895 0.1150761670343141 0 -0.062829594808613387 0.097302090217911252 0 -0.070606458857430138 0.12815931083738061 0 -0.089489655214004482 0.12884656485509219 0 -0.083447583417785895 0.1150761670343141 0 -0.083447583417785895 0.1150761670343141 0 -0.091222839669870104 0.1017001800858289 0 -0.097079325994521543 0.1151777415862731 0 -0.083447583417785895 0.1150761670343141 0 -0.091222839669870104 0.1017001800858289 0 -0.079855997146416474 0.090774691354537806 0 -0.083447583417785895 0.1150761670343141 0 -0.062829594808613387 0.097302090217911252 0 -0.079855997146416474 0.090774691354537806 0 -0.083447583417785895 0.1150761670343141 0 -0.062829594808613387 0.097302090217911252 0 -0.062829594808613387 0.097302090217911252 0 -0.071691599069150819 0.076566589432321142 0 -0.079855997146416474 0.090774691354537806 0 -0.05288693622642307 0.07526416099099198 0 -0.071691599069150819 0.076566589432321142 0 -0.069003218887774748 0.06077421039496389 0 -0.071691599069150819 0.076566589432321142 0 -0.085556940750765725 0.073068177621327418 0 -0.069003218887774748 0.06077421039496389 0 -0.085556940750765725 0.073068177621327418 0 -0.089225375455749559 0.058165032804580963 0 -0.069003218887774748 0.06077421039496389 0 -0.085556940750765725 0.073068177621327418 0 -0.1008849887692832 0.071274407631555486 0 -0.089225375455749559 0.058165032804580963 0 -0.091222839669870104 0.1017001800858289 0 -0.079855997146416474 0.090774691354537806 0 -0.095692380182497122 0.086497000267249727 0 -0.071691599069150819 0.076566589432321142 0 -0.085556940750765725 0.073068177621327418 0 -0.079855997146416474 0.090774691354537806 0 -0.085556940750765725 0.073068177621327418 0 -0.079855997146416474 0.090774691354537806 0 -0.095692380182497122 0.086497000267249727 0 -0.095692380182497122 0.086497000267249727 0 -0.11244973906802951 0.086554537201338225 0 -0.1036756226302212 0.1006657762045497 0 -0.095692380182497122 0.086497000267249727 0 -0.1008849887692832 0.071274407631555486 0 -0.11244973906802951 0.086554537201338225 0 -0.1008849887692832 0.071274407631555486 0 -0.123156323168899 0.067752814663783412 0 -0.10404232065569161 0.054016553004333993 0 -0.085556940750765725 0.073068177621327418 0 -0.095692380182497122 0.086497000267249727 0 -0.1008849887692832 0.071274407631555486 0 -0.1008849887692832 0.071274407631555486 0 -0.123156323168899 0.067752814663783412 0 -0.11244973906802951 0.086554537201338225 0 -0.1314525024393102 0.091988665827725205 0 -0.11244973906802951 0.086554537201338225 0 -0.1193711117173407 0.1025978522562779 0 -0.1314525024393102 0.091988665827725205 0 -0.123156323168899 0.067752814663783412 0 -0.11244973906802951 0.086554537201338225 0 -0.1193711117173407 0.1025978522562779 0 -0.1092903056226779 0.11436303725824989 0 -0.1036756226302212 0.1006657762045497 0 -0.11244973906802951 0.086554537201338225 0 -0.1193711117173407 0.1025978522562779 0 -0.1036756226302212 0.1006657762045497 0 -0.12862712338883289 0.1164633851577651 0 -0.1193711117173407 0.1025978522562779 0 -0.12258642802784731 0.1217679783720414 0 -0.1193711117173407 0.1025978522562779 0 -0.12258642802784731 0.1217679783720414 0 -0.1193711117173407 0.1025978522562779 0 -0.12258642802784731 0.1217679783720414 0 -0.1092903056226779 0.11436303725824989 0 -0.11132822158888291 0.12528461030819529 0 -0.12258642802784731 0.1217679783720414 0 -0.1092903056226779 0.11436303725824989 0 -0.1040655720269585 0.13285024385071709 0 -0.1048307554884331 0.1221057691840169 0 -0.097079325994521543 0.1151777415862731 0 -0.1040655720269585 0.13285024385071709 0 -0.083447583417785895 0.1150761670343141 0 -0.097079325994521543 0.1151777415862731 0 -0.1040655720269585 0.13285024385071709 0 -0.083447583417785895 0.1150761670343141 0 -0.1092903056226779 0.11436303725824989 0 -0.097079325994521543 0.1151777415862731 0 -0.1036756226302212 0.1006657762045497 0 -0.1092903056226779 0.11436303725824989 0 -0.1048307554884331 0.1221057691840169 0 -0.097079325994521543 0.1151777415862731 0 -0.11132822158888291 0.12528461030819529 0 -0.1092903056226779 0.11436303725824989 0 -0.1048307554884331 0.1221057691840169 0 -0.091222839669870104 0.1017001800858289 0 -0.097079325994521543 0.1151777415862731 0 -0.1036756226302212 0.1006657762045497 0 -0.091222839669870104 0.1017001800858289 0 -0.095692380182497122 0.086497000267249727 0 -0.1036756226302212 0.1006657762045497 0 -0.1207933829102136 0.02234599715803123 0 -0.097190830255155028 0.035153062684247623 0 -0.093246702383916844 0.01097232221924784 0 -0.1207933829102136 0.02234599715803123 0 -0.097190830255155028 0.035153062684247623 0 -0.1207933829102136 0.02234599715803123 0 -0.093246702383916844 0.01097232221924784 0 -0.1102120226283425 0.0013189151203505339 0 -0.1207933829102136 0.02234599715803123 0 -0.093246702383916844 0.01097232221924784 0 -0.09099771881528973 -0.0086652987317095646 0 -0.1102120226283425 0.0013189151203505339 0 -0.093246702383916844 0.01097232221924784 0 -0.12824419707017101 -0.0061544405190142289 0 -0.1102120226283425 0.0013189151203505339 0 -0.1207933829102136 0.02234599715803123 0 -0.1271714607644209 0.048230862471032102 0 -0.1207933829102136 0.02234599715803123 0 -0.1108224071942084 0.040877903289447133 0 -0.1207933829102136 0.02234599715803123 0 -0.1108224071942084 0.040877903289447133 0 -0.097190830255155028 0.035153062684247623 0 -0.1271714607644209 0.048230862471032102 0 -0.123156323168899 0.067752814663783412 0 -0.10404232065569161 0.054016553004333993 0 -0.123156323168899 0.067752814663783412 0 -0.10404232065569161 0.054016553004333993 0 -0.1271714607644209 0.048230862471032102 0 -0.1108224071942084 0.040877903289447133 0 -0.10404232065569161 0.054016553004333993 0 -0.1108224071942084 0.040877903289447133 0 -0.10404232065569161 0.054016553004333993 0 -0.094077372513919233 0.046959940198941452 0 -0.1008849887692832 0.071274407631555486 0 -0.10404232065569161 0.054016553004333993 0 -0.089225375455749559 0.058165032804580963 0 -0.10404232065569161 0.054016553004333993 0 -0.094077372513919233 0.046959940198941452 0 -0.089225375455749559 0.058165032804580963 0 -0.1108224071942084 0.040877903289447133 0 -0.094077372513919233 0.046959940198941452 0 -0.097190830255155028 0.035153062684247623 0 -0.094077372513919233 0.046959940198941452 0 -0.097190830255155028 0.035153062684247623 0 -0.072050877228499094 0.040270582882391992 0 -0.089225375455749559 0.058165032804580963 0 -0.072050877228499094 0.040270582882391992 0 -0.094077372513919233 0.046959940198941452 0 -0.089225375455749559 0.058165032804580963 0 -0.072050877228499094 0.040270582882391992 0 -0.089225375455749559 0.058165032804580963 0 -0.069003218887774748 0.06077421039496389 0 -0.072050877228499094 0.040270582882391992 0 -0.072050877228499094 0.040270582882391992 0 -0.054876379001258212 0.022376132960193921 0 -0.072050877228499094 0.040270582882391992 0 -0.074358519753619262 0.017673470989006561 0 -0.054876379001258212 0.022376132960193921 0 -0.097190830255155028 0.035153062684247623 0 -0.072050877228499094 0.040270582882391992 0 -0.074358519753619262 0.017673470989006561 0 -0.097190830255155028 0.035153062684247623 0 -0.074358519753619262 0.017673470989006561 0 -0.093246702383916844 0.01097232221924784 0 -0.09099771881528973 -0.0086652987317095646 0 -0.065700021857620111 -0.0004013527195359909 0 -0.093246702383916844 0.01097232221924784 0 -0.065700021857620111 -0.0004013527195359909 0 -0.093246702383916844 0.01097232221924784 0 -0.065700021857620111 -0.0004013527195359909 0 -0.074358519753619262 0.017673470989006561 0 -0.093246702383916844 0.01097232221924784 0 -0.065700021857620111 -0.0004013527195359909 0 -0.074358519753619262 0.017673470989006561 0 -0.054876379001258212 0.022376132960193921 0 -0.051893590747615993 0.0051029179958944557 0 -0.054876379001258212 0.022376132960193921 0 -0.043203858148800789 0.010214302256560139 0 -0.065700021857620111 -0.0004013527195359909 0 -0.054876379001258212 0.022376132960193921 0 -0.065700021857620111 -0.0004013527195359909 0 -0.051893590747615993 0.0051029179958944557 0 -0.054876379001258212 0.022376132960193921 0 -0.054876379001258212 0.022376132960193921 0 -0.043939244372488001 0.025116027875543949 0 -0.044402267102939687 0.035709802956077431 0 -0.054876379001258212 0.022376132960193921 0 -0.043939244372488001 0.025116027875543949 0 -0.043203858148800789 0.010214302256560139 0 -0.054876379001258212 0.022376132960193921 0 -0.043203858148800789 0.010214302256560139 0 -0.036248351635263673 0.018444124252601019 0 -0.041195789666589482 0.039056543504079562 0 -0.030701440700755329 0.030301130929630559 0 -0.043939244372488001 0.025116027875543949 0 -0.036248351635263673 0.018444124252601019 0 -0.043203858148800789 0.010214302256560139 0 -0.036248351635263673 0.018444124252601019 0 -0.041195789666589482 0.039056543504079562 0 -0.043939244372488001 0.025116027875543949 0 -0.036248351635263673 0.018444124252601019 0 -0.041195789666589482 0.039056543504079562 0 -0.031531337296353323 -0.001947528447083103 0 -0.036248351635263673 0.018444124252601019 0 -0.031531337296353323 -0.001947528447083103 0 -0.036248351635263673 0.018444124252601019 0 -0.043203858148800789 0.010214302256560139 0 -0.031531337296353323 -0.001947528447083103 0 -0.043203858148800789 0.010214302256560139 0 -0.031531337296353323 -0.001947528447083103 0 -0.043599167229567401 -0.001303601033726523 0 -0.043203858148800789 0.010214302256560139 0 -0.043599167229567401 -0.001303601033726523 0 -0.051893590747615993 0.0051029179958944557 0 -0.043203858148800789 0.010214302256560139 0 -0.069003218887774748 0.06077421039496389 0 -0.072050877228499094 0.040270582882391992 0 -0.042369602845185317 0.048695637268981157 0 -0.05288693622642307 0.07526416099099198 0 -0.069003218887774748 0.06077421039496389 0 -0.042369602845185317 0.048695637268981157 0 -0.072050877228499094 0.040270582882391992 0 -0.054876379001258212 0.022376132960193921 0 -0.042369602845185317 0.048695637268981157 0 -0.054876379001258212 0.022376132960193921 0 -0.042369602845185317 0.048695637268981157 0 -0.054876379001258212 0.022376132960193921 0 -0.044402267102939687 0.035709802956077431 0 -0.042369602845185317 0.048695637268981157 0 -0.043939244372488001 0.025116027875543949 0 -0.044402267102939687 0.035709802956077431 0 -0.041195789666589482 0.039056543504079562 0 -0.044402267102939687 0.035709802956077431 0 -0.041195789666589482 0.039056543504079562 0 -0.041195789666589482 0.039056543504079562 0 -0.02751724183517306 0.039904376935607458 0 -0.030701440700755329 0.030301130929630559 0 -0.041195789666589482 0.039056543504079562 0 -0.027331765876979001 0.053527030665208607 0 -0.041195789666589482 0.039056543504079562 0 -0.027331765876979001 0.053527030665208607 0 -0.02751724183517306 0.039904376935607458 0 -0.044402267102939687 0.035709802956077431 0 -0.041195789666589482 0.039056543504079562 0 -0.042369602845185317 0.048695637268981157 0 -0.029862826689108151 0.075015141577766495 0 -0.042369602845185317 0.048695637268981157 0 -0.027331765876979001 0.053527030665208607 0 -0.029862826689108151 0.075015141577766495 0 -0.042369602845185317 0.048695637268981157 0 -0.041195789666589482 0.039056543504079562 0 -0.042369602845185317 0.048695637268981157 0 -0.027331765876979001 0.053527030665208607 0 -0.01026126465101837 0.07134425837433972 0 -0.027331765876979001 0.053527030665208607 0 -0.027331765876979001 0.053527030665208607 0 -0.017960197415887409 0.042806151324282671 0 -0.0071354603362126009 0.050693172742523607 0 -0.027331765876979001 0.053527030665208607 0 -0.017960197415887409 0.042806151324282671 0 -0.02751724183517306 0.039904376935607458 0 -0.02751724183517306 0.039904376935607458 0 -0.030701440700755329 0.030301130929630559 0 -0.021050827902103539 0.031123840436415189 0 -0.017960197415887409 0.042806151324282671 0 -0.02751724183517306 0.039904376935607458 0 -0.021050827902103539 0.031123840436415189 0 -0.017960197415887409 0.042806151324282671 0 -0.0076124685170355479 0.03292642710122845 0 -0.0071354603362126009 0.050693172742523607 0 -0.0076124685170355479 0.03292642710122845 0 -0.0071354603362126009 0.050693172742523607 0 0.012161627550196801 0.036864518251404479 0 -0.017960197415887409 0.042806151324282671 0 -0.0076124685170355479 0.03292642710122845 0 -0.021050827902103539 0.031123840436415189 0 -0.01026126465101837 0.07134425837433972 0 -0.027331765876979001 0.053527030665208607 0 -0.0071354603362126009 0.050693172742523607 0 -0.01026126465101837 0.07134425837433972 0 -0.0071354603362126009 0.050693172742523607 0 0.0038734699466289762 0.063047998578607281 0 -0.031531337296353323 -0.001947528447083103 0 -0.036248351635263673 0.018444124252601019 0 -0.025714903737519831 0.010648924452125589 0 -0.019167548497112129 0.00067744676140998362 0 -0.025714903737519831 0.010648924452125589 0 -0.015288097197881189 0.01502701132541545 0 -0.025714903737519831 0.010648924452125589 0 -0.02633918406098925 0.021043568368284239 0 -0.015288097197881189 0.01502701132541545 0 -0.031531337296353323 -0.001947528447083103 0 -0.019167548497112129 0.00067744676140998362 0 -0.025714903737519831 0.010648924452125589 0 -0.036248351635263673 0.018444124252601019 0 -0.025714903737519831 0.010648924452125589 0 -0.02633918406098925 0.021043568368284239 0 -0.036248351635263673 0.018444124252601019 0 -0.02633918406098925 0.021043568368284239 0 -0.030701440700755329 0.030301130929630559 0 -0.02633918406098925 0.021043568368284239 0 -0.021050827902103539 0.031123840436415189 0 -0.015288097197881189 0.01502701132541545 0 -0.02633918406098925 0.021043568368284239 0 -0.030701440700755329 0.030301130929630559 0 -0.021050827902103539 0.031123840436415189 0 -0.0076124685170355479 0.03292642710122845 0 -0.021050827902103539 0.031123840436415189 0 -0.015288097197881189 0.01502701132541545 0 -0.0076124685170355479 0.03292642710122845 0 -0.015288097197881189 0.01502701132541545 0 0.0031747555056413131 0.018115914157114311 0 -0.0058121165389141572 -0.00063268993717582878 0 -0.015288097197881189 0.01502701132541545 0 0.0031747555056413131 0.018115914157114311 0 -0.0058121165389141572 -0.00063268993717582878 0 0.0031747555056413131 0.018115914157114311 0 -0.0058121165389141572 -0.00063268993717582878 0 -0.019167548497112129 0.00067744676140998362 0 -0.015288097197881189 0.01502701132541545 0 -0.0058121165389141572 -0.00063268993717582878 0 0.0089824762582250452 0.0062625481286675251 0 0.0031747555056413131 0.018115914157114311 0 0.0089824762582250452 0.0062625481286675251 0 0.0031747555056413131 0.018115914157114311 0 0.021241625998727809 0.01883023245575802 0 0.0089824762582250452 0.0062625481286675251 0 0.020027263259778091 0.001710242029100309 0 0.0062808530658921714 -0.0067109580614591784 0 0.0031747555056413131 0.018115914157114311 0 0.021241625998727809 0.01883023245575802 0 0.012161627550196801 0.036864518251404479 0 -0.0076124685170355479 0.03292642710122845 0 0.0031747555056413131 0.018115914157114311 0 0.012161627550196801 0.036864518251404479 0 0.0031747555056413131 0.018115914157114311 0 0.012161627550196801 0.036864518251404479 0 0.0089824762582250452 0.0062625481286675251 0 0.021241625998727809 0.01883023245575802 0 0.020027263259778091 0.001710242029100309 0 0.020027263259778091 0.001710242029100309 0 0.040604320558105873 0.0099113563135160634 0 0.031924566184293318 -0.0090939855058096621 0 0.021241625998727809 0.01883023245575802 0 0.020027263259778091 0.001710242029100309 0 0.040604320558105873 0.0099113563135160634 0 -0.0071354603362126009 0.050693172742523607 0 0.012161627550196801 0.036864518251404479 0 0.0038734699466289762 0.063047998578607281 0 0.012161627550196801 0.036864518251404479 0 0.020034592240193969 0.060320953482417658 0 0.0038734699466289762 0.063047998578607281 0 0.012161627550196801 0.036864518251404479 0 0.020034592240193969 0.060320953482417658 0 0.041656568420360883 0.040333563700658652 0 0.021241625998727809 0.01883023245575802 0 0.012161627550196801 0.036864518251404479 0 0.041656568420360883 0.040333563700658652 0 0.020034592240193969 0.060320953482417658 0 0.041656568420360883 0.040333563700658652 0 0.020034592240193969 0.060320953482417658 0 0.040981985042679192 0.055916321884472701 0 0.041656568420360883 0.040333563700658652 0 0.020034592240193969 0.060320953482417658 0 0.040981985042679192 0.055916321884472701 0 0.03661918162924143 0.065868634940900603 0 0.040981985042679192 0.055916321884472701 0 0.047734797281465527 0.065498563237703741 0 0.03661918162924143 0.065868634940900603 0 0.040981985042679192 0.055916321884472701 0 0.041656568420360883 0.040333563700658652 0 0.054681262698712263 0.051445363370535548 0 0.041656568420360883 0.040333563700658652 0 0.063278544600527772 0.02034617391889966 0 0.064964539625199935 0.039028569292107497 0 0.041656568420360883 0.040333563700658652 0 0.054681262698712263 0.051445363370535548 0 0.064964539625199935 0.039028569292107497 0 0.054681262698712263 0.051445363370535548 0 0.064055383482512385 0.060323984947955878 0 0.047734797281465527 0.065498563237703741 0 0.040981985042679192 0.055916321884472701 0 0.054681262698712263 0.051445363370535548 0 0.047734797281465527 0.065498563237703741 0 0.021241625998727809 0.01883023245575802 0 0.041656568420360883 0.040333563700658652 0 0.040604320558105873 0.0099113563135160634 0 0.041656568420360883 0.040333563700658652 0 0.040604320558105873 0.0099113563135160634 0 0.063278544600527772 0.02034617391889966 0 0.041656568420360883 0.040333563700658652 0 0.063278544600527772 0.02034617391889966 0 0.040604320558105873 0.0099113563135160634 0 0.058854773295453799 0.0028445163406619779 0 0.063278544600527772 0.02034617391889966 0 0.040604320558105873 0.0099113563135160634 0 0.058854773295453799 0.0028445163406619779 0 0.047920974878280773 -0.0087021812280023668 0 0.058854773295453799 0.0028445163406619779 0 0.084900520780693961 0.00035878413713994958 0 0.063278544600527772 0.02034617391889966 0 0.084900520780693961 0.00035878413713994958 0 0.063278544600527772 0.02034617391889966 0 0.084900520780693961 0.00035878413713994958 0 0.089726536546381491 0.022659975502283981 0 0.1036963935269106 0.0085885423860782295 0 0.084900520780693961 0.00035878413713994958 0 0.089726536546381491 0.022659975502283981 0 0.063278544600527772 0.02034617391889966 0 0.084900520780693961 0.00035878413713994958 0 0.089726536546381491 0.022659975502283981 0 0.089726536546381491 0.022659975502283981 0 0.063278544600527772 0.02034617391889966 0 0.077645393756799699 0.033237759478273558 0 0.063278544600527772 0.02034617391889966 0 0.064964539625199935 0.039028569292107497 0 0.077645393756799699 0.033237759478273558 0 0.054681262698712263 0.051445363370535548 0 0.064964539625199935 0.039028569292107497 0 0.068997301123840907 0.048934896604770073 0 0.064964539625199935 0.039028569292107497 0 0.076521368156590955 0.043008252062479317 0 0.068997301123840907 0.048934896604770073 0 0.064964539625199935 0.039028569292107497 0 0.076521368156590955 0.043008252062479317 0 0.077645393756799699 0.033237759478273558 0 0.064055383482512385 0.060323984947955878 0 0.081013789039002568 0.051781260836210263 0 0.064055383482512385 0.060323984947955878 0 0.068997301123840907 0.048934896604770073 0 0.081013789039002568 0.051781260836210263 0 0.064055383482512385 0.060323984947955878 0 0.081013789039002568 0.051781260836210263 0 0.061712287093516872 0.072697222363457548 0 0.081013789039002568 0.051781260836210263 0 0.061712287093516872 0.072697222363457548 0 0.054681262698712263 0.051445363370535548 0 0.064055383482512385 0.060323984947955878 0 0.068997301123840907 0.048934896604770073 0 0.076521368156590955 0.043008252062479317 0 0.068997301123840907 0.048934896604770073 0 0.081013789039002568 0.051781260836210263 0 0.081013789039002568 0.051781260836210263 0 0.094552552312062554 0.044961166867429417 0 0.085144942865691423 0.064806834087508425 0 0.094552552312062554 0.044961166867429417 0 0.098808781698168036 0.064629355004770128 0 0.085144942865691423 0.064806834087508425 0 0.081013789039002568 0.051781260836210263 0 0.089985817238111804 0.042058774101035333 0 0.081013789039002568 0.051781260836210263 0 0.094552552312062554 0.044961166867429417 0 0.089726536546381491 0.022659975502283981 0 0.089985817238111804 0.042058774101035333 0 0.094552552312062554 0.044961166867429417 0 0.089726536546381491 0.022659975502283981 0 0.077645393756799699 0.033237759478273558 0 0.089985817238111804 0.042058774101035333 0 0.089726536546381491 0.022659975502283981 0 0.094552552312062554 0.044961166867429417 0 0.076521368156590955 0.043008252062479317 0 0.077645393756799699 0.033237759478273558 0 0.089985817238111804 0.042058774101035333 0 0.076521368156590955 0.043008252062479317 0 0.081013789039002568 0.051781260836210263 0 0.089985817238111804 0.042058774101035333 0 0.081013789039002568 0.051781260836210263 0 0.089985817238111804 0.042058774101035333 0 0.094552552312062554 0.044961166867429417 0 0.099327659336988589 0.042431166807691302 0 0.115650821047283 0.046433863383700681 0 0.089726536546381491 0.022659975502283981 0 0.094552552312062554 0.044961166867429417 0 0.099327659336988589 0.042431166807691302 0 0.094552552312062554 0.044961166867429417 0 0.099327659336988589 0.042431166807691302 0 0.10558664376739529 0.051859780760226827 0 0.094552552312062554 0.044961166867429417 0 0.099327659336988589 0.042431166807691302 0 0.094552552312062554 0.044961166867429417 0 0.098808781698168036 0.064629355004770128 0 0.094552552312062554 0.044961166867429417 0 0.10558664376739529 0.051859780760226827 0 0.098808781698168036 0.064629355004770128 0 0.099327659336988589 0.042431166807691302 0 0.10558664376739529 0.051859780760226827 0 0.115650821047283 0.046433863383700681 0 0.10558664376739529 0.051859780760226827 0 0.1096019310807908 0.061111424061950997 0 0.098808781698168036 0.064629355004770128 0 0.115650821047283 0.046433863383700681 0 0.1318076719836821 0.050395777936166793 0 0.1196152676594792 0.054335016527553202 0 0.115650821047283 0.046433863383700681 0 0.1318076719836821 0.050395777936166793 0 0.10558664376739529 0.051859780760226827 0 0.1096019310807908 0.061111424061950997 0 0.1142468112210821 0.056661810032900398 0 0.1142468112210821 0.056661810032900398 0 0.12081111455422271 0.059974640344039057 0 0.1155741433264254 0.063215387875355841 0 0.1096019310807908 0.061111424061950997 0 0.1142468112210821 0.056661810032900398 0 0.1155741433264254 0.063215387875355841 0 0.10558664376739529 0.051859780760226827 0 0.1142468112210821 0.056661810032900398 0 0.115650821047283 0.046433863383700681 0 0.1142468112210821 0.056661810032900398 0 0.1196152676594792 0.054335016527553202 0 0.115650821047283 0.046433863383700681 0 0.12081111455422271 0.059974640344039057 0 0.1214727927061585 0.067290116487043222 0 0.12749204484823781 0.059358575829946351 0 0.1142468112210821 0.056661810032900398 0 0.1196152676594792 0.054335016527553202 0 0.12081111455422271 0.059974640344039057 0 0.12081111455422271 0.059974640344039057 0 0.1258410535128858 0.056147077158091953 0 0.12749204484823781 0.059358575829946351 0 0.1196152676594792 0.054335016527553202 0 0.12081111455422271 0.059974640344039057 0 0.1258410535128858 0.056147077158091953 0 0.099327659336988589 0.042431166807691302 0 0.12561362415470531 0.029314285061061911 0 0.099327659336988589 0.042431166807691302 0 0.115650821047283 0.046433863383700681 0 0.12561362415470531 0.029314285061061911 0 0.099327659336988589 0.042431166807691302 0 0.1073295889249614 0.023458873717725631 0 0.12561362415470531 0.029314285061061911 0 0.115650821047283 0.046433863383700681 0 0.12561362415470531 0.029314285061061911 0 0.1318076719836821 0.050395777936166793 0 0.118468596205047 0.016005574455756309 0 0.1073295889249614 0.023458873717725631 0 0.12561362415470531 0.029314285061061911 0 0.118468596205047 0.016005574455756309 0 0.1036963935269106 0.0085885423860782295 0 0.1073295889249614 0.023458873717725631 0 0.118468596205047 0.016005574455756309 0 0.123653440279271 0.00107969672001668 0 0.1036963935269106 0.0085885423860782295 0 0.118468596205047 0.016005574455756309 0 0.123653440279271 0.00107969672001668 0 0.1316020348008396 0.01837873658912335 0 0.089726536546381491 0.022659975502283981 0 0.099327659336988589 0.042431166807691302 0 0.1073295889249614 0.023458873717725631 0 0.089726536546381491 0.022659975502283981 0 0.1036963935269106 0.0085885423860782295 0 0.1073295889249614 0.023458873717725631 0 0.107321240470365 0.10396573127945451 0 0.09381911811863701 0.095394900565180754 0 0.10306501108426649 0.084297543142112311 0 0.107321240470365 0.10396573127945451 0 0.10306501108426649 0.084297543142112311 0 0.107321240470365 0.10396573127945451 0 0.09381911811863701 0.095394900565180754 0 0.093404726615442663 0.1091207442366986 0 0.10559485878735241 0.11753701776043229 0 0.092257043494458818 0.12628658270778359 0 0.11157560816825671 0.13040361077160911 0 0.10559485878735241 0.11753701776043229 0 0.093404726615442663 0.1091207442366986 0 0.092257043494458818 0.12628658270778359 0 0.107321240470365 0.10396573127945451 0 0.10559485878735241 0.11753701776043229 0 0.093404726615442663 0.1091207442366986 0 0.10559485878735241 0.11753701776043229 0 0.1235168779181791 0.1140877048045939 0 0.11157560816825671 0.13040361077160911 0 0.107321240470365 0.10396573127945451 0 0.10559485878735241 0.11753701776043229 0 0.1235168779181791 0.1140877048045939 0 0.1235168779181791 0.1140877048045939 0 0.12226455122932151 0.085416752889645314 0 0.107321240470365 0.10396573127945451 0 0.1235168779181791 0.1140877048045939 0 0.12226455122932151 0.085416752889645314 0 0.107321240470365 0.10396573127945451 0 0.12226455122932151 0.085416752889645314 0 0.11512669577623801 0.084681001146040782 0 0.12226455122932151 0.085416752889645314 0 0.1216557806407343 0.071479469249335459 0 0.12226455122932151 0.085416752889645314 0 0.11512669577623801 0.084681001146040782 0 0.1194773040385034 0.076003781681649604 0 0.12226455122932151 0.085416752889645314 0 0.11512669577623801 0.084681001146040782 0 0.11512669577623801 0.084681001146040782 0 0.1194773040385034 0.076003781681649604 0 0.11181672866370421 0.077592170966915883 0 0.11512669577623801 0.084681001146040782 0 0.11181672866370421 0.077592170966915883 0 0.10306501108426649 0.084297543142112311 0 0.1216557806407343 0.071479469249335459 0 0.12749204484823781 0.059358575829946351 0 0.1214727927061585 0.067290116487043222 0 0.1216557806407343 0.071479469249335459 0 0.11379327539088339 0.069190786636501855 0 0.1214727927061585 0.067290116487043222 0 0.1216557806407343 0.071479469249335459 0 0.12749204484823781 0.059358575829946351 0 0.12081111455422271 0.059974640344039057 0 0.1214727927061585 0.067290116487043222 0 0.1155741433264254 0.063215387875355841 0 0.1214727927061585 0.067290116487043222 0 0.1216557806407343 0.071479469249335459 0 0.1216557806407343 0.071479469249335459 0 0.1194773040385034 0.076003781681649604 0 0.11379327539088339 0.069190786636501855 0 0.12226455122932151 0.085416752889645314 0 0.1216557806407343 0.071479469249335459 0 0.1194773040385034 0.076003781681649604 0 0.1216557806407343 0.071479469249335459 0 0.1194773040385034 0.076003781681649604 0 0.1194773040385034 0.076003781681649604 0 0.11181672866370421 0.077592170966915883 0 0.11379327539088339 0.069190786636501855 0 0.1096019310807908 0.061111424061950997 0 0.11379327539088339 0.069190786636501855 0 0.1155741433264254 0.063215387875355841 0 0.1214727927061585 0.067290116487043222 0 0.11379327539088339 0.069190786636501855 0 0.1155741433264254 0.063215387875355841 0 0.11181672866370421 0.077592170966915883 0 0.098808781698168036 0.064629355004770128 0 0.10306501108426649 0.084297543142112311 0 0.098808781698168036 0.064629355004770128 0 0.10306501108426649 0.084297543142112311 0 0.098808781698168036 0.064629355004770128 0 0.10306501108426649 0.084297543142112311 0 0.084968594740705283 0.081289446275466762 0 0.1096019310807908 0.061111424061950997 0 0.11379327539088339 0.069190786636501855 0 0.098808781698168036 0.064629355004770128 0 0.11181672866370421 0.077592170966915883 0 0.11379327539088339 0.069190786636501855 0 0.098808781698168036 0.064629355004770128 0 0.107321240470365 0.10396573127945451 0 0.11512669577623801 0.084681001146040782 0 0.10306501108426649 0.084297543142112311 0 0.09381911811863701 0.095394900565180754 0 0.10306501108426649 0.084297543142112311 0 0.084968594740705283 0.081289446275466762 0 0.084968594740705283 0.081289446275466762 0 0.06995664597036684 0.088120387326542371 0 0.080336017682405531 0.098301037892171594 0 0.09381911811863701 0.095394900565180754 0 0.084968594740705283 0.081289446275466762 0 0.080336017682405531 0.098301037892171594 0 0.098808781698168036 0.064629355004770128 0 0.084968594740705283 0.081289446275466762 0 0.085144942865691423 0.064806834087508425 0 0.081013789039002568 0.051781260836210263 0 0.085144942865691423 0.064806834087508425 0 0.061712287093516872 0.072697222363457548 0 0.084968594740705283 0.081289446275466762 0 0.085144942865691423 0.064806834087508425 0 0.061712287093516872 0.072697222363457548 0 0.084968594740705283 0.081289446275466762 0 0.06995664597036684 0.088120387326542371 0 0.061712287093516872 0.072697222363457548 0 0.080336017682405531 0.098301037892171594 0 0.079169845407441319 0.1121914387321282 0 0.061465564338599808 0.1021590020832667 0 0.06995664597036684 0.088120387326542371 0 0.080336017682405531 0.098301037892171594 0 0.061465564338599808 0.1021590020832667 0 0.080336017682405531 0.098301037892171594 0 0.093404726615442663 0.1091207442366986 0 0.079169845407441319 0.1121914387321282 0 0.09381911811863701 0.095394900565180754 0 0.080336017682405531 0.098301037892171594 0 0.093404726615442663 0.1091207442366986 0 0.093404726615442663 0.1091207442366986 0 0.079169845407441319 0.1121914387321282 0 0.092257043494458818 0.12628658270778359 0 0.079169845407441319 0.1121914387321282 0 0.092257043494458818 0.12628658270778359 0 0.077353455258945075 0.13326901069814451 0 0.079169845407441319 0.1121914387321282 0 0.068036608930720111 0.1213258666027779 0 0.061465564338599808 0.1021590020832667 0 0.079169845407441319 0.1121914387321282 0 0.068036608930720111 0.1213258666027779 0 0.077353455258945075 0.13326901069814451 0 0.068036608930720111 0.1213258666027779 0 0.054434252877735331 0.11563696372715131 0 0.04929720705558735 0.12710904658904801 0 0.068036608930720111 0.1213258666027779 0 0.054434252877735331 0.11563696372715131 0 0.061465564338599808 0.1021590020832667 0 0.054434252877735331 0.11563696372715131 0 0.061465564338599808 0.1021590020832667 0 0.038937631186034057 0.11195393963351249 0 0.054434252877735331 0.11563696372715131 0 0.038937631186034057 0.11195393963351249 0 0.04929720705558735 0.12710904658904801 0 0.061465564338599808 0.1021590020832667 0 0.038937631186034057 0.11195393963351249 0 0.042410785148031482 0.09361318389070504 0 0.06995664597036684 0.088120387326542371 0 0.061465564338599808 0.1021590020832667 0 0.042410785148031482 0.09361318389070504 0 0.042410785148031482 0.09361318389070504 0 0.0254630079545786 0.11197854513315 0 0.038937631186034057 0.11195393963351249 0 0.042410785148031482 0.09361318389070504 0 0.042410785148031482 0.09361318389070504 0 0.0254630079545786 0.11197854513315 0 0.027478719556704511 0.1010417327872381 0 0.038937631186034057 0.11195393963351249 0 0.042410785148031482 0.09361318389070504 0 0.0254630079545786 0.11197854513315 0 0.042410785148031482 0.09361318389070504 0 0.028825071800583829 0.092514965660812992 0 0.027478719556704511 0.1010417327872381 0 0.038937631186034057 0.11195393963351249 0 0.03220940468574042 0.116941492197073 0 0.035464477224036103 0.1302946953763198 0 0.038937631186034057 0.11195393963351249 0 0.035464477224036103 0.1302946953763198 0 0.038937631186034057 0.11195393963351249 0 0.03220940468574042 0.116941492197073 0 0.0254630079545786 0.11197854513315 0 0.038937631186034057 0.11195393963351249 0 0.04929720705558735 0.12710904658904801 0 0.035464477224036103 0.1302946953763198 0 0.064055383482512385 0.060323984947955878 0 0.047734797281465527 0.065498563237703741 0 0.04709697792602191 0.06886670905970077 0 0.064055383482512385 0.060323984947955878 0 0.061712287093516872 0.072697222363457548 0 0.04709697792602191 0.06886670905970077 0 0.064055383482512385 0.060323984947955878 0 0.04709697792602191 0.06886670905970077 0 0.047734797281465527 0.065498563237703741 0 0.04709697792602191 0.06886670905970077 0 0.061712287093516872 0.072697222363457548 0 0.042410785148031482 0.09361318389070504 0 0.06995664597036684 0.088120387326542371 0 0.061712287093516872 0.072697222363457548 0 0.042410785148031482 0.09361318389070504 0 0.061712287093516872 0.072697222363457548 0 0.04709697792602191 0.06886670905970077 0 0.042410785148031482 0.09361318389070504 0 0.04709697792602191 0.06886670905970077 0 0.042410785148031482 0.09361318389070504 0 0.04709697792602191 0.06886670905970077 0 0.042410785148031482 0.09361318389070504 0 0.026953107250481421 0.079014097571587699 0 0.042410785148031482 0.09361318389070504 0 0.026953107250481421 0.079014097571587699 0 0.028825071800583829 0.092514965660812992 0 0.04709697792602191 0.06886670905970077 0 0.026953107250481421 0.079014097571587699 0 0.04709697792602191 0.06886670905970077 0 0.03661918162924143 0.065868634940900603 0 0.026953107250481421 0.079014097571587699 0 0.047734797281465527 0.065498563237703741 0 0.04709697792602191 0.06886670905970077 0 0.03661918162924143 0.065868634940900603 0 0.020034592240193969 0.060320953482417658 0 0.026953107250481421 0.079014097571587699 0 0.01137261296968848 0.0743109816922424 0 0.020034592240193969 0.060320953482417658 0 0.03661918162924143 0.065868634940900603 0 0.026953107250481421 0.079014097571587699 0 0.026953107250481421 0.079014097571587699 0 0.028825071800583829 0.092514965660812992 0 0.0068092365749401959 0.089161486083472935 0 0.026953107250481421 0.079014097571587699 0 0.0068092365749401959 0.089161486083472935 0 -0.01026126465101837 0.07134425837433972 0 0.0068092365749401959 0.089161486083472935 0 0.01137261296968848 0.0743109816922424 0 0.026953107250481421 0.079014097571587699 0 0.0068092365749401959 0.089161486083472935 0 0.01137261296968848 0.0743109816922424 0 -0.01026126465101837 0.07134425837433972 0 0.01137261296968848 0.0743109816922424 0 0.0038734699466289762 0.063047998578607281 0 0.020034592240193969 0.060320953482417658 0 0.01137261296968848 0.0743109816922424 0 0.0038734699466289762 0.063047998578607281 0 0.018932200929585009 0.1172773273065984 0 0.024083968613609619 0.11491122102029661 0 0.014663488850465631 0.1120441988005817 0 0.018932200929585009 0.1172773273065984 0 0.014663488850465631 0.1120441988005817 0 0.01472515879025183 0.1200727564860898 0 0.018932200929585009 0.1172773273065984 0 0.022256187464012971 0.1220811329194257 0 0.01472515879025183 0.1200727564860898 0 0.022256187464012971 0.1220811329194257 0 0.01472515879025183 0.1200727564860898 0 0.016541360402577369 0.12788213456658701 0 0.018932200929585009 0.1172773273065984 0 0.022256187464012971 0.1220811329194257 0 0.024083968613609619 0.11491122102029661 0 0.024083968613609619 0.11491122102029661 0 0.035464477224036103 0.1302946953763198 0 0.03220940468574042 0.116941492197073 0 0.024083968613609619 0.11491122102029661 0 0.035464477224036103 0.1302946953763198 0 0.022256187464012971 0.1220811329194257 0 0.024083968613609619 0.11491122102029661 0 0.035464477224036103 0.1302946953763198 0 0.0254630079545786 0.11197854513315 0 0.024083968613609619 0.11491122102029661 0 0.02184675101004015 0.1058030962350512 0 0.03220940468574042 0.116941492197073 0 0.0254630079545786 0.11197854513315 0 0.024083968613609619 0.11491122102029661 0 0.0254630079545786 0.11197854513315 0 0.027478719556704511 0.1010417327872381 0 0.02184675101004015 0.1058030962350512 0 0.028825071800583829 0.092514965660812992 0 0.0068092365749401959 0.089161486083472935 0 0.018191364818450718 0.1010415104626443 0 0.028825071800583829 0.092514965660812992 0 0.027478719556704511 0.1010417327872381 0 0.018191364818450718 0.1010415104626443 0 0.024083968613609619 0.11491122102029661 0 0.02184675101004015 0.1058030962350512 0 0.01270346000318303 0.0995277466642734 0 0.024083968613609619 0.11491122102029661 0 0.01270346000318303 0.0995277466642734 0 0.027478719556704511 0.1010417327872381 0 0.018191364818450718 0.1010415104626443 0 0.02184675101004015 0.1058030962350512 0 0.024083968613609619 0.11491122102029661 0 0.01270346000318303 0.0995277466642734 0 0.014663488850465631 0.1120441988005817 0 0.018191364818450718 0.1010415104626443 0 0.02184675101004015 0.1058030962350512 0 0.01270346000318303 0.0995277466642734 0 0.01270346000318303 0.0995277466642734 0 0.0072262606549112251 0.105977901067451 0 0.014663488850465631 0.1120441988005817 0 0.01270346000318303 0.0995277466642734 0 0.0061470774191537576 0.099505099764475691 0 0.0072262606549112251 0.105977901067451 0 0.0068092365749401959 0.089161486083472935 0 0.01270346000318303 0.0995277466642734 0 0.0061470774191537576 0.099505099764475691 0 0.0068092365749401959 0.089161486083472935 0 0.018191364818450718 0.1010415104626443 0 0.0068092365749401959 0.089161486083472935 0 0.018191364818450718 0.1010415104626443 0 0.01270346000318303 0.0995277466642734 0 -0.0021506475564198259 0.1033532652427047 0 0.0068092365749401959 0.089161486083472935 0 0.0061470774191537576 0.099505099764475691 0 -0.0021506475564198259 0.1033532652427047 0 0.0061470774191537576 0.099505099764475691 0 0.0072262606549112251 0.105977901067451 0 -0.0021506475564198259 0.1033532652427047 0 0.0072262606549112251 0.105977901067451 0 0.0059791028666131962 0.1148459438749523 0 0.0059791028666131962 0.1148459438749523 0 0.014663488850465631 0.1120441988005817 0 0.01472515879025183 0.1200727564860898 0 0.0072262606549112251 0.105977901067451 0 0.0059791028666131962 0.1148459438749523 0 0.014663488850465631 0.1120441988005817 0 0.0059791028666131962 0.1148459438749523 0 0.01472515879025183 0.1200727564860898 0 0.006608478788520839 0.1262477455871297 0 0.01472515879025183 0.1200727564860898 0 0.006608478788520839 0.1262477455871297 0 0.016541360402577369 0.12788213456658701 0 -0.008518377070026447 0.1199328187399263 0 0.0059791028666131962 0.1148459438749523 0 0.006608478788520839 0.1262477455871297 0 0.006608478788520839 0.1262477455871297 0 0.00031929639297816748 0.13853099159330101 0 0.012019123824597079 0.13540138553851169 0 0.00031929639297816748 0.13853099159330101 0 0.012019123824597079 0.13540138553851169 0 0.01140678555352153 0.1439006932166301 0 0.012019123824597079 0.13540138553851169 0 0.01742408491923296 0.14110664262997599 0 0.01140678555352153 0.1439006932166301 0 0.006608478788520839 0.1262477455871297 0 0.012019123824597079 0.13540138553851169 0 0.016541360402577369 0.12788213456658701 0 0.012019123824597079 0.13540138553851169 0 0.016541360402577369 0.12788213456658701 0 0.02138754670848754 0.13495153347738409 0 0.022256187464012971 0.1220811329194257 0 0.016541360402577369 0.12788213456658701 0 0.023732722065787099 0.12811549494650801 0 0.016541360402577369 0.12788213456658701 0 0.02138754670848754 0.13495153347738409 0 0.023732722065787099 0.12811549494650801 0 0.012019123824597079 0.13540138553851169 0 0.02138754670848754 0.13495153347738409 0 0.01742408491923296 0.14110664262997599 0 0.02275785732260845 0.14059235539535581 0 0.02138754670848754 0.13495153347738409 0 0.01742408491923296 0.14110664262997599 0 0.02138754670848754 0.13495153347738409 0 0.02716199316622259 0.1330817748248273 0 0.028063226666579701 0.13896537549909749 0 0.02716199316622259 0.1330817748248273 0 0.028063226666579701 0.13896537549909749 0 0.035464477224036103 0.1302946953763198 0 0.02275785732260845 0.14059235539535581 0 0.02138754670848754 0.13495153347738409 0 0.028063226666579701 0.13896537549909749 0 0.028063226666579701 0.13896537549909749 0 0.033322227038291338 0.14160732010488719 0 0.022256187464012971 0.1220811329194257 0 0.023732722065787099 0.12811549494650801 0 0.035464477224036103 0.1302946953763198 0 0.02716199316622259 0.1330817748248273 0 0.023732722065787099 0.12811549494650801 0 0.035464477224036103 0.1302946953763198 0 0.02138754670848754 0.13495153347738409 0 0.02716199316622259 0.1330817748248273 0 0.023732722065787099 0.12811549494650801 0 0.023353882262986781 0.1531830745544572 0 0.033322227038291338 0.14160732010488719 0 0.032699753972743738 0.15356495679201901 0 0.023353882262986781 0.1531830745544572 0 0.033322227038291338 0.14160732010488719 0 0.029624310417156911 0.1422477763718118 0 0.023353882262986781 0.1531830745544572 0 0.033322227038291338 0.14160732010488719 0 0.029624310417156911 0.1422477763718118 0 0.025022144610111281 0.14400896053617321 0 0.023353882262986781 0.1531830745544572 0 0.028063226666579701 0.13896537549909749 0 0.029624310417156911 0.1422477763718118 0 0.033322227038291338 0.14160732010488719 0 0.028063226666579701 0.13896537549909749 0 0.029624310417156911 0.1422477763718118 0 0.025022144610111281 0.14400896053617321 0 0.02275785732260845 0.14059235539535581 0 0.028063226666579701 0.13896537549909749 0 0.025022144610111281 0.14400896053617321 0 0.025022144610111281 0.14400896053617321 0 0.02131144638122456 0.14505622086014339 0 0.023353882262986781 0.1531830745544572 0 0.02275785732260845 0.14059235539535581 0 0.02131144638122456 0.14505622086014339 0 0.01742408491923296 0.14110664262997599 0 0.02275785732260845 0.14059235539535581 0 0.025022144610111281 0.14400896053617321 0 0.02131144638122456 0.14505622086014339 0 0.02131144638122456 0.14505622086014339 0 0.01742408491923296 0.14110664262997599 0 0.01715775192971275 0.14831214592370021 0 0.02131144638122456 0.14505622086014339 0 0.01715775192971275 0.14831214592370021 0 0.023353882262986781 0.1531830745544572 0 0.01715775192971275 0.14831214592370021 0 0.023353882262986781 0.1531830745544572 0 0.019838434250115129 0.15325253565101729 0 0.01715775192971275 0.14831214592370021 0 0.019838434250115129 0.15325253565101729 0 0.0091569698559822027 0.1571291644466758 0 0.00031929639297816748 0.13853099159330101 0 0.0091569698559822027 0.1571291644466758 0 -0.002481879497315161 0.13785522786991969 0 0.00031929639297816748 0.13853099159330101 0 0.0091569698559822027 0.1571291644466758 0 0.019838434250115129 0.15325253565101729 0 0.0091569698559822027 0.1571291644466758 0 -0.0045028803545483984 0.15067741716784261 0 -0.002481879497315161 0.13785522786991969 0 0.0091569698559822027 0.1571291644466758 0 -0.002481879497315161 0.13785522786991969 0 0.0091569698559822027 0.1571291644466758 0 0.01715775192971275 0.14831214592370021 0 0.01140678555352153 0.1439006932166301 0 0.0091569698559822027 0.1571291644466758 0 0.00031929639297816748 0.13853099159330101 0 0.01140678555352153 0.1439006932166301 0 0.0091569698559822027 0.1571291644466758 0 0.01742408491923296 0.14110664262997599 0 0.01715775192971275 0.14831214592370021 0 0.01140678555352153 0.1439006932166301 0 -0.0032619964912099868 0.18078953405076159 0 0.012582456118906991 0.16435538798096699 0 0.0091569698559822027 0.1571291644466758 0 0.01089470083382918 0.17108116389245279 0 0.012582456118906991 0.16435538798096699 0 0.01698334118704848 0.17359913331791579 0 0.012582456118906991 0.16435538798096699 0 0.01698334118704848 0.17359913331791579 0 0.019838434250115129 0.15325253565101729 0 0.012582456118906991 0.16435538798096699 0 0.0091569698559822027 0.1571291644466758 0 0.012582456118906991 0.16435538798096699 0 0.0091569698559822027 0.1571291644466758 0 -0.0032619964912099868 0.18078953405076159 0 0.01089470083382918 0.17108116389245279 0 0.012582456118906991 0.16435538798096699 0 -0.0032619964912099868 0.18078953405076159 0 0.012582456118906991 0.16435538798096699 0 -0.0032619964912099868 0.18078953405076159 0 0.0092771254230874789 0.17630013646413331 0 0.0071796887690462729 0.18978211263830161 0 -0.0032619964912099868 0.18078953405076159 0 0.01089470083382918 0.17108116389245279 0 0.0092771254230874789 0.17630013646413331 0 0.0092771254230874789 0.17630013646413331 0 0.015974563442044721 0.18306477602670659 0 0.01698334118704848 0.17359913331791579 0 0.01089470083382918 0.17108116389245279 0 0.0092771254230874789 0.17630013646413331 0 0.01698334118704848 0.17359913331791579 0 0.0092771254230874789 0.17630013646413331 0 0.01698334118704848 0.17359913331791579 0 0.0092771254230874789 0.17630013646413331 0 0.015974563442044721 0.18306477602670659 0 0.0071796887690462729 0.18978211263830161 0 0.01698334118704848 0.17359913331791579 0 0.030974882171690199 0.1967448321150298 0 0.015974563442044721 0.18306477602670659 0 0.0071796887690462729 0.18978211263830161 0 0.02395050389954102 0.18826096677068219 0 0.01698334118704848 0.17359913331791579 0 0.038259799882124357 0.16614180489164601 0 0.034588733247079582 0.18453230255754721 0 0.01698334118704848 0.17359913331791579 0 0.030974882171690199 0.1967448321150298 0 0.02395050389954102 0.18826096677068219 0 0.01698334118704848 0.17359913331791579 0 0.034588733247079582 0.18453230255754721 0 0.030974882171690199 0.1967448321150298 0 0.01698334118704848 0.17359913331791579 0 0.02395050389954102 0.18826096677068219 0 0.015974563442044721 0.18306477602670659 0 0.01698334118704848 0.17359913331791579 0 0.02395050389954102 0.18826096677068219 0 0.01698334118704848 0.17359913331791579 0 0.038259799882124357 0.16614180489164601 0 0.01698334118704848 0.17359913331791579 0 0.02307944955304455 0.16235869322782559 0 0.038259799882124357 0.16614180489164601 0 0.023353882262986781 0.1531830745544572 0 0.012582456118906991 0.16435538798096699 0 0.02307944955304455 0.16235869322782559 0 0.023353882262986781 0.1531830745544572 0 0.019838434250115129 0.15325253565101729 0 0.012582456118906991 0.16435538798096699 0 0.023353882262986781 0.1531830745544572 0 0.012582456118906991 0.16435538798096699 0 0.012582456118906991 0.16435538798096699 0 0.01698334118704848 0.17359913331791579 0 0.02307944955304455 0.16235869322782559 0 0.023353882262986781 0.1531830745544572 0 0.02307944955304455 0.16235869322782559 0 0.032699753972743738 0.15356495679201901 0 0.02307944955304455 0.16235869322782559 0 0.038259799882124357 0.16614180489164601 0 0.032699753972743738 0.15356495679201901 0 0.038259799882124357 0.16614180489164601 0 0.045660866316935687 0.17896907822274091 0 0.052963270866758998 0.16957267056785921 0 0.038259799882124357 0.16614180489164601 0 0.034588733247079582 0.18453230255754721 0 0.038259799882124357 0.16614180489164601 0 0.034588733247079582 0.18453230255754721 0 0.045660866316935687 0.17896907822274091 0 0.034588733247079582 0.18453230255754721 0 0.045660866316935687 0.17896907822274091 0 0.043813813749539403 0.19579467880438919 0 0.058678713839176708 0.17880393429226321 0 0.043813813749539403 0.19579467880438919 0 0.045660866316935687 0.17896907822274091 0 0.058678713839176708 0.17880393429226321 0 0.043813813749539403 0.19579467880438919 0 0.045660866316935687 0.17896907822274091 0 0.058678713839176708 0.17880393429226321 0 0.052963270866758998 0.16957267056785921 0 0.038259799882124357 0.16614180489164601 0 0.05709888816483262 0.15953876673622949 0 0.038259799882124357 0.16614180489164601 0 0.05709888816483262 0.15953876673622949 0 0.050050327450253548 0.15001095416550941 0 0.038259799882124357 0.16614180489164601 0 0.052963270866758998 0.16957267056785921 0 0.05709888816483262 0.15953876673622949 0 0.052963270866758998 0.16957267056785921 0 0.061492191766945717 0.16564738153663669 0 0.05815675946495677 0.1609687323532801 0 0.058678713839176708 0.17880393429226321 0 0.052963270866758998 0.16957267056785921 0 0.061492191766945717 0.16564738153663669 0 0.052963270866758998 0.16957267056785921 0 0.05815675946495677 0.1609687323532801 0 0.05709888816483262 0.15953876673622949 0 0.061492191766945717 0.16564738153663669 0 0.05815675946495677 0.1609687323532801 0 0.064118600735026093 0.1570783806896493 0 0.05815675946495677 0.1609687323532801 0 0.05709888816483262 0.15953876673622949 0 0.05709888816483262 0.15953876673622949 0 0.064118600735026093 0.1570783806896493 0 0.05815675946495677 0.1609687323532801 0 0.05709888816483262 0.15953876673622949 0 0.064118600735026093 0.1570783806896493 0 0.05709888816483262 0.15953876673622949 0 0.050050327450253548 0.15001095416550941 0 0.064118600735026093 0.1570783806896493 0 0.050050327450253548 0.15001095416550941 0 0.060128291172279892 0.1474856881029703 0 0.064118600735026093 0.1570783806896493 0 0.050050327450253548 0.15001095416550941 0 0.064118600735026093 0.1570783806896493 0 0.05709888816483262 0.15953876673622949 0 0.050050327450253548 0.15001095416550941 0 0.050050327450253548 0.15001095416550941 0 0.051036703883295509 0.14154546379448529 0 0.043300982512726273 0.1408876031518986 0 0.050050327450253548 0.15001095416550941 0 0.051036703883295509 0.14154546379448529 0 0.060128291172279892 0.1474856881029703 0 0.051036703883295509 0.14154546379448529 0 0.060128291172279892 0.1474856881029703 0 0.060292558754289627 0.13608651916268361 0 0.068036608930720111 0.1213258666027779 0 0.060292558754289627 0.13608651916268361 0 0.04929720705558735 0.12710904658904801 0 0.04929720705558735 0.12710904658904801 0 0.049106687667150879 0.13516849385596691 0 0.043680381641096062 0.13312765384905079 0 0.060292558754289627 0.13608651916268361 0 0.04929720705558735 0.12710904658904801 0 0.049106687667150879 0.13516849385596691 0 0.051036703883295509 0.14154546379448529 0 0.060292558754289627 0.13608651916268361 0 0.049106687667150879 0.13516849385596691 0 0.051036703883295509 0.14154546379448529 0 0.049106687667150879 0.13516849385596691 0 0.043300982512726273 0.1408876031518986 0 0.043680381641096062 0.13312765384905079 0 0.039810614515431039 0.13616953751726671 0 0.035464477224036103 0.1302946953763198 0 0.049106687667150879 0.13516849385596691 0 0.043680381641096062 0.13312765384905079 0 0.043300982512726273 0.1408876031518986 0 0.039810614515431039 0.13616953751726671 0 0.043300982512726273 0.1408876031518986 0 0.03948872802388146 0.14119375552304561 0 0.043680381641096062 0.13312765384905079 0 0.039810614515431039 0.13616953751726671 0 0.043300982512726273 0.1408876031518986 0 0.039810614515431039 0.13616953751726671 0 0.043300982512726273 0.1408876031518986 0 0.04929720705558735 0.12710904658904801 0 0.043680381641096062 0.13312765384905079 0 0.035464477224036103 0.1302946953763198 0 0.028063226666579701 0.13896537549909749 0 0.035464477224036103 0.1302946953763198 0 0.033322227038291338 0.14160732010488719 0 0.035464477224036103 0.1302946953763198 0 0.033322227038291338 0.14160732010488719 0 0.039810614515431039 0.13616953751726671 0 0.035464477224036103 0.1302946953763198 0 0.033322227038291338 0.14160732010488719 0 0.039810614515431039 0.13616953751726671 0 0.033322227038291338 0.14160732010488719 0 0.03948872802388146 0.14119375552304561 0 0.039810614515431039 0.13616953751726671 0 0.033322227038291338 0.14160732010488719 0 0.039810614515431039 0.13616953751726671 0 0.035464477224036103 0.1302946953763198 0 0.033322227038291338 0.14160732010488719 0 0.03948872802388146 0.14119375552304561 0 0.042260930884164383 0.14609782376322711 0 0.033322227038291338 0.14160732010488719 0 0.032699753972743738 0.15356495679201901 0 0.042260930884164383 0.14609782376322711 0 0.038259799882124357 0.16614180489164601 0 0.042260930884164383 0.14609782376322711 0 0.038259799882124357 0.16614180489164601 0 0.050050327450253548 0.15001095416550941 0 0.042260930884164383 0.14609782376322711 0 0.033322227038291338 0.14160732010488719 0 0.042260930884164383 0.14609782376322711 0 0.038259799882124357 0.16614180489164601 0 0.032699753972743738 0.15356495679201901 0 0.042260930884164383 0.14609782376322711 0 0.050050327450253548 0.15001095416550941 0 0.042260930884164383 0.14609782376322711 0 0.050050327450253548 0.15001095416550941 0 0.043300982512726273 0.1408876031518986 0 0.050050327450253548 0.15001095416550941 0 0.043300982512726273 0.1408876031518986 0 0.042260930884164383 0.14609782376322711 0 0.043300982512726273 0.1408876031518986 0 0.03948872802388146 0.14119375552304561 0 0.042260930884164383 0.14609782376322711 0 0.043300982512726273 0.1408876031518986 0 0.042260930884164383 0.14609782376322711 0 0.026863479884004868 0.24759467823393411 0 0.0038625641132594909 0.24145939712855799 0 0.016405738886580819 0.2271224102225366 0 -0.005819696136999758 0.24206529693386411 0 0.0038625641132594909 0.24145939712855799 0 0.0055414543167647554 0.2257760001634459 0 0.0038625641132594909 0.24145939712855799 0 0.016405738886580819 0.2271224102225366 0 0.0038625641132594909 0.24145939712855799 0 0.0055414543167647554 0.2257760001634459 0 0.016405738886580819 0.2271224102225366 0 -0.0010678171129113059 0.22133970227153171 0 0.0055414543167647554 0.2257760001634459 0 0.013763415913261899 0.215633792975333 0 0.0055414543167647554 0.2257760001634459 0 0.016405738886580819 0.2271224102225366 0 0.013763415913261899 0.215633792975333 0 0.016405738886580819 0.2271224102225366 0 0.028948913659901449 0.21278542331651459 0 0.026863479884004868 0.24759467823393411 0 0.016405738886580819 0.2271224102225366 0 0.02807106276378326 0.21718308657382079 0 0.016405738886580819 0.2271224102225366 0 0.02807106276378326 0.21718308657382079 0 0.028948913659901449 0.21278542331651459 0 0.02807106276378326 0.21718308657382079 0 0.028948913659901449 0.21278542331651459 0 0.028948913659901449 0.21278542331651459 0 0.022201773285989421 0.20631076508834889 0 0.030917666612034239 0.20292280022344841 0 0.028948913659901449 0.21278542331651459 0 0.030917666612034239 0.20292280022344841 0 0.028948913659901449 0.21278542331651459 0 0.030917666612034239 0.20292280022344841 0 0.031655004810312713 0.20447446914631751 0 0.022201773285989421 0.20631076508834889 0 0.013763415913261899 0.215633792975333 0 0.01381860190859349 0.20216739205976181 0 0.028948913659901449 0.21278542331651459 0 0.022201773285989421 0.20631076508834889 0 0.013763415913261899 0.215633792975333 0 0.016405738886580819 0.2271224102225366 0 0.028948913659901449 0.21278542331651459 0 0.013763415913261899 0.215633792975333 0 -0.0024468295615022932 0.20490349668467339 0 -0.0010678171129113059 0.22133970227153171 0 0.01381860190859349 0.20216739205976181 0 -0.0010678171129113059 0.22133970227153171 0 0.01381860190859349 0.20216739205976181 0 -0.0010678171129113059 0.22133970227153171 0 0.013763415913261899 0.215633792975333 0 0.01381860190859349 0.20216739205976181 0 -0.0024468295615022932 0.20490349668467339 0 0.01381860190859349 0.20216739205976181 0 0.0071796887690462729 0.18978211263830161 0 0.01381860190859349 0.20216739205976181 0 0.0071796887690462729 0.18978211263830161 0 0.02395050389954102 0.18826096677068219 0 0.022201773285989421 0.20631076508834889 0 0.01381860190859349 0.20216739205976181 0 0.02395050389954102 0.18826096677068219 0 0.022201773285989421 0.20631076508834889 0 0.030917666612034239 0.20292280022344841 0 0.02395050389954102 0.18826096677068219 0 0.030974882171690199 0.1967448321150298 0 0.030917666612034239 0.20292280022344841 0 0.02395050389954102 0.18826096677068219 0 0.030917666612034239 0.20292280022344841 0 0.02395050389954102 0.18826096677068219 0 0.034588733247079582 0.18453230255754721 0 0.030917666612034239 0.20292280022344841 0 0.043813813749539403 0.19579467880438919 0 0.034588733247079582 0.18453230255754721 0 0.030917666612034239 0.20292280022344841 0 0.034588733247079582 0.18453230255754721 0 0.030974882171690199 0.1967448321150298 0 0.030917666612034239 0.20292280022344841 0 0.030917666612034239 0.20292280022344841 0 0.043813813749539403 0.19579467880438919 0 0.031655004810312713 0.20447446914631751 0 0.043813813749539403 0.19579467880438919 0 0.059298998181490099 0.1943445005966313 0 0.044627085136961467 0.2115040860410726 0 0.058678713839176708 0.17880393429226321 0 0.043813813749539403 0.19579467880438919 0 0.059298998181490099 0.1943445005966313 0 0.048200633813532047 0.22682324515421379 0 0.069537787743059173 0.2060518120744935 0 0.044627085136961467 0.2115040860410726 0 0.048200633813532047 0.22682324515421379 0 0.069537787743059173 0.2060518120744935 0 0.059298998181490099 0.1943445005966313 0 0.044627085136961467 0.2115040860410726 0 0.069537787743059173 0.2060518120744935 0 0.048200633813532047 0.22682324515421379 0 0.065839800886005356 0.2230345810839956 0 0.069537787743059173 0.2060518120744935 0 0.02807106276378326 0.21718308657382079 0 0.028948913659901449 0.21278542331651459 0 0.044627085136961467 0.2115040860410726 0 0.028948913659901449 0.21278542331651459 0 0.043813813749539403 0.19579467880438919 0 0.02807106276378326 0.21718308657382079 0 0.044627085136961467 0.2115040860410726 0 0.048200633813532047 0.22682324515421379 0 0.028948913659901449 0.21278542331651459 0 0.043813813749539403 0.19579467880438919 0 0.044627085136961467 0.2115040860410726 0 0.028948913659901449 0.21278542331651459 0 0.043813813749539403 0.19579467880438919 0 0.031655004810312713 0.20447446914631751 0 0.030917666612034239 0.20292280022344841 0 0.031655004810312713 0.20447446914631751 0 0.026863479884004868 0.24759467823393411 0 0.02807106276378326 0.21718308657382079 0 0.048200633813532047 0.22682324515421379 0 0.048200633813532047 0.22682324515421379 0 0.054551328081454971 0.2389200020814152 0 0.06461603165111135 0.23282025052094579 0 0.048200633813532047 0.22682324515421379 0 0.065839800886005356 0.2230345810839956 0 0.06461603165111135 0.23282025052094579 0 0.048200633813532047 0.22682324515421379 0 0.054551328081454971 0.2389200020814152 0 0.04499559158562462 0.24487331477749599 0 0.054551328081454971 0.2389200020814152 0 0.063315063813541142 0.24293749982362409 0 0.06461603165111135 0.23282025052094579 0 0.056466674482735048 0.24837959543189131 0 0.063315063813541142 0.24293749982362409 0 0.066128306823598423 0.25082936631965508 0 0.054551328081454971 0.2389200020814152 0 0.056466674482735048 0.24837959543189131 0 0.063315063813541142 0.24293749982362409 0 0.054551328081454971 0.2389200020814152 0 0.056466674482735048 0.24837959543189131 0 0.04499559158562462 0.24487331477749599 0 0.026863479884004868 0.24759467823393411 0 0.048200633813532047 0.22682324515421379 0 0.026863479884004868 0.24759467823393411 0 0.048200633813532047 0.22682324515421379 0 0.04499559158562462 0.24487331477749599 0 0.091153857278743811 0.24026770163169781 0 0.082615493052016584 0.2439470036904457 0 0.08100475033631882 0.22644301658632929 0 0.091153857278743811 0.24026770163169781 0 0.085652519283330383 0.25639019876735081 0 0.091153857278743811 0.24026770163169781 0 0.082615493052016584 0.2439470036904457 0 0.085652519283330383 0.25639019876735081 0 0.082615493052016584 0.2439470036904457 0 0.08100475033631882 0.22644301658632929 0 0.072650845309673334 0.25268709777640502 0 0.091153857278743811 0.24026770163169781 0 0.10166286180755039 0.2485299665686673 0 0.085652519283330383 0.25639019876735081 0 0.08100475033631882 0.22644301658632929 0 0.072650845309673334 0.25268709777640502 0 0.071544711303561881 0.24135194491980799 0 0.08100475033631882 0.22644301658632929 0 0.072650845309673334 0.25268709777640502 0 0.0683840449532815 0.24680230957732269 0 0.071544711303561881 0.24135194491980799 0 0.072650845309673334 0.25268709777640502 0 0.063315063813541142 0.24293749982362409 0 0.0683840449532815 0.24680230957732269 0 0.071544711303561881 0.24135194491980799 0 0.063315063813541142 0.24293749982362409 0 0.0683840449532815 0.24680230957732269 0 0.066128306823598423 0.25082936631965508 0 0.063315063813541142 0.24293749982362409 0 0.071544711303561881 0.24135194491980799 0 0.06461603165111135 0.23282025052094579 0 0.071544711303561881 0.24135194491980799 0 0.06461603165111135 0.23282025052094579 0 0.08100475033631882 0.22644301658632929 0 0.065839800886005356 0.2230345810839956 0 0.06461603165111135 0.23282025052094579 0 0.08100475033631882 0.22644301658632929 0 0.091153857278743811 0.24026770163169781 0 0.08100475033631882 0.22644301658632929 0 0.096655195274157224 0.2241452044960448 0 0.08100475033631882 0.22644301658632929 0 0.096640108029455857 0.21312752212293529 0 0.096655195274157224 0.2241452044960448 0 0.08100475033631882 0.22644301658632929 0 0.069537787743059173 0.2060518120744935 0 0.08935865536296439 0.20019893539625341 0 0.08100475033631882 0.22644301658632929 0 0.08935865536296439 0.20019893539625341 0 0.096640108029455857 0.21312752212293529 0 0.08100475033631882 0.22644301658632929 0 0.08935865536296439 0.20019893539625341 0 0.065839800886005356 0.2230345810839956 0 0.08100475033631882 0.22644301658632929 0 0.069537787743059173 0.2060518120744935 0 0.069537787743059173 0.2060518120744935 0 0.08935865536296439 0.20019893539625341 0 0.074688388240851722 0.18586120439099171 0 0.059298998181490099 0.1943445005966313 0 0.069537787743059173 0.2060518120744935 0 0.074688388240851722 0.18586120439099171 0 0.08935865536296439 0.20019893539625341 0 0.1051745770182603 0.19133246669464629 0 0.10877812289776501 0.20736651246642579 0 0.08935865536296439 0.20019893539625341 0 0.1051745770182603 0.19133246669464629 0 0.097712560389610043 0.17395485420617751 0 0.1051745770182603 0.19133246669464629 0 0.10877812289776501 0.20736651246642579 0 0.12557838556357401 0.20256941447653021 0 0.1051745770182603 0.19133246669464629 0 0.12107070039874 0.1856891967877807 0 0.12557838556357401 0.20256941447653021 0 0.10877812289776501 0.20736651246642579 0 0.12514816020807251 0.22003583600208371 0 0.12557838556357401 0.20256941447653021 0 0.10877812289776501 0.20736651246642579 0 0.1099539772774626 0.2246918948316993 0 0.12514816020807251 0.22003583600208371 0 0.10877812289776501 0.20736651246642579 0 0.096640108029455857 0.21312752212293529 0 0.1099539772774626 0.2246918948316993 0 0.08935865536296439 0.20019893539625341 0 0.10877812289776501 0.20736651246642579 0 0.096640108029455857 0.21312752212293529 0 0.1099539772774626 0.2246918948316993 0 0.1140877946126424 0.2414168542013195 0 0.1027027372501113 0.23581032434588581 0 0.091153857278743811 0.24026770163169781 0 0.096655195274157224 0.2241452044960448 0 0.1027027372501113 0.23581032434588581 0 0.091153857278743811 0.24026770163169781 0 0.096655195274157224 0.2241452044960448 0 0.096640108029455857 0.21312752212293529 0 0.096655195274157224 0.2241452044960448 0 0.1099539772774626 0.2246918948316993 0 0.096655195274157224 0.2241452044960448 0 0.1099539772774626 0.2246918948316993 0 0.1027027372501113 0.23581032434588581 0 0.1099539772774626 0.2246918948316993 0 0.1140877946126424 0.2414168542013195 0 0.12672454382375109 0.23377763660150119 0 0.1099539772774626 0.2246918948316993 0 0.12672454382375109 0.23377763660150119 0 0.12514816020807251 0.22003583600208371 0 0.1140877946126424 0.2414168542013195 0 0.13032557771525119 0.24558986973164881 0 0.12672454382375109 0.23377763660150119 0 0.1140877946126424 0.2414168542013195 0 0.10166286180755039 0.2485299665686673 0 0.1027027372501113 0.23581032434588581 0 0.091153857278743811 0.24026770163169781 0 0.10166286180755039 0.2485299665686673 0 0.1027027372501113 0.23581032434588581 0 0.082688820871773511 0.1505695799304318 0 0.093586512763571578 0.1421952985786282 0 0.077353455258945075 0.13326901069814451 0 0.082688820871773511 0.1505695799304318 0 0.092397143187812392 0.1558191269363435 0 0.093586512763571578 0.1421952985786282 0 0.082688820871773511 0.1505695799304318 0 0.092397143187812392 0.1558191269363435 0 0.084027547071366143 0.16073638424638539 0 0.093586512763571578 0.1421952985786282 0 0.092257043494458818 0.12628658270778359 0 0.077353455258945075 0.13326901069814451 0 0.068036608930720111 0.1213258666027779 0 0.060292558754289627 0.13608651916268361 0 0.077353455258945075 0.13326901069814451 0 0.060292558754289627 0.13608651916268361 0 0.077353455258945075 0.13326901069814451 0 0.07034557419328577 0.14509882921709269 0 0.082688820871773511 0.1505695799304318 0 0.077353455258945075 0.13326901069814451 0 0.07034557419328577 0.14509882921709269 0 0.060128291172279892 0.1474856881029703 0 0.060292558754289627 0.13608651916268361 0 0.07034557419328577 0.14509882921709269 0 0.082688820871773511 0.1505695799304318 0 0.07034557419328577 0.14509882921709269 0 0.064118600735026093 0.1570783806896493 0 0.082688820871773511 0.1505695799304318 0 0.064118600735026093 0.1570783806896493 0 0.060128291172279892 0.1474856881029703 0 0.07034557419328577 0.14509882921709269 0 0.064118600735026093 0.1570783806896493 0 0.058678713839176708 0.17880393429226321 0 0.073543613928809246 0.1618131897801329 0 0.058678713839176708 0.17880393429226321 0 0.061492191766945717 0.16564738153663669 0 0.073543613928809246 0.1618131897801329 0 0.082688820871773511 0.1505695799304318 0 0.064118600735026093 0.1570783806896493 0 0.073543613928809246 0.1618131897801329 0 0.061492191766945717 0.16564738153663669 0 0.064118600735026093 0.1570783806896493 0 0.073543613928809246 0.1618131897801329 0 0.064118600735026093 0.1570783806896493 0 0.073543613928809246 0.1618131897801329 0 0.058678713839176708 0.17880393429226321 0 0.073543613928809246 0.1618131897801329 0 0.074688388240851722 0.18586120439099171 0 0.058678713839176708 0.17880393429226321 0 0.059298998181490099 0.1943445005966313 0 0.074688388240851722 0.18586120439099171 0 0.073543613928809246 0.1618131897801329 0 0.074688388240851722 0.18586120439099171 0 0.097712560389610043 0.17395485420617751 0 0.08935865536296439 0.20019893539625341 0 0.097712560389610043 0.17395485420617751 0 0.08935865536296439 0.20019893539625341 0 0.074688388240851722 0.18586120439099171 0 0.097712560389610043 0.17395485420617751 0 0.073543613928809246 0.1618131897801329 0 0.097712560389610043 0.17395485420617751 0 0.092397143187812392 0.1558191269363435 0 0.084027547071366143 0.16073638424638539 0 0.097712560389610043 0.17395485420617751 0 0.073543613928809246 0.1618131897801329 0 0.084027547071366143 0.16073638424638539 0 0.097712560389610043 0.17395485420617751 0 0.082688820871773511 0.1505695799304318 0 0.073543613928809246 0.1618131897801329 0 0.084027547071366143 0.16073638424638539 0 0.097712560389610043 0.17395485420617751 0 0.11212954262575731 0.16536163060041931 0 0.10464408427893331 0.15217923248889331 0 0.097712560389610043 0.17395485420617751 0 0.10464408427893331 0.15217923248889331 0 0.092397143187812392 0.1558191269363435 0 0.097712560389610043 0.17395485420617751 0 0.10464408427893331 0.15217923248889331 0 0.1051745770182603 0.19133246669464629 0 0.097712560389610043 0.17395485420617751 0 0.12107070039874 0.1856891967877807 0 0.097712560389610043 0.17395485420617751 0 0.1167448044452036 0.17980140431647029 0 0.11212954262575731 0.16536163060041931 0 0.097712560389610043 0.17395485420617751 0 0.12107070039874 0.1856891967877807 0 0.12107070039874 0.1856891967877807 0 0.1167448044452036 0.17980140431647029 0 0.13462563358984381 0.1809102760177331 0 0.097712560389610043 0.17395485420617751 0 0.12107070039874 0.1856891967877807 0 0.1167448044452036 0.17980140431647029 0 0.1167448044452036 0.17980140431647029 0 0.11212954262575731 0.16536163060041931 0 0.1260215312958799 0.1714296086344915 0 0.11212954262575731 0.16536163060041931 0 0.1247692046070295 0.1427586567195428 0 0.1260215312958799 0.1714296086344915 0 0.11212954262575731 0.16536163060041931 0 0.1247692046070295 0.1427586567195428 0 0.10464408427893331 0.15217923248889331 0 0.1247692046070295 0.1427586567195428 0 0.10464408427893331 0.15217923248889331 0 0.11157560816825671 0.13040361077160911 0 0.10464408427893331 0.15217923248889331 0 0.11157560816825671 0.13040361077160911 0 0.093586512763571578 0.1421952985786282 0 0.10464408427893331 0.15217923248889331 0 0.11157560816825671 0.13040361077160911 0 0.092397143187812392 0.1558191269363435 0 0.093586512763571578 0.1421952985786282 0 0.10464408427893331 0.15217923248889331 0 0.093586512763571578 0.1421952985786282 0 0.092257043494458818 0.12628658270778359 0 0.11157560816825671 0.13040361077160911 0 0.1235168779181791 0.1140877048045939 0 0.1247692046070295 0.1427586567195428 0 0.1235168779181791 0.1140877048045939 0 0.1247692046070295 0.1427586567195428 0 0.11157560816825671 0.13040361077160911 0 0.1235168779181791 0.1140877048045939 0 0.1247692046070295 0.1427586567195428 0 0.1347761130444704 0.12851802045707719 0 0.1247692046070295 0.1427586567195428 0 0.137469766881365 0.14056532698109209 0 0.1347761130444704 0.12851802045707719 0 0.137469766881365 0.14056532698109209 0 0.1347761130444704 0.12851802045707719 0 0.14508935071658979 0.13228292879391709 0 0.1347761130444704 0.12851802045707719 0 0.14508935071658979 0.13228292879391709 0 0.14020136760539589 0.1181943696380932 0 0.14508935071658979 0.13228292879391709 0 0.14020136760539589 0.1181943696380932 0 0.14893278579265579 0.1247789076730465 0 0.137469766881365 0.14056532698109209 0 0.14508935071658979 0.13228292879391709 0 0.14581221205207959 0.14555346786056811 0 0.14508935071658979 0.13228292879391709 0 0.1536985100133792 0.13989571527814509 0 0.14581221205207959 0.14555346786056811 0 0.14508935071658979 0.13228292879391709 0 0.1536985100133792 0.13989571527814509 0 0.15134229805030611 0.13122337161462599 0 0.1536985100133792 0.13989571527814509 0 0.15134229805030611 0.13122337161462599 0 0.15764854567859959 0.12793593471339559 0 0.15134229805030611 0.13122337161462599 0 0.15764854567859959 0.12793593471339559 0 0.14893278579265579 0.1247789076730465 0 0.14508935071658979 0.13228292879391709 0 0.15134229805030611 0.13122337161462599 0 0.14893278579265579 0.1247789076730465 0 0.1532291120160667 0.14875842557778751 0 0.14832005405516499 0.1543874449380627 0 0.1657735077777289 0.1527661608987613 0 0.1532291120160667 0.14875842557778751 0 0.14581221205207959 0.14555346786056811 0 0.14832005405516499 0.1543874449380627 0 0.1536985100133792 0.13989571527814509 0 0.1532291120160667 0.14875842557778751 0 0.14581221205207959 0.14555346786056811 0 0.14581221205207959 0.14555346786056811 0 0.14832005405516499 0.1543874449380627 0 0.1369019539866555 0.15371356107435499 0 0.1247692046070295 0.1427586567195428 0 0.1369019539866555 0.15371356107435499 0 0.1260215312958799 0.1714296086344915 0 0.1247692046070295 0.1427586567195428 0 0.137469766881365 0.14056532698109209 0 0.1369019539866555 0.15371356107435499 0 0.137469766881365 0.14056532698109209 0 0.14581221205207959 0.14555346786056811 0 0.1369019539866555 0.15371356107435499 0 0.1247692046070295 0.1427586567195428 0 0.1260215312958799 0.1714296086344915 0 0.1369019539866555 0.15371356107435499 0 0.1260215312958799 0.1714296086344915 0 0.14125915611146619 0.16628378260761559 0 0.1167448044452036 0.17980140431647029 0 0.1260215312958799 0.1714296086344915 0 0.14125915611146619 0.16628378260761559 0 0.1167448044452036 0.17980140431647029 0 0.14125915611146619 0.16628378260761559 0 0.1167448044452036 0.17980140431647029 0 0.13462563358984381 0.1809102760177331 0 0.14125915611146619 0.16628378260761559 0 0.1476679880851548 0.1796934447648515 0 0.1606192116428411 0.1843252455715646 0 0.14442884040786991 0.19742353936938381 0 0.13462563358984381 0.1809102760177331 0 0.1476679880851548 0.1796934447648515 0 0.14442884040786991 0.19742353936938381 0 0.13462563358984381 0.1809102760177331 0 0.1476679880851548 0.1796934447648515 0 0.14125915611146619 0.16628378260761559 0 0.1476679880851548 0.1796934447648515 0 0.15740709867375319 0.1695243802579601 0 0.1606192116428411 0.1843252455715646 0 0.14832005405516499 0.1543874449380627 0 0.14125915611146619 0.16628378260761559 0 0.1657735077777289 0.1527661608987613 0 0.14125915611146619 0.16628378260761559 0 0.15740709867375319 0.1695243802579601 0 0.1657735077777289 0.1527661608987613 0 0.14125915611146619 0.16628378260761559 0 0.1657735077777289 0.1527661608987613 0 0.1476679880851548 0.1796934447648515 0 0.14125915611146619 0.16628378260761559 0 0.15740709867375319 0.1695243802579601 0 0.14832005405516499 0.1543874449380627 0 0.1369019539866555 0.15371356107435499 0 0.14125915611146619 0.16628378260761559 0 0.15740709867375319 0.1695243802579601 0 0.17136618091386011 0.16985760541955869 0 0.1657735077777289 0.1527661608987613 0 0.17136618091386011 0.16985760541955869 0 0.1733608769186632 0.1485823592135733 0 0.1657735077777289 0.1527661608987613 0 0.17136618091386011 0.16985760541955869 0 0.1657735077777289 0.1527661608987613 0 0.17136618091386011 0.16985760541955869 0 0.1606192116428411 0.1843252455715646 0 0.17695885404998971 0.1869490499403566 0 0.15740709867375319 0.1695243802579601 0 0.17136618091386011 0.16985760541955869 0 0.1606192116428411 0.1843252455715646 0 0.17136618091386011 0.16985760541955869 0 0.17695885404998971 0.1869490499403566 0 0.17695885404998971 0.1869490499403566 0 0.18568885181701389 0.18387838258535549 0 0.18414245776608701 0.16955462710533989 0 0.17136618091386011 0.16985760541955869 0 0.17695885404998971 0.1869490499403566 0 0.18414245776608701 0.16955462710533989 0 0.17695885404998971 0.1869490499403566 0 0.18414245776608701 0.16955462710533989 0 0.17136618091386011 0.16985760541955869 0 0.18414245776608701 0.16955462710533989 0 0.1733608769186632 0.1485823592135733 0 0.18414245776608701 0.16955462710533989 0 0.1733608769186632 0.1485823592135733 0 0.1897525219074325 0.15597038280920131 0 0.18414245776608701 0.16955462710533989 0 0.1733608769186632 0.1485823592135733 0 0.18414245776608701 0.16955462710533989 0 0.1897525219074325 0.15597038280920131 0 0.1733608769186632 0.1485823592135733 0 0.1908054625313361 0.13896312422869009 0 0.1897525219074325 0.15597038280920131 0 0.1733608769186632 0.1485823592135733 0 0.1908054625313361 0.13896312422869009 0 0.1733608769186632 0.1485823592135733 0 0.17896498896832419 0.13254757470857301 0 0.1908054625313361 0.13896312422869009 0 0.17896498896832419 0.13254757470857301 0 0.1628840292435024 0.12820285650296009 0 0.1842581284299652 0.1151352030251082 0 0.1536985100133792 0.13989571527814509 0 0.15764854567859959 0.12793593471339559 0 0.1657735077777289 0.1527661608987613 0 0.1733608769186632 0.1485823592135733 0 0.17896498896832419 0.13254757470857301 0 0.1628840292435024 0.12820285650296009 0 0.15764854567859959 0.12793593471339559 0 0.1657735077777289 0.1527661608987613 0 0.1628840292435024 0.12820285650296009 0 0.15764854567859959 0.12793593471339559 0 0.1657735077777289 0.1527661608987613 0 0.1733608769186632 0.1485823592135733 0 0.1628840292435024 0.12820285650296009 0 0.1733608769186632 0.1485823592135733 0 0.1628840292435024 0.12820285650296009 0 0.1657735077777289 0.1527661608987613 0 0.1536985100133792 0.13989571527814509 0 0.1532291120160667 0.14875842557778751 0 0.1657735077777289 0.1527661608987613 0 0.1733608769186632 0.1485823592135733 0 0.1657735077777289 0.1527661608987613 0 0.14788436884510489 0.24356173243216869 0 0.15955296605125971 0.24567243218021631 0 0.1517061684980642 0.25574279530656407 0 0.14788436884510489 0.24356173243216869 0 0.14875608859373929 0.2323828099361577 0 0.15680510743992909 0.2357494576604581 0 0.14788436884510489 0.24356173243216869 0 0.15680510743992909 0.2357494576604581 0 0.15955296605125971 0.24567243218021631 0 0.14788436884510489 0.24356173243216869 0 0.13977138944554321 0.23415615196572831 0 0.14875608859373929 0.2323828099361577 0 0.14788436884510489 0.24356173243216869 0 0.13032557771525119 0.24558986973164881 0 0.13977138944554321 0.23415615196572831 0 0.14788436884510489 0.24356173243216869 0 0.13032557771525119 0.24558986973164881 0 0.13997784116405071 0.25802939541057412 0 0.13032557771525119 0.24558986973164881 0 0.13977138944554321 0.23415615196572831 0 0.12672454382375109 0.23377763660150119 0 0.13977138944554321 0.23415615196572831 0 0.1345281488908294 0.225724197373146 0 0.14463764010049049 0.22446959617332141 0 0.13977138944554321 0.23415615196572831 0 0.12672454382375109 0.23377763660150119 0 0.1345281488908294 0.225724197373146 0 0.12672454382375109 0.23377763660150119 0 0.12514816020807251 0.22003583600208371 0 0.1345281488908294 0.225724197373146 0 0.12514816020807251 0.22003583600208371 0 0.1345281488908294 0.225724197373146 0 0.13761122616641 0.2135894904136097 0 0.1345281488908294 0.225724197373146 0 0.14463764010049049 0.22446959617332141 0 0.13761122616641 0.2135894904136097 0 0.13977138944554321 0.23415615196572831 0 0.14463764010049049 0.22446959617332141 0 0.14875608859373929 0.2323828099361577 0 0.14875608859373929 0.2323828099361577 0 0.15365908774219139 0.2240186705817156 0 0.15680510743992909 0.2357494576604581 0 0.14463764010049049 0.22446959617332141 0 0.14875608859373929 0.2323828099361577 0 0.15365908774219139 0.2240186705817156 0 0.15365908774219139 0.2240186705817156 0 0.1516711688602399 0.21574986083307721 0 0.16088038893204029 0.22588154564205001 0 0.14463764010049049 0.22446959617332141 0 0.15365908774219139 0.2240186705817156 0 0.1516711688602399 0.21574986083307721 0 0.1516711688602399 0.21574986083307721 0 0.14442884040786991 0.19742353936938381 0 0.16778698041699949 0.2091578819509877 0 0.1516711688602399 0.21574986083307721 0 0.13761122616641 0.2135894904136097 0 0.14442884040786991 0.19742353936938381 0 0.14442884040786991 0.19742353936938381 0 0.16778698041699949 0.2091578819509877 0 0.14463764010049049 0.22446959617332141 0 0.1516711688602399 0.21574986083307721 0 0.13761122616641 0.2135894904136097 0 0.12514816020807251 0.22003583600208371 0 0.13761122616641 0.2135894904136097 0 0.12557838556357401 0.20256941447653021 0 0.13761122616641 0.2135894904136097 0 0.12557838556357401 0.20256941447653021 0 0.14442884040786991 0.19742353936938381 0 0.12107070039874 0.1856891967877807 0 0.14442884040786991 0.19742353936938381 0 0.12107070039874 0.1856891967877807 0 0.13462563358984381 0.1809102760177331 0 0.14442884040786991 0.19742353936938381 0 0.12107070039874 0.1856891967877807 0 0.12557838556357401 0.20256941447653021 0 0.14442884040786991 0.19742353936938381 0 0.1606192116428411 0.1843252455715646 0 0.14442884040786991 0.19742353936938381 0 0.16778698041699949 0.2091578819509877 0 0.1606192116428411 0.1843252455715646 0 0.17695885404998971 0.1869490499403566 0 0.16778698041699949 0.2091578819509877 0 0.17695885404998971 0.1869490499403566 0 0.18418397200059769 0.20902931452998821 0 0.17695885404998971 0.1869490499403566 0 0.16778698041699949 0.2091578819509877 0 0.17695885404998971 0.1869490499403566 0 0.18418397200059769 0.20902931452998821 0 0.18857775443816191 0.19267020268490451 0 0.17695885404998971 0.1869490499403566 0 0.18418397200059769 0.20902931452998821 0 0.16778698041699949 0.2091578819509877 0 0.17695885404998971 0.1869490499403566 0 0.18568885181701389 0.18387838258535549 0 0.18857775443816191 0.19267020268490451 0 0.16778698041699949 0.2091578819509877 0 0.19297178600831719 0.22180987977890271 0 0.18418397200059769 0.20902931452998821 0 0.16778698041699949 0.2091578819509877 0 0.19297178600831719 0.22180987977890271 0 0.1516711688602399 0.21574986083307721 0 0.16778698041699949 0.2091578819509877 0 0.16088038893204029 0.22588154564205001 0 0.16778698041699949 0.2091578819509877 0 0.16088038893204029 0.22588154564205001 0 0.16088038893204029 0.22588154564205001 0 0.1778949363711321 0.23027077900233489 0 0.1683698031179478 0.23797712467292331 0 0.16088038893204029 0.22588154564205001 0 0.1778949363711321 0.23027077900233489 0 0.16778698041699949 0.2091578819509877 0 0.16088038893204029 0.22588154564205001 0 0.1778949363711321 0.23027077900233489 0 0.15365908774219139 0.2240186705817156 0 0.16088038893204029 0.22588154564205001 0 0.16088038893204029 0.22588154564205001 0 0.15680510743992909 0.2357494576604581 0 0.15365908774219139 0.2240186705817156 0 0.16088038893204029 0.22588154564205001 0 0.15680510743992909 0.2357494576604581 0 0.16088038893204029 0.22588154564205001 0 0.1683698031179478 0.23797712467292331 0 0.15680510743992909 0.2357494576604581 0 0.16778698041699949 0.2091578819509877 0 0.1778949363711321 0.23027077900233489 0 0.19297178600831719 0.22180987977890271 0 0.1778949363711321 0.23027077900233489 0 0.1949094838102238 0.23466001236261971 0 0.1778949363711321 0.23027077900233489 0 0.18150992689844231 0.24472375079130629 0 0.1683698031179478 0.23797712467292331 0 0.1778949363711321 0.23027077900233489 0 0.18150992689844231 0.24472375079130629 0 0.1949094838102238 0.23466001236261971 0 0.18150992689844231 0.24472375079130629 0 0.17046410733038611 0.2488253452869528 0 0.1683698031179478 0.23797712467292331 0 0.17046410733038611 0.2488253452869528 0 0.1683698031179478 0.23797712467292331 0 0.15955296605125971 0.24567243218021631 0 0.1683698031179478 0.23797712467292331 0 0.15680510743992909 0.2357494576604581 0 0.15955296605125971 0.24567243218021631 0 0.2067352579808511 0.23771070076245629 0 0.2225130706561064 0.24178089434206759 0 0.21085951805693151 0.25016395609025621 0 0.2067352579808511 0.23771070076245629 0 0.1949094838102238 0.23466001236261971 0 0.2125298688266728 0.2316352016555632 0 0.2067352579808511 0.23771070076245629 0 0.2125298688266728 0.2316352016555632 0 0.2225130706561064 0.24178089434206759 0 0.2067352579808511 0.23771070076245629 0 0.2225130706561064 0.24178089434206759 0 0.2067352579808511 0.23771070076245629 0 0.2125298688266728 0.2316352016555632 0 0.2067352579808511 0.23771070076245629 0 0.2050454851349035 0.23948238374334291 0 0.2067352579808511 0.23771070076245629 0 0.2050454851349035 0.23948238374334291 0 0.21085951805693151 0.25016395609025621 0 0.2050454851349035 0.23948238374334291 0 0.20231141901844801 0.24558026983956799 0 0.21085951805693151 0.25016395609025621 0 0.20231141901844801 0.24558026983956799 0 0.1949094838102238 0.23466001236261971 0 0.19843118907173321 0.25801472716205298 0 0.18150992689844231 0.24472375079130629 0 0.1949094838102238 0.23466001236261971 0 0.19843118907173321 0.25801472716205298 0 0.1949094838102238 0.23466001236261971 0 0.19843118907173321 0.25801472716205298 0 0.2067352579808511 0.23771070076245629 0 0.1949094838102238 0.23466001236261971 0 0.2050454851349035 0.23948238374334291 0 0.20231141901844801 0.24558026983956799 0 0.1949094838102238 0.23466001236261971 0 0.2067352579808511 0.23771070076245629 0 0.2050454851349035 0.23948238374334291 0 0.1949094838102238 0.23466001236261971 0 0.1778949363711321 0.23027077900233489 0 0.1949094838102238 0.23466001236261971 0 0.19297178600831719 0.22180987977890271 0 0.19297178600831719 0.22180987977890271 0 0.2125298688266728 0.2316352016555632 0 0.1949094838102238 0.23466001236261971 0 0.19297178600831719 0.22180987977890271 0 0.2125298688266728 0.2316352016555632 0 0.1949094838102238 0.23466001236261971 0 0.19297178600831719 0.22180987977890271 0 0.19297178600831719 0.22180987977890271 0 0.2125298688266728 0.2316352016555632 0 0.21310984287754731 0.22590181489522559 0 0.2125298688266728 0.2316352016555632 0 0.21310984287754731 0.22590181489522559 0 0.22712235526374361 0.21633535828821829 0 0.21310984287754731 0.22590181489522559 0 0.2034540478403937 0.2071194189652637 0 0.2034540478403937 0.2071194189652637 0 0.21633919077108771 0.21284957739078461 0 0.2211930999837915 0.20093703546756941 0 0.19297178600831719 0.22180987977890271 0 0.21310984287754731 0.22590181489522559 0 0.2034540478403937 0.2071194189652637 0 0.21310984287754731 0.22590181489522559 0 0.2034540478403937 0.2071194189652637 0 0.21633919077108771 0.21284957739078461 0 0.19297178600831719 0.22180987977890271 0 0.18857775443816191 0.19267020268490451 0 0.18418397200059769 0.20902931452998821 0 0.19297178600831719 0.22180987977890271 0 0.18857775443816191 0.19267020268490451 0 0.19297178600831719 0.22180987977890271 0 0.2034540478403937 0.2071194189652637 0 0.18857775443816191 0.19267020268490451 0 0.2034540478403937 0.2071194189652637 0 0.1937982528032402 0.18833702303530189 0 0.18857775443816191 0.19267020268490451 0 0.2034540478403937 0.2071194189652637 0 0.1937982528032402 0.18833702303530189 0 0.2058034090155034 0.19433338668688949 0 0.2034540478403937 0.2071194189652637 0 0.1937982528032402 0.18833702303530189 0 0.18568885181701389 0.18387838258535549 0 0.1937982528032402 0.18833702303530189 0 0.18857775443816191 0.19267020268490451 0 0.1937982528032402 0.18833702303530189 0 0.2058034090155034 0.19433338668688949 0 0.2034338401864017 0.18237267925879419 0 0.2034540478403937 0.2071194189652637 0 0.2058034090155034 0.19433338668688949 0 0.2211930999837915 0.20093703546756941 0 0.2058034090155034 0.19433338668688949 0 0.21604675978611179 0.1887725033678376 0 0.2034338401864017 0.18237267925879419 0 0.2058034090155034 0.19433338668688949 0 0.21604675978611179 0.1887725033678376 0 0.2211930999837915 0.20093703546756941 0 0.2211930999837915 0.20093703546756941 0 0.241714841700815 0.2010355149208741 0 0.22924926534643331 0.18461025706543049 0 0.21604675978611179 0.1887725033678376 0 0.2211930999837915 0.20093703546756941 0 0.22924926534643331 0.18461025706543049 0 0.241714841700815 0.2010355149208741 0 0.25630732813788631 0.18573567155352971 0 0.25041250030795009 0.20540492557232709 0 0.241714841700815 0.2010355149208741 0 0.22924926534643331 0.18461025706543049 0 0.24372935748137681 0.18326515597296661 0 0.241714841700815 0.2010355149208741 0 0.24372935748137681 0.18326515597296661 0 0.25630732813788631 0.18573567155352971 0 0.241714841700815 0.2010355149208741 0 0.25630732813788631 0.18573567155352971 0 0.24099907318605801 0.21330170407133081 0 0.24451767247801409 0.22507417959112469 0 0.25041250030795009 0.20540492557232709 0 0.241714841700815 0.2010355149208741 0 0.24099907318605801 0.21330170407133081 0 0.22712235526374361 0.21633535828821829 0 0.24099907318605801 0.21330170407133081 0 0.22712235526374361 0.21633535828821829 0 0.24451767247801409 0.22507417959112469 0 0.24451767247801409 0.22507417959112469 0 0.25041250030795009 0.20540492557232709 0 0.241714841700815 0.2010355149208741 0 0.22712235526374361 0.21633535828821829 0 0.241714841700815 0.2010355149208741 0 0.24099907318605801 0.21330170407133081 0 0.25041250030795009 0.20540492557232709 0 0.2211930999837915 0.20093703546756941 0 0.241714841700815 0.2010355149208741 0 0.22712235526374361 0.21633535828821829 0 0.21633919077108771 0.21284957739078461 0 0.2211930999837915 0.20093703546756941 0 0.22712235526374361 0.21633535828821829 0 0.21310984287754731 0.22590181489522559 0 0.21633919077108771 0.21284957739078461 0 0.22712235526374361 0.21633535828821829 0 0.2125298688266728 0.2316352016555632 0 0.22712235526374361 0.21633535828821829 0 0.238290883331362 0.24585108792167781 0 0.2125298688266728 0.2316352016555632 0 0.22712235526374361 0.21633535828821829 0 0.22712235526374361 0.21633535828821829 0 0.24451767247801409 0.22507417959112469 0 0.238290883331362 0.24585108792167781 0 0.24451767247801409 0.22507417959112469 0 0.24350543671163599 0.24719628336326219 0 0.238290883331362 0.24585108792167781 0 0.24451767247801409 0.22507417959112469 0 0.238290883331362 0.24585108792167781 0 0.24451767247801409 0.22507417959112469 0 0.24350543671163599 0.24719628336326219 0 0.25558910081757968 0.24140605204313401 0 0.24350543671163599 0.24719628336326219 0 0.238290883331362 0.24585108792167781 0 0.2125298688266728 0.2316352016555632 0 0.238290883331362 0.24585108792167781 0 0.2225130706561064 0.24178089434206759 0 0.2125298688266728 0.2316352016555632 0 0.238290883331362 0.24585108792167781 0 0.238290883331362 0.24585108792167781 0 0.2225130706561064 0.24178089434206759 0 0.238290883331362 0.24585108792167781 0 0.2225130706561064 0.24178089434206759 0 0.2234996112477636 0.25517540761881552 0 0.2225130706561064 0.24178089434206759 0 0.21085951805693151 0.25016395609025621 0 0.2234996112477636 0.25517540761881552 0 0.21264204397494321 0.1485808328406639 0 0.20825004814400891 0.12934388924380691 0 0.20072811308509311 0.14627020204825431 0 0.21264204397494321 0.1485808328406639 0 0.20072811308509311 0.14627020204825431 0 0.2021904888677451 0.15849278111890969 0 0.21264204397494321 0.1485808328406639 0 0.21342313409899991 0.16299791854687951 0 0.22559400823584169 0.15485385149338099 0 0.21264204397494321 0.1485808328406639 0 0.20825004814400891 0.12934388924380691 0 0.22858472946567629 0.1369441596386119 0 0.20825004814400891 0.12934388924380691 0 0.1908054625313361 0.13896312422869009 0 0.20825004814400891 0.12934388924380691 0 0.1908054625313361 0.13896312422869009 0 0.20072811308509311 0.14627020204825431 0 0.20825004814400891 0.12934388924380691 0 0.1908054625313361 0.13896312422869009 0 0.19444470887038059 0.12493534755714369 0 0.17896498896832419 0.13254757470857301 0 0.1908054625313361 0.13896312422869009 0 0.19444470887038059 0.12493534755714369 0 0.1908054625313361 0.13896312422869009 0 0.20072811308509311 0.14627020204825431 0 0.1897525219074325 0.15597038280920131 0 0.20072811308509311 0.14627020204825431 0 0.1897525219074325 0.15597038280920131 0 0.2021904888677451 0.15849278111890969 0 0.18414245776608701 0.16955462710533989 0 0.1897525219074325 0.15597038280920131 0 0.1943346331815429 0.16593272266418169 0 0.18414245776608701 0.16955462710533989 0 0.1943346331815429 0.16593272266418169 0 0.19576942048906801 0.17536784283246559 0 0.1943346331815429 0.16593272266418169 0 0.19576942048906801 0.17536784283246559 0 0.20338925418574011 0.17066973498209309 0 0.1943346331815429 0.16593272266418169 0 0.2021904888677451 0.15849278111890969 0 0.20338925418574011 0.17066973498209309 0 0.1897525219074325 0.15597038280920131 0 0.1943346331815429 0.16593272266418169 0 0.2021904888677451 0.15849278111890969 0 0.18414245776608701 0.16955462710533989 0 0.1937982528032402 0.18833702303530189 0 0.18414245776608701 0.16955462710533989 0 0.1937982528032402 0.18833702303530189 0 0.19576942048906801 0.17536784283246559 0 0.18568885181701389 0.18387838258535549 0 0.18414245776608701 0.16955462710533989 0 0.1937982528032402 0.18833702303530189 0 0.19576942048906801 0.17536784283246559 0 0.2034338401864017 0.18237267925879419 0 0.20338925418574011 0.17066973498209309 0 0.1937982528032402 0.18833702303530189 0 0.19576942048906801 0.17536784283246559 0 0.2034338401864017 0.18237267925879419 0 0.2034338401864017 0.18237267925879419 0 0.2144197294958437 0.17685152851421629 0 0.20338925418574011 0.17066973498209309 0 0.21604675978611179 0.1887725033678376 0 0.2034338401864017 0.18237267925879419 0 0.2144197294958437 0.17685152851421629 0 0.21264204397494321 0.1485808328406639 0 0.2021904888677451 0.15849278111890969 0 0.21342313409899991 0.16299791854687951 0 0.2021904888677451 0.15849278111890969 0 0.20338925418574011 0.17066973498209309 0 0.21342313409899991 0.16299791854687951 0 0.2144197294958437 0.17685152851421629 0 0.20338925418574011 0.17066973498209309 0 0.21342313409899991 0.16299791854687951 0 0.2144197294958437 0.17685152851421629 0 0.21342313409899991 0.16299791854687951 0 0.22426443837927801 0.1680926710516332 0 0.22426443837927801 0.1680926710516332 0 0.2361157003681594 0.16097905245540581 0 0.24071325116298939 0.17138085799962341 0 0.21342313409899991 0.16299791854687951 0 0.22426443837927801 0.1680926710516332 0 0.22559400823584169 0.15485385149338099 0 0.22426443837927801 0.1680926710516332 0 0.2361157003681594 0.16097905245540581 0 0.22559400823584169 0.15485385149338099 0 0.22426443837927801 0.1680926710516332 0 0.22924926534643331 0.18461025706543049 0 0.24071325116298939 0.17138085799962341 0 0.2144197294958437 0.17685152851421629 0 0.22426443837927801 0.1680926710516332 0 0.22924926534643331 0.18461025706543049 0 0.21604675978611179 0.1887725033678376 0 0.2144197294958437 0.17685152851421629 0 0.22924926534643331 0.18461025706543049 0 0.22924926534643331 0.18461025706543049 0 0.24372935748137681 0.18326515597296661 0 0.24071325116298939 0.17138085799962341 0 0.24372935748137681 0.18326515597296661 0 0.24071325116298939 0.17138085799962341 0 0.25066210105875941 0.17356347832537489 0 0.2361157003681594 0.16097905245540581 0 0.23957670341737081 0.15073093252507411 0 0.25043010064531701 0.159836949207317 0 0.2361157003681594 0.16097905245540581 0 0.24071325116298939 0.17138085799962341 0 0.25043010064531701 0.159836949207317 0 0.24071325116298939 0.17138085799962341 0 0.25043010064531701 0.159836949207317 0 0.25066210105875941 0.17356347832537489 0 0.23957670341737081 0.15073093252507411 0 0.250245600599031 0.1391975062087312 0 0.25043010064531701 0.159836949207317 0 0.23957670341737081 0.15073093252507411 0 0.22858472946567629 0.1369441596386119 0 0.250245600599031 0.1391975062087312 0 0.23957670341737081 0.15073093252507411 0 0.22559400823584169 0.15485385149338099 0 0.22858472946567629 0.1369441596386119 0 0.21264204397494321 0.1485808328406639 0 0.22559400823584169 0.15485385149338099 0 0.22858472946567629 0.1369441596386119 0 0.2361157003681594 0.16097905245540581 0 0.23957670341737081 0.15073093252507411 0 0.22559400823584169 0.15485385149338099 0 0.20825004814400891 0.12934388924380691 0 0.22858472946567629 0.1369441596386119 0 0.22105317733972449 0.1188298598347997 0 0.22858472946567629 0.1369441596386119 0 0.2398000306206178 0.1189708119435446 0 0.250245600599031 0.1391975062087312 0 0.2398000306206178 0.1189708119435446 0 0.22394143792696231 0.095897344317126515 0 0.25127847260488878 0.098715175395591756 0 0.22394143792696231 0.095897344317126515 0 0.25127847260488878 0.098715175395591756 0 0.22858472946567629 0.1369441596386119 0 0.2398000306206178 0.1189708119435446 0 0.22105317733972449 0.1188298598347997 0 0.2398000306206178 0.1189708119435446 0 0.22394143792696231 0.095897344317126515 0 0.22105317733972449 0.1188298598347997 0 0.20825004814400891 0.12934388924380691 0 0.22105317733972449 0.1188298598347997 0 0.20468964054135691 0.11299309403090869 0 0.22394143792696231 0.095897344317126515 0 0.20468964054135691 0.11299309403090869 0 0.1966044032490358 0.093079513238661246 0 0.22394143792696231 0.095897344317126515 0 0.1966044032490358 0.093079513238661246 0 0.22394143792696231 0.095897344317126515 0 0.22105317733972449 0.1188298598347997 0 0.20468964054135691 0.11299309403090869 0 0.20468964054135691 0.11299309403090869 0 0.1966044032490358 0.093079513238661246 0 0.1842581284299652 0.1151352030251082 0 0.20468964054135691 0.11299309403090869 0 0.19444470887038059 0.12493534755714369 0 0.1842581284299652 0.1151352030251082 0 0.20825004814400891 0.12934388924380691 0 0.20468964054135691 0.11299309403090869 0 0.19444470887038059 0.12493534755714369 0 0.18760229353145541 0.064077498707707792 0 0.21549960430534179 0.070918359093478489 0 0.18760229353145541 0.064077498707707792 0 0.1999917209986668 0.078280363253593152 0 0.21549960430534179 0.070918359093478489 0 0.18760229353145541 0.064077498707707792 0 0.1999917209986668 0.078280363253593152 0 0.1775820125614849 0.07602678715200567 0 0.19928338379207941 0.064583271580010301 0 0.18760229353145541 0.064077498707707792 0 0.21549960430534179 0.070918359093478489 0 0.1999917209986668 0.078280363253593152 0 0.1966044032490358 0.093079513238661246 0 0.1775820125614849 0.07602678715200567 0 0.22394143792696231 0.095897344317126515 0 0.1966044032490358 0.093079513238661246 0 0.21625649255457891 0.081938656462356485 0 0.1999917209986668 0.078280363253593152 0 0.1966044032490358 0.093079513238661246 0 0.21625649255457891 0.081938656462356485 0 0.1999917209986668 0.078280363253593152 0 0.21625649255457891 0.081938656462356485 0 0.21549960430534179 0.070918359093478489 0 0.21625649255457891 0.081938656462356485 0 0.21549960430534179 0.070918359093478489 0 0.19928338379207941 0.064583271580010301 0 0.21549960430534179 0.070918359093478489 0 0.21490009562478971 0.062189509172072797 0 0.19928338379207941 0.064583271580010301 0 0.21490009562478971 0.062189509172072797 0 0.21549960430534179 0.070918359093478489 0 0.2178785635721654 0.06715428467995109 0 0.21490009562478971 0.062189509172072797 0 0.21549960430534179 0.070918359093478489 0 0.21490009562478971 0.062189509172072797 0 0.21549960430534179 0.070918359093478489 0 0.22980270184673729 0.083938776664757853 0 0.24198506759167229 0.077413012218392516 0 0.2178785635721654 0.06715428467995109 0 0.22421557285266391 0.06467791142859898 0 0.21490009562478971 0.062189509172072797 0 0.21549960430534179 0.070918359093478489 0 0.23581724280755401 0.065438260568936368 0 0.21549960430534179 0.070918359093478489 0 0.23581724280755401 0.065438260568936368 0 0.24198506759167229 0.077413012218392516 0 0.21549960430534179 0.070918359093478489 0 0.22421557285266391 0.06467791142859898 0 0.23581724280755401 0.065438260568936368 0 0.21549960430534179 0.070918359093478489 0 0.24198506759167229 0.077413012218392516 0 0.21549960430534179 0.070918359093478489 0 0.2178785635721654 0.06715428467995109 0 0.22421557285266391 0.06467791142859898 0 0.22421557285266391 0.06467791142859898 0 0.23581724280755401 0.065438260568936368 0 0.2337700775183994 0.059297078692515347 0 0.22394143792696231 0.095897344317126515 0 0.21625649255457891 0.081938656462356485 0 0.22980270184673729 0.083938776664757853 0 0.21625649255457891 0.081938656462356485 0 0.21549960430534179 0.070918359093478489 0 0.22980270184673729 0.083938776664757853 0 0.22394143792696231 0.095897344317126515 0 0.22980270184673729 0.083938776664757853 0 0.25127847260488878 0.098715175395591756 0 0.22980270184673729 0.083938776664757853 0 0.24198506759167229 0.077413012218392516 0 0.25127847260488878 0.098715175395591756 0 0.23581724280755401 0.065438260568936368 0 0.25473550410923812 0.060045162112203891 0 0.23581724280755401 0.065438260568936368 0 0.24661873871824511 0.067450547448760584 0 0.25473550410923812 0.060045162112203891 0 0.23581724280755401 0.065438260568936368 0 0.24198506759167229 0.077413012218392516 0 0.24661873871824511 0.067450547448760584 0 0.22726127634740301 0.043928019627924073 0 0.2337700775183994 0.059297078692515347 0 0.25264005941200879 0.056404648212956661 0 0.2337700775183994 0.059297078692515347 0 0.25264005941200879 0.056404648212956661 0 0.23581724280755401 0.065438260568936368 0 0.25473550410923812 0.060045162112203891 0 0.25264005941200879 0.056404648212956661 0 0.23581724280755401 0.065438260568936368 0 0.2337700775183994 0.059297078692515347 0 0.25264005941200879 0.056404648212956661 0 0.23820522320742779 0.031326333378083687 0 0.25881522611184821 0.041896590261575162 0 0.25264005941200879 0.056404648212956661 0 0.23820522320742779 0.031326333378083687 0 0.22726127634740301 0.043928019627924073 0 0.25264005941200879 0.056404648212956661 0 0.23820522320742779 0.031326333378083687 0 0.25264005941200879 0.056404648212956661 0 0.23820522320742779 0.031326333378083687 0 0.22726127634740301 0.043928019627924073 0 0.21304524734927999 0.03518290735082967 0 0.22421557285266391 0.06467791142859898 0 0.2337700775183994 0.059297078692515347 0 0.21490009562478971 0.062189509172072797 0 0.2337700775183994 0.059297078692515347 0 0.21490009562478971 0.062189509172072797 0 0.22726127634740301 0.043928019627924073 0 0.2337700775183994 0.059297078692515347 0 0.21490009562478971 0.062189509172072797 0 0.23820522320742779 0.031326333378083687 0 0.24304819672666861 0.0028562376093386119 0 0.2237703870028428 0.0062480185432127189 0 0.23820522320742779 0.031326333378083687 0 0.24304819672666861 0.0028562376093386119 0 0.25906856699892372 0.014744483464566459 0 0.23820522320742779 0.031326333378083687 0 0.2237703870028428 0.0062480185432127189 0 0.21304524734927999 0.03518290735082967 0 0.23820522320742779 0.031326333378083687 0 0.2237703870028428 0.0062480185432127189 0 0.21119039907376591 0.0081763055295867235 0 0.20510951895502191 0.02137762912374138 0 0.19596904831361989 0.0061583000480806248 0 0.21119039907376591 0.0081763055295867235 0 0.20510951895502191 0.02137762912374138 0 0.21304524734927999 0.03518290735082967 0 0.21119039907376591 0.0081763055295867235 0 0.21304524734927999 0.03518290735082967 0 0.2237703870028428 0.0062480185432127189 0 0.21119039907376591 0.0081763055295867235 0 0.21304524734927999 0.03518290735082967 0 0.20510951895502191 0.02137762912374138 0 0.21304524734927999 0.03518290735082967 0 0.19860956893517009 0.034851222361411041 0 0.19596904831361989 0.0061583000480806248 0 0.19860956893517009 0.034851222361411041 0 0.19860956893517009 0.034851222361411041 0 0.1841404363779077 0.036638485521923267 0 0.18296607688704081 0.02182288378413037 0 0.20510951895502191 0.02137762912374138 0 0.19596904831361989 0.0061583000480806248 0 0.19860956893517009 0.034851222361411041 0 0.19596904831361989 0.0061583000480806248 0 0.19860956893517009 0.034851222361411041 0 0.18296607688704081 0.02182288378413037 0 0.19596904831361989 0.0061583000480806248 0 0.18364737344666349 0.0078767254944373116 0 0.18296607688704081 0.02182288378413037 0 0.20331002956159189 0.04939046456085662 0 0.21490009562478971 0.062189509172072797 0 0.21304524734927999 0.03518290735082967 0 0.21490009562478971 0.062189509172072797 0 0.21304524734927999 0.03518290735082967 0 0.22726127634740301 0.043928019627924073 0 0.21490009562478971 0.062189509172072797 0 0.21304524734927999 0.03518290735082967 0 0.19928338379207941 0.064583271580010301 0 0.20331002956159189 0.04939046456085662 0 0.21490009562478971 0.062189509172072797 0 0.20331002956159189 0.04939046456085662 0 0.21304524734927999 0.03518290735082967 0 0.19860956893517009 0.034851222361411041 0 0.20331002956159189 0.04939046456085662 0 0.19860956893517009 0.034851222361411041 0 0.190997872851939 0.049795741551290629 0 0.19860956893517009 0.034851222361411041 0 0.190997872851939 0.049795741551290629 0 0.1841404363779077 0.036638485521923267 0 0.19928338379207941 0.064583271580010301 0 0.20331002956159189 0.04939046456085662 0 0.190997872851939 0.049795741551290629 0 0.19928338379207941 0.064583271580010301 0 0.18760229353145541 0.064077498707707792 0 0.190997872851939 0.049795741551290629 0 0.18760229353145541 0.064077498707707792 0 0.1760386754093147 0.045848123156507277 0 0.15970498275756909 0.057236638321935727 0 0.18760229353145541 0.064077498707707792 0 0.190997872851939 0.049795741551290629 0 0.1760386754093147 0.045848123156507277 0 0.18760229353145541 0.064077498707707792 0 0.15970498275756909 0.057236638321935727 0 0.190997872851939 0.049795741551290629 0 0.1841404363779077 0.036638485521923267 0 0.1760386754093147 0.045848123156507277 0 0.1841404363779077 0.036638485521923267 0 0.1760386754093147 0.045848123156507277 0 0.1720899878060736 0.03087445675627707 0 0.1760386754093147 0.045848123156507277 0 0.15819258974453021 0.038111544733140101 0 0.1720899878060736 0.03087445675627707 0 0.1760386754093147 0.045848123156507277 0 0.15819258974453021 0.038111544733140101 0 0.15970498275756909 0.057236638321935727 0 0.18364737344666349 0.0078767254944373116 0 0.17327332240769239 0.0079959289501135879 0 0.17994763035349129 -0.0085423207511367925 0 0.19596904831361989 0.0061583000480806248 0 0.18364737344666349 0.0078767254944373116 0 0.17994763035349129 -0.0085423207511367925 0 0.18364737344666349 0.0078767254944373116 0 0.17327332240769239 0.0079959289501135879 0 0.18296607688704081 0.02182288378413037 0 0.18296607688704081 0.02182288378413037 0 0.1720899878060736 0.03087445675627707 0 0.1626632854919485 0.02032184710519545 0 0.17327332240769239 0.0079959289501135879 0 0.18296607688704081 0.02182288378413037 0 0.1626632854919485 0.02032184710519545 0 0.1841404363779077 0.036638485521923267 0 0.18296607688704081 0.02182288378413037 0 0.1720899878060736 0.03087445675627707 0 0.15819258974453021 0.038111544733140101 0 0.1720899878060736 0.03087445675627707 0 0.1626632854919485 0.02032184710519545 0 0.15819258974453021 0.038111544733140101 0 0.1626632854919485 0.02032184710519545 0 0.15272660973309499 0.026080912411182381 0 0.16128021075314891 0.0086176915924184808 0 0.14943115180270669 0.01379491255887364 0 0.15975308331024801 -0.0076419222445087628 0 0.17327332240769239 0.0079959289501135879 0 0.16128021075314891 0.0086176915924184808 0 0.15975308331024801 -0.0076419222445087628 0 0.17327332240769239 0.0079959289501135879 0 0.1626632854919485 0.02032184710519545 0 0.16128021075314891 0.0086176915924184808 0 0.1626632854919485 0.02032184710519545 0 0.16128021075314891 0.0086176915924184808 0 0.14943115180270669 0.01379491255887364 0 0.14943115180270669 0.01379491255887364 0 0.15975308331024801 -0.0076419222445087628 0 0.14943115180270669 0.01379491255887364 0 0.14269353518516981 -0.0030349321094748079 0 0.15975308331024801 -0.0076419222445087628 0 0.14943115180270669 0.01379491255887364 0 0.14061941189319471 0.032095345247520342 0 0.14943115180270669 0.01379491255887364 0 0.15272660973309499 0.026080912411182381 0 0.14061941189319471 0.032095345247520342 0 0.1626632854919485 0.02032184710519545 0 0.14943115180270669 0.01379491255887364 0 0.15272660973309499 0.026080912411182381 0 0.1626632854919485 0.02032184710519545 0 0.14943115180270669 0.01379491255887364 0 0.14943115180270669 0.01379491255887364 0 0.1316020348008396 0.01837873658912335 0 0.14061941189319471 0.032095345247520342 0 0.12561362415470531 0.029314285061061911 0 0.1316020348008396 0.01837873658912335 0 0.14061941189319471 0.032095345247520342 0 0.118468596205047 0.016005574455756309 0 0.12561362415470531 0.029314285061061911 0 0.1316020348008396 0.01837873658912335 0 0.123653440279271 0.00107969672001668 0 0.14943115180270669 0.01379491255887364 0 0.1316020348008396 0.01837873658912335 0 0.123653440279271 0.00107969672001668 0 0.14943115180270669 0.01379491255887364 0 0.123653440279271 0.00107969672001668 0 0.14943115180270669 0.01379491255887364 0 0.14269353518516981 -0.0030349321094748079 0 0.15970498275756909 0.057236638321935727 0 0.1318076719836821 0.050395777936166793 0 0.15819258974453021 0.038111544733140101 0 0.15970498275756909 0.057236638321935727 0 0.1318076719836821 0.050395777936166793 0 0.15970498275756909 0.057236638321935727 0 0.1318076719836821 0.050395777936166793 0 0.15232130626107299 0.073225027229940107 0 0.15819258974453021 0.038111544733140101 0 0.14061941189319471 0.032095345247520342 0 0.1318076719836821 0.050395777936166793 0 0.15819258974453021 0.038111544733140101 0 0.15272660973309499 0.026080912411182381 0 0.14061941189319471 0.032095345247520342 0 0.14061941189319471 0.032095345247520342 0 0.1318076719836821 0.050395777936166793 0 0.12561362415470531 0.029314285061061911 0 0.14061941189319471 0.032095345247520342 0 0.1318076719836821 0.050395777936166793 0 0.1318076719836821 0.050395777936166793 0 0.12749204484823781 0.059358575829946351 0 0.13471118937070831 0.073401213455840691 0 0.1196152676594792 0.054335016527553202 0 0.1318076719836821 0.050395777936166793 0 0.1258410535128858 0.056147077158091953 0 0.1318076719836821 0.050395777936166793 0 0.12749204484823781 0.059358575829946351 0 0.1318076719836821 0.050395777936166793 0 0.1258410535128858 0.056147077158091953 0 0.12749204484823781 0.059358575829946351 0 0.1258410535128858 0.056147077158091953 0 0.12749204484823781 0.059358575829946351 0 0.12749204484823781 0.059358575829946351 0 0.13471118937070831 0.073401213455840691 0 0.1216557806407343 0.071479469249335459 0 0.12749204484823781 0.059358575829946351 0 0.13471118937070831 0.073401213455840691 0 0.1318076719836821 0.050395777936166793 0 0.13471118937070831 0.073401213455840691 0 0.15232130626107299 0.073225027229940107 0 0.12226455122932151 0.085416752889645314 0 0.1216557806407343 0.071479469249335459 0 0.13471118937070831 0.073401213455840691 0 0.13471118937070831 0.073401213455840691 0 0.15232130626107299 0.073225027229940107 0 0.1419303338931826 0.087443851081733082 0 0.1419303338931826 0.087443851081733082 0 0.14988609295279501 0.102919346989229 0 0.1692673685711093 0.090261682160195991 0 0.15232130626107299 0.073225027229940107 0 0.1419303338931826 0.087443851081733082 0 0.1692673685711093 0.090261682160195991 0 0.1419303338931826 0.087443851081733082 0 0.1692673685711093 0.090261682160195991 0 0.12226455122932151 0.085416752889645314 0 0.1419303338931826 0.087443851081733082 0 0.1324314163813384 0.09715417337274046 0 0.12226455122932151 0.085416752889645314 0 0.13471118937070831 0.073401213455840691 0 0.1419303338931826 0.087443851081733082 0 0.12226455122932151 0.085416752889645314 0 0.1419303338931826 0.087443851081733082 0 0.13471118937070831 0.073401213455840691 0 0.1419303338931826 0.087443851081733082 0 0.1235168779181791 0.1140877048045939 0 0.12226455122932151 0.085416752889645314 0 0.1324314163813384 0.09715417337274046 0 0.1235168779181791 0.1140877048045939 0 0.1324314163813384 0.09715417337274046 0 0.1358645899020873 0.1065765796580605 0 0.1358645899020873 0.1065765796580605 0 0.14089532435644719 0.097718857752085123 0 0.1431553496633996 0.1084407817966089 0 0.1324314163813384 0.09715417337274046 0 0.1358645899020873 0.1065765796580605 0 0.14089532435644719 0.097718857752085123 0 0.1419303338931826 0.087443851081733082 0 0.1324314163813384 0.09715417337274046 0 0.14089532435644719 0.097718857752085123 0 0.1235168779181791 0.1140877048045939 0 0.1358645899020873 0.1065765796580605 0 0.14020136760539589 0.1181943696380932 0 0.1235168779181791 0.1140877048045939 0 0.1347761130444704 0.12851802045707719 0 0.14020136760539589 0.1181943696380932 0 0.1358645899020873 0.1065765796580605 0 0.14020136760539589 0.1181943696380932 0 0.1431553496633996 0.1084407817966089 0 0.15764854567859959 0.12793593471339559 0 0.14988609295279501 0.102919346989229 0 0.1524071815683406 0.1078233537923476 0 0.15764854567859959 0.12793593471339559 0 0.14988609295279501 0.102919346989229 0 0.15764854567859959 0.12793593471339559 0 0.1479483087202916 0.1164958305873126 0 0.14988609295279501 0.102919346989229 0 0.14020136760539589 0.1181943696380932 0 0.1479483087202916 0.1164958305873126 0 0.14893278579265579 0.1247789076730465 0 0.14020136760539589 0.1181943696380932 0 0.1479483087202916 0.1164958305873126 0 0.1431553496633996 0.1084407817966089 0 0.15764854567859959 0.12793593471339559 0 0.1479483087202916 0.1164958305873126 0 0.14893278579265579 0.1247789076730465 0 0.1419303338931826 0.087443851081733082 0 0.14089532435644719 0.097718857752085123 0 0.14988609295279501 0.102919346989229 0 0.1419303338931826 0.087443851081733082 0 0.14988609295279501 0.102919346989229 0 0.14089532435644719 0.097718857752085123 0 0.1431553496633996 0.1084407817966089 0 0.14988609295279501 0.102919346989229 0 0.1479483087202916 0.1164958305873126 0 0.1431553496633996 0.1084407817966089 0 0.14988609295279501 0.102919346989229 0 0.14988609295279501 0.102919346989229 0 0.1524071815683406 0.1078233537923476 0 0.1524071815683406 0.1078233537923476 0 0.17019858364219501 0.1070147607457605 0 0.1692673685711093 0.090261682160195991 0 0.14988609295279501 0.102919346989229 0 0.1524071815683406 0.1078233537923476 0 0.1692673685711093 0.090261682160195991 0 0.1628840292435024 0.12820285650296009 0 0.1524071815683406 0.1078233537923476 0 0.17019858364219501 0.1070147607457605 0 0.1628840292435024 0.12820285650296009 0 0.1524071815683406 0.1078233537923476 0 0.1628840292435024 0.12820285650296009 0 0.15764854567859959 0.12793593471339559 0 0.1524071815683406 0.1078233537923476 0 0.17896498896832419 0.13254757470857301 0 0.19444470887038059 0.12493534755714369 0 0.1842581284299652 0.1151352030251082 0 0.1628840292435024 0.12820285650296009 0 0.17019858364219501 0.1070147607457605 0 0.1842581284299652 0.1151352030251082 0 0.1966044032490358 0.093079513238661246 0 0.17019858364219501 0.1070147607457605 0 0.1692673685711093 0.090261682160195991 0 0.1966044032490358 0.093079513238661246 0 0.17019858364219501 0.1070147607457605 0 0.1842581284299652 0.1151352030251082 0 0.1966044032490358 0.093079513238661246 0 0.1775820125614849 0.07602678715200567 0 0.1692673685711093 0.090261682160195991 0 0.1966044032490358 0.093079513238661246 0 0.1692673685711093 0.090261682160195991 0 0.18760229353145541 0.064077498707707792 0 0.15970498275756909 0.057236638321935727 0 0.1775820125614849 0.07602678715200567 0 0.15970498275756909 0.057236638321935727 0 0.15232130626107299 0.073225027229940107 0 0.1775820125614849 0.07602678715200567 0 0.15232130626107299 0.073225027229940107 0 0.1775820125614849 0.07602678715200567 0 0.1692673685711093 0.090261682160195991 0 0.1011406681992177 0.47069481283636427 0 0.10650616633555191 0.4864204169464732 0 0.089368597370979019 0.48176966866440701 0 0.10650616633555191 0.4864204169464732 0 0.086274491521449947 0.49999999999999978 0 0.10650616633555191 0.4864204169464732 0 0.1153244865991272 0.5 0 0.086274491521449947 0.49999999999999978 0 0.10650616633555191 0.4864204169464732 0 0.089368597370979019 0.48176966866440701 0 0.086274491521449947 0.49999999999999978 0 0.10650616633555191 0.4864204169464732 0 0.1153244865991272 0.5 0 0.12691147302737399 0.48840504578919242 0 0.1011406681992177 0.47069481283636427 0 0.10650616633555191 0.4864204169464732 0 0.126737841149654 0.47284083389294679 0 0.10650616633555191 0.4864204169464732 0 0.126737841149654 0.47284083389294679 0 0.12691147302737399 0.48840504578919242 0 0.10650616633555191 0.4864204169464732 0 0.126737841149654 0.47284083389294679 0 0.1011406681992177 0.47069481283636427 0 0.1066863685723325 0.45344000292208159 0 0.126737841149654 0.47284083389294679 0 0.1066863685723325 0.45344000292208159 0 0.1279085486828945 0.44887280973575688 0 0.126737841149654 0.47284083389294679 0 0.1066863685723325 0.45344000292208159 0 0.1055990691548641 0.42556041227128599 0 0.1279085486828945 0.44887280973575688 0 0.1066863685723325 0.45344000292208159 0 0.084419900101468937 0.44471585290993593 0 0.1055990691548641 0.42556041227128599 0 0.1011406681992177 0.47069481283636427 0 0.1066863685723325 0.45344000292208159 0 0.083145404992691102 0.46841587780875032 0 0.1066863685723325 0.45344000292208159 0 0.083145404992691102 0.46841587780875032 0 0.084419900101468937 0.44471585290993593 0 0.084419900101468937 0.44471585290993593 0 0.061746725370226067 0.45280988353337243 0 0.06011569463624114 0.43243747613897943 0 0.083145404992691102 0.46841587780875032 0 0.061746725370226067 0.45280988353337243 0 0.083145404992691102 0.46841587780875032 0 0.06852058592944632 0.47948817511599512 0 0.061746725370226067 0.45280988353337243 0 0.083145404992691102 0.46841587780875032 0 0.084419900101468937 0.44471585290993593 0 0.061746725370226067 0.45280988353337243 0 0.1011406681992177 0.47069481283636427 0 0.083145404992691102 0.46841587780875032 0 0.089368597370979019 0.48176966866440701 0 0.083145404992691102 0.46841587780875032 0 0.06852058592944632 0.47948817511599512 0 0.089368597370979019 0.48176966866440701 0 0.06852058592944632 0.47948817511599512 0 0.089368597370979019 0.48176966866440701 0 0.086274491521449947 0.49999999999999978 0 0.06852058592944632 0.47948817511599512 0 0.086274491521449947 0.49999999999999978 0 0.060556000659498677 0.5 0 0.06852058592944632 0.47948817511599512 0 0.060556000659498677 0.5 0 0.042113006035190859 0.47549717642506367 0 0.06852058592944632 0.47948817511599512 0 0.042113006035190859 0.47549717642506367 0 0.061746725370226067 0.45280988353337243 0 0.042113006035190859 0.47549717642506367 0 0.03483750979754735 0.5 0 0.021607946114657921 0.4843276616534084 0 0.060556000659498677 0.5 0 0.042113006035190859 0.47549717642506367 0 0.03483750979754735 0.5 0 0.03483750979754735 0.5 0 0.021607946114657921 0.4843276616534084 0 0.0091190189355961349 0.5 0 0.042113006035190859 0.47549717642506367 0 0.021607946114657921 0.4843276616534084 0 0.018282294263534251 0.46344747205037529 0 -1.3738009210028041e-05 0.46323242685025401 0 0.0036879015414210039 0.48269365979160311 0 0.018282294263534251 0.46344747205037529 0 0.021607946114657921 0.4843276616534084 0 0.0036879015414210039 0.48269365979160311 0 0.018282294263534251 0.46344747205037529 0 0.021607946114657921 0.4843276616534084 0 0.0036879015414210039 0.48269365979160311 0 0.0091190189355961349 0.5 0 -0.0059336768482065178 0.49768647508268982 0 0.0036879015414210039 0.48269365979160311 0 0.0091190189355961349 0.5 0 0.0039223924071169819 0.44583041224785569 0 0.0216723927072742 0.44033788007182151 0 0.01121942549789301 0.43398984101940119 0 0.0039223924071169819 0.44583041224785569 0 0.018282294263534251 0.46344747205037529 0 0.0216723927072742 0.44033788007182151 0 -1.3738009210028041e-05 0.46323242685025401 0 0.0039223924071169819 0.44583041224785569 0 0.018282294263534251 0.46344747205037529 0 0.018282294263534251 0.46344747205037529 0 0.0216723927072742 0.44033788007182151 0 0.035149503977147042 0.45517764598583882 0 0.0216723927072742 0.44033788007182151 0 0.035149503977147042 0.45517764598583882 0 0.040348045747761033 0.43720388925799442 0 0.035149503977147042 0.45517764598583882 0 0.061746725370226067 0.45280988353337243 0 0.040348045747761033 0.43720388925799442 0 0.042113006035190859 0.47549717642506367 0 0.018282294263534251 0.46344747205037529 0 0.035149503977147042 0.45517764598583882 0 0.042113006035190859 0.47549717642506367 0 0.035149503977147042 0.45517764598583882 0 0.061746725370226067 0.45280988353337243 0 0.061746725370226067 0.45280988353337243 0 0.040348045747761033 0.43720388925799442 0 0.061746725370226067 0.45280988353337243 0 0.06011569463624114 0.43243747613897943 0 0.040348045747761033 0.43720388925799442 0 0.06011569463624114 0.43243747613897943 0 0.057485426727304591 0.41634709854783669 0 0.046715404410553593 0.42401673621980179 0 0.06011569463624114 0.43243747613897943 0 0.040348045747761033 0.43720388925799442 0 0.046715404410553593 0.42401673621980179 0 0.057485426727304591 0.41634709854783669 0 0.051212481999808497 0.4015399061667792 0 0.066304764252060125 0.40649207718955449 0 0.057485426727304591 0.41634709854783669 0 0.042570041223760367 0.41236520736911703 0 0.046715404410553593 0.42401673621980179 0 0.057485426727304591 0.41634709854783669 0 0.042570041223760367 0.41236520736911703 0 0.051212481999808497 0.4015399061667792 0 0.042570041223760367 0.41236520736911703 0 0.035089851897359081 0.42099204932146778 0 0.026866401979424571 0.40977651877780957 0 0.042570041223760367 0.41236520736911703 0 0.026866401979424571 0.40977651877780957 0 0.040499307587043148 0.40063965608602797 0 0.042570041223760367 0.41236520736911703 0 0.035089851897359081 0.42099204932146778 0 0.046715404410553593 0.42401673621980179 0 0.035089851897359081 0.42099204932146778 0 0.040348045747761033 0.43720388925799442 0 0.018949366125295849 0.42159789498261618 0 0.035089851897359081 0.42099204932146778 0 0.040348045747761033 0.43720388925799442 0 0.046715404410553593 0.42401673621980179 0 0.0216723927072742 0.44033788007182151 0 0.040348045747761033 0.43720388925799442 0 0.018949366125295849 0.42159789498261618 0 0.040348045747761033 0.43720388925799442 0 0.018949366125295849 0.42159789498261618 0 0.0216723927072742 0.44033788007182151 0 0.018949366125295849 0.42159789498261618 0 0.01121942549789301 0.43398984101940119 0 0.035089851897359081 0.42099204932146778 0 0.026866401979424571 0.40977651877780957 0 0.018949366125295849 0.42159789498261618 0 0.026866401979424571 0.40977651877780957 0 0.015677724526502412 0.40892416457219971 0 0.018949366125295849 0.42159789498261618 0 -0.0024493134971683549 0.4059919007072369 0 0.018949366125295849 0.42159789498261618 0 -0.0024493134971683549 0.4059919007072369 0 -0.0024153172949307172 0.41828168650904263 0 0.018949366125295849 0.42159789498261618 0 -0.0024493134971683549 0.4059919007072369 0 0.015677724526502412 0.40892416457219971 0 0.018949366125295849 0.42159789498261618 0 0.0039223924071169819 0.44583041224785569 0 0.01121942549789301 0.43398984101940119 0 0.00033355075188503422 0.42819317677531121 0 -0.0024153172949307172 0.41828168650904263 0 0.018949366125295849 0.42159789498261618 0 0.00033355075188503422 0.42819317677531121 0 0.018949366125295849 0.42159789498261618 0 0.01121942549789301 0.43398984101940119 0 0.00033355075188503422 0.42819317677531121 0 0.0083466262970882856 0.38717201058211242 0 0.0066794372781859273 0.39608076824154659 0 0.017342714738429719 0.38851782984760708 0 0.0083466262970882856 0.38717201058211242 0 0.015112499351529279 0.37981544907757869 0 0.017342714738429719 0.38851782984760708 0 0.0083466262970882856 0.38717201058211242 0 0.015112499351529279 0.37981544907757869 0 0.0030972754953377149 0.37310501254050282 0 0.015112499351529279 0.37981544907757869 0 0.0030972754953377149 0.37310501254050282 0 -0.0021436803485691529 0.3877487984419396 0 0.0083466262970882856 0.38717201058211242 0 0.0030972754953377149 0.37310501254050282 0 -0.0021436803485691529 0.3877487984419396 0 0.0030972754953377149 0.37310501254050282 0 -0.0021436803485691529 0.3877487984419396 0 0.0083466262970882856 0.38717201058211242 0 0.0066794372781859273 0.39608076824154659 0 -0.0024493134971683549 0.4059919007072369 0 0.0066794372781859273 0.39608076824154659 0 0.01934444349845791 0.39833034382113719 0 -0.0024493134971683549 0.4059919007072369 0 0.015677724526502412 0.40892416457219971 0 0.01934444349845791 0.39833034382113719 0 -0.00081066008714736565 0.39856173207028811 0 -0.0021436803485691529 0.3877487984419396 0 0.0066794372781859273 0.39608076824154659 0 -0.0024493134971683549 0.4059919007072369 0 0.01934444349845791 0.39833034382113719 0 -0.00081066008714736565 0.39856173207028811 0 -0.0024493134971683549 0.4059919007072369 0 0.0066794372781859273 0.39608076824154659 0 0.0066794372781859273 0.39608076824154659 0 0.01934444349845791 0.39833034382113719 0 0.017342714738429719 0.38851782984760708 0 0.01934444349845791 0.39833034382113719 0 0.02632017010981914 0.38817796382225389 0 0.04113820049408469 0.39066878693503881 0 0.01934444349845791 0.39833034382113719 0 0.03220499309766621 0.39747076035323581 0 0.04113820049408469 0.39066878693503881 0 0.01934444349845791 0.39833034382113719 0 0.04113820049408469 0.39066878693503881 0 0.01934444349845791 0.39833034382113719 0 0.02632017010981914 0.38817796382225389 0 0.017342714738429719 0.38851782984760708 0 0.026866401979424571 0.40977651877780957 0 0.015677724526502412 0.40892416457219971 0 0.01934444349845791 0.39833034382113719 0 0.026866401979424571 0.40977651877780957 0 0.01934444349845791 0.39833034382113719 0 0.03220499309766621 0.39747076035323581 0 0.023318612189432378 0.37961154544068998 0 0.04113820049408469 0.39066878693503881 0 0.023433694186199928 0.36733040714012238 0 0.02632017010981914 0.38817796382225389 0 0.023318612189432378 0.37961154544068998 0 0.04113820049408469 0.39066878693503881 0 0.02632017010981914 0.38817796382225389 0 0.017342714738429719 0.38851782984760708 0 0.023318612189432378 0.37961154544068998 0 0.015112499351529279 0.37981544907757869 0 0.017342714738429719 0.38851782984760708 0 0.023318612189432378 0.37961154544068998 0 0.015112499351529279 0.37981544907757869 0 0.023318612189432378 0.37961154544068998 0 0.012395466490258191 0.36863964772948121 0 0.038921192219284563 0.38014392754186183 0 0.04113820049408469 0.39066878693503881 0 0.023433694186199928 0.36733040714012238 0 0.04113820049408469 0.39066878693503881 0 0.023433694186199928 0.36733040714012238 0 0.038921192219284563 0.38014392754186183 0 0.043592412945462802 0.38980601287040251 0 0.04113820049408469 0.39066878693503881 0 0.043592412945462802 0.38980601287040251 0 0.04113820049408469 0.39066878693503881 0 0.043592412945462802 0.38980601287040251 0 0.049529238139463673 0.38771893243008221 0 0.038921192219284563 0.38014392754186183 0 0.043592412945462802 0.38980601287040251 0 0.045792271584387832 0.37473121773488161 0 0.038921192219284563 0.38014392754186183 0 0.045792271584387832 0.37473121773488161 0 0.038626567942964693 0.37115620915958752 0 0.026866401979424571 0.40977651877780957 0 0.043592412945462802 0.38980601287040251 0 0.026866401979424571 0.40977651877780957 0 0.03220499309766621 0.39747076035323581 0 0.04113820049408469 0.39066878693503881 0 0.026866401979424571 0.40977651877780957 0 0.043592412945462802 0.38980601287040251 0 0.040499307587043148 0.40063965608602797 0 0.026866401979424571 0.40977651877780957 0 0.043592412945462802 0.38980601287040251 0 0.04113820049408469 0.39066878693503881 0 0.043592412945462802 0.38980601287040251 0 0.045086857905549407 0.39625700339112119 0 0.040499307587043148 0.40063965608602797 0 0.043592412945462802 0.38980601287040251 0 0.045086857905549407 0.39625700339112119 0 0.048506371744356097 0.3942966952342643 0 0.042570041223760367 0.41236520736911703 0 0.040499307587043148 0.40063965608602797 0 0.051212481999808497 0.4015399061667792 0 0.045086857905549407 0.39625700339112119 0 0.040499307587043148 0.40063965608602797 0 0.051212481999808497 0.4015399061667792 0 0.051212481999808497 0.4015399061667792 0 0.048506371744356097 0.3942966952342643 0 0.061389690749099259 0.39445814437975713 0 0.048506371744356097 0.3942966952342643 0 0.061389690749099259 0.39445814437975713 0 0.049529238139463673 0.38771893243008221 0 0.045086857905549407 0.39625700339112119 0 0.051212481999808497 0.4015399061667792 0 0.048506371744356097 0.3942966952342643 0 0.051212481999808497 0.4015399061667792 0 0.061389690749099259 0.39445814437975713 0 0.066304764252060125 0.40649207718955449 0 0.061389690749099259 0.39445814437975713 0 0.049529238139463673 0.38771893243008221 0 0.068012708067442459 0.38418634571225641 0 0.043592412945462802 0.38980601287040251 0 0.0612150950592538 0.3687649004394471 0 0.045792271584387832 0.37473121773488161 0 0.043592412945462802 0.38980601287040251 0 0.049529238139463673 0.38771893243008221 0 0.0612150950592538 0.3687649004394471 0 0.049529238139463673 0.38771893243008221 0 0.068012708067442459 0.38418634571225641 0 0.0612150950592538 0.3687649004394471 0 0.043592412945462802 0.38980601287040251 0 0.0612150950592538 0.3687649004394471 0 0.043592412945462802 0.38980601287040251 0 0.048506371744356097 0.3942966952342643 0 0.049529238139463673 0.38771893243008221 0 0.068012708067442459 0.38418634571225641 0 0.089177747331502299 0.37364410520754021 0 0.0612150950592538 0.3687649004394471 0 0.068012708067442459 0.38418634571225641 0 0.078751769057893189 0.3963456461044555 0 0.089177747331502299 0.37364410520754021 0 0.078751769057893189 0.3963456461044555 0 0.09840471256459582 0.40214653579929588 0 0.089177747331502299 0.37364410520754021 0 0.061389690749099259 0.39445814437975713 0 0.078751769057893189 0.3963456461044555 0 0.066304764252060125 0.40649207718955449 0 0.061389690749099259 0.39445814437975713 0 0.068012708067442459 0.38418634571225641 0 0.078751769057893189 0.3963456461044555 0 0.057485426727304591 0.41634709854783669 0 0.066304764252060125 0.40649207718955449 0 0.078321137009165667 0.42337985478425999 0 0.078751769057893189 0.3963456461044555 0 0.066304764252060125 0.40649207718955449 0 0.078321137009165667 0.42337985478425999 0 0.06011569463624114 0.43243747613897943 0 0.057485426727304591 0.41634709854783669 0 0.078321137009165667 0.42337985478425999 0 0.084419900101468937 0.44471585290993593 0 0.06011569463624114 0.43243747613897943 0 0.078321137009165667 0.42337985478425999 0 0.078321137009165667 0.42337985478425999 0 0.1055990691548641 0.42556041227128599 0 0.084419900101468937 0.44471585290993593 0 0.078321137009165667 0.42337985478425999 0 0.1055990691548641 0.42556041227128599 0 0.078751769057893189 0.3963456461044555 0 0.078321137009165667 0.42337985478425999 0 0.09840471256459582 0.40214653579929588 0 0.078321137009165667 0.42337985478425999 0 0.1055990691548641 0.42556041227128599 0 0.09840471256459582 0.40214653579929588 0 0.1055990691548641 0.42556041227128599 0 0.11877252821799281 0.39709376327906221 0 0.09840471256459582 0.40214653579929588 0 0.1055990691548641 0.42556041227128599 0 0.13287700130056249 0.42774096975831211 0 0.1055990691548641 0.42556041227128599 0 0.13287700130056249 0.42774096975831211 0 0.1279085486828945 0.44887280973575688 0 0.1055990691548641 0.42556041227128599 0 0.1340221399217506 0.40832856167723303 0 0.13287700130056249 0.42774096975831211 0 0.1055990691548641 0.42556041227128599 0 0.11877252821799281 0.39709376327906221 0 0.1340221399217506 0.40832856167723303 0 0.11877252821799281 0.39709376327906221 0 0.1098477155712488 0.38152644482026188 0 0.12647693956778991 0.37495217793280539 0 0.1098477155712488 0.38152644482026188 0 0.09840471256459582 0.40214653579929588 0 0.089177747331502299 0.37364410520754021 0 0.11877252821799281 0.39709376327906221 0 0.1098477155712488 0.38152644482026188 0 0.09840471256459582 0.40214653579929588 0 0.0989285978555835 0.34897877711358799 0 0.1164066501743634 0.35979564188260582 0 0.089177747331502299 0.37364410520754021 0 0.1098477155712488 0.38152644482026188 0 0.1164066501743634 0.35979564188260582 0 0.089177747331502299 0.37364410520754021 0 0.1098477155712488 0.38152644482026188 0 0.1164066501743634 0.35979564188260582 0 0.12647693956778991 0.37495217793280539 0 0.1164066501743634 0.35979564188260582 0 0.13122650151246201 0.35990526461923089 0 0.12647693956778991 0.37495217793280539 0 0.0989285978555835 0.34897877711358799 0 0.1164066501743634 0.35979564188260582 0 0.1144499652507928 0.34435931395224401 0 0.1164066501743634 0.35979564188260582 0 0.1144499652507928 0.34435931395224401 0 0.12814812946445209 0.34701108380136542 0 0.1144499652507928 0.34435931395224401 0 0.1211201254923354 0.33160404587602982 0 0.10360206547546449 0.33353676024022277 0 0.1144499652507928 0.34435931395224401 0 0.1211201254923354 0.33160404587602982 0 0.12814812946445209 0.34701108380136542 0 0.1211201254923354 0.33160404587602982 0 0.12124516752491089 0.31547656449496259 0 0.1053143427274313 0.31307634080275132 0 0.1211201254923354 0.33160404587602982 0 0.1053143427274313 0.31307634080275132 0 0.10360206547546449 0.33353676024022277 0 0.1053143427274313 0.31307634080275132 0 0.10360206547546449 0.33353676024022277 0 0.088172711540173684 0.31445756815047338 0 0.0989285978555835 0.34897877711358799 0 0.10360206547546449 0.33353676024022277 0 0.08502046337806736 0.3337342794639187 0 0.0989285978555835 0.34897877711358799 0 0.1144499652507928 0.34435931395224401 0 0.10360206547546449 0.33353676024022277 0 0.0989285978555835 0.34897877711358799 0 0.08502046337806736 0.3337342794639187 0 0.078837777173044535 0.34772378800849152 0 0.08502046337806736 0.3337342794639187 0 0.088172711540173684 0.31445756815047338 0 0.067525428748545946 0.31795668178087111 0 0.10360206547546449 0.33353676024022277 0 0.08502046337806736 0.3337342794639187 0 0.088172711540173684 0.31445756815047338 0 0.08502046337806736 0.3337342794639187 0 0.063324704785071781 0.33820735708314092 0 0.078837777173044535 0.34772378800849152 0 0.08502046337806736 0.3337342794639187 0 0.067525428748545946 0.31795668178087111 0 0.063324704785071781 0.33820735708314092 0 0.063324704785071781 0.33820735708314092 0 0.078837777173044535 0.34772378800849152 0 0.058512086325304441 0.35355755470445588 0 0.078837777173044535 0.34772378800849152 0 0.0612150950592538 0.3687649004394471 0 0.058512086325304441 0.35355755470445588 0 0.078837777173044535 0.34772378800849152 0 0.0612150950592538 0.3687649004394471 0 0.0989285978555835 0.34897877711358799 0 0.078837777173044535 0.34772378800849152 0 0.089177747331502299 0.37364410520754021 0 0.078837777173044535 0.34772378800849152 0 0.089177747331502299 0.37364410520754021 0 0.0612150950592538 0.3687649004394471 0 0.0612150950592538 0.3687649004394471 0 0.058512086325304441 0.35355755470445588 0 0.046606089754973247 0.36378503866310857 0 0.0612150950592538 0.3687649004394471 0 0.045792271584387832 0.37473121773488161 0 0.046606089754973247 0.36378503866310857 0 0.058512086325304441 0.35355755470445588 0 0.042576764854178807 0.34930668932809089 0 0.046606089754973247 0.36378503866310857 0 0.063324704785071781 0.33820735708314092 0 0.058512086325304441 0.35355755470445588 0 0.042576764854178807 0.34930668932809089 0 0.042576764854178807 0.34930668932809089 0 0.035316666568673473 0.36145120472711201 0 0.02663764782052289 0.35135338455995951 0 0.042576764854178807 0.34930668932809089 0 0.02663764782052289 0.35135338455995951 0 0.02613192561524583 0.33468659425926711 0 0.042576764854178807 0.34930668932809089 0 0.046606089754973247 0.36378503866310857 0 0.035316666568673473 0.36145120472711201 0 0.045792271584387832 0.37473121773488161 0 0.046606089754973247 0.36378503866310857 0 0.038626567942964693 0.37115620915958752 0 0.046606089754973247 0.36378503866310857 0 0.035316666568673473 0.36145120472711201 0 0.038626567942964693 0.37115620915958752 0 0.035316666568673473 0.36145120472711201 0 0.038626567942964693 0.37115620915958752 0 0.023433694186199928 0.36733040714012238 0 0.038921192219284563 0.38014392754186183 0 0.038626567942964693 0.37115620915958752 0 0.023433694186199928 0.36733040714012238 0 0.035316666568673473 0.36145120472711201 0 0.023433694186199928 0.36733040714012238 0 0.02663764782052289 0.35135338455995951 0 0.023318612189432378 0.37961154544068998 0 0.023433694186199928 0.36733040714012238 0 0.012395466490258191 0.36863964772948121 0 0.023433694186199928 0.36733040714012238 0 0.02663764782052289 0.35135338455995951 0 0.0057291878783164267 0.34399202734520518 0 -0.001591559701283281 0.35963231263529361 0 0.0057291878783164267 0.34399202734520518 0 0.012395466490258191 0.36863964772948121 0 0.023433694186199928 0.36733040714012238 0 0.0057291878783164267 0.34399202734520518 0 -0.001591559701283281 0.35963231263529361 0 0.004493410205248953 0.36920406424206059 0 0.012395466490258191 0.36863964772948121 0 0.023433694186199928 0.36733040714012238 0 0.0057291878783164267 0.34399202734520518 0 0.012395466490258191 0.36863964772948121 0 -0.001591559701283281 0.35963231263529361 0 0.0030972754953377149 0.37310501254050282 0 0.004493410205248953 0.36920406424206059 0 0.0030972754953377149 0.37310501254050282 0 0.004493410205248953 0.36920406424206059 0 0.012395466490258191 0.36863964772948121 0 0.0030972754953377149 0.37310501254050282 0 0.004493410205248953 0.36920406424206059 0 0.015112499351529279 0.37981544907757869 0 0.0030972754953377149 0.37310501254050282 0 0.012395466490258191 0.36863964772948121 0 -0.01197531842956702 0.32065364755028802 0 0.0057291878783164267 0.34399202734520518 0 0.0099120985565268119 0.32243435579998092 0 0.0057291878783164267 0.34399202734520518 0 0.0099120985565268119 0.32243435579998092 0 0.02613192561524583 0.33468659425926711 0 0.02663764782052289 0.35135338455995951 0 0.0057291878783164267 0.34399202734520518 0 0.02613192561524583 0.33468659425926711 0 0.0099120985565268119 0.32243435579998092 0 0.02613192561524583 0.33468659425926711 0 0.030007763010068689 0.31296161769025632 0 0.02613192561524583 0.33468659425926711 0 0.030007763010068689 0.31296161769025632 0 0.046163867156287702 0.32422632192195322 0 0.042576764854178807 0.34930668932809089 0 0.02613192561524583 0.33468659425926711 0 0.046163867156287702 0.32422632192195322 0 0.063324704785071781 0.33820735708314092 0 0.042576764854178807 0.34930668932809089 0 0.046163867156287702 0.32422632192195322 0 0.067525428748545946 0.31795668178087111 0 0.046163867156287702 0.32422632192195322 0 0.049598136265103468 0.29894407975859932 0 0.067525428748545946 0.31795668178087111 0 0.063324704785071781 0.33820735708314092 0 0.046163867156287702 0.32422632192195322 0 0.046163867156287702 0.32422632192195322 0 0.049598136265103468 0.29894407975859932 0 0.049598136265103468 0.29894407975859932 0 0.053032405373919247 0.27366183759524532 0 0.049598136265103468 0.29894407975859932 0 0.053032405373919247 0.27366183759524532 0 0.071948694807486779 0.29655131430751269 0 0.049598136265103468 0.29894407975859932 0 0.034751106815013207 0.29258481710829892 0 0.053032405373919247 0.27366183759524532 0 0.030007763010068689 0.31296161769025632 0 0.049598136265103468 0.29894407975859932 0 0.034751106815013207 0.29258481710829892 0 0.030007763010068689 0.31296161769025632 0 0.046163867156287702 0.32422632192195322 0 0.049598136265103468 0.29894407975859932 0 0.030007763010068689 0.31296161769025632 0 0.034751106815013207 0.29258481710829892 0 0.015808164974090481 0.30128095548245881 0 0.0099120985565268119 0.32243435579998092 0 0.030007763010068689 0.31296161769025632 0 0.015808164974090481 0.30128095548245881 0 0.034751106815013207 0.29258481710829892 0 0.015808164974090481 0.30128095548245881 0 0.025309064451884172 0.27607559501493489 0 0.015808164974090481 0.30128095548245881 0 0.0045759126980617452 0.28732757971831202 0 0.025309064451884172 0.27607559501493489 0 -0.0030673297121489879 0.30398241260589998 0 0.0099120985565268119 0.32243435579998092 0 0.015808164974090481 0.30128095548245881 0 -0.0030673297121489879 0.30398241260589998 0 0.015808164974090481 0.30128095548245881 0 0.0045759126980617452 0.28732757971831202 0 0.026863479884004868 0.24759467823393411 0 0.0038625641132594909 0.24145939712855799 0 0.0055263259544778148 0.2683661113136544 0 -0.0065929851021667473 0.25243062773974151 0 0.0038625641132594909 0.24145939712855799 0 0.0055263259544778148 0.2683661113136544 0 0.0045759126980617452 0.28732757971831202 0 0.0055263259544778148 0.2683661113136544 0 0.025309064451884172 0.27607559501493489 0 0.026863479884004868 0.24759467823393411 0 0.0055263259544778148 0.2683661113136544 0 0.026863479884004868 0.24759467823393411 0 0.025309064451884172 0.27607559501493489 0 0.041367693886949941 0.2592029639510427 0 0.026863479884004868 0.24759467823393411 0 0.0055263259544778148 0.2683661113136544 0 0.025309064451884172 0.27607559501493489 0 0.026863479884004868 0.24759467823393411 0 0.04499559158562462 0.24487331477749599 0 0.041367693886949941 0.2592029639510427 0 0.025309064451884172 0.27607559501493489 0 0.041367693886949941 0.2592029639510427 0 0.053032405373919247 0.27366183759524532 0 0.034751106815013207 0.29258481710829892 0 0.025309064451884172 0.27607559501493489 0 0.053032405373919247 0.27366183759524532 0 0.053032405373919247 0.27366183759524532 0 0.061635407613347723 0.26342430713501219 0 0.071959552357039561 0.26578316975033422 0 0.056466674482735048 0.24837959543189131 0 0.041367693886949941 0.2592029639510427 0 0.053032405373919247 0.27366183759524532 0 0.056466674482735048 0.24837959543189131 0 0.053032405373919247 0.27366183759524532 0 0.056466674482735048 0.24837959543189131 0 0.053032405373919247 0.27366183759524532 0 0.061635407613347723 0.26342430713501219 0 0.056466674482735048 0.24837959543189131 0 0.04499559158562462 0.24487331477749599 0 0.041367693886949941 0.2592029639510427 0 0.056466674482735048 0.24837959543189131 0 0.061635407613347723 0.26342430713501219 0 0.065626838456100595 0.25666466536628879 0 0.056466674482735048 0.24837959543189131 0 0.066128306823598423 0.25082936631965508 0 0.065626838456100595 0.25666466536628879 0 0.066128306823598423 0.25082936631965508 0 0.065626838456100595 0.25666466536628879 0 0.071944251003782184 0.25490688819455132 0 0.0683840449532815 0.24680230957732269 0 0.066128306823598423 0.25082936631965508 0 0.072650845309673334 0.25268709777640502 0 0.066128306823598423 0.25082936631965508 0 0.072650845309673334 0.25268709777640502 0 0.071944251003782184 0.25490688819455132 0 0.066128306823598423 0.25082936631965508 0 0.072650845309673334 0.25268709777640502 0 0.065626838456100595 0.25666466536628879 0 0.071944251003782184 0.25490688819455132 0 0.071959552357039561 0.26578316975033422 0 0.061635407613347723 0.26342430713501219 0 0.065626838456100595 0.25666466536628879 0 0.071959552357039561 0.26578316975033422 0 0.071944251003782184 0.25490688819455132 0 0.085652519283330383 0.25639019876735081 0 0.071959552357039561 0.26578316975033422 0 0.072650845309673334 0.25268709777640502 0 0.071944251003782184 0.25490688819455132 0 0.085652519283330383 0.25639019876735081 0 0.072650845309673334 0.25268709777640502 0 0.071944251003782184 0.25490688819455132 0 0.072650845309673334 0.25268709777640502 0 0.085652519283330383 0.25639019876735081 0 0.082615493052016584 0.2439470036904457 0 0.072650845309673334 0.25268709777640502 0 0.085652519283330383 0.25639019876735081 0 0.085652519283330383 0.25639019876735081 0 0.078800607045408574 0.27647075653743181 0 0.085652519283330383 0.25639019876735081 0 0.078800607045408574 0.27647075653743181 0 0.071959552357039561 0.26578316975033422 0 0.085652519283330383 0.25639019876735081 0 0.078800607045408574 0.27647075653743181 0 0.09673856784550601 0.27797909517636599 0 0.053032405373919247 0.27366183759524532 0 0.078800607045408574 0.27647075653743181 0 0.071959552357039561 0.26578316975033422 0 0.078800607045408574 0.27647075653743181 0 0.071948694807486779 0.29655131430751269 0 0.053032405373919247 0.27366183759524532 0 0.078800607045408574 0.27647075653743181 0 0.071948694807486779 0.29655131430751269 0 0.088172711540173684 0.31445756815047338 0 0.067525428748545946 0.31795668178087111 0 0.071948694807486779 0.29655131430751269 0 0.067525428748545946 0.31795668178087111 0 0.049598136265103468 0.29894407975859932 0 0.071948694807486779 0.29655131430751269 0 0.088172711540173684 0.31445756815047338 0 0.071948694807486779 0.29655131430751269 0 0.086772363252517776 0.29123307579125479 0 0.088172711540173684 0.31445756815047338 0 0.086772363252517776 0.29123307579125479 0 0.10151889867574421 0.29583661799639599 0 0.078800607045408574 0.27647075653743181 0 0.071948694807486779 0.29655131430751269 0 0.086772363252517776 0.29123307579125479 0 0.078800607045408574 0.27647075653743181 0 0.086772363252517776 0.29123307579125479 0 0.09673856784550601 0.27797909517636599 0 0.10151889867574421 0.29583661799639599 0 0.11556053322576169 0.28488536544567239 0 0.09673856784550601 0.27797909517636599 0 0.086772363252517776 0.29123307579125479 0 0.10151889867574421 0.29583661799639599 0 0.09673856784550601 0.27797909517636599 0 0.1053143427274313 0.31307634080275132 0 0.10151889867574421 0.29583661799639599 0 0.1181532210625178 0.3005600871926476 0 0.1053143427274313 0.31307634080275132 0 0.088172711540173684 0.31445756815047338 0 0.10151889867574421 0.29583661799639599 0 0.12124516752491089 0.31547656449496259 0 0.1053143427274313 0.31307634080275132 0 0.1181532210625178 0.3005600871926476 0 0.10151889867574421 0.29583661799639599 0 0.1181532210625178 0.3005600871926476 0 0.11556053322576169 0.28488536544567239 0 0.1181532210625178 0.3005600871926476 0 0.11556053322576169 0.28488536544567239 0 0.13361288371219299 0.29553688310837961 0 0.11556053322576169 0.28488536544567239 0 0.11281766551771739 0.26412730093923781 0 0.13144083581972321 0.28279072642897563 0 0.1140877946126424 0.2414168542013195 0 0.10166286180755039 0.2485299665686673 0 0.11281766551771739 0.26412730093923781 0 0.1140877946126424 0.2414168542013195 0 0.13032557771525119 0.24558986973164881 0 0.11281766551771739 0.26412730093923781 0 0.085652519283330383 0.25639019876735081 0 0.11281766551771739 0.26412730093923781 0 0.10166286180755039 0.2485299665686673 0 0.085652519283330383 0.25639019876735081 0 0.11281766551771739 0.26412730093923781 0 0.11556053322576169 0.28488536544567239 0 0.11281766551771739 0.26412730093923781 0 0.09673856784550601 0.27797909517636599 0 0.085652519283330383 0.25639019876735081 0 0.11281766551771739 0.26412730093923781 0 0.09673856784550601 0.27797909517636599 0 0.13998281175210431 0.27186440311112481 0 0.13144083581972321 0.28279072642897563 0 0.15474794326086419 0.28890810970518499 0 0.15474794326086419 0.28890810970518499 0 0.15715045465606189 0.26729027094270069 0 0.13997784116405071 0.25802939541057412 0 0.13998281175210431 0.27186440311112481 0 0.15715045465606189 0.26729027094270069 0 0.13998281175210431 0.27186440311112481 0 0.15474794326086419 0.28890810970518499 0 0.15715045465606189 0.26729027094270069 0 0.1517061684980642 0.25574279530656407 0 0.13997784116405071 0.25802939541057412 0 0.15715045465606189 0.26729027094270069 0 0.15955296605125971 0.24567243218021631 0 0.1517061684980642 0.25574279530656407 0 0.15715045465606189 0.26729027094270069 0 0.14788436884510489 0.24356173243216869 0 0.1517061684980642 0.25574279530656407 0 0.13997784116405071 0.25802939541057412 0 0.13032557771525119 0.24558986973164881 0 0.11281766551771739 0.26412730093923781 0 0.13997784116405071 0.25802939541057412 0 0.11281766551771739 0.26412730093923781 0 0.13997784116405071 0.25802939541057412 0 0.13998281175210431 0.27186440311112481 0 0.11281766551771739 0.26412730093923781 0 0.13998281175210431 0.27186440311112481 0 0.11281766551771739 0.26412730093923781 0 0.13998281175210431 0.27186440311112481 0 0.13144083581972321 0.28279072642897563 0 0.13144083581972321 0.28279072642897563 0 0.13361288371219299 0.29553688310837961 0 0.15474794326086419 0.28890810970518499 0 0.11556053322576169 0.28488536544567239 0 0.13144083581972321 0.28279072642897563 0 0.13361288371219299 0.29553688310837961 0 0.1181532210625178 0.3005600871926476 0 0.13361288371219299 0.29553688310837961 0 0.13689690281295819 0.3107021111160011 0 0.12124516752491089 0.31547656449496259 0 0.1181532210625178 0.3005600871926476 0 0.13689690281295819 0.3107021111160011 0 0.13361288371219299 0.29553688310837961 0 0.13689690281295819 0.3107021111160011 0 0.1438486157393099 0.30152647742206362 0 0.15234543186566771 0.31052594846766951 0 0.15474794326086419 0.28890810970518499 0 0.1438486157393099 0.30152647742206362 0 0.15234543186566771 0.31052594846766951 0 0.15474794326086419 0.28890810970518499 0 0.13689690281295819 0.3107021111160011 0 0.14413442518050229 0.30896423601303308 0 0.1438486157393099 0.30152647742206362 0 0.13689690281295819 0.3107021111160011 0 0.14413442518050229 0.30896423601303308 0 0.14498756810271241 0.31675624504624839 0 0.14413442518050229 0.30896423601303308 0 0.1438486157393099 0.30152647742206362 0 0.15234543186566771 0.31052594846766951 0 0.14413442518050229 0.30896423601303308 0 0.15234543186566771 0.31052594846766951 0 0.14498756810271241 0.31675624504624839 0 0.13361288371219299 0.29553688310837961 0 0.1438486157393099 0.30152647742206362 0 0.15474794326086419 0.28890810970518499 0 0.15474794326086419 0.28890810970518499 0 0.16601277464182909 0.30110245510374622 0 0.17043494971319789 0.27715666130607552 0 0.15234543186566771 0.31052594846766951 0 0.15474794326086419 0.28890810970518499 0 0.16601277464182909 0.30110245510374622 0 0.15234543186566771 0.31052594846766951 0 0.16601277464182909 0.30110245510374622 0 0.1719159623687396 0.31925804073610409 0 0.16601277464182909 0.30110245510374622 0 0.1831510492375828 0.29588351162145149 0 0.1719159623687396 0.31925804073610409 0 0.1831510492375828 0.29588351162145149 0 0.19076559670234969 0.31258544761723261 0 0.1719159623687396 0.31925804073610409 0 0.16601277464182909 0.30110245510374622 0 0.1831510492375828 0.29588351162145149 0 0.17043494971319789 0.27715666130607552 0 0.1831510492375828 0.29588351162145149 0 0.1867112699209707 0.27436744387561868 0 0.17043494971319789 0.27715666130607552 0 0.1867112699209707 0.27436744387561868 0 0.17043494971319789 0.27715666130607552 0 0.17958626724909829 0.25941287732702728 0 0.17043494971319789 0.27715666130607552 0 0.15715045465606189 0.26729027094270069 0 0.16727230197340809 0.25953827837078242 0 0.15474794326086419 0.28890810970518499 0 0.17043494971319789 0.27715666130607552 0 0.15715045465606189 0.26729027094270069 0 0.15955296605125971 0.24567243218021631 0 0.15715045465606189 0.26729027094270069 0 0.16727230197340809 0.25953827837078242 0 0.15955296605125971 0.24567243218021631 0 0.15715045465606189 0.26729027094270069 0 0.17046410733038611 0.2488253452869528 0 0.15955296605125971 0.24567243218021631 0 0.16727230197340809 0.25953827837078242 0 0.17046410733038611 0.2488253452869528 0 0.16727230197340809 0.25953827837078242 0 0.17958626724909829 0.25941287732702728 0 0.17043494971319789 0.27715666130607552 0 0.16727230197340809 0.25953827837078242 0 0.17958626724909829 0.25941287732702728 0 0.18150992689844231 0.24472375079130629 0 0.17046410733038611 0.2488253452869528 0 0.17958626724909829 0.25941287732702728 0 0.18150992689844231 0.24472375079130629 0 0.17958626724909829 0.25941287732702728 0 0.19843118907173321 0.25801472716205298 0 0.1867112699209707 0.27436744387561868 0 0.17958626724909829 0.25941287732702728 0 0.19843118907173321 0.25801472716205298 0 0.19843118907173321 0.25801472716205298 0 0.20195289433324129 0.28136944196148639 0 0.1867112699209707 0.27436744387561868 0 0.19843118907173321 0.25801472716205298 0 0.20195289433324129 0.28136944196148639 0 0.19843118907173321 0.25801472716205298 0 0.2143521658521752 0.26951222748057418 0 0.20195289433324129 0.28136944196148639 0 0.2143521658521752 0.26951222748057418 0 0.22467395335312321 0.29128665659732589 0 0.20195289433324129 0.28136944196148639 0 0.19843118907173321 0.25801472716205298 0 0.2143521658521752 0.26951222748057418 0 0.21085951805693151 0.25016395609025621 0 0.2143521658521752 0.26951222748057418 0 0.21085951805693151 0.25016395609025621 0 0.2234996112477636 0.25517540761881552 0 0.20231141901844801 0.24558026983956799 0 0.19843118907173321 0.25801472716205298 0 0.21085951805693151 0.25016395609025621 0 0.238290883331362 0.24585108792167781 0 0.2234996112477636 0.25517540761881552 0 0.23148241834224301 0.26856887225950199 0 0.2143521658521752 0.26951222748057418 0 0.2234996112477636 0.25517540761881552 0 0.23148241834224301 0.26856887225950199 0 0.2143521658521752 0.26951222748057418 0 0.23148241834224301 0.26856887225950199 0 0.22467395335312321 0.29128665659732589 0 0.23148241834224301 0.26856887225950199 0 0.22467395335312321 0.29128665659732589 0 0.23148241834224301 0.26856887225950199 0 0.25017285109459653 0.26193115875581052 0 0.25592012213717008 0.27704869304388913 0 0.23148241834224301 0.26856887225950199 0 0.240900437241757 0.28885288636888667 0 0.25592012213717008 0.27704869304388913 0 0.24350543671163599 0.24719628336326219 0 0.238290883331362 0.24585108792167781 0 0.23148241834224301 0.26856887225950199 0 0.24350543671163599 0.24719628336326219 0 0.23148241834224301 0.26856887225950199 0 0.25017285109459653 0.26193115875581052 0 0.238290883331362 0.24585108792167781 0 0.23148241834224301 0.26856887225950199 0 0.2451900532588708 0.30293300231059972 0 0.240900437241757 0.28885288636888667 0 0.23422305799699439 0.30422554248419248 0 0.24312386439096981 0.31152990277025172 0 0.23422305799699439 0.30422554248419248 0 0.23318577668617391 0.31805457288938338 0 0.24312386439096981 0.31152990277025172 0 0.2451900532588708 0.30293300231059972 0 0.23422305799699439 0.30422554248419248 0 0.24312386439096981 0.31152990277025172 0 0.2451900532588708 0.30293300231059972 0 0.25119715163834849 0.30960382081239879 0 0.24312386439096981 0.31152990277025172 0 0.25062814857285259 0.31607672242524493 0 0.25119715163834849 0.30960382081239879 0 0.2451900532588708 0.30293300231059972 0 0.25332628978071192 0.29601189420571022 0 0.25119715163834849 0.30960382081239879 0 0.2451900532588708 0.30293300231059972 0 0.240900437241757 0.28885288636888667 0 0.25332628978071192 0.29601189420571022 0 0.240900437241757 0.28885288636888667 0 0.22467395335312321 0.29128665659732589 0 0.23422305799699439 0.30422554248419248 0 0.23148241834224301 0.26856887225950199 0 0.240900437241757 0.28885288636888667 0 0.22467395335312321 0.29128665659732589 0 0.23422305799699439 0.30422554248419248 0 0.2178654883640033 0.3140044409351499 0 0.23318577668617391 0.31805457288938338 0 0.22467395335312321 0.29128665659732589 0 0.2178654883640033 0.3140044409351499 0 0.22467395335312321 0.29128665659732589 0 0.23422305799699439 0.30422554248419248 0 0.2178654883640033 0.3140044409351499 0 0.22467395335312321 0.29128665659732589 0 0.2054745995947494 0.30472415676092002 0 0.2178654883640033 0.3140044409351499 0 0.22467395335312321 0.29128665659732589 0 0.2054745995947494 0.30472415676092002 0 0.20195289433324129 0.28136944196148639 0 0.2054745995947494 0.30472415676092002 0 0.20195289433324129 0.28136944196148639 0 0.1831510492375828 0.29588351162145149 0 0.1867112699209707 0.27436744387561868 0 0.20195289433324129 0.28136944196148639 0 0.1831510492375828 0.29588351162145149 0 0.2054745995947494 0.30472415676092002 0 0.20195289433324129 0.28136944196148639 0 0.1831510492375828 0.29588351162145149 0 0.2054745995947494 0.30472415676092002 0 0.19076559670234969 0.31258544761723261 0 0.2054745995947494 0.30472415676092002 0 0.19076559670234969 0.31258544761723261 0 0.20319075284131441 0.31882947301316178 0 0.19076559670234969 0.31258544761723261 0 0.19148649287181141 0.32799013300453911 0 0.20319075284131441 0.31882947301316178 0 0.19148649287181141 0.32799013300453911 0 0.21105702337488311 0.33672222527297391 0 0.20319075284131441 0.31882947301316178 0 0.19148649287181141 0.32799013300453911 0 0.21105702337488311 0.33672222527297391 0 0.19148649287181141 0.32799013300453911 0 0.21105702337488311 0.33672222527297391 0 0.1907901062755126 0.3440609991964465 0 0.21105702337488311 0.33672222527297391 0 0.2216502358530888 0.34144876596456758 0 0.20670368493522251 0.35124799635056841 0 0.21105702337488311 0.33672222527297391 0 0.2216502358530888 0.34144876596456758 0 0.21105702337488311 0.33672222527297391 0 0.2178654883640033 0.3140044409351499 0 0.22404466567045861 0.32839321417900469 0 0.21105702337488311 0.33672222527297391 0 0.2178654883640033 0.3140044409351499 0 0.21105702337488311 0.33672222527297391 0 0.20319075284131441 0.31882947301316178 0 0.2178654883640033 0.3140044409351499 0 0.2054745995947494 0.30472415676092002 0 0.20319075284131441 0.31882947301316178 0 0.2178654883640033 0.3140044409351499 0 0.2178654883640033 0.3140044409351499 0 0.23318577668617391 0.31805457288938338 0 0.22404466567045861 0.32839321417900469 0 0.23318577668617391 0.31805457288938338 0 0.22404466567045861 0.32839321417900469 0 0.23646480407414361 0.33173606583294962 0 0.21105702337488311 0.33672222527297391 0 0.22404466567045861 0.32839321417900469 0 0.2216502358530888 0.34144876596456758 0 0.2216502358530888 0.34144876596456758 0 0.23646480407414361 0.33173606583294962 0 0.2427234704606579 0.35085134342452828 0 0.2216502358530888 0.34144876596456758 0 0.23646480407414361 0.33173606583294962 0 0.22404466567045861 0.32839321417900469 0 0.2216502358530888 0.34144876596456758 0 0.23646480407414361 0.33173606583294962 0 0.23646480407414361 0.33173606583294962 0 0.2427234704606579 0.35085134342452828 0 0.25091685518631901 0.33665610235555787 0 0.23646480407414361 0.33173606583294962 0 0.25127937229519781 0.32202336570133039 0 0.25091685518631901 0.33665610235555787 0 0.23646480407414361 0.33173606583294962 0 0.25127937229519781 0.32202336570133039 0 0.23646480407414361 0.33173606583294962 0 0.24590654101098849 0.31934939568958198 0 0.25127937229519781 0.32202336570133039 0 0.24590654101098849 0.31934939568958198 0 0.25127937229519781 0.32202336570133039 0 0.24590654101098849 0.31934939568958198 0 0.25062814857285259 0.31607672242524493 0 0.25127937229519781 0.32202336570133039 0 0.24312386439096981 0.31152990277025172 0 0.24590654101098849 0.31934939568958198 0 0.25062814857285259 0.31607672242524493 0 0.24312386439096981 0.31152990277025172 0 0.23318577668617391 0.31805457288938338 0 0.24590654101098849 0.31934939568958198 0 0.23318577668617391 0.31805457288938338 0 0.23646480407414361 0.33173606583294962 0 0.24590654101098849 0.31934939568958198 0 0.23881736416136429 0.36604290917708998 0 0.25826350254482661 0.37187833445225199 0 0.23881736416136429 0.36604290917708998 0 0.25090026055876891 0.36225662698458999 0 0.25826350254482661 0.37187833445225199 0 0.23881736416136429 0.36604290917708998 0 0.24743732279899969 0.37771004397263752 0 0.25826350254482661 0.37187833445225199 0 0.23881736416136429 0.36604290917708998 0 0.24743732279899969 0.37771004397263752 0 0.2356768896086108 0.37940890262058868 0 0.23881736416136429 0.36604290917708998 0 0.2427234704606579 0.35085134342452828 0 0.25090026055876891 0.36225662698458999 0 0.23881736416136429 0.36604290917708998 0 0.2427234704606579 0.35085134342452828 0 0.2312339140472281 0.35599506862100011 0 0.2216502358530888 0.34144876596456758 0 0.2427234704606579 0.35085134342452828 0 0.2312339140472281 0.35599506862100011 0 0.2216502358530888 0.34144876596456758 0 0.2427234704606579 0.35085134342452828 0 0.2216502358530888 0.34144876596456758 0 0.2312339140472281 0.35599506862100011 0 0.21937122577790211 0.36020748390192808 0 0.23881736416136429 0.36604290917708998 0 0.2312339140472281 0.35599506862100011 0 0.21937122577790211 0.36020748390192808 0 0.23881736416136429 0.36604290917708998 0 0.21937122577790211 0.36020748390192808 0 0.23881736416136429 0.36604290917708998 0 0.21937122577790211 0.36020748390192808 0 0.2266473230624387 0.37127955583364441 0 0.21937122577790211 0.36020748390192808 0 0.2266473230624387 0.37127955583364441 0 0.21330420298277861 0.36944897428760992 0 0.23881736416136429 0.36604290917708998 0 0.2266473230624387 0.37127955583364441 0 0.2356768896086108 0.37940890262058868 0 0.2266473230624387 0.37127955583364441 0 0.21330420298277861 0.36944897428760992 0 0.21734868942100369 0.38150396193409108 0 0.20670368493522251 0.35124799635056841 0 0.20100193349661649 0.37027301296401011 0 0.21330420298277861 0.36944897428760992 0 0.20670368493522251 0.35124799635056841 0 0.20100193349661649 0.37027301296401011 0 0.21937122577790211 0.36020748390192808 0 0.21330420298277861 0.36944897428760992 0 0.20670368493522251 0.35124799635056841 0 0.21330420298277861 0.36944897428760992 0 0.20100193349661649 0.37027301296401011 0 0.21734868942100369 0.38150396193409108 0 0.2216502358530888 0.34144876596456758 0 0.21937122577790211 0.36020748390192808 0 0.20670368493522251 0.35124799635056841 0 0.2216502358530888 0.34144876596456758 0 0.20670368493522251 0.35124799635056841 0 0.21105702337488311 0.33672222527297391 0 0.20670368493522251 0.35124799635056841 0 0.20670368493522251 0.35124799635056841 0 0.1907901062755126 0.3440609991964465 0 0.18961646421295009 0.36245068875994663 0 0.21105702337488311 0.33672222527297391 0 0.20670368493522251 0.35124799635056841 0 0.1907901062755126 0.3440609991964465 0 0.20670368493522251 0.35124799635056841 0 0.18961646421295009 0.36245068875994663 0 0.20670368493522251 0.35124799635056841 0 0.20100193349661649 0.37027301296401011 0 0.18961646421295009 0.36245068875994663 0 0.20100193349661649 0.37027301296401011 0 0.18961646421295009 0.36245068875994663 0 0.18973711848704861 0.36879737417794423 0 0.20100193349661649 0.37027301296401011 0 0.18961646421295009 0.36245068875994663 0 0.18961646421295009 0.36245068875994663 0 0.18785187552839491 0.36360758516711777 0 0.18961646421295009 0.36245068875994663 0 0.18785187552839491 0.36360758516711777 0 0.18973711848704861 0.36879737417794423 0 0.20100193349661649 0.37027301296401011 0 0.18973711848704861 0.36879737417794423 0 0.18995128245420009 0.37645619515370471 0 0.18973711848704861 0.36879737417794423 0 0.1802640367430822 0.37119938884494041 0 0.18995128245420009 0.37645619515370471 0 0.18785187552839491 0.36360758516711777 0 0.1802640367430822 0.37119938884494041 0 0.1714224254065185 0.36511361120460162 0 0.18785187552839491 0.36360758516711777 0 0.18973711848704861 0.36879737417794423 0 0.1802640367430822 0.37119938884494041 0 0.1802640367430822 0.37119938884494041 0 0.1714224254065185 0.36511361120460162 0 0.17442478358972119 0.38085303053924352 0 0.15680880048190121 0.3642179743938907 0 0.1552169016447898 0.38522110292155931 0 0.16371433199633201 0.3751020394672307 0 0.1714224254065185 0.36511361120460162 0 0.16371433199633201 0.3751020394672307 0 0.17442478358972119 0.38085303053924352 0 0.1714224254065185 0.36511361120460162 0 0.15680880048190121 0.3642179743938907 0 0.16371433199633201 0.3751020394672307 0 0.1714224254065185 0.36511361120460162 0 0.15680880048190121 0.3642179743938907 0 0.16962226376375211 0.34871378304108958 0 0.16962226376375211 0.34871378304108958 0 0.149293501089898 0.33798727396094341 0 0.15481722280241311 0.35021779482322662 0 0.15680880048190121 0.3642179743938907 0 0.16962226376375211 0.34871378304108958 0 0.15481722280241311 0.35021779482322662 0 0.18961646421295009 0.36245068875994663 0 0.16962226376375211 0.34871378304108958 0 0.18785187552839491 0.36360758516711777 0 0.1714224254065185 0.36511361120460162 0 0.16962226376375211 0.34871378304108958 0 0.1907901062755126 0.3440609991964465 0 0.18961646421295009 0.36245068875994663 0 0.16962226376375211 0.34871378304108958 0 0.18961646421295009 0.36245068875994663 0 0.18785187552839491 0.36360758516711777 0 0.16962226376375211 0.34871378304108958 0 0.1907901062755126 0.3440609991964465 0 0.16962226376375211 0.34871378304108958 0 0.17531072525634461 0.33484588465775639 0 0.19148649287181141 0.32799013300453911 0 0.1907901062755126 0.3440609991964465 0 0.17531072525634461 0.33484588465775639 0 0.19148649287181141 0.32799013300453911 0 0.17531072525634461 0.33484588465775639 0 0.1719159623687396 0.31925804073610409 0 0.19076559670234969 0.31258544761723261 0 0.19148649287181141 0.32799013300453911 0 0.1719159623687396 0.31925804073610409 0 0.19148649287181141 0.32799013300453911 0 0.1719159623687396 0.31925804073610409 0 0.15234543186566771 0.31052594846766951 0 0.1719159623687396 0.31925804073610409 0 0.14962806331455369 0.33497687732223319 0 0.15234543186566771 0.31052594846766951 0 0.1719159623687396 0.31925804073610409 0 0.17531072525634461 0.33484588465775639 0 0.1719159623687396 0.31925804073610409 0 0.14962806331455369 0.33497687732223319 0 0.16962226376375211 0.34871378304108958 0 0.17531072525634461 0.33484588465775639 0 0.14962806331455369 0.33497687732223319 0 0.16962226376375211 0.34871378304108958 0 0.14962806331455369 0.33497687732223319 0 0.16962226376375211 0.34871378304108958 0 0.149293501089898 0.33798727396094341 0 0.14962806331455369 0.33497687732223319 0 0.149293501089898 0.33798727396094341 0 0.14962806331455369 0.33497687732223319 0 0.14962806331455369 0.33497687732223319 0 0.13543661541973259 0.32522672090859739 0 0.14962806331455369 0.33497687732223319 0 0.13543661541973259 0.32522672090859739 0 0.13851746448362931 0.3387013925857737 0 0.149293501089898 0.33798727396094341 0 0.14962806331455369 0.33497687732223319 0 0.13851746448362931 0.3387013925857737 0 0.149293501089898 0.33798727396094341 0 0.13851746448362931 0.3387013925857737 0 0.14589976567174681 0.34435647325735669 0 0.15234543186566771 0.31052594846766951 0 0.14962806331455369 0.33497687732223319 0 0.14498756810271241 0.31675624504624839 0 0.15234543186566771 0.31052594846766951 0 0.14962806331455369 0.33497687732223319 0 0.14962806331455369 0.33497687732223319 0 0.14498756810271241 0.31675624504624839 0 0.13543661541973259 0.32522672090859739 0 0.1211201254923354 0.33160404587602982 0 0.12124516752491089 0.31547656449496259 0 0.13543661541973259 0.32522672090859739 0 0.12124516752491089 0.31547656449496259 0 0.13689690281295819 0.3107021111160011 0 0.13543661541973259 0.32522672090859739 0 0.13689690281295819 0.3107021111160011 0 0.14498756810271241 0.31675624504624839 0 0.13543661541973259 0.32522672090859739 0 0.12124516752491089 0.31547656449496259 0 0.13543661541973259 0.32522672090859739 0 0.1211201254923354 0.33160404587602982 0 0.13851746448362931 0.3387013925857737 0 0.12814812946445209 0.34701108380136542 0 0.1211201254923354 0.33160404587602982 0 0.13543661541973259 0.32522672090859739 0 0.13851746448362931 0.3387013925857737 0 0.13122650151246201 0.35990526461923089 0 0.1441299140446575 0.36724798781989471 0 0.1409708743110471 0.35051943165948352 0 0.13851746448362931 0.3387013925857737 0 0.12814812946445209 0.34701108380136542 0 0.1409708743110471 0.35051943165948352 0 0.12814812946445209 0.34701108380136542 0 0.13122650151246201 0.35990526461923089 0 0.1409708743110471 0.35051943165948352 0 0.1164066501743634 0.35979564188260582 0 0.12814812946445209 0.34701108380136542 0 0.13122650151246201 0.35990526461923089 0 0.13122650151246201 0.35990526461923089 0 0.12647693956778991 0.37495217793280539 0 0.1441299140446575 0.36724798781989471 0 0.15680880048190121 0.3642179743938907 0 0.1441299140446575 0.36724798781989471 0 0.1552169016447898 0.38522110292155931 0 0.15680880048190121 0.3642179743938907 0 0.1441299140446575 0.36724798781989471 0 0.15481722280241311 0.35021779482322662 0 0.1441299140446575 0.36724798781989471 0 0.15481722280241311 0.35021779482322662 0 0.1409708743110471 0.35051943165948352 0 0.149293501089898 0.33798727396094341 0 0.15481722280241311 0.35021779482322662 0 0.14589976567174681 0.34435647325735669 0 0.15481722280241311 0.35021779482322662 0 0.14589976567174681 0.34435647325735669 0 0.1409708743110471 0.35051943165948352 0 0.13851746448362931 0.3387013925857737 0 0.14589976567174681 0.34435647325735669 0 0.1409708743110471 0.35051943165948352 0 0.1552169016447898 0.38522110292155931 0 0.13746456314666999 0.39014184591583267 0 0.15525635713898839 0.40945029815711498 0 0.13746456314666999 0.39014184591583267 0 0.1340221399217506 0.40832856167723303 0 0.15525635713898839 0.40945029815711498 0 0.1441299140446575 0.36724798781989471 0 0.1552169016447898 0.38522110292155931 0 0.13746456314666999 0.39014184591583267 0 0.12647693956778991 0.37495217793280539 0 0.1441299140446575 0.36724798781989471 0 0.13746456314666999 0.39014184591583267 0 0.11877252821799281 0.39709376327906221 0 0.12647693956778991 0.37495217793280539 0 0.13746456314666999 0.39014184591583267 0 0.11877252821799281 0.39709376327906221 0 0.13746456314666999 0.39014184591583267 0 0.1340221399217506 0.40832856167723303 0 0.13287700130056249 0.42774096975831211 0 0.16015493344626081 0.42992152724533822 0 0.14702223803426639 0.44229564507294428 0 0.13287700130056249 0.42774096975831211 0 0.16015493344626081 0.42992152724533822 0 0.13287700130056249 0.42774096975831211 0 0.15525635713898839 0.40945029815711498 0 0.16015493344626081 0.42992152724533822 0 0.1340221399217506 0.40832856167723303 0 0.13287700130056249 0.42774096975831211 0 0.15525635713898839 0.40945029815711498 0 0.15525635713898839 0.40945029815711498 0 0.171525582304701 0.42196686678893719 0 0.1769442651480044 0.41204192620943569 0 0.15525635713898839 0.40945029815711498 0 0.16015493344626081 0.42992152724533822 0 0.171525582304701 0.42196686678893719 0 0.16015493344626081 0.42992152724533822 0 0.1874328655919591 0.43210208473236589 0 0.16720119077785811 0.44568166778589402 0 0.16015493344626081 0.42992152724533822 0 0.1874328655919591 0.43210208473236589 0 0.16015493344626081 0.42992152724533822 0 0.171525582304701 0.42196686678893719 0 0.1874328655919591 0.43210208473236589 0 0.171525582304701 0.42196686678893719 0 0.1874328655919591 0.43210208473236589 0 0.1810524402594568 0.42144907173235419 0 0.1874328655919591 0.43210208473236589 0 0.1810524402594568 0.42144907173235419 0 0.18991352302374509 0.41725069626463951 0 0.1769442651480044 0.41204192620943569 0 0.19182165575693941 0.4009048176637009 0 0.18991352302374509 0.41725069626463951 0 0.171525582304701 0.42196686678893719 0 0.1769442651480044 0.41204192620943569 0 0.1810524402594568 0.42144907173235419 0 0.1769442651480044 0.41204192620943569 0 0.1810524402594568 0.42144907173235419 0 0.18991352302374509 0.41725069626463951 0 0.1769442651480044 0.41204192620943569 0 0.17318843923003949 0.3956224436374719 0 0.19182165575693941 0.4009048176637009 0 0.17318843923003949 0.3956224436374719 0 0.184343665400127 0.38510413185881948 0 0.19182165575693941 0.4009048176637009 0 0.1552169016447898 0.38522110292155931 0 0.15525635713898839 0.40945029815711498 0 0.17318843923003949 0.3956224436374719 0 0.15525635713898839 0.40945029815711498 0 0.1769442651480044 0.41204192620943569 0 0.17318843923003949 0.3956224436374719 0 0.1552169016447898 0.38522110292155931 0 0.17318843923003949 0.3956224436374719 0 0.17442478358972119 0.38085303053924352 0 0.1552169016447898 0.38522110292155931 0 0.16371433199633201 0.3751020394672307 0 0.17442478358972119 0.38085303053924352 0 0.1802640367430822 0.37119938884494041 0 0.17442478358972119 0.38085303053924352 0 0.184343665400127 0.38510413185881948 0 0.17318843923003949 0.3956224436374719 0 0.17442478358972119 0.38085303053924352 0 0.184343665400127 0.38510413185881948 0 0.1802640367430822 0.37119938884494041 0 0.184343665400127 0.38510413185881948 0 0.18995128245420009 0.37645619515370471 0 0.184343665400127 0.38510413185881948 0 0.19641179462677971 0.38558891531385608 0 0.19182165575693941 0.4009048176637009 0 0.184343665400127 0.38510413185881948 0 0.18995128245420009 0.37645619515370471 0 0.19641179462677971 0.38558891531385608 0 0.20100193349661649 0.37027301296401011 0 0.18995128245420009 0.37645619515370471 0 0.19641179462677971 0.38558891531385608 0 0.20100193349661649 0.37027301296401011 0 0.19641179462677971 0.38558891531385608 0 0.19641179462677971 0.38558891531385608 0 0.19182165575693941 0.4009048176637009 0 0.212914702383071 0.40230814475736809 0 0.19182165575693941 0.4009048176637009 0 0.212914702383071 0.40230814475736809 0 0.2004114528269538 0.40971224953384677 0 0.19641179462677971 0.38558891531385608 0 0.19182165575693941 0.4009048176637009 0 0.20100193349661649 0.37027301296401011 0 0.19641179462677971 0.38558891531385608 0 0.21734868942100369 0.38150396193409108 0 0.20100193349661649 0.37027301296401011 0 0.21734868942100369 0.38150396193409108 0 0.19641179462677971 0.38558891531385608 0 0.212914702383071 0.40230814475736809 0 0.21734868942100369 0.38150396193409108 0 0.21734868942100369 0.38150396193409108 0 0.23369544534539169 0.39273491090417112 0 0.2356768896086108 0.37940890262058868 0 0.21734868942100369 0.38150396193409108 0 0.23369544534539169 0.39273491090417112 0 0.2266473230624387 0.37127955583364441 0 0.21734868942100369 0.38150396193409108 0 0.2356768896086108 0.37940890262058868 0 0.212914702383071 0.40230814475736809 0 0.23369544534539169 0.39273491090417112 0 0.23867035411186291 0.40677331291725999 0 0.212914702383071 0.40230814475736809 0 0.21734868942100369 0.38150396193409108 0 0.23369544534539169 0.39273491090417112 0 0.24707603341931819 0.38989185815968808 0 0.23867035411186291 0.40677331291725999 0 0.2545602566807334 0.40255158564006621 0 0.23369544534539169 0.39273491090417112 0 0.24707603341931819 0.38989185815968808 0 0.23867035411186291 0.40677331291725999 0 0.24707603341931819 0.38989185815968808 0 0.24743732279899969 0.37771004397263752 0 0.2356768896086108 0.37940890262058868 0 0.23369544534539169 0.39273491090417112 0 0.24707603341931819 0.38989185815968808 0 0.2356768896086108 0.37940890262058868 0 0.22829997568438759 0.4183371053477617 0 0.22825982224432639 0.43359333204062023 0 0.25072187542427599 0.41841337150093699 0 0.22825982224432639 0.43359333204062023 0 0.24008386025296621 0.44385981136919961 0 0.25072187542427599 0.41841337150093699 0 0.23867035411186291 0.40677331291725999 0 0.22829997568438759 0.4183371053477617 0 0.25072187542427599 0.41841337150093699 0 0.23867035411186291 0.40677331291725999 0 0.25072187542427599 0.41841337150093699 0 0.2545602566807334 0.40255158564006621 0 0.212914702383071 0.40230814475736809 0 0.22829997568438759 0.4183371053477617 0 0.21648342316311761 0.42477478465058438 0 0.212914702383071 0.40230814475736809 0 0.23867035411186291 0.40677331291725999 0 0.22829997568438759 0.4183371053477617 0 0.22829997568438759 0.4183371053477617 0 0.22825982224432639 0.43359333204062023 0 0.21648342316311761 0.42477478465058438 0 0.22825982224432639 0.43359333204062023 0 0.21648342316311761 0.42477478465058438 0 0.21413468225451779 0.43799874492511048 0 0.21648342316311761 0.42477478465058438 0 0.20616905589171569 0.43158496356403192 0 0.21413468225451779 0.43799874492511048 0 0.21648342316311761 0.42477478465058438 0 0.20616905589171569 0.43158496356403192 0 0.20459776321613601 0.42058093509772132 0 0.20616905589171569 0.43158496356403192 0 0.20262846690521449 0.44275468971523418 0 0.21413468225451779 0.43799874492511048 0 0.212914702383071 0.40230814475736809 0 0.20459776321613601 0.42058093509772132 0 0.2004114528269538 0.40971224953384677 0 0.212914702383071 0.40230814475736809 0 0.21648342316311761 0.42477478465058438 0 0.20459776321613601 0.42058093509772132 0 0.19182165575693941 0.4009048176637009 0 0.2004114528269538 0.40971224953384677 0 0.18991352302374509 0.41725069626463951 0 0.20459776321613601 0.42058093509772132 0 0.2004114528269538 0.40971224953384677 0 0.18991352302374509 0.41725069626463951 0 0.1874328655919591 0.43210208473236589 0 0.20459776321613601 0.42058093509772132 0 0.1874328655919591 0.43210208473236589 0 0.20459776321613601 0.42058093509772132 0 0.18991352302374509 0.41725069626463951 0 0.1874328655919591 0.43210208473236589 0 0.20459776321613601 0.42058093509772132 0 0.194958247363058 0.4327036526032737 0 0.20616905589171569 0.43158496356403192 0 0.194958247363058 0.4327036526032737 0 0.20262846690521449 0.44275468971523418 0 0.20616905589171569 0.43158496356403192 0 0.20459776321613601 0.42058093509772132 0 0.194958247363058 0.4327036526032737 0 0.1874328655919591 0.43210208473236589 0 0.194958247363058 0.4327036526032737 0 0.19042438880598 0.44204987845412902 0 0.1874328655919591 0.43210208473236589 0 0.194958247363058 0.4327036526032737 0 0.19042438880598 0.44204987845412902 0 0.1930190812625967 0.45438018138154362 0 0.18220828478716519 0.44738759532884981 0 0.19042438880598 0.44204987845412902 0 0.20262846690521449 0.44275468971523418 0 0.1930190812625967 0.45438018138154362 0 0.194958247363058 0.4327036526032737 0 0.19042438880598 0.44204987845412902 0 0.20262846690521449 0.44275468971523418 0 0.1930190812625967 0.45438018138154362 0 0.2174731174041411 0.45799571510743509 0 0.19486237455531591 0.47213161884567062 0 0.2174731174041411 0.45799571510743509 0 0.19486237455531591 0.47213161884567062 0 0.20262846690521449 0.44275468971523418 0 0.1930190812625967 0.45438018138154362 0 0.2174731174041411 0.45799571510743509 0 0.20262846690521449 0.44275468971523418 0 0.2174731174041411 0.45799571510743509 0 0.21413468225451779 0.43799874492511048 0 0.22825982224432639 0.43359333204062023 0 0.2174731174041411 0.45799571510743509 0 0.24008386025296621 0.44385981136919961 0 0.22825982224432639 0.43359333204062023 0 0.2174731174041411 0.45799571510743509 0 0.21413468225451779 0.43799874492511048 0 0.2174731174041411 0.45799571510743509 0 0.24008386025296621 0.44385981136919961 0 0.2174731174041411 0.45799571510743509 0 0.24008386025296621 0.44385981136919961 0 0.24147802078266481 0.47425253087327301 0 0.24008386025296621 0.44385981136919961 0 0.24147802078266481 0.47425253087327301 0 0.25706575433744788 0.45905753389039228 0 0.24147802078266481 0.47425253087327301 0 0.2315244669098363 0.5 0 0.26057446198751361 0.5 0 0.2174731174041411 0.45799571510743509 0 0.24147802078266481 0.47425253087327301 0 0.21287335511097841 0.4821616222324927 0 0.24147802078266481 0.47425253087327301 0 0.2315244669098363 0.5 0 0.21287335511097841 0.4821616222324927 0 0.2315244669098363 0.5 0 0.21287335511097841 0.4821616222324927 0 0.202474471832159 0.5 0 0.2174731174041411 0.45799571510743509 0 0.21287335511097841 0.4821616222324927 0 0.19486237455531591 0.47213161884567062 0 0.21287335511097841 0.4821616222324927 0 0.19486237455531591 0.47213161884567062 0 0.1894276791817536 0.48858986856857778 0 0.21287335511097841 0.4821616222324927 0 0.1894276791817536 0.48858986856857778 0 0.202474471832159 0.5 0 0.1894276791817536 0.48858986856857778 0 0.202474471832159 0.5 0 0.17342447675448169 0.5 0 0.1894276791817536 0.48858986856857778 0 0.17225163170649091 0.48626752258390599 0 0.17342447675448169 0.5 0 0.17342447675448169 0.5 0 0.1579163416355287 0.4889986208083687 0 0.1443744816768045 0.5 0 0.17225163170649091 0.48626752258390599 0 0.17342447675448169 0.5 0 0.1579163416355287 0.4889986208083687 0 0.17225163170649091 0.48626752258390599 0 0.15791672866413431 0.47596160335139548 0 0.17296389749743221 0.46272416429031632 0 0.17225163170649091 0.48626752258390599 0 0.1579163416355287 0.4889986208083687 0 0.15791672866413431 0.47596160335139548 0 0.19486237455531591 0.47213161884567062 0 0.17225163170649091 0.48626752258390599 0 0.19486237455531591 0.47213161884567062 0 0.17225163170649091 0.48626752258390599 0 0.17296389749743221 0.46272416429031632 0 0.19486237455531591 0.47213161884567062 0 0.1894276791817536 0.48858986856857778 0 0.17225163170649091 0.48626752258390599 0 0.1930190812625967 0.45438018138154362 0 0.19486237455531591 0.47213161884567062 0 0.17296389749743221 0.46272416429031632 0 0.1930190812625967 0.45438018138154362 0 0.17296389749743221 0.46272416429031632 0 0.18220828478716519 0.44738759532884981 0 0.1874328655919591 0.43210208473236589 0 0.16720119077785811 0.44568166778589402 0 0.1874328655919591 0.43210208473236589 0 0.18220828478716519 0.44738759532884981 0 0.16720119077785811 0.44568166778589402 0 0.17296389749743221 0.46272416429031632 0 0.18220828478716519 0.44738759532884981 0 0.16720119077785811 0.44568166778589402 0 0.1874328655919591 0.43210208473236589 0 0.19042438880598 0.44204987845412902 0 0.18220828478716519 0.44738759532884981 0 0.16720119077785811 0.44568166778589402 0 0.1469695159637561 0.45926125083942038 0 0.16015493344626081 0.42992152724533822 0 0.16720119077785811 0.44568166778589402 0 0.14702223803426639 0.44229564507294428 0 0.15791672866413431 0.47596160335139548 0 0.17296389749743221 0.46272416429031632 0 0.1469695159637561 0.45926125083942038 0 0.17296389749743221 0.46272416429031632 0 0.16720119077785811 0.44568166778589402 0 0.1469695159637561 0.45926125083942038 0 0.16720119077785811 0.44568166778589402 0 0.1469695159637561 0.45926125083942038 0 0.14702223803426639 0.44229564507294428 0 0.1469695159637561 0.45926125083942038 0 0.14702223803426639 0.44229564507294428 0 0.1279085486828945 0.44887280973575688 0 0.13287700130056249 0.42774096975831211 0 0.14702223803426639 0.44229564507294428 0 0.1279085486828945 0.44887280973575688 0 0.1469695159637561 0.45926125083942038 0 0.1279085486828945 0.44887280973575688 0 0.126737841149654 0.47284083389294679 0 0.1469695159637561 0.45926125083942038 0 0.126737841149654 0.47284083389294679 0 0.1469695159637561 0.45926125083942038 0 0.126737841149654 0.47284083389294679 0 0.14229101995535201 0.48208877682143919 0 0.126737841149654 0.47284083389294679 0 0.12691147302737399 0.48840504578919242 0 0.14229101995535201 0.48208877682143919 0 0.1153244865991272 0.5 0 0.12691147302737399 0.48840504578919242 0 0.1443744816768045 0.5 0 0.12691147302737399 0.48840504578919242 0 0.1443744816768045 0.5 0 0.14229101995535201 0.48208877682143919 0 0.1579163416355287 0.4889986208083687 0 0.1443744816768045 0.5 0 0.14229101995535201 0.48208877682143919 0 0.15791672866413431 0.47596160335139548 0 0.1469695159637561 0.45926125083942038 0 0.14229101995535201 0.48208877682143919 0 0.1579163416355287 0.4889986208083687 0 0.15791672866413431 0.47596160335139548 0 0.14229101995535201 0.48208877682143919 0 0.35635260993566009 0.48364816525684218 0 0.35729043938940619 0.47040219462672073 0 0.34579576866564449 0.47900408039317638 0 0.35729043938940619 0.47040219462672073 0 0.34579576866564449 0.47900408039317638 0 0.34788376397380488 0.46730374863238111 0 0.35635260993566009 0.48364816525684218 0 0.34579576866564449 0.47900408039317638 0 0.34813573674858261 0.5 0 0.35635260993566009 0.48364816525684218 0 0.34813573674858261 0.5 0 0.36376982165809091 0.4905077703464884 0 0.34813573674858261 0.5 0 0.36376982165809091 0.4905077703464884 0 0.37512085628467218 0.50000000000000067 0 0.36376982165809091 0.4905077703464884 0 0.37493664495074103 0.48476860937315691 0 0.37512085628467218 0.50000000000000067 0 0.36376982165809091 0.4905077703464884 0 0.37493664495074103 0.48476860937315691 0 0.36677128321657598 0.47832678091782538 0 0.37493664495074103 0.48476860937315691 0 0.36677128321657598 0.47832678091782538 0 0.37993922703666222 0.4709906204050256 0 0.35635260993566009 0.48364816525684218 0 0.35729043938940619 0.47040219462672073 0 0.36677128321657598 0.47832678091782538 0 0.35635260993566009 0.48364816525684218 0 0.36376982165809091 0.4905077703464884 0 0.36677128321657598 0.47832678091782538 0 0.35729043938940619 0.47040219462672073 0 0.36677128321657598 0.47832678091782538 0 0.36694470288014491 0.4685526619794762 0 0.36677128321657598 0.47832678091782538 0 0.36694470288014491 0.4685526619794762 0 0.37993922703666222 0.4709906204050256 0 0.37137175589408811 0.45998800703180548 0 0.36110733194285832 0.46132585970022533 0 0.36703870231399438 0.44482468444833573 0 0.37137175589408811 0.45998800703180548 0 0.36703870231399438 0.44482468444833573 0 0.38474803210756098 0.45467908978732807 0 0.37137175589408811 0.45998800703180548 0 0.36694470288014491 0.4685526619794762 0 0.37993922703666222 0.4709906204050256 0 0.36110733194285832 0.46132585970022533 0 0.36703870231399438 0.44482468444833573 0 0.35087735377172008 0.45907021989826019 0 0.35729043938940619 0.47040219462672073 0 0.36110733194285832 0.46132585970022533 0 0.36694470288014491 0.4685526619794762 0 0.37137175589408811 0.45998800703180548 0 0.36110733194285832 0.46132585970022533 0 0.36694470288014491 0.4685526619794762 0 0.36703870231399438 0.44482468444833573 0 0.35273431360378682 0.44024253179064071 0 0.36461484244926301 0.42905914892343239 0 0.36703870231399438 0.44482468444833573 0 0.3487707343060179 0.45865611816036178 0 0.35273431360378682 0.44024253179064071 0 0.3487707343060179 0.45865611816036178 0 0.33932427437310592 0.44154766031052328 0 0.36703870231399438 0.44482468444833573 0 0.35273431360378682 0.44024253179064071 0 0.3487707343060179 0.45865611816036178 0 0.36703870231399438 0.44482468444833573 0 0.35087735377172008 0.45907021989826019 0 0.3487707343060179 0.45865611816036178 0 0.35729043938940619 0.47040219462672073 0 0.35428972226944733 0.46452550571439682 0 0.34788376397380488 0.46730374863238111 0 0.36110733194285832 0.46132585970022533 0 0.35428972226944733 0.46452550571439682 0 0.35087735377172008 0.45907021989826019 0 0.35729043938940619 0.47040219462672073 0 0.36110733194285832 0.46132585970022533 0 0.35428972226944733 0.46452550571439682 0 0.35087735377172008 0.45907021989826019 0 0.3487707343060179 0.45865611816036178 0 0.35428972226944733 0.46452550571439682 0 0.35087735377172008 0.45907021989826019 0 0.34788376397380488 0.46730374863238111 0 0.35087735377172008 0.45907021989826019 0 0.3487707343060179 0.45865611816036178 0 0.34788376397380488 0.46730374863238111 0 0.3487707343060179 0.45865611816036178 0 0.32831589898595148 0.46230356954229113 0 0.32367372023954921 0.45372275581840787 0 0.3487707343060179 0.45865611816036178 0 0.34788376397380488 0.46730374863238111 0 0.33056898876281171 0.4724374121069041 0 0.3487707343060179 0.45865611816036178 0 0.33056898876281171 0.4724374121069041 0 0.3487707343060179 0.45865611816036178 0 0.32831589898595148 0.46230356954229113 0 0.33056898876281171 0.4724374121069041 0 0.3487707343060179 0.45865611816036178 0 0.32367372023954921 0.45372275581840787 0 0.32563571712460743 0.45332384300602291 0 0.3487707343060179 0.45865611816036178 0 0.32367372023954921 0.45372275581840787 0 0.3487707343060179 0.45865611816036178 0 0.33932427437310592 0.44154766031052328 0 0.32563571712460743 0.45332384300602291 0 0.33932427437310592 0.44154766031052328 0 0.32563571712460743 0.45332384300602291 0 0.32323118670384438 0.42519094529766788 0 0.32563571712460743 0.45332384300602291 0 0.32323118670384438 0.42519094529766788 0 0.31341400070587849 0.43961254877397399 0 0.32563571712460743 0.45332384300602291 0 0.32323118670384438 0.42519094529766788 0 0.31341400070587849 0.43961254877397399 0 0.32367372023954921 0.45372275581840787 0 0.32563571712460743 0.45332384300602291 0 0.32831589898595148 0.46230356954229113 0 0.32089721008983352 0.4604128531444831 0 0.31870058706803112 0.46765909012522527 0 0.32831589898595148 0.46230356954229113 0 0.31870058706803112 0.46765909012522527 0 0.33056898876281171 0.4724374121069041 0 0.32831589898595148 0.46230356954229113 0 0.32367372023954921 0.45372275581840787 0 0.32089721008983352 0.4604128531444831 0 0.32367372023954921 0.45372275581840787 0 0.32089721008983352 0.4604128531444831 0 0.31289863406580248 0.45796599709200819 0 0.32089721008983352 0.4604128531444831 0 0.31289863406580248 0.45796599709200819 0 0.31870058706803112 0.46765909012522527 0 0.31870058706803112 0.46765909012522527 0 0.33056898876281171 0.4724374121069041 0 0.31236724321960629 0.48621870605344769 0 0.33056898876281171 0.4724374121069041 0 0.31236724321960629 0.48621870605344769 0 0.33056898876281171 0.4724374121069041 0 0.33160367092182758 0.48753203971070558 0 0.31236724321960629 0.48621870605344769 0 0.34579576866564449 0.47900408039317638 0 0.34788376397380488 0.46730374863238111 0 0.33056898876281171 0.4724374121069041 0 0.34579576866564449 0.47900408039317638 0 0.33056898876281171 0.4724374121069041 0 0.33160367092182758 0.48753203971070558 0 0.34813573674858261 0.5 0 0.33160367092182758 0.48753203971070558 0 0.32115061721249311 0.5 0 0.34579576866564449 0.47900408039317638 0 0.34813573674858261 0.5 0 0.33160367092182758 0.48753203971070558 0 0.33160367092182758 0.48753203971070558 0 0.32115061721249311 0.5 0 0.31236724321960629 0.48621870605344769 0 0.31236724321960629 0.48621870605344769 0 0.29416549767640349 0.49999999999999473 0 0.32115061721249311 0.5 0 0.31236724321960629 0.48621870605344769 0 0.29416549767640349 0.49999999999999473 0 0.31236724321960629 0.48621870605344769 0 0.29789921359352811 0.48636894608901837 0 0.29416549767640349 0.49999999999999473 0 0.31870058706803112 0.46765909012522527 0 0.31236724321960629 0.48621870605344769 0 0.3055975686562592 0.46903726890839659 0 0.29789921359352811 0.48636894608901837 0 0.3055975686562592 0.46903726890839659 0 0.28774130135018339 0.4765887554832563 0 0.31236724321960629 0.48621870605344769 0 0.29789921359352811 0.48636894608901837 0 0.3055975686562592 0.46903726890839659 0 0.3055975686562592 0.46903726890839659 0 0.28774130135018339 0.4765887554832563 0 0.29636052401896029 0.46084605938349882 0 0.28774130135018339 0.4765887554832563 0 0.2896244570651908 0.49999999999999889 0 0.27595167118224673 0.48817931876203402 0 0.28774130135018339 0.4765887554832563 0 0.2896244570651908 0.49999999999999889 0 0.29789921359352811 0.48636894608901837 0 0.28774130135018339 0.4765887554832563 0 0.2896244570651908 0.49999999999999889 0 0.29789921359352811 0.48636894608901837 0 0.29416549767640349 0.49999999999999473 0 0.2896244570651908 0.49999999999999889 0 0.2896244570651908 0.49999999999999889 0 0.27595167118224673 0.48817931876203402 0 0.26057446198751361 0.5 0 0.27595167118224673 0.48817931876203402 0 0.26586646432609901 0.4761285195648795 0 0.26057446198751361 0.5 0 0.28774130135018339 0.4765887554832563 0 0.26586646432609901 0.4761285195648795 0 0.27151772497913151 0.45553197696664832 0 0.28774130135018339 0.4765887554832563 0 0.27595167118224673 0.48817931876203402 0 0.26586646432609901 0.4761285195648795 0 0.24147802078266481 0.47425253087327301 0 0.26586646432609901 0.4761285195648795 0 0.26057446198751361 0.5 0 0.24147802078266481 0.47425253087327301 0 0.26586646432609901 0.4761285195648795 0 0.25706575433744788 0.45905753389039228 0 0.24008386025296621 0.44385981136919961 0 0.25731507153823169 0.44561784726221693 0 0.2596898461517933 0.43064111231056901 0 0.24008386025296621 0.44385981136919961 0 0.25731507153823169 0.44561784726221693 0 0.25706575433744788 0.45905753389039228 0 0.25731507153823169 0.44561784726221693 0 0.25706575433744788 0.45905753389039228 0 0.2663215488964592 0.44689039713472167 0 0.26492286062142328 0.43837567048537912 0 0.25731507153823169 0.44561784726221693 0 0.2596898461517933 0.43064111231056901 0 0.26492286062142328 0.43837567048537912 0 0.25731507153823169 0.44561784726221693 0 0.2663215488964592 0.44689039713472167 0 0.26586646432609901 0.4761285195648795 0 0.25706575433744788 0.45905753389039228 0 0.27151772497913151 0.45553197696664832 0 0.25706575433744788 0.45905753389039228 0 0.27151772497913151 0.45553197696664832 0 0.2663215488964592 0.44689039713472167 0 0.27151772497913151 0.45553197696664832 0 0.2663215488964592 0.44689039713472167 0 0.27290680442103521 0.43807442640229571 0 0.27151772497913151 0.45553197696664832 0 0.27290680442103521 0.43807442640229571 0 0.27347969210661272 0.44385603113449562 0 0.27151772497913151 0.45553197696664832 0 0.27290680442103521 0.43807442640229571 0 0.27151772497913151 0.45553197696664832 0 0.27347969210661272 0.44385603113449562 0 0.28585814563517581 0.45317751096651371 0 0.26492286062142328 0.43837567048537912 0 0.2663215488964592 0.44689039713472167 0 0.27290680442103521 0.43807442640229571 0 0.27290680442103521 0.43807442640229571 0 0.27347969210661272 0.44385603113449562 0 0.28352885314015469 0.44007981201778629 0 0.27347969210661272 0.44385603113449562 0 0.29857670617308091 0.44878939347645169 0 0.27347969210661272 0.44385603113449562 0 0.28585814563517581 0.45317751096651371 0 0.29857670617308091 0.44878939347645169 0 0.27347969210661272 0.44385603113449562 0 0.28352885314015469 0.44007981201778629 0 0.29857670617308091 0.44878939347645169 0 0.28352885314015469 0.44007981201778629 0 0.28985334349492953 0.4387187526780455 0 0.29857670617308091 0.44878939347645169 0 0.28985334349492953 0.4387187526780455 0 0.29857670617308091 0.44878939347645169 0 0.29981043769597088 0.43585488228792352 0 0.28774130135018339 0.4765887554832563 0 0.28585814563517581 0.45317751096651371 0 0.28774130135018339 0.4765887554832563 0 0.28585814563517581 0.45317751096651371 0 0.29636052401896029 0.46084605938349882 0 0.28774130135018339 0.4765887554832563 0 0.27151772497913151 0.45553197696664832 0 0.28585814563517581 0.45317751096651371 0 0.28585814563517581 0.45317751096651371 0 0.29636052401896029 0.46084605938349882 0 0.29857670617308091 0.44878939347645169 0 0.32367372023954921 0.45372275581840787 0 0.31289863406580248 0.45796599709200819 0 0.29857670617308091 0.44878939347645169 0 0.3055975686562592 0.46903726890839659 0 0.29636052401896029 0.46084605938349882 0 0.30335835822852569 0.45915967971508892 0 0.29636052401896029 0.46084605938349882 0 0.30335835822852569 0.45915967971508892 0 0.29857670617308091 0.44878939347645169 0 0.31289863406580248 0.45796599709200819 0 0.30335835822852569 0.45915967971508892 0 0.29857670617308091 0.44878939347645169 0 0.31289863406580248 0.45796599709200819 0 0.3055975686562592 0.46903726890839659 0 0.30335835822852569 0.45915967971508892 0 0.31289863406580248 0.45796599709200819 0 0.31870058706803112 0.46765909012522527 0 0.3055975686562592 0.46903726890839659 0 0.31341400070587849 0.43961254877397399 0 0.32367372023954921 0.45372275581840787 0 0.29857670617308091 0.44878939347645169 0 0.32367372023954921 0.45372275581840787 0 0.29857670617308091 0.44878939347645169 0 0.31341400070587849 0.43961254877397399 0 0.29857670617308091 0.44878939347645169 0 0.29981043769597088 0.43585488228792352 0 0.31341400070587849 0.43961254877397399 0 0.29876353528339078 0.42290391056780641 0 0.32323118670384438 0.42519094529766788 0 0.31341400070587849 0.43961254877397399 0 0.29876353528339078 0.42290391056780641 0 0.29981043769597088 0.43585488228792352 0 0.29876353528339078 0.42290391056780641 0 0.32323118670384438 0.42519094529766788 0 0.29876353528339078 0.42290391056780641 0 0.30623690320570418 0.40252329739425652 0 0.32170910597189328 0.40738266923424221 0 0.29876353528339078 0.42290391056780641 0 0.29192312265910292 0.40475539047729753 0 0.30623690320570418 0.40252329739425652 0 0.29876353528339078 0.42290391056780641 0 0.27429588386293757 0.42061687583794288 0 0.29876353528339078 0.42290391056780641 0 0.27429588386293757 0.42061687583794288 0 0.29192312265910292 0.40475539047729753 0 0.29876353528339078 0.42290391056780641 0 0.29981043769597088 0.43585488228792352 0 0.28282771950511543 0.43096045639764302 0 0.28985334349492953 0.4387187526780455 0 0.29981043769597088 0.43585488228792352 0 0.28282771950511543 0.43096045639764302 0 0.29876353528339078 0.42290391056780641 0 0.28282771950511543 0.43096045639764302 0 0.27429588386293757 0.42061687583794288 0 0.28352885314015469 0.44007981201778629 0 0.28985334349492953 0.4387187526780455 0 0.28282771950511543 0.43096045639764302 0 0.27290680442103521 0.43807442640229571 0 0.28352885314015469 0.44007981201778629 0 0.28282771950511543 0.43096045639764302 0 0.27290680442103521 0.43807442640229571 0 0.28282771950511543 0.43096045639764302 0 0.27429588386293757 0.42061687583794288 0 0.27290680442103521 0.43807442640229571 0 0.26822535304154332 0.43111829087028242 0 0.27429588386293757 0.42061687583794288 0 0.27290680442103521 0.43807442640229571 0 0.27429588386293757 0.42061687583794288 0 0.26492286062142328 0.43837567048537912 0 0.27290680442103521 0.43807442640229571 0 0.26822535304154332 0.43111829087028242 0 0.26822535304154332 0.43111829087028242 0 0.27429588386293757 0.42061687583794288 0 0.2596898461517933 0.43064111231056901 0 0.27429588386293757 0.42061687583794288 0 0.26427519964008339 0.40837977684786309 0 0.27565615618568817 0.4035213648546836 0 0.27429588386293757 0.42061687583794288 0 0.27565615618568817 0.4035213648546836 0 0.27429588386293757 0.42061687583794288 0 0.27565615618568817 0.4035213648546836 0 0.29192312265910292 0.40475539047729753 0 0.27429588386293757 0.42061687583794288 0 0.25072187542427599 0.41841337150093699 0 0.26427519964008339 0.40837977684786309 0 0.27429588386293757 0.42061687583794288 0 0.25072187542427599 0.41841337150093699 0 0.25072187542427599 0.41841337150093699 0 0.26427519964008339 0.40837977684786309 0 0.2545602566807334 0.40255158564006621 0 0.24008386025296621 0.44385981136919961 0 0.25072187542427599 0.41841337150093699 0 0.2596898461517933 0.43064111231056901 0 0.27429588386293757 0.42061687583794288 0 0.25072187542427599 0.41841337150093699 0 0.2596898461517933 0.43064111231056901 0 0.26492286062142328 0.43837567048537912 0 0.26822535304154332 0.43111829087028242 0 0.2596898461517933 0.43064111231056901 0 0.25735282426087869 0.38132821545356849 0 0.25798472643961229 0.39132602574592862 0 0.26582621058887462 0.38560972336695992 0 0.25735282426087869 0.38132821545356849 0 0.26723372136626128 0.3805911773743238 0 0.25826350254482661 0.37187833445225199 0 0.25735282426087869 0.38132821545356849 0 0.26582621058887462 0.38560972336695992 0 0.26723372136626128 0.3805911773743238 0 0.24743732279899969 0.37771004397263752 0 0.25735282426087869 0.38132821545356849 0 0.25826350254482661 0.37187833445225199 0 0.24707603341931819 0.38989185815968808 0 0.25735282426087869 0.38132821545356849 0 0.25798472643961229 0.39132602574592862 0 0.24707603341931819 0.38989185815968808 0 0.24743732279899969 0.37771004397263752 0 0.25735282426087869 0.38132821545356849 0 0.24707603341931819 0.38989185815968808 0 0.2545602566807334 0.40255158564006621 0 0.25798472643961229 0.39132602574592862 0 0.26427519964008339 0.40837977684786309 0 0.2545602566807334 0.40255158564006621 0 0.26614182604678221 0.39679568640568569 0 0.25798472643961229 0.39132602574592862 0 0.26614182604678221 0.39679568640568569 0 0.26582621058887462 0.38560972336695992 0 0.2545602566807334 0.40255158564006621 0 0.25798472643961229 0.39132602574592862 0 0.26614182604678221 0.39679568640568569 0 0.26614182604678221 0.39679568640568569 0 0.27565615618568817 0.4035213648546836 0 0.27701642850843788 0.38642585387142409 0 0.27565615618568817 0.4035213648546836 0 0.27701642850843788 0.38642585387142409 0 0.26427519964008339 0.40837977684786309 0 0.26614182604678221 0.39679568640568569 0 0.27565615618568817 0.4035213648546836 0 0.26723372136626128 0.3805911773743238 0 0.27770964092828881 0.37771375972741422 0 0.25826350254482661 0.37187833445225199 0 0.26614182604678221 0.39679568640568569 0 0.27701642850843788 0.38642585387142409 0 0.26582621058887462 0.38560972336695992 0 0.27701642850843788 0.38642585387142409 0 0.26582621058887462 0.38560972336695992 0 0.26723372136626128 0.3805911773743238 0 0.27701642850843788 0.38642585387142409 0 0.26582621058887462 0.38560972336695992 0 0.27701642850843788 0.38642585387142409 0 0.26723372136626128 0.3805911773743238 0 0.27770964092828881 0.37771375972741422 0 0.27701642850843788 0.38642585387142409 0 0.27770964092828881 0.37771375972741422 0 0.27770964092828881 0.37771375972741422 0 0.28945720384284379 0.37687520198321262 0 0.28434074098358281 0.37297248198542482 0 0.27770964092828881 0.37771375972741422 0 0.28945720384284379 0.37687520198321262 0 0.29799242490134842 0.38380024681873798 0 0.27701642850843788 0.38642585387142409 0 0.27770964092828881 0.37771375972741422 0 0.29799242490134842 0.38380024681873798 0 0.27701642850843788 0.38642585387142409 0 0.29860172687419051 0.38800012352112012 0 0.29799242490134842 0.38380024681873798 0 0.27701642850843788 0.38642585387142409 0 0.29860172687419051 0.38800012352112012 0 0.27770964092828881 0.37771375972741422 0 0.29799242490134842 0.38380024681873798 0 0.28945720384284379 0.37687520198321262 0 0.29754687642872479 0.37539066178627112 0 0.29799242490134842 0.38380024681873798 0 0.27701642850843788 0.38642585387142409 0 0.29192312265910292 0.40475539047729753 0 0.29860172687419051 0.38800012352112012 0 0.27565615618568817 0.4035213648546836 0 0.27701642850843788 0.38642585387142409 0 0.29192312265910292 0.40475539047729753 0 0.29192312265910292 0.40475539047729753 0 0.30623690320570418 0.40252329739425652 0 0.29860172687419051 0.38800012352112012 0 0.30623690320570418 0.40252329739425652 0 0.29860172687419051 0.38800012352112012 0 0.32018702523994319 0.38957439317081632 0 0.29860172687419051 0.38800012352112012 0 0.3096174576346582 0.38027237876292558 0 0.32018702523994319 0.38957439317081632 0 0.29860172687419051 0.38800012352112012 0 0.32018702523994319 0.38957439317081632 0 0.30304500995766348 0.37953218672432498 0 0.29860172687419051 0.38800012352112012 0 0.3096174576346582 0.38027237876292558 0 0.29754687642872479 0.37539066178627112 0 0.30304500995766348 0.37953218672432498 0 0.29799242490134842 0.38380024681873798 0 0.30304500995766348 0.37953218672432498 0 0.29860172687419051 0.38800012352112012 0 0.29799242490134842 0.38380024681873798 0 0.30304500995766348 0.37953218672432498 0 0.3096174576346582 0.38027237876292558 0 0.30602115566207072 0.36950203430715017 0 0.32018702523994319 0.38957439317081632 0 0.33352150912928052 0.37843565939478319 0 0.31870264686885919 0.37220723303277969 0 0.3096174576346582 0.38027237876292558 0 0.32018702523994319 0.38957439317081632 0 0.31870264686885919 0.37220723303277969 0 0.32018702523994319 0.38957439317081632 0 0.31870264686885919 0.37220723303277969 0 0.33352150912928052 0.37843565939478319 0 0.34769504114347588 0.39158062138348682 0 0.34637997718495411 0.36876792107767348 0 0.32018702523994319 0.38957439317081632 0 0.34769504114347588 0.39158062138348682 0 0.32018702523994319 0.38957439317081632 0 0.33352150912928052 0.37843565939478319 0 0.34769504114347588 0.39158062138348682 0 0.32018702523994319 0.38957439317081632 0 0.3386565074463273 0.41068225061304869 0 0.34769504114347588 0.39158062138348682 0 0.32018702523994319 0.38957439317081632 0 0.32170910597189328 0.40738266923424221 0 0.32018702523994319 0.38957439317081632 0 0.32170910597189328 0.40738266923424221 0 0.3386565074463273 0.41068225061304869 0 0.30623690320570418 0.40252329739425652 0 0.32018702523994319 0.38957439317081632 0 0.32170910597189328 0.40738266923424221 0 0.32170910597189328 0.40738266923424221 0 0.32323118670384438 0.42519094529766788 0 0.3386565074463273 0.41068225061304869 0 0.32170910597189328 0.40738266923424221 0 0.32323118670384438 0.42519094529766788 0 0.29876353528339078 0.42290391056780641 0 0.32170910597189328 0.40738266923424221 0 0.32323118670384438 0.42519094529766788 0 0.33932427437310592 0.44154766031052328 0 0.32323118670384438 0.42519094529766788 0 0.34392301457655361 0.42712504711055121 0 0.32323118670384438 0.42519094529766788 0 0.34392301457655361 0.42712504711055121 0 0.32323118670384438 0.42519094529766788 0 0.3386565074463273 0.41068225061304869 0 0.34392301457655361 0.42712504711055121 0 0.3386565074463273 0.41068225061304869 0 0.35776947751758542 0.41088859662794919 0 0.34392301457655361 0.42712504711055121 0 0.35776947751758542 0.41088859662794919 0 0.34392301457655361 0.42712504711055121 0 0.36461484244926301 0.42905914892343239 0 0.34392301457655361 0.42712504711055121 0 0.36461484244926301 0.42905914892343239 0 0.35273431360378682 0.44024253179064071 0 0.34392301457655361 0.42712504711055121 0 0.36461484244926301 0.42905914892343239 0 0.35273431360378682 0.44024253179064071 0 0.33932427437310592 0.44154766031052328 0 0.34392301457655361 0.42712504711055121 0 0.36461484244926301 0.42905914892343239 0 0.38530667032197258 0.43099325073631189 0 0.36703870231399438 0.44482468444833573 0 0.36461484244926301 0.42905914892343239 0 0.38530667032197258 0.43099325073631189 0 0.35776947751758542 0.41088859662794919 0 0.36461484244926301 0.42905914892343239 0 0.37917251346786629 0.41348425346507811 0 0.35776947751758542 0.41088859662794919 0 0.37520305704700868 0.39358684959615747 0 0.37917251346786629 0.41348425346507811 0 0.35776947751758542 0.41088859662794919 0 0.34769504114347588 0.39158062138348682 0 0.37520305704700868 0.39358684959615747 0 0.34769504114347588 0.39158062138348682 0 0.37520305704700868 0.39358684959615747 0 0.36129451360695952 0.37739408935969337 0 0.37536473462189052 0.36896654845767929 0 0.37520305704700868 0.39358684959615747 0 0.36129451360695952 0.37739408935969337 0 0.34769504114347588 0.39158062138348682 0 0.37520305704700868 0.39358684959615747 0 0.36129451360695952 0.37739408935969337 0 0.34769504114347588 0.39158062138348682 0 0.34637997718495411 0.36876792107767348 0 0.3386565074463273 0.41068225061304869 0 0.35776947751758542 0.41088859662794919 0 0.34769504114347588 0.39158062138348682 0 0.35114353344921151 0.34704054869543371 0 0.34398030112914141 0.33560046034265067 0 0.34020251791774941 0.35426909592077971 0 0.35191503704306792 0.35743611077179471 0 0.36182975803746797 0.36406850628346948 0 0.36044239864748961 0.35103579240969529 0 0.35191503704306792 0.35743611077179471 0 0.35114353344921151 0.34704054869543371 0 0.36044239864748961 0.35103579240969529 0 0.35114353344921151 0.34704054869543371 0 0.36044239864748961 0.35103579240969529 0 0.35830867277955658 0.33784467908503091 0 0.35191503704306792 0.35743611077179471 0 0.35114353344921151 0.34704054869543371 0 0.34020251791774941 0.35426909592077971 0 0.35191503704306792 0.35743611077179471 0 0.34637997718495411 0.36876792107767348 0 0.34020251791774941 0.35426909592077971 0 0.36129451360695952 0.37739408935969337 0 0.34637997718495411 0.36876792107767348 0 0.36182975803746797 0.36406850628346948 0 0.35191503704306792 0.35743611077179471 0 0.34637997718495411 0.36876792107767348 0 0.36182975803746797 0.36406850628346948 0 0.36129451360695952 0.37739408935969337 0 0.36182975803746797 0.36406850628346948 0 0.37536473462189052 0.36896654845767929 0 0.36182975803746797 0.36406850628346948 0 0.37239845374498082 0.35567049118911281 0 0.37536473462189052 0.36896654845767929 0 0.36182975803746797 0.36406850628346948 0 0.37239845374498082 0.35567049118911281 0 0.36044239864748961 0.35103579240969529 0 0.36044239864748961 0.35103579240969529 0 0.37045383616039212 0.34272485838293421 0 0.35830867277955658 0.33784467908503091 0 0.37239845374498082 0.35567049118911281 0 0.36044239864748961 0.35103579240969529 0 0.37045383616039212 0.34272485838293421 0 0.37045383616039212 0.34272485838293421 0 0.37336563283519492 0.33384791009870007 0 0.36694871793579692 0.33279261442767949 0 0.37045383616039212 0.34272485838293421 0 0.37336563283519492 0.33384791009870007 0 0.37984957394000052 0.33670230057325629 0 0.37426595394063022 0.32857658028107462 0 0.36694871793579692 0.33279261442767949 0 0.36717840106689531 0.32448820787092247 0 0.37336563283519492 0.33384791009870007 0 0.37426595394063022 0.32857658028107462 0 0.36694871793579692 0.33279261442767949 0 0.36694871793579692 0.33279261442767949 0 0.3607962854201443 0.32904979457180922 0 0.36717840106689531 0.32448820787092247 0 0.36694871793579692 0.33279261442767949 0 0.3607962854201443 0.32904979457180922 0 0.35830867277955658 0.33784467908503091 0 0.37045383616039212 0.34272485838293421 0 0.36694871793579692 0.33279261442767949 0 0.35830867277955658 0.33784467908503091 0 0.35994287598561547 0.31503472610021022 0 0.3837492980735262 0.32372812733146028 0 0.35994287598561547 0.31503472610021022 0 0.36373799255804551 0.30759706866603248 0 0.3837492980735262 0.32372812733146028 0 0.36717840106689531 0.32448820787092247 0 0.35994287598561547 0.31503472610021022 0 0.3837492980735262 0.32372812733146028 0 0.3607962854201443 0.32904979457180922 0 0.36717840106689531 0.32448820787092247 0 0.35848291643606961 0.32257464228631511 0 0.36717840106689531 0.32448820787092247 0 0.35994287598561547 0.31503472610021022 0 0.35848291643606961 0.32257464228631511 0 0.35994287598561547 0.31503472610021022 0 0.35018047699294108 0.31865885517560982 0 0.3361364538977048 0.30634132486895999 0 0.35994287598561547 0.31503472610021022 0 0.35848291643606961 0.32257464228631511 0 0.35018047699294108 0.31865885517560982 0 0.35848291643606961 0.32257464228631511 0 0.35306271888240309 0.32754882918909778 0 0.35018047699294108 0.31865885517560982 0 0.3607962854201443 0.32904979457180922 0 0.35848291643606961 0.32257464228631511 0 0.35306271888240309 0.32754882918909778 0 0.35306271888240309 0.32754882918909778 0 0.35018047699294108 0.31865885517560982 0 0.34327741976291198 0.32179475343346559 0 0.3607962854201443 0.32904979457180922 0 0.35306271888240309 0.32754882918909778 0 0.35830867277955658 0.33784467908503091 0 0.35306271888240309 0.32754882918909778 0 0.35830867277955658 0.33784467908503091 0 0.34398030112914141 0.33560046034265067 0 0.35306271888240309 0.32754882918909778 0 0.34398030112914141 0.33560046034265067 0 0.34327741976291198 0.32179475343346559 0 0.35114353344921151 0.34704054869543371 0 0.35830867277955658 0.33784467908503091 0 0.34398030112914141 0.33560046034265067 0 0.34398030112914141 0.33560046034265067 0 0.32829203750835678 0.34298487450444631 0 0.33085826264168527 0.32274012150988179 0 0.33085826264168527 0.32274012150988179 0 0.32305352404383181 0.31187413496656768 0 0.3361364538977048 0.30634132486895999 0 0.34327741976291198 0.32179475343346559 0 0.33085826264168527 0.32274012150988179 0 0.3361364538977048 0.30634132486895999 0 0.35018047699294108 0.31865885517560982 0 0.34327741976291198 0.32179475343346559 0 0.3361364538977048 0.30634132486895999 0 0.34398030112914141 0.33560046034265067 0 0.34327741976291198 0.32179475343346559 0 0.33085826264168527 0.32274012150988179 0 0.33085826264168527 0.32274012150988179 0 0.31477415015378352 0.32624399826622708 0 0.32305352404383181 0.31187413496656768 0 0.32829203750835678 0.34298487450444631 0 0.33085826264168527 0.32274012150988179 0 0.31477415015378352 0.32624399826622708 0 0.31477415015378352 0.32624399826622708 0 0.3172182684977779 0.3548400728947429 0 0.32829203750835678 0.34298487450444631 0 0.31477415015378352 0.32624399826622708 0 0.3172182684977779 0.3548400728947429 0 0.32829203750835678 0.34298487450444631 0 0.3172182684977779 0.3548400728947429 0 0.32569473672350008 0.35905867211033998 0 0.3172182684977779 0.3548400728947429 0 0.32569473672350008 0.35905867211033998 0 0.32829203750835678 0.34298487450444631 0 0.32569473672350008 0.35905867211033998 0 0.34020251791774941 0.35426909592077971 0 0.34398030112914141 0.33560046034265067 0 0.32829203750835678 0.34298487450444631 0 0.34020251791774941 0.35426909592077971 0 0.33352150912928052 0.37843565939478319 0 0.34637997718495411 0.36876792107767348 0 0.3335957419562473 0.36704924851200937 0 0.34637997718495411 0.36876792107767348 0 0.34020251791774941 0.35426909592077971 0 0.3335957419562473 0.36704924851200937 0 0.32569473672350008 0.35905867211033998 0 0.34020251791774941 0.35426909592077971 0 0.3335957419562473 0.36704924851200937 0 0.33352150912928052 0.37843565939478319 0 0.3335957419562473 0.36704924851200937 0 0.31870264686885919 0.37220723303277969 0 0.3172182684977779 0.3548400728947429 0 0.31870264686885919 0.37220723303277969 0 0.30602115566207072 0.36950203430715017 0 0.3172182684977779 0.3548400728947429 0 0.31870264686885919 0.37220723303277969 0 0.3172182684977779 0.3548400728947429 0 0.32569473672350008 0.35905867211033998 0 0.31870264686885919 0.37220723303277969 0 0.32569473672350008 0.35905867211033998 0 0.3335957419562473 0.36704924851200937 0 0.31870264686885919 0.37220723303277969 0 0.3172182684977779 0.3548400728947429 0 0.30602115566207072 0.36950203430715017 0 0.29992852154367738 0.35831439085972921 0 0.3096174576346582 0.38027237876292558 0 0.31870264686885919 0.37220723303277969 0 0.30602115566207072 0.36950203430715017 0 0.30602115566207072 0.36950203430715017 0 0.29992852154367738 0.35831439085972921 0 0.29487698242764249 0.36647503867347009 0 0.29754687642872479 0.37539066178627112 0 0.30602115566207072 0.36950203430715017 0 0.29487698242764249 0.36647503867347009 0 0.29754687642872479 0.37539066178627112 0 0.30304500995766348 0.37953218672432498 0 0.30602115566207072 0.36950203430715017 0 0.3172182684977779 0.3548400728947429 0 0.29396826738125709 0.34326892865624309 0 0.3172182684977779 0.3548400728947429 0 0.29992852154367738 0.35831439085972921 0 0.29396826738125709 0.34326892865624309 0 0.28755793374964028 0.35748587976703922 0 0.2745752704242041 0.35140069664014573 0 0.29396826738125709 0.34326892865624309 0 0.29992852154367738 0.35831439085972921 0 0.28755793374964028 0.35748587976703922 0 0.29396826738125709 0.34326892865624309 0 0.29754687642872479 0.37539066178627112 0 0.29079274865434418 0.37272888001088278 0 0.29487698242764249 0.36647503867347009 0 0.28945720384284379 0.37687520198321262 0 0.29754687642872479 0.37539066178627112 0 0.29079274865434418 0.37272888001088278 0 0.29079274865434418 0.37272888001088278 0 0.29487698242764249 0.36647503867347009 0 0.28359791994844169 0.36657297402564493 0 0.29992852154367738 0.35831439085972921 0 0.28755793374964028 0.35748587976703922 0 0.29487698242764249 0.36647503867347009 0 0.28755793374964028 0.35748587976703922 0 0.29487698242764249 0.36647503867347009 0 0.28359791994844169 0.36657297402564493 0 0.28755793374964028 0.35748587976703922 0 0.28359791994844169 0.36657297402564493 0 0.2755389388664416 0.3594820899955305 0 0.28359791994844169 0.36657297402564493 0 0.28434074098358281 0.37297248198542482 0 0.27824915413059309 0.37093331310553251 0 0.29079274865434418 0.37272888001088278 0 0.28359791994844169 0.36657297402564493 0 0.28434074098358281 0.37297248198542482 0 0.28945720384284379 0.37687520198321262 0 0.29079274865434418 0.37272888001088278 0 0.28434074098358281 0.37297248198542482 0 0.28359791994844169 0.36657297402564493 0 0.27824915413059309 0.37093331310553251 0 0.27396440189581728 0.3656247342192569 0 0.27770964092828881 0.37771375972741422 0 0.25826350254482661 0.37187833445225199 0 0.27770964092828881 0.37771375972741422 0 0.28434074098358281 0.37297248198542482 0 0.27824915413059309 0.37093331310553251 0 0.27824915413059309 0.37093331310553251 0 0.26928950459643708 0.36940105105767351 0 0.27396440189581728 0.3656247342192569 0 0.27770964092828881 0.37771375972741422 0 0.27824915413059309 0.37093331310553251 0 0.27770964092828881 0.37771375972741422 0 0.27824915413059309 0.37093331310553251 0 0.26928950459643708 0.36940105105767351 0 0.27770964092828881 0.37771375972741422 0 0.26928950459643708 0.36940105105767351 0 0.25826350254482661 0.37187833445225199 0 0.2755389388664416 0.3594820899955305 0 0.27396440189581728 0.3656247342192569 0 0.26379670506822672 0.36025392088448949 0 0.26928950459643708 0.36940105105767351 0 0.27396440189581728 0.3656247342192569 0 0.26379670506822672 0.36025392088448949 0 0.28359791994844169 0.36657297402564493 0 0.2755389388664416 0.3594820899955305 0 0.27396440189581728 0.3656247342192569 0 0.2745752704242041 0.35140069664014573 0 0.27247805696536098 0.34019160431864542 0 0.29396826738125709 0.34326892865624309 0 0.28755793374964028 0.35748587976703922 0 0.2755389388664416 0.3594820899955305 0 0.2745752704242041 0.35140069664014573 0 0.2745752704242041 0.35140069664014573 0 0.26639589570613048 0.34564430568404869 0 0.27247805696536098 0.34019160431864542 0 0.2745752704242041 0.35140069664014573 0 0.26639589570613048 0.34564430568404869 0 0.26082097708435181 0.35040005618838083 0 0.2755389388664416 0.3594820899955305 0 0.2745752704242041 0.35140069664014573 0 0.26379670506822672 0.36025392088448949 0 0.2745752704242041 0.35140069664014573 0 0.26082097708435181 0.35040005618838083 0 0.26379670506822672 0.36025392088448949 0 0.2427234704606579 0.35085134342452828 0 0.26379670506822672 0.36025392088448949 0 0.2427234704606579 0.35085134342452828 0 0.26082097708435181 0.35040005618838083 0 0.26379670506822672 0.36025392088448949 0 0.2427234704606579 0.35085134342452828 0 0.25090026055876891 0.36225662698458999 0 0.26379670506822672 0.36025392088448949 0 0.2427234704606579 0.35085134342452828 0 0.26082097708435181 0.35040005618838083 0 0.25661354376253948 0.34385001430869139 0 0.26639589570613048 0.34564430568404869 0 0.26082097708435181 0.35040005618838083 0 0.25661354376253948 0.34385001430869139 0 0.2427234704606579 0.35085134342452828 0 0.25661354376253948 0.34385001430869139 0 0.25091685518631901 0.33665610235555787 0 0.25090026055876891 0.36225662698458999 0 0.25826350254482661 0.37187833445225199 0 0.26379670506822672 0.36025392088448949 0 0.26928950459643708 0.36940105105767351 0 0.25826350254482661 0.37187833445225199 0 0.26379670506822672 0.36025392088448949 0 0.25127937229519781 0.32202336570133039 0 0.27071826626473539 0.33169778441774511 0 0.25127937229519781 0.32202336570133039 0 0.25377049450532652 0.32039014071244348 0 0.27071826626473539 0.33169778441774511 0 0.25377049450532652 0.32039014071244348 0 0.27071826626473539 0.33169778441774511 0 0.26715727626029978 0.31946164622822532 0 0.25830186218050372 0.31350829009495818 0 0.25377049450532652 0.32039014071244348 0 0.26715727626029978 0.31946164622822532 0 0.25830186218050372 0.31350829009495818 0 0.26715727626029978 0.31946164622822532 0 0.26953395465712793 0.30848599851945341 0 0.25830186218050372 0.31350829009495818 0 0.25062814857285259 0.31607672242524493 0 0.25377049450532652 0.32039014071244348 0 0.25830186218050372 0.31350829009495818 0 0.25062814857285259 0.31607672242524493 0 0.25119715163834849 0.30960382081239879 0 0.25062814857285259 0.31607672242524493 0 0.25127937229519781 0.32202336570133039 0 0.25377049450532652 0.32039014071244348 0 0.25127937229519781 0.32202336570133039 0 0.25377049450532652 0.32039014071244348 0 0.25127937229519781 0.32202336570133039 0 0.26030660461753929 0.3333722652286964 0 0.27071826626473539 0.33169778441774511 0 0.25127937229519781 0.32202336570133039 0 0.25091685518631901 0.33665610235555787 0 0.26030660461753929 0.3333722652286964 0 0.25091685518631901 0.33665610235555787 0 0.25794825027872098 0.33818288793867862 0 0.26030660461753929 0.3333722652286964 0 0.25661354376253948 0.34385001430869139 0 0.25091685518631901 0.33665610235555787 0 0.25794825027872098 0.33818288793867862 0 0.26639589570613048 0.34564430568404869 0 0.25661354376253948 0.34385001430869139 0 0.26395599754848642 0.33885316986176878 0 0.25661354376253948 0.34385001430869139 0 0.25794825027872098 0.33818288793867862 0 0.26395599754848642 0.33885316986176878 0 0.25794825027872098 0.33818288793867862 0 0.26395599754848642 0.33885316986176878 0 0.26030660461753929 0.3333722652286964 0 0.26395599754848642 0.33885316986176878 0 0.26030660461753929 0.3333722652286964 0 0.27071826626473539 0.33169778441774511 0 0.27071826626473539 0.33169778441774511 0 0.27247805696536098 0.34019160431864542 0 0.29396826738125709 0.34326892865624309 0 0.26395599754848642 0.33885316986176878 0 0.27071826626473539 0.33169778441774511 0 0.27247805696536098 0.34019160431864542 0 0.26639589570613048 0.34564430568404869 0 0.26395599754848642 0.33885316986176878 0 0.27247805696536098 0.34019160431864542 0 0.27071826626473539 0.33169778441774511 0 0.28783557265913701 0.31332589503032932 0 0.26715727626029978 0.31946164622822532 0 0.28783557265913701 0.31332589503032932 0 0.26953395465712793 0.30848599851945341 0 0.27071826626473539 0.33169778441774511 0 0.26715727626029978 0.31946164622822532 0 0.28783557265913701 0.31332589503032932 0 0.28783557265913701 0.31332589503032932 0 0.29396826738125709 0.34326892865624309 0 0.3047011957024654 0.31270245063784108 0 0.27071826626473539 0.33169778441774511 0 0.29396826738125709 0.34326892865624309 0 0.27071826626473539 0.33169778441774511 0 0.28783557265913701 0.31332589503032932 0 0.29396826738125709 0.34326892865624309 0 0.31477415015378352 0.32624399826622708 0 0.3172182684977779 0.3548400728947429 0 0.29396826738125709 0.34326892865624309 0 0.31477415015378352 0.32624399826622708 0 0.29396826738125709 0.34326892865624309 0 0.3047011957024654 0.31270245063784108 0 0.28783557265913701 0.31332589503032932 0 0.3047011957024654 0.31270245063784108 0 0.30495287905353841 0.29495400564291352 0 0.3047011957024654 0.31270245063784108 0 0.31233003180979368 0.29764792363771098 0 0.30495287905353841 0.29495400564291352 0 0.31477415015378352 0.32624399826622708 0 0.3047011957024654 0.31270245063784108 0 0.31233003180979368 0.29764792363771098 0 0.31149925125662481 0.28792782855448468 0 0.31091218347558958 0.28105916193708641 0 0.31149925125662481 0.28792782855448468 0 0.30509149651934619 0.28673226651794692 0 0.31091218347558958 0.28105916193708641 0 0.31149925125662481 0.28792782855448468 0 0.30509149651934619 0.28673226651794692 0 0.30495287905353841 0.29495400564291352 0 0.31233003180979368 0.29764792363771098 0 0.31149925125662481 0.28792782855448468 0 0.31233003180979368 0.29764792363771098 0 0.31149925125662481 0.28792782855448468 0 0.30495287905353841 0.29495400564291352 0 0.31149925125662481 0.28792782855448468 0 0.30495287905353841 0.29495400564291352 0 0.31233003180979368 0.29764792363771098 0 0.30495287905353841 0.29495400564291352 0 0.30509149651934619 0.28673226651794692 0 0.29593687277401798 0.28286181338440453 0 0.31091218347558958 0.28105916193708641 0 0.30509149651934619 0.28673226651794692 0 0.30495287905353841 0.29495400564291352 0 0.29593687277401798 0.28286181338440453 0 0.30495287905353841 0.29495400564291352 0 0.28043650059535441 0.28600134934340099 0 0.30495287905353841 0.29495400564291352 0 0.29593687277401798 0.28286181338440453 0 0.28043650059535441 0.28600134934340099 0 0.30495287905353841 0.29495400564291352 0 0.28787014993237381 0.29910848532850298 0 0.28043650059535441 0.28600134934340099 0 0.28787014993237381 0.29910848532850298 0 0.27844709346540819 0.30097294472609909 0 0.28043650059535441 0.28600134934340099 0 0.28783557265913701 0.31332589503032932 0 0.30495287905353841 0.29495400564291352 0 0.28783557265913701 0.31332589503032932 0 0.30495287905353841 0.29495400564291352 0 0.28787014993237381 0.29910848532850298 0 0.28783557265913701 0.31332589503032932 0 0.28787014993237381 0.29910848532850298 0 0.27844709346540819 0.30097294472609909 0 0.28783557265913701 0.31332589503032932 0 0.26953395465712793 0.30848599851945341 0 0.27844709346540819 0.30097294472609909 0 0.26953395465712793 0.30848599851945341 0 0.27844709346540819 0.30097294472609909 0 0.26694218157093469 0.2955835022662715 0 0.28043650059535441 0.28600134934340099 0 0.25592012213717008 0.27704869304388913 0 0.28043650059535441 0.28600134934340099 0 0.26694218157093469 0.2955835022662715 0 0.25592012213717008 0.27704869304388913 0 0.27844709346540819 0.30097294472609909 0 0.28043650059535441 0.28600134934340099 0 0.26694218157093469 0.2955835022662715 0 0.240900437241757 0.28885288636888667 0 0.25332628978071192 0.29601189420571022 0 0.25592012213717008 0.27704869304388913 0 0.26694218157093469 0.2955835022662715 0 0.25332628978071192 0.29601189420571022 0 0.25592012213717008 0.27704869304388913 0 0.25332628978071192 0.29601189420571022 0 0.25119715163834849 0.30960382081239879 0 0.25986028796552529 0.30463870117975839 0 0.25830186218050372 0.31350829009495818 0 0.25119715163834849 0.30960382081239879 0 0.25986028796552529 0.30463870117975839 0 0.25830186218050372 0.31350829009495818 0 0.26953395465712793 0.30848599851945341 0 0.25986028796552529 0.30463870117975839 0 0.26953395465712793 0.30848599851945341 0 0.26694218157093469 0.2955835022662715 0 0.25986028796552529 0.30463870117975839 0 0.26694218157093469 0.2955835022662715 0 0.25332628978071192 0.29601189420571022 0 0.25986028796552529 0.30463870117975839 0 0.24350543671163599 0.24719628336326219 0 0.26597435229962019 0.25848390955453748 0 0.24350543671163599 0.24719628336326219 0 0.26370936199651218 0.25240827875641292 0 0.26597435229962019 0.25848390955453748 0 0.24350543671163599 0.24719628336326219 0 0.25017285109459653 0.26193115875581052 0 0.26597435229962019 0.25848390955453748 0 0.25017285109459653 0.26193115875581052 0 0.25592012213717008 0.27704869304388913 0 0.26597435229962019 0.25848390955453748 0 0.25592012213717008 0.27704869304388913 0 0.27310586852113827 0.27229495341173371 0 0.26597435229962019 0.25848390955453748 0 0.28043650059535441 0.28600134934340099 0 0.27310586852113827 0.27229495341173371 0 0.28844326788760438 0.26977153574581292 0 0.28043650059535441 0.28600134934340099 0 0.25592012213717008 0.27704869304388913 0 0.27310586852113827 0.27229495341173371 0 0.27310586852113827 0.27229495341173371 0 0.26597435229962019 0.25848390955453748 0 0.28844326788760438 0.26977153574581292 0 0.26370936199651218 0.25240827875641292 0 0.28391328728138832 0.25762027414956362 0 0.26370936199651218 0.25240827875641292 0 0.28391328728138832 0.25762027414956362 0 0.27304687619396661 0.24917853260211251 0 0.26597435229962019 0.25848390955453748 0 0.28391328728138832 0.25762027414956362 0 0.28844326788760438 0.26977153574581292 0 0.26370936199651218 0.25240827875641292 0 0.26597435229962019 0.25848390955453748 0 0.28391328728138832 0.25762027414956362 0 0.26597435229962019 0.25848390955453748 0 0.28844326788760438 0.26977153574581292 0 0.28391328728138832 0.25762027414956362 0 0.27761667945937502 0.24464694898140349 0 0.27304687619396661 0.24917853260211251 0 0.28391328728138832 0.25762027414956362 0 0.30411721256626439 0.26283226954271433 0 0.28391328728138832 0.25762027414956362 0 0.30191226806625149 0.25531093820173678 0 0.29791531764067869 0.24799911954174289 0 0.28391328728138832 0.25762027414956362 0 0.28844326788760438 0.26977153574581292 0 0.30411721256626439 0.26283226954271433 0 0.28391328728138832 0.25762027414956362 0 0.30191226806625149 0.25531093820173678 0 0.30411721256626439 0.26283226954271433 0 0.28391328728138832 0.25762027414956362 0 0.29791531764067869 0.24799911954174289 0 0.28689265850738987 0.2466414308341848 0 0.29593687277401798 0.28286181338440453 0 0.28043650059535441 0.28600134934340099 0 0.28844326788760438 0.26977153574581292 0 0.31091218347558958 0.28105916193708641 0 0.30899785171293392 0.25866156646741822 0 0.29593687277401798 0.28286181338440453 0 0.28844326788760438 0.26977153574581292 0 0.31091218347558958 0.28105916193708641 0 0.28844326788760438 0.26977153574581292 0 0.31091218347558958 0.28105916193708641 0 0.30411721256626439 0.26283226954271433 0 0.28844326788760438 0.26977153574581292 0 0.31091218347558958 0.28105916193708641 0 0.31091218347558958 0.28105916193708641 0 0.30899785171293392 0.25866156646741822 0 0.31736369360879679 0.26999859662560383 0 0.31091218347558958 0.28105916193708641 0 0.30411721256626439 0.26283226954271433 0 0.30899785171293392 0.25866156646741822 0 0.30191226806625149 0.25531093820173678 0 0.30820824554132281 0.25151906250621059 0 0.29791531764067869 0.24799911954174289 0 0.30191226806625149 0.25531093820173678 0 0.30411721256626439 0.26283226954271433 0 0.30899785171293392 0.25866156646741822 0 0.30191226806625149 0.25531093820173678 0 0.30899785171293392 0.25866156646741822 0 0.30820824554132281 0.25151906250621059 0 0.30820824554132281 0.25151906250621059 0 0.32041583562018161 0.25558504678715388 0 0.31101360932953132 0.24340543300068501 0 0.30899785171293392 0.25866156646741822 0 0.30820824554132281 0.25151906250621059 0 0.32041583562018161 0.25558504678715388 0 0.30899785171293392 0.25866156646741822 0 0.32041583562018161 0.25558504678715388 0 0.31736369360879679 0.26999859662560383 0 0.32041583562018161 0.25558504678715388 0 0.3288135159827375 0.26934454511938771 0 0.31736369360879679 0.26999859662560383 0 0.32041583562018161 0.25558504678715388 0 0.3419557224038996 0.25523910369578118 0 0.32639438881683319 0.2416284349840917 0 0.32041583562018161 0.25558504678715388 0 0.3419557224038996 0.25523910369578118 0 0.3288135159827375 0.26934454511938771 0 0.3419557224038996 0.25523910369578118 0 0.3288135159827375 0.26934454511938771 0 0.34525272698126142 0.25812281779343849 0 0.3419557224038996 0.25523910369578118 0 0.3288135159827375 0.26934454511938771 0 0.3419557224038996 0.25523910369578118 0 0.34525272698126142 0.25812281779343849 0 0.34304280822233951 0.27294662408730203 0 0.3288135159827375 0.26934454511938771 0 0.34525272698126142 0.25812281779343849 0 0.34304280822233951 0.27294662408730203 0 0.3288135159827375 0.26934454511938771 0 0.33593538461907668 0.28131933835931039 0 0.3288135159827375 0.26934454511938771 0 0.31567130956157557 0.28344998654299453 0 0.33593538461907668 0.28131933835931039 0 0.3288135159827375 0.26934454511938771 0 0.31567130956157557 0.28344998654299453 0 0.3288135159827375 0.26934454511938771 0 0.31736369360879679 0.26999859662560383 0 0.31567130956157557 0.28344998654299453 0 0.31091218347558958 0.28105916193708641 0 0.31736369360879679 0.26999859662560383 0 0.31567130956157557 0.28344998654299453 0 0.31567130956157557 0.28344998654299453 0 0.33970465105981068 0.29552352760451323 0 0.31091218347558958 0.28105916193708641 0 0.31567130956157557 0.28344998654299453 0 0.31149925125662481 0.28792782855448468 0 0.31091218347558958 0.28105916193708641 0 0.31567130956157557 0.28344998654299453 0 0.31149925125662481 0.28792782855448468 0 0.31567130956157557 0.28344998654299453 0 0.32117664766912402 0.29240918855717618 0 0.31567130956157557 0.28344998654299453 0 0.32117664766912402 0.29240918855717618 0 0.33970465105981068 0.29552352760451323 0 0.31149925125662481 0.28792782855448468 0 0.31567130956157557 0.28344998654299453 0 0.31233003180979368 0.29764792363771098 0 0.31149925125662481 0.28792782855448468 0 0.32117664766912402 0.29240918855717618 0 0.31233003180979368 0.29764792363771098 0 0.32117664766912402 0.29240918855717618 0 0.32667799465781772 0.29749667644617689 0 0.31477415015378352 0.32624399826622708 0 0.31233003180979368 0.29764792363771098 0 0.31233003180979368 0.29764792363771098 0 0.3361364538977048 0.30634132486895999 0 0.31233003180979368 0.29764792363771098 0 0.32667799465781772 0.29749667644617689 0 0.3361364538977048 0.30634132486895999 0 0.31233003180979368 0.29764792363771098 0 0.32305352404383181 0.31187413496656768 0 0.3361364538977048 0.30634132486895999 0 0.31477415015378352 0.32624399826622708 0 0.31233003180979368 0.29764792363771098 0 0.32305352404383181 0.31187413496656768 0 0.32667799465781772 0.29749667644617689 0 0.3361364538977048 0.30634132486895999 0 0.33970465105981068 0.29552352760451323 0 0.31567130956157557 0.28344998654299453 0 0.33593538461907668 0.28131933835931039 0 0.33970465105981068 0.29552352760451323 0 0.33593538461907668 0.28131933835931039 0 0.33970465105981068 0.29552352760451323 0 0.35244463826891992 0.2853320084423544 0 0.32117664766912402 0.29240918855717618 0 0.32667799465781772 0.29749667644617689 0 0.33970465105981068 0.29552352760451323 0 0.33970465105981068 0.29552352760451323 0 0.35244463826891992 0.2853320084423544 0 0.36373799255804551 0.30759706866603248 0 0.33970465105981068 0.29552352760451323 0 0.36373799255804551 0.30759706866603248 0 0.35994287598561547 0.31503472610021022 0 0.3361364538977048 0.30634132486895999 0 0.3361364538977048 0.30634132486895999 0 0.33970465105981068 0.29552352760451323 0 0.36373799255804551 0.30759706866603248 0 0.35994287598561547 0.31503472610021022 0 0.3361364538977048 0.30634132486895999 0 0.36373799255804551 0.30759706866603248 0 0.36413427731300702 0.27463750304779871 0 0.38301582764475339 0.29115218830215789 0 0.36635785521965231 0.29114640307406908 0 0.36413427731300702 0.27463750304779871 0 0.38301582764475339 0.29115218830215789 0 0.35244463826891992 0.2853320084423544 0 0.36373799255804551 0.30759706866603248 0 0.36635785521965231 0.29114640307406908 0 0.36373799255804551 0.30759706866603248 0 0.36635785521965231 0.29114640307406908 0 0.38301582764475339 0.29115218830215789 0 0.35244463826891992 0.2853320084423544 0 0.36635785521965231 0.29114640307406908 0 0.36413427731300702 0.27463750304779871 0 0.36413427731300702 0.27463750304779871 0 0.37021891901449561 0.25917451910615508 0 0.38497002563425259 0.27761236947824047 0 0.37021891901449561 0.25917451910615508 0 0.35725978885494902 0.25755537485853103 0 0.35546781239473663 0.2407366687340714 0 0.36413427731300702 0.27463750304779871 0 0.37021891901449561 0.25917451910615508 0 0.35725978885494902 0.25755537485853103 0 0.37021891901449561 0.25917451910615508 0 0.3678488163181689 0.24285857779309611 0 0.37689560825093532 0.24878939164875991 0 0.36413427731300702 0.27463750304779871 0 0.35725978885494902 0.25755537485853103 0 0.34525272698126142 0.25812281779343849 0 0.35725978885494902 0.25755537485853103 0 0.35117710710054928 0.25387272089892587 0 0.35546781239473663 0.2407366687340714 0 0.35725978885494902 0.25755537485853103 0 0.35117710710054928 0.25387272089892587 0 0.34525272698126142 0.25812281779343849 0 0.34639254431167471 0.25047709269690321 0 0.34525272698126142 0.25812281779343849 0 0.3419557224038996 0.25523910369578118 0 0.34639254431167471 0.25047709269690321 0 0.34525272698126142 0.25812281779343849 0 0.35117710710054928 0.25387272089892587 0 0.34639254431167471 0.25047709269690321 0 0.34525272698126142 0.25812281779343849 0 0.3419557224038996 0.25523910369578118 0 0.34639254431167471 0.25047709269690321 0 0.34304280822233951 0.27294662408730203 0 0.34525272698126142 0.25812281779343849 0 0.34304280822233951 0.27294662408730203 0 0.35244463826891992 0.2853320084423544 0 0.36413427731300702 0.27463750304779871 0 0.34304280822233951 0.27294662408730203 0 0.33593538461907668 0.28131933835931039 0 0.35244463826891992 0.2853320084423544 0 0.36413427731300702 0.27463750304779871 0 0.34525272698126142 0.25812281779343849 0 0.34304280822233951 0.27294662408730203 0 0.36413427731300702 0.27463750304779871 0 0.34525272698126142 0.25812281779343849 0 0.4013640216438662 0.27912513232713621 0 0.39770946866277651 0.26041527511523871 0 0.38497002563425259 0.27761236947824047 0 0.4013640216438662 0.27912513232713621 0 0.39770946866277651 0.26041527511523871 0 0.41085145295792458 0.26903585296078031 0 0.39770946866277651 0.26041527511523871 0 0.41061752288853881 0.25667326143670532 0 0.40342330412005212 0.24460128637610121 0 0.39770946866277651 0.26041527511523871 0 0.40342330412005212 0.24460128637610121 0 0.39416361544312661 0.24827536902129951 0 0.39770946866277651 0.26041527511523871 0 0.38463866045730721 0.25685064424047971 0 0.39416361544312661 0.24827536902129951 0 0.37021891901449561 0.25917451910615508 0 0.38463866045730721 0.25685064424047971 0 0.38497002563425259 0.27761236947824047 0 0.39770946866277651 0.26041527511523871 0 0.38463866045730721 0.25685064424047971 0 0.38497002563425259 0.27761236947824047 0 0.38463866045730721 0.25685064424047971 0 0.39416361544312661 0.24827536902129951 0 0.3845153274593518 0.24516232559020601 0 0.38463866045730721 0.25685064424047971 0 0.3845153274593518 0.24516232559020601 0 0.37689560825093532 0.24878939164875991 0 0.37021891901449561 0.25917451910615508 0 0.38463866045730721 0.25685064424047971 0 0.37689560825093532 0.24878939164875991 0 0.36413427731300702 0.27463750304779871 0 0.38497002563425259 0.27761236947824047 0 0.38301582764475339 0.29115218830215789 0 0.37021891901449561 0.25917451910615508 0 0.38497002563425259 0.27761236947824047 0 0.38497002563425259 0.27761236947824047 0 0.38301582764475339 0.29115218830215789 0 0.39972113225400963 0.29605021985032581 0 0.38301582764475339 0.29115218830215789 0 0.38707828448942289 0.30490014760293033 0 0.39972113225400963 0.29605021985032581 0 0.36373799255804551 0.30759706866603248 0 0.38707828448942289 0.30490014760293033 0 0.38777133405628023 0.31967060972755179 0 0.36373799255804551 0.30759706866603248 0 0.38301582764475339 0.29115218830215789 0 0.38707828448942289 0.30490014760293033 0 0.40078959552279181 0.31124784832349373 0 0.39972113225400963 0.29605021985032581 0 0.41447223887376838 0.31448807022240949 0 0.38707828448942289 0.30490014760293033 0 0.40078959552279181 0.31124784832349373 0 0.38777133405628023 0.31967060972755179 0 0.38707828448942289 0.30490014760293033 0 0.40078959552279181 0.31124784832349373 0 0.39972113225400963 0.29605021985032581 0 0.38497002563425259 0.27761236947824047 0 0.39972113225400963 0.29605021985032581 0 0.4013640216438662 0.27912513232713621 0 0.38497002563425259 0.27761236947824047 0 0.39972113225400963 0.29605021985032581 0 0.4013640216438662 0.27912513232713621 0 0.39972113225400963 0.29605021985032581 0 0.41889227634638643 0.28589548830145262 0 0.41889227634638643 0.28589548830145262 0 0.43011593485133648 0.30576469013711671 0 0.41447223887376838 0.31448807022240949 0 0.39972113225400963 0.29605021985032581 0 0.41889227634638643 0.28589548830145262 0 0.41447223887376838 0.31448807022240949 0 0.41889227634638643 0.28589548830145262 0 0.41447223887376838 0.31448807022240949 0 0.39972113225400963 0.29605021985032581 0 0.41447223887376838 0.31448807022240949 0 0.43011593485133648 0.30576469013711671 0 0.43516219200846268 0.29081790320815759 0 0.44544089513456192 0.29725708655448502 0 0.41889227634638643 0.28589548830145262 0 0.43516219200846268 0.29081790320815759 0 0.43498871483877111 0.27625725289168779 0 0.41889227634638643 0.28589548830145262 0 0.43011593485133648 0.30576469013711671 0 0.43516219200846268 0.29081790320815759 0 0.41889227634638643 0.28589548830145262 0 0.43498871483877111 0.27625725289168779 0 0.42331231381900269 0.25730290638049541 0 0.41889227634638643 0.28589548830145262 0 0.42331231381900269 0.25730290638049541 0 0.4013640216438662 0.27912513232713621 0 0.41889227634638643 0.28589548830145262 0 0.41085145295792458 0.26903585296078031 0 0.41889227634638643 0.28589548830145262 0 0.41085145295792458 0.26903585296078031 0 0.42331231381900269 0.25730290638049541 0 0.39770946866277651 0.26041527511523871 0 0.41085145295792458 0.26903585296078031 0 0.41061752288853881 0.25667326143670532 0 0.41085145295792458 0.26903585296078031 0 0.41061752288853881 0.25667326143670532 0 0.42331231381900269 0.25730290638049541 0 0.41061752288853881 0.25667326143670532 0 0.42331231381900269 0.25730290638049541 0 0.41498924952489991 0.2477882154193326 0 0.43282935067294742 0.26120072902016278 0 0.42558669170152652 0.24278838674589631 0 0.41498924952489991 0.2477882154193326 0 0.42331231381900269 0.25730290638049541 0 0.43282935067294742 0.26120072902016278 0 0.41498924952489991 0.2477882154193326 0 0.43282935067294742 0.26120072902016278 0 0.41498924952489991 0.2477882154193326 0 0.44419001877614589 0.26235704073847999 0 0.42558669170152652 0.24278838674589631 0 0.43282935067294742 0.26120072902016278 0 0.44419001877614589 0.26235704073847999 0 0.42558669170152652 0.24278838674589631 0 0.43498871483877111 0.27625725289168779 0 0.42331231381900269 0.25730290638049541 0 0.43282935067294742 0.26120072902016278 0 0.44419001877614589 0.26235704073847999 0 0.45428996840150632 0.26086506046091451 0 0.44982921511296109 0.23752530104185071 0 0.43498871483877111 0.27625725289168779 0 0.45066945182099488 0.27461324262099301 0 0.44913616318478872 0.28653206369225509 0 0.43282935067294742 0.26120072902016278 0 0.44419001877614589 0.26235704073847999 0 0.45066945182099488 0.27461324262099301 0 0.43282935067294742 0.26120072902016278 0 0.45066945182099488 0.27461324262099301 0 0.44419001877614589 0.26235704073847999 0 0.45066945182099488 0.27461324262099301 0 0.46279334585076543 0.28192569473106371 0 0.43498871483877111 0.27625725289168779 0 0.43282935067294742 0.26120072902016278 0 0.45066945182099488 0.27461324262099301 0 0.44419001877614589 0.26235704073847999 0 0.45428996840150632 0.26086506046091451 0 0.46279334585076543 0.28192569473106371 0 0.44419001877614589 0.26235704073847999 0 0.46279334585076543 0.28192569473106371 0 0.45428996840150632 0.26086506046091451 0 0.47370612278435209 0.26442225218074178 0 0.46279334585076543 0.28192569473106371 0 0.45066945182099488 0.27461324262099301 0 0.46279334585076543 0.28192569473106371 0 0.44913616318478872 0.28653206369225509 0 0.45428996840150632 0.26086506046091451 0 0.47370612278435209 0.26442225218074178 0 0.46118939111400942 0.24722263315192769 0 0.47370612278435209 0.26442225218074178 0 0.46118939111400942 0.24722263315192769 0 0.47830776954234522 0.2446342017285737 0 0.47370612278435209 0.26442225218074178 0 0.5 0.26553773060734631 0 0.47830776954234522 0.2446342017285737 0 0.47370612278435209 0.26442225218074178 0 0.48357922831210048 0.28133607858091769 0 0.46279334585076543 0.28192569473106371 0 0.5 0.26553773060734631 0 0.5 0.29330036666178932 0 0.48357922831210048 0.28133607858091769 0 0.47370612278435209 0.26442225218074178 0 0.5 0.26553773060734631 0 0.48357922831210048 0.28133607858091769 0 0.48139667292538479 0.30149434872364728 0 0.50000000000000278 0.32106300271623228 0 0.5 0.29330036666178932 0 0.48139667292538479 0.30149434872364728 0 0.50000000000000278 0.32106300271623228 0 0.5 0.29330036666178932 0 0.48357922831210048 0.28133607858091769 0 0.48139667292538479 0.30149434872364728 0 0.48139667292538479 0.30149434872364728 0 0.46279334585076543 0.28192569473106371 0 0.48357922831210048 0.28133607858091769 0 0.48139667292538479 0.30149434872364728 0 0.46279334585076543 0.28192569473106371 0 0.4594645234384912 0.29837056105251059 0 0.4495506514087213 0.3090629839268324 0 0.46503032589386001 0.31403121566011999 0 0.48139667292538479 0.30149434872364728 0 0.4594645234384912 0.29837056105251059 0 0.46503032589386001 0.31403121566011999 0 0.48139667292538479 0.30149434872364728 0 0.4594645234384912 0.29837056105251059 0 0.46279334585076543 0.28192569473106371 0 0.4594645234384912 0.29837056105251059 0 0.46279334585076543 0.28192569473106371 0 0.44913616318478872 0.28653206369225509 0 0.4594645234384912 0.29837056105251059 0 0.44913616318478872 0.28653206369225509 0 0.44544089513456192 0.29725708655448502 0 0.43516219200846268 0.29081790320815759 0 0.44913616318478872 0.28653206369225509 0 0.44544089513456192 0.29725708655448502 0 0.43516219200846268 0.29081790320815759 0 0.43498871483877111 0.27625725289168779 0 0.44913616318478872 0.28653206369225509 0 0.43011593485133648 0.30576469013711671 0 0.4495506514087213 0.3090629839268324 0 0.44544089513456192 0.29725708655448502 0 0.43011593485133648 0.30576469013711671 0 0.4495506514087213 0.3090629839268324 0 0.44200337771115111 0.31916287233492419 0 0.4594645234384912 0.29837056105251059 0 0.4495506514087213 0.3090629839268324 0 0.44544089513456192 0.29725708655448502 0 0.50000000000000278 0.32106300271623228 0 0.48066657104731358 0.35879232805613798 0 0.5 0.38629994522185701 0 0.44200337771115111 0.31916287233492419 0 0.4504605866350378 0.33088983259689148 0 0.45436082521920551 0.32037787024074749 0 0.4495506514087213 0.3090629839268324 0 0.44200337771115111 0.31916287233492419 0 0.45436082521920551 0.32037787024074749 0 0.4504605866350378 0.33088983259689148 0 0.44324771103146088 0.34754007246553142 0 0.4504605866350378 0.33088983259689148 0 0.44112430951610521 0.34647334708372751 0 0.44324771103146088 0.34754007246553142 0 0.44200337771115111 0.31916287233492419 0 0.4504605866350378 0.33088983259689148 0 0.44112430951610521 0.34647334708372751 0 0.44200337771115111 0.31916287233492419 0 0.44112430951610521 0.34647334708372751 0 0.43632141822097781 0.33560713819162419 0 0.44200337771115111 0.31916287233492419 0 0.44112430951610521 0.34647334708372751 0 0.4504605866350378 0.33088983259689148 0 0.45269332846590637 0.34109124104233002 0 0.44324771103146088 0.34754007246553142 0 0.46117678028732417 0.32922623451798239 0 0.46674311739907293 0.34140219078764011 0 0.47777249811086259 0.32756505678016529 0 0.45269332846590637 0.34109124104233002 0 0.46117678028732417 0.32922623451798239 0 0.46674311739907293 0.34140219078764011 0 0.4504605866350378 0.33088983259689148 0 0.45269332846590637 0.34109124104233002 0 0.46117678028732417 0.32922623451798239 0 0.46117678028732417 0.32922623451798239 0 0.46503032589386001 0.31403121566011999 0 0.47777249811086259 0.32756505678016529 0 0.4495506514087213 0.3090629839268324 0 0.45436082521920551 0.32037787024074749 0 0.46503032589386001 0.31403121566011999 0 0.4504605866350378 0.33088983259689148 0 0.46117678028732417 0.32922623451798239 0 0.45436082521920551 0.32037787024074749 0 0.46117678028732417 0.32922623451798239 0 0.45436082521920551 0.32037787024074749 0 0.46503032589386001 0.31403121566011999 0 0.48139667292538479 0.30149434872364728 0 0.46503032589386001 0.31403121566011999 0 0.47777249811086259 0.32756505678016529 0 0.47777249811086259 0.32756505678016529 0 0.50000000000000278 0.32106300271623228 0 0.48066657104731358 0.35879232805613798 0 0.46674311739907293 0.34140219078764011 0 0.47777249811086259 0.32756505678016529 0 0.48066657104731358 0.35879232805613798 0 0.48139667292538479 0.30149434872364728 0 0.47777249811086259 0.32756505678016529 0 0.50000000000000278 0.32106300271623228 0 0.46674311739907293 0.34140219078764011 0 0.48066657104731358 0.35879232805613798 0 0.46076585485775151 0.35072933866660111 0 0.48066657104731358 0.35879232805613798 0 0.46019835146207061 0.37428966318792878 0 0.48066657104731358 0.35879232805613798 0 0.46019835146207061 0.37428966318792878 0 0.47619298662156118 0.38567257026406832 0 0.48066657104731358 0.35879232805613798 0 0.46019835146207061 0.37428966318792878 0 0.45298528906047569 0.36141464884599372 0 0.48066657104731358 0.35879232805613798 0 0.46076585485775151 0.35072933866660111 0 0.45298528906047569 0.36141464884599372 0 0.46076585485775151 0.35072933866660111 0 0.45196788730794962 0.35155528536470881 0 0.45298528906047569 0.36141464884599372 0 0.45269332846590637 0.34109124104233002 0 0.46076585485775151 0.35072933866660111 0 0.45196788730794962 0.35155528536470881 0 0.45269332846590637 0.34109124104233002 0 0.46674311739907293 0.34140219078764011 0 0.46076585485775151 0.35072933866660111 0 0.45269332846590637 0.34109124104233002 0 0.4455224157184916 0.34868280746322988 0 0.44324771103146088 0.34754007246553142 0 0.45269332846590637 0.34109124104233002 0 0.45196788730794962 0.35155528536470881 0 0.4455224157184916 0.34868280746322988 0 0.45196788730794962 0.35155528536470881 0 0.44787254843712271 0.35585839080538961 0 0.45298528906047569 0.36141464884599372 0 0.45196788730794962 0.35155528536470881 0 0.4455224157184916 0.34868280746322988 0 0.44787254843712271 0.35585839080538961 0 0.4455224157184916 0.34868280746322988 0 0.44787254843712271 0.35585839080538961 0 0.4409167789573496 0.35292080828914879 0 0.4409167789573496 0.35292080828914879 0 0.44112430951610521 0.34647334708372751 0 0.43156872718289602 0.34939284307192292 0 0.4409167789573496 0.35292080828914879 0 0.44112430951610521 0.34647334708372751 0 0.44324771103146088 0.34754007246553142 0 0.4409167789573496 0.35292080828914879 0 0.44324771103146088 0.34754007246553142 0 0.4455224157184916 0.34868280746322988 0 0.4409167789573496 0.35292080828914879 0 0.44324771103146088 0.34754007246553142 0 0.4455224157184916 0.34868280746322988 0 0.44324771103146088 0.34754007246553142 0 0.4409167789573496 0.35292080828914879 0 0.44112430951610521 0.34647334708372751 0 0.44112430951610521 0.34647334708372751 0 0.44324771103146088 0.34754007246553142 0 0.46019835146207061 0.37428966318792878 0 0.45298528906047569 0.36141464884599372 0 0.44032345541708739 0.37135390330443341 0 0.44787254843712271 0.35585839080538961 0 0.4409167789573496 0.35292080828914879 0 0.44032345541708739 0.37135390330443341 0 0.4409167789573496 0.35292080828914879 0 0.44032345541708739 0.37135390330443341 0 0.44787254843712271 0.35585839080538961 0 0.45298528906047569 0.36141464884599372 0 0.44032345541708739 0.37135390330443341 0 0.4409167789573496 0.35292080828914879 0 0.42410924007198691 0.35604029841919771 0 0.42932373850302191 0.37968224366946718 0 0.4409167789573496 0.35292080828914879 0 0.44032345541708739 0.37135390330443341 0 0.42932373850302191 0.37968224366946718 0 0.4409167789573496 0.35292080828914879 0 0.42932373850302191 0.37968224366946718 0 0.41107293508554521 0.36747615629143487 0 0.42410924007198691 0.35604029841919771 0 0.42932373850302191 0.37968224366946718 0 0.41107293508554521 0.36747615629143487 0 0.40939357090644912 0.34734123737418232 0 0.42410924007198691 0.35604029841919771 0 0.40939357090644912 0.34734123737418232 0 0.42410924007198691 0.35604029841919771 0 0.42646449253531032 0.3391087489363987 0 0.42410924007198691 0.35604029841919771 0 0.43156872718289602 0.34939284307192292 0 0.42646449253531032 0.3391087489363987 0 0.4409167789573496 0.35292080828914879 0 0.42410924007198691 0.35604029841919771 0 0.43156872718289602 0.34939284307192292 0 0.44112430951610521 0.34647334708372751 0 0.43156872718289602 0.34939284307192292 0 0.42646449253531032 0.3391087489363987 0 0.42775636386901622 0.33109229628491138 0 0.42646449253531032 0.3391087489363987 0 0.41180467555451522 0.33174415078907038 0 0.44112430951610521 0.34647334708372751 0 0.43632141822097781 0.33560713819162419 0 0.42646449253531032 0.3391087489363987 0 0.44112430951610521 0.34647334708372751 0 0.42646449253531032 0.3391087489363987 0 0.43632141822097781 0.33560713819162419 0 0.42775636386901622 0.33109229628491138 0 0.42646449253531032 0.3391087489363987 0 0.43632141822097781 0.33560713819162419 0 0.42775636386901622 0.33109229628491138 0 0.43384499630266932 0.32608114691407342 0 0.43011593485133648 0.30576469013711671 0 0.42929882540953213 0.31846228084483358 0 0.41447223887376838 0.31448807022240949 0 0.44200337771115111 0.31916287233492419 0 0.43632141822097781 0.33560713819162419 0 0.43384499630266932 0.32608114691407342 0 0.42775636386901622 0.33109229628491138 0 0.42929882540953213 0.31846228084483358 0 0.41447223887376838 0.31448807022240949 0 0.43011593485133648 0.30576469013711671 0 0.44200337771115111 0.31916287233492419 0 0.42929882540953213 0.31846228084483358 0 0.42775636386901622 0.33109229628491138 0 0.43384499630266932 0.32608114691407342 0 0.42929882540953213 0.31846228084483358 0 0.44200337771115111 0.31916287233492419 0 0.43384499630266932 0.32608114691407342 0 0.42929882540953213 0.31846228084483358 0 0.42775636386901622 0.33109229628491138 0 0.41447223887376838 0.31448807022240949 0 0.41180467555451522 0.33174415078907038 0 0.40078959552279181 0.31124784832349373 0 0.41447223887376838 0.31448807022240949 0 0.41180467555451522 0.33174415078907038 0 0.41447223887376838 0.31448807022240949 0 0.41180467555451522 0.33174415078907038 0 0.42775636386901622 0.33109229628491138 0 0.41447223887376838 0.31448807022240949 0 0.40939357090644912 0.34734123737418232 0 0.42646449253531032 0.3391087489363987 0 0.41180467555451522 0.33174415078907038 0 0.42646449253531032 0.3391087489363987 0 0.41180467555451522 0.33174415078907038 0 0.40939357090644912 0.34734123737418232 0 0.41180467555451522 0.33174415078907038 0 0.40939357090644912 0.34734123737418232 0 0.39671075572290271 0.33609853606434659 0 0.39748379629800762 0.34639563375400839 0 0.40939357090644912 0.34734123737418232 0 0.41180467555451522 0.33174415078907038 0 0.39671075572290271 0.33609853606434659 0 0.41180467555451522 0.33174415078907038 0 0.39671075572290271 0.33609853606434659 0 0.38777133405628023 0.31967060972755179 0 0.39671075572290271 0.33609853606434659 0 0.38880704121611898 0.33978294247067797 0 0.39748379629800762 0.34639563375400839 0 0.41180467555451522 0.33174415078907038 0 0.38777133405628023 0.31967060972755179 0 0.40078959552279181 0.31124784832349373 0 0.41180467555451522 0.33174415078907038 0 0.38777133405628023 0.31967060972755179 0 0.36373799255804551 0.30759706866603248 0 0.38777133405628023 0.31967060972755179 0 0.37426595394063022 0.32857658028107462 0 0.36717840106689531 0.32448820787092247 0 0.3837492980735262 0.32372812733146028 0 0.36373799255804551 0.30759706866603248 0 0.38777133405628023 0.31967060972755179 0 0.3837492980735262 0.32372812733146028 0 0.38777133405628023 0.31967060972755179 0 0.3837492980735262 0.32372812733146028 0 0.38634806609292732 0.33117674537271358 0 0.37426595394063022 0.32857658028107462 0 0.3837492980735262 0.32372812733146028 0 0.38069347762816741 0.32996628781883308 0 0.39671075572290271 0.33609853606434659 0 0.38777133405628023 0.31967060972755179 0 0.38634806609292732 0.33117674537271358 0 0.38880704121611898 0.33978294247067797 0 0.37984957394000052 0.33670230057325629 0 0.38364301402675688 0.34854149658906519 0 0.39671075572290271 0.33609853606434659 0 0.38880704121611898 0.33978294247067797 0 0.38634806609292732 0.33117674537271358 0 0.38880704121611898 0.33978294247067797 0 0.38634806609292732 0.33117674537271358 0 0.37984957394000052 0.33670230057325629 0 0.3837492980735262 0.32372812733146028 0 0.38634806609292732 0.33117674537271358 0 0.38069347762816741 0.32996628781883308 0 0.38634806609292732 0.33117674537271358 0 0.38069347762816741 0.32996628781883308 0 0.37984957394000052 0.33670230057325629 0 0.37336563283519492 0.33384791009870007 0 0.37426595394063022 0.32857658028107462 0 0.38069347762816741 0.32996628781883308 0 0.37336563283519492 0.33384791009870007 0 0.38069347762816741 0.32996628781883308 0 0.37984957394000052 0.33670230057325629 0 0.37045383616039212 0.34272485838293421 0 0.37984957394000052 0.33670230057325629 0 0.38364301402675688 0.34854149658906519 0 0.37239845374498082 0.35567049118911281 0 0.37045383616039212 0.34272485838293421 0 0.38364301402675688 0.34854149658906519 0 0.38880704121611898 0.33978294247067797 0 0.38364301402675688 0.34854149658906519 0 0.39748379629800762 0.34639563375400839 0 0.38364301402675688 0.34854149658906519 0 0.38265698097588818 0.35868574501183348 0 0.39636521832607552 0.35716934833443947 0 0.37239845374498082 0.35567049118911281 0 0.38364301402675688 0.34854149658906519 0 0.38265698097588818 0.35868574501183348 0 0.38265698097588818 0.35868574501183348 0 0.37536473462189052 0.36896654845767929 0 0.39342377214235869 0.37576511373842869 0 0.37239845374498082 0.35567049118911281 0 0.38265698097588818 0.35868574501183348 0 0.37536473462189052 0.36896654845767929 0 0.41107293508554521 0.36747615629143487 0 0.39636521832607552 0.35716934833443947 0 0.39342377214235869 0.37576511373842869 0 0.38265698097588818 0.35868574501183348 0 0.39636521832607552 0.35716934833443947 0 0.39342377214235869 0.37576511373842869 0 0.41107293508554521 0.36747615629143487 0 0.40939357090644912 0.34734123737418232 0 0.39636521832607552 0.35716934833443947 0 0.40939357090644912 0.34734123737418232 0 0.39748379629800762 0.34639563375400839 0 0.39636521832607552 0.35716934833443947 0 0.38364301402675688 0.34854149658906519 0 0.39748379629800762 0.34639563375400839 0 0.39636521832607552 0.35716934833443947 0 0.39697781574599472 0.39810702919131341 0 0.39342377214235869 0.37576511373842869 0 0.40970579190512302 0.38549484438808601 0 0.41107293508554521 0.36747615629143487 0 0.39342377214235869 0.37576511373842869 0 0.40970579190512302 0.38549484438808601 0 0.37536473462189052 0.36896654845767929 0 0.39342377214235869 0.37576511373842869 0 0.37520305704700868 0.39358684959615747 0 0.39697781574599472 0.39810702919131341 0 0.39342377214235869 0.37576511373842869 0 0.37520305704700868 0.39358684959615747 0 0.39697781574599472 0.39810702919131341 0 0.37520305704700868 0.39358684959615747 0 0.37917251346786629 0.41348425346507811 0 0.37917251346786629 0.41348425346507811 0 0.38530667032197258 0.43099325073631189 0 0.40151868418533238 0.41871846489304781 0 0.36461484244926301 0.42905914892343239 0 0.37917251346786629 0.41348425346507811 0 0.38530667032197258 0.43099325073631189 0 0.38530667032197258 0.43099325073631189 0 0.39193481263067148 0.43161279494159871 0 0.38768701167991071 0.44129245364257458 0 0.38530667032197258 0.43099325073631189 0 0.39193481263067148 0.43161279494159871 0 0.38530667032197258 0.43099325073631189 0 0.39193481263067148 0.43161279494159871 0 0.40151868418533238 0.41871846489304781 0 0.38530667032197258 0.43099325073631189 0 0.40151868418533238 0.41871846489304781 0 0.39193481263067148 0.43161279494159871 0 0.40542704440998217 0.43163223338230039 0 0.40151868418533238 0.41871846489304781 0 0.39193481263067148 0.43161279494159871 0 0.40542704440998217 0.43163223338230039 0 0.39883256539179729 0.44544696672771161 0 0.39697781574599472 0.39810702919131341 0 0.37917251346786629 0.41348425346507811 0 0.40151868418533238 0.41871846489304781 0 0.39697781574599472 0.39810702919131341 0 0.40151868418533238 0.41871846489304781 0 0.41773069804869373 0.40644367904978529 0 0.40151868418533238 0.41871846489304781 0 0.41773069804869373 0.40644367904978529 0 0.4169871779360394 0.40816002477696323 0 0.40151868418533238 0.41871846489304781 0 0.41773069804869373 0.40644367904978529 0 0.40151868418533238 0.41871846489304781 0 0.41313349083219952 0.4205692128487683 0 0.4169871779360394 0.40816002477696323 0 0.41313349083219952 0.4205692128487683 0 0.4169871779360394 0.40816002477696323 0 0.42294106172149998 0.41657897061183519 0 0.41313349083219952 0.4205692128487683 0 0.41879348590814319 0.42775637057969501 0 0.42294106172149998 0.41657897061183519 0 0.41773069804869373 0.40644367904978529 0 0.4169871779360394 0.40816002477696323 0 0.42294106172149998 0.41657897061183519 0 0.41773069804869373 0.40644367904978529 0 0.4169871779360394 0.40816002477696323 0 0.40542704440998217 0.43163223338230039 0 0.41879348590814319 0.42775637057969501 0 0.41889492365666048 0.44807913716748082 0 0.40542704440998217 0.43163223338230039 0 0.40151868418533238 0.41871846489304781 0 0.41313349083219952 0.4205692128487683 0 0.40542704440998217 0.43163223338230039 0 0.41313349083219952 0.4205692128487683 0 0.41879348590814319 0.42775637057969501 0 0.41879348590814319 0.42775637057969501 0 0.43348627944732321 0.43077218288997399 0 0.41889492365666048 0.44807913716748082 0 0.41879348590814319 0.42775637057969501 0 0.43348627944732321 0.43077218288997399 0 0.42294106172149998 0.41657897061183519 0 0.43348627944732321 0.43077218288997399 0 0.42294106172149998 0.41657897061183519 0 0.43909461284828699 0.40953100279977739 0 0.41773069804869373 0.40644367904978529 0 0.42294106172149998 0.41657897061183519 0 0.43909461284828699 0.40953100279977739 0 0.41773069804869373 0.40644367904978529 0 0.42932373850302191 0.37968224366946718 0 0.41773069804869373 0.40644367904978529 0 0.43973013187682641 0.38978699831971803 0 0.41773069804869373 0.40644367904978529 0 0.43973013187682641 0.38978699831971803 0 0.43909461284828699 0.40953100279977739 0 0.41773069804869373 0.40644367904978529 0 0.42932373850302191 0.37968224366946718 0 0.43973013187682641 0.38978699831971803 0 0.39697781574599472 0.39810702919131341 0 0.41773069804869373 0.40644367904978529 0 0.40970579190512302 0.38549484438808601 0 0.41773069804869373 0.40644367904978529 0 0.40970579190512302 0.38549484438808601 0 0.42932373850302191 0.37968224366946718 0 0.41107293508554521 0.36747615629143487 0 0.40970579190512302 0.38549484438808601 0 0.42932373850302191 0.37968224366946718 0 0.44032345541708739 0.37135390330443341 0 0.42932373850302191 0.37968224366946718 0 0.43973013187682641 0.38978699831971803 0 0.46019835146207061 0.37428966318792878 0 0.44032345541708739 0.37135390330443341 0 0.43973013187682641 0.38978699831971803 0 0.46019835146207061 0.37428966318792878 0 0.43973013187682641 0.38978699831971803 0 0.46019835146207061 0.37428966318792878 0 0.43973013187682641 0.38978699831971803 0 0.457524644635319 0.39904919358817348 0 0.44032345541708739 0.37135390330443341 0 0.43973013187682641 0.38978699831971803 0 0.43973013187682641 0.38978699831971803 0 0.43909461284828699 0.40953100279977739 0 0.43973013187682641 0.38978699831971803 0 0.457524644635319 0.39904919358817348 0 0.43909461284828699 0.40953100279977739 0 0.46019835146207061 0.37428966318792878 0 0.457524644635319 0.39904919358817348 0 0.47619298662156118 0.38567257026406832 0 0.457524644635319 0.39904919358817348 0 0.47619298662156118 0.38567257026406832 0 0.47582186747689559 0.41068734663876238 0 0.47619298662156118 0.38567257026406832 0 0.5 0.38629994522185701 0 0.47582186747689559 0.41068734663876238 0 0.48066657104731358 0.35879232805613798 0 0.47619298662156118 0.38567257026406832 0 0.5 0.38629994522185701 0 0.5 0.38629994522185701 0 0.5 0.43530447952403573 0 0.47582186747689559 0.41068734663876238 0 0.5 0.43530447952403573 0 0.47582186747689559 0.41068734663876238 0 0.46571249320808261 0.44299164363965138 0 0.47582186747689559 0.41068734663876238 0 0.45247191156913469 0.42402818421917771 0 0.46571249320808261 0.44299164363965138 0 0.457524644635319 0.39904919358817348 0 0.47582186747689559 0.41068734663876238 0 0.45247191156913469 0.42402818421917771 0 0.43348627944732321 0.43077218288997399 0 0.43909461284828699 0.40953100279977739 0 0.45247191156913469 0.42402818421917771 0 0.457524644635319 0.39904919358817348 0 0.43909461284828699 0.40953100279977739 0 0.45247191156913469 0.42402818421917771 0 0.43348627944732321 0.43077218288997399 0 0.45247191156913469 0.42402818421917771 0 0.44077410416331758 0.44635759166033162 0 0.44077410416331758 0.44635759166033162 0 0.44651806866335192 0.4670253113074665 0 0.46571249320808261 0.44299164363965138 0 0.45247191156913469 0.42402818421917771 0 0.44077410416331758 0.44635759166033162 0 0.46571249320808261 0.44299164363965138 0 0.5 0.43530447952403573 0 0.5 0.5 0 0.47484746008725182 0.46906428689423069 0 0.44651806866335192 0.4670253113074665 0 0.46571249320808261 0.44299164363965138 0 0.47484746008725182 0.46906428689423069 0 0.5 0.43530447952403573 0 0.46571249320808261 0.44299164363965138 0 0.47484746008725182 0.46906428689423069 0 0.5 0.5 0 0.47484746008725182 0.46906428689423069 0 0.4620067385648246 0.5 0 0.44651806866335192 0.4670253113074665 0 0.47484746008725182 0.46906428689423069 0 0.4620067385648246 0.5 0 0.44651806866335192 0.4670253113074665 0 0.4620067385648246 0.5 0 0.42748912605400069 0.48351265565373241 0 0.4620067385648246 0.5 0 0.40846018344465018 0.49999999999999878 0 0.42748912605400069 0.48351265565373241 0 0.40846018344465018 0.49999999999999878 0 0.40716090594697413 0.48259949577157241 0 0.42748912605400069 0.48351265565373241 0 0.40846018344465018 0.49999999999999878 0 0.42748912605400069 0.48351265565373241 0 0.40716090594697413 0.48259949577157241 0 0.42419011605838369 0.46549338050092848 0 0.40430356786599791 0.46538609144498738 0 0.40716090594697413 0.48259949577157241 0 0.42748912605400069 0.48351265565373241 0 0.42419011605838369 0.46549338050092848 0 0.44651806866335192 0.4670253113074665 0 0.42748912605400069 0.48351265565373241 0 0.42419011605838369 0.46549338050092848 0 0.44651806866335192 0.4670253113074665 0 0.42748912605400069 0.48351265565373241 0 0.44077410416331758 0.44635759166033162 0 0.44651806866335192 0.4670253113074665 0 0.42419011605838369 0.46549338050092848 0 0.44077410416331758 0.44635759166033162 0 0.42419011605838369 0.46549338050092848 0 0.41889492365666048 0.44807913716748082 0 0.43348627944732321 0.43077218288997399 0 0.44077410416331758 0.44635759166033162 0 0.41889492365666048 0.44807913716748082 0 0.43348627944732321 0.43077218288997399 0 0.41889492365666048 0.44807913716748082 0 0.41889492365666048 0.44807913716748082 0 0.40430356786599791 0.46538609144498738 0 0.39883256539179729 0.44544696672771161 0 0.40542704440998217 0.43163223338230039 0 0.41889492365666048 0.44807913716748082 0 0.39883256539179729 0.44544696672771161 0 0.42419011605838369 0.46549338050092848 0 0.41889492365666048 0.44807913716748082 0 0.40430356786599791 0.46538609144498738 0 0.41889492365666048 0.44807913716748082 0 0.40430356786599791 0.46538609144498738 0 0.40430356786599791 0.46538609144498738 0 0.39883256539179729 0.44544696672771161 0 0.38474803210756098 0.45467908978732807 0 0.39193481263067148 0.43161279494159871 0 0.39883256539179729 0.44544696672771161 0 0.38768701167991071 0.44129245364257458 0 0.36703870231399438 0.44482468444833573 0 0.38768701167991071 0.44129245364257458 0 0.38474803210756098 0.45467908978732807 0 0.36703870231399438 0.44482468444833573 0 0.38530667032197258 0.43099325073631189 0 0.38768701167991071 0.44129245364257458 0 0.36703870231399438 0.44482468444833573 0 0.38530667032197258 0.43099325073631189 0 0.39883256539179729 0.44544696672771161 0 0.38768701167991071 0.44129245364257458 0 0.38474803210756098 0.45467908978732807 0 0.37137175589408811 0.45998800703180548 0 0.38474803210756098 0.45467908978732807 0 0.37993922703666222 0.4709906204050256 0 0.40430356786599791 0.46538609144498738 0 0.38474803210756098 0.45467908978732807 0 0.37993922703666222 0.4709906204050256 0 0.37493664495074103 0.48476860937315691 0 0.37993922703666222 0.4709906204050256 0 0.38971221207533518 0.48269304572249411 0 0.38971221207533518 0.48269304572249411 0 0.37512085628467218 0.50000000000000067 0 0.37493664495074103 0.48476860937315691 0 0.38971221207533518 0.48269304572249411 0 0.37512085628467218 0.50000000000000067 0 0.38971221207533518 0.48269304572249411 0 0.37512085628467218 0.50000000000000067 0 0.39179051986466118 0.5 0 0.40846018344465018 0.49999999999999878 0 0.40716090594697413 0.48259949577157241 0 0.39179051986466118 0.5 0 0.40716090594697413 0.48259949577157241 0 0.38971221207533518 0.48269304572249411 0 0.39179051986466118 0.5 0 0.40430356786599791 0.46538609144498738 0 0.37993922703666222 0.4709906204050256 0 0.38971221207533518 0.48269304572249411 0 0.40430356786599791 0.46538609144498738 0 0.38971221207533518 0.48269304572249411 0 0.40716090594697413 0.48259949577157241 0 0.40430356786599791 0.46538609144498738 0 0.38971221207533518 0.48269304572249411 0 0.33477242705749699 0.073798201253793466 0 0.32320866918606872 0.082906465266580409 0 0.3456936304770617 0.086944964405958947 0 0.32320866918606872 0.082906465266580409 0 0.33357335087868462 0.099871903113549251 0 0.3456936304770617 0.086944964405958947 0 0.33477242705749699 0.073798201253793466 0 0.35043855289507891 0.072677772100221846 0 0.34545156138663641 0.05958624338052524 0 0.33477242705749699 0.073798201253793466 0 0.3456936304770617 0.086944964405958947 0 0.35043855289507891 0.072677772100221846 0 0.33477242705749699 0.073798201253793466 0 0.32809850513257849 0.053747714074806031 0 0.33477242705749699 0.073798201253793466 0 0.31640504598581132 0.068775920904655369 0 0.32809850513257849 0.053747714074806031 0 0.33477242705749699 0.073798201253793466 0 0.31640504598581132 0.068775920904655369 0 0.32320866918606872 0.082906465266580409 0 0.31640504598581132 0.068775920904655369 0 0.32320866918606872 0.082906465266580409 0 0.2979253526894815 0.073367753111024239 0 0.32320866918606872 0.082906465266580409 0 0.31277041779510267 0.094770695975957164 0 0.33357335087868462 0.099871903113549251 0 0.31277041779510267 0.094770695975957164 0 0.33357335087868462 0.099871903113549251 0 0.31277041779510267 0.094770695975957164 0 0.32045181388148469 0.1058453851329275 0 0.31277041779510267 0.094770695975957164 0 0.32045181388148469 0.1058453851329275 0 0.33357335087868462 0.099871903113549251 0 0.32709250492909742 0.1154196328754906 0 0.31167427786168411 0.1186260193646205 0 0.32198765632345422 0.1264387322471007 0 0.32045181388148469 0.1058453851329275 0 0.32709250492909742 0.1154196328754906 0 0.31167427786168411 0.1186260193646205 0 0.32045181388148469 0.1058453851329275 0 0.32709250492909742 0.1154196328754906 0 0.32709250492909742 0.1154196328754906 0 0.34802364458939838 0.1086874183810221 0 0.33813272825157631 0.1261481468483038 0 0.32709250492909742 0.1154196328754906 0 0.33813272825157631 0.1261481468483038 0 0.32198765632345422 0.1264387322471007 0 0.32045181388148469 0.1058453851329275 0 0.32709250492909742 0.1154196328754906 0 0.34802364458939838 0.1086874183810221 0 0.32045181388148469 0.1058453851329275 0 0.34802364458939838 0.1086874183810221 0 0.32045181388148469 0.1058453851329275 0 0.33357335087868462 0.099871903113549251 0 0.34802364458939838 0.1086874183810221 0 0.35437628396226672 0.1049731102511403 0 0.36194639831676201 0.093962469140300639 0 0.3456936304770617 0.086944964405958947 0 0.33357335087868462 0.099871903113549251 0 0.35437628396226672 0.1049731102511403 0 0.33357335087868462 0.099871903113549251 0 0.35437628396226672 0.1049731102511403 0 0.3456936304770617 0.086944964405958947 0 0.34802364458939838 0.1086874183810221 0 0.35437628396226672 0.1049731102511403 0 0.3755954752973123 0.1115294516291151 0 0.33357335087868462 0.099871903113549251 0 0.34802364458939838 0.1086874183810221 0 0.35437628396226672 0.1049731102511403 0 0.34802364458939838 0.1086874183810221 0 0.33813272825157631 0.1261481468483038 0 0.36003508159978409 0.1278966641696074 0 0.36003508159978409 0.1278966641696074 0 0.38205529107153408 0.13411134420792509 0 0.3755954752973123 0.1115294516291151 0 0.34802364458939838 0.1086874183810221 0 0.36003508159978409 0.1278966641696074 0 0.3755954752973123 0.1115294516291151 0 0.34802364458939838 0.1086874183810221 0 0.3755954752973123 0.1115294516291151 0 0.35437628396226672 0.1049731102511403 0 0.37305893620072578 0.1026623483860698 0 0.3751792170458485 0.110074317388732 0 0.35437628396226672 0.1049731102511403 0 0.36194639831676201 0.093962469140300639 0 0.37305893620072578 0.1026623483860698 0 0.35437628396226672 0.1049731102511403 0 0.3751792170458485 0.110074317388732 0 0.3755954752973123 0.1115294516291151 0 0.35437628396226672 0.1049731102511403 0 0.3751792170458485 0.110074317388732 0 0.37305893620072578 0.1026623483860698 0 0.3751792170458485 0.110074317388732 0 0.36194639831676201 0.093962469140300639 0 0.37305893620072578 0.1026623483860698 0 0.37188453547291372 0.092891913412360666 0 0.37188453547291372 0.092891913412360666 0 0.36405389621220918 0.079986586791583478 0 0.37816212205045041 0.084888251775124046 0 0.36194639831676201 0.093962469140300639 0 0.37188453547291372 0.092891913412360666 0 0.36405389621220918 0.079986586791583478 0 0.36194639831676201 0.093962469140300639 0 0.36405389621220918 0.079986586791583478 0 0.3456936304770617 0.086944964405958947 0 0.36405389621220918 0.079986586791583478 0 0.3456936304770617 0.086944964405958947 0 0.35043855289507891 0.072677772100221846 0 0.36405389621220918 0.079986586791583478 0 0.35043855289507891 0.072677772100221846 0 0.3622212493419899 0.063072864669248052 0 0.35043855289507891 0.072677772100221846 0 0.3622212493419899 0.063072864669248052 0 0.34545156138663641 0.05958624338052524 0 0.36405389621220918 0.079986586791583478 0 0.37816212205045041 0.084888251775124046 0 0.37931440045190862 0.061975983971827589 0 0.36405389621220918 0.079986586791583478 0 0.3622212493419899 0.063072864669248052 0 0.37931440045190862 0.061975983971827589 0 0.3622212493419899 0.063072864669248052 0 0.36373861940168001 0.039375227466248899 0 0.35319371213702561 0.050761359166923418 0 0.36373861940168001 0.039375227466248899 0 0.37931440045190862 0.061975983971827589 0 0.3622212493419899 0.063072864669248052 0 0.36373861940168001 0.039375227466248899 0 0.37931440045190862 0.061975983971827589 0 0.36373861940168001 0.039375227466248899 0 0.38111944860725772 0.046799012271134269 0 0.37931440045190862 0.061975983971827589 0 0.36373861940168001 0.039375227466248899 0 0.37227977885859592 0.029614699115919151 0 0.38439727355681202 0.036208625543587482 0 0.36373861940168001 0.039375227466248899 0 0.38439727355681202 0.036208625543587482 0 0.36465903349882067 0.032708619153442663 0 0.36373861940168001 0.039375227466248899 0 0.37227977885859592 0.029614699115919151 0 0.36465903349882067 0.032708619153442663 0 0.36135006783933687 0.035909393419942599 0 0.36373861940168001 0.039375227466248899 0 0.36135006783933687 0.035909393419942599 0 0.36373861940168001 0.039375227466248899 0 0.36465903349882067 0.032708619153442663 0 0.36135006783933687 0.035909393419942599 0 0.36186754184297321 0.031265799010313122 0 0.36135006783933687 0.035909393419942599 0 0.36186754184297321 0.031265799010313122 0 0.35711481747519869 0.028928204246996689 0 0.36373861940168001 0.039375227466248899 0 0.34450775413012119 0.042322974908369733 0 0.35319371213702561 0.050761359166923418 0 0.36135006783933687 0.035909393419942599 0 0.36373861940168001 0.039375227466248899 0 0.34450775413012119 0.042322974908369733 0 0.36135006783933687 0.035909393419942599 0 0.34701439750337298 0.032456927831238318 0 0.34450775413012119 0.042322974908369733 0 0.36373861940168001 0.039375227466248899 0 0.34450775413012119 0.042322974908369733 0 0.36135006783933687 0.035909393419942599 0 0.34701439750337298 0.032456927831238318 0 0.35711481747519869 0.028928204246996689 0 0.3622212493419899 0.063072864669248052 0 0.34545156138663641 0.05958624338052524 0 0.35319371213702561 0.050761359166923418 0 0.34545156138663641 0.05958624338052524 0 0.35319371213702561 0.050761359166923418 0 0.33876835325955429 0.051052881488870168 0 0.34450775413012119 0.042322974908369733 0 0.35319371213702561 0.050761359166923418 0 0.33876835325955429 0.051052881488870168 0 0.36472049799435169 0.00050711610351814127 0 0.38353595233511673 0.023924328476665261 0 0.36472049799435169 0.00050711610351814127 0 0.36628502366278981 0.018517642321977369 0 0.38353595233511673 0.023924328476665261 0 0.36472049799435169 0.00050711610351814127 0 0.36628502366278981 0.018517642321977369 0 0.34941812195085359 0.0099141131589115389 0 0.36628502366278981 0.018517642321977369 0 0.37227977885859592 0.029614699115919151 0 0.38353595233511673 0.023924328476665261 0 0.36628502366278981 0.018517642321977369 0 0.36358067787315063 0.027146305977982059 0 0.35715745699232221 0.021418443864809959 0 0.36628502366278981 0.018517642321977369 0 0.37227977885859592 0.029614699115919151 0 0.36358067787315063 0.027146305977982059 0 0.36465903349882067 0.032708619153442663 0 0.36186754184297321 0.031265799010313122 0 0.36358067787315063 0.027146305977982059 0 0.36465903349882067 0.032708619153442663 0 0.37227977885859592 0.029614699115919151 0 0.36358067787315063 0.027146305977982059 0 0.36186754184297321 0.031265799010313122 0 0.36358067787315063 0.027146305977982059 0 0.35711481747519869 0.028928204246996689 0 0.36628502366278981 0.018517642321977369 0 0.35715745699232221 0.021418443864809959 0 0.34941812195085359 0.0099141131589115389 0 0.36358067787315063 0.027146305977982059 0 0.35711481747519869 0.028928204246996689 0 0.35715745699232221 0.021418443864809959 0 0.35711481747519869 0.028928204246996689 0 0.34938864399961811 0.022585953618182109 0 0.35715745699232221 0.021418443864809959 0 0.34701439750337298 0.032456927831238318 0 0.35711481747519869 0.028928204246996689 0 0.34938864399961811 0.022585953618182109 0 0.34938864399961811 0.022585953618182109 0 0.34941812195085359 0.0099141131589115389 0 0.33411574590735571 0.01932111021430508 0 0.34938864399961811 0.022585953618182109 0 0.35715745699232221 0.021418443864809959 0 0.34941812195085359 0.0099141131589115389 0 0.36472049799435169 0.00050711610351814127 0 0.34941812195085359 0.0099141131589115389 0 0.34402944143937603 -0.0055725786794763432 0 0.36472049799435169 0.00050711610351814127 0 0.34941812195085359 0.0099141131589115389 0 0.3328424792919546 0.0001001881096009792 0 0.33411574590735571 0.01932111021430508 0 0.32291532420485503 0.01058067443610218 0 0.34941812195085359 0.0099141131589115389 0 0.3328424792919546 0.0001001881096009792 0 0.33411574590735571 0.01932111021430508 0 0.34941812195085359 0.0099141131589115389 0 0.3328424792919546 0.0001001881096009792 0 0.34402944143937603 -0.0055725786794763432 0 0.34941812195085359 0.0099141131589115389 0 0.33411574590735571 0.01932111021430508 0 0.33411574590735571 0.01932111021430508 0 0.3181898018030378 0.023978961712342189 0 0.33382091764048999 0.032670139403348737 0 0.34701439750337298 0.032456927831238318 0 0.33411574590735571 0.01932111021430508 0 0.33382091764048999 0.032670139403348737 0 0.34701439750337298 0.032456927831238318 0 0.34938864399961811 0.022585953618182109 0 0.33411574590735571 0.01932111021430508 0 0.33411574590735571 0.01932111021430508 0 0.3181898018030378 0.023978961712342189 0 0.32291532420485503 0.01058067443610218 0 0.3181898018030378 0.023978961712342189 0 0.32291532420485503 0.01058067443610218 0 0.31110271474751788 0.0026872010741936059 0 0.3328424792919546 0.0001001881096009792 0 0.32291532420485503 0.01058067443610218 0 0.31110271474751788 0.0026872010741936059 0 0.3181898018030378 0.023978961712342189 0 0.31110271474751788 0.0026872010741936059 0 0.33477242705749699 0.073798201253793466 0 0.34545156138663641 0.05958624338052524 0 0.32809850513257849 0.053747714074806031 0 0.34545156138663641 0.05958624338052524 0 0.33876835325955429 0.051052881488870168 0 0.32809850513257849 0.053747714074806031 0 0.34545156138663641 0.05958624338052524 0 0.32809850513257849 0.053747714074806031 0 0.33876835325955429 0.051052881488870168 0 0.32527688885856232 0.045270722350489172 0 0.32809850513257849 0.053747714074806031 0 0.34450775413012119 0.042322974908369733 0 0.32527688885856232 0.045270722350489172 0 0.34450775413012119 0.042322974908369733 0 0.33876835325955429 0.051052881488870168 0 0.32527688885856232 0.045270722350489172 0 0.34450775413012119 0.042322974908369733 0 0.33382091764048999 0.032670139403348737 0 0.32527688885856232 0.045270722350489172 0 0.34701439750337298 0.032456927831238318 0 0.34450775413012119 0.042322974908369733 0 0.33382091764048999 0.032670139403348737 0 0.3181898018030378 0.023978961712342189 0 0.32527688885856232 0.045270722350489172 0 0.31134039322423168 0.036014912185624158 0 0.3181898018030378 0.023978961712342189 0 0.32527688885856232 0.045270722350489172 0 0.3181898018030378 0.023978961712342189 0 0.33382091764048999 0.032670139403348737 0 0.32527688885856232 0.045270722350489172 0 0.32527688885856232 0.045270722350489172 0 0.30990611603541041 0.047626786710206273 0 0.32527688885856232 0.045270722350489172 0 0.30990611603541041 0.047626786710206273 0 0.31134039322423168 0.036014912185624158 0 0.32527688885856232 0.045270722350489172 0 0.32809850513257849 0.053747714074806031 0 0.30990611603541041 0.047626786710206273 0 0.32809850513257849 0.053747714074806031 0 0.31685681946374922 0.057063998054919712 0 0.30990611603541041 0.047626786710206273 0 0.32809850513257849 0.053747714074806031 0 0.30990611603541041 0.047626786710206273 0 0.32527688885856232 0.045270722350489172 0 0.32809850513257849 0.053747714074806031 0 0.31640504598581132 0.068775920904655369 0 0.32809850513257849 0.053747714074806031 0 0.31685681946374922 0.057063998054919712 0 0.31685681946374922 0.057063998054919712 0 0.29865340907706911 0.058047996137762438 0 0.30990611603541041 0.047626786710206273 0 0.30990611603541041 0.047626786710206273 0 0.2847959068321374 0.051475732345504427 0 0.29865340907706911 0.058047996137762438 0 0.30990611603541041 0.047626786710206273 0 0.2847959068321374 0.051475732345504427 0 0.31640504598581132 0.068775920904655369 0 0.31685681946374922 0.057063998054919712 0 0.29865340907706911 0.058047996137762438 0 0.30990611603541041 0.047626786710206273 0 0.29094175984665538 0.041246126856917753 0 0.29518743040961598 0.048513382429993833 0 0.30990611603541041 0.047626786710206273 0 0.31134039322423168 0.036014912185624158 0 0.30235720961076828 0.036917873065088112 0 0.30990611603541041 0.047626786710206273 0 0.30235720961076828 0.036917873065088112 0 0.29094175984665538 0.041246126856917753 0 0.30990611603541041 0.047626786710206273 0 0.29094175984665538 0.041246126856917753 0 0.31134039322423168 0.036014912185624158 0 0.30235720961076828 0.036917873065088112 0 0.30097194981337999 0.026280217089997102 0 0.30235720961076828 0.036917873065088112 0 0.29504492944097471 0.033327436998467068 0 0.30097194981337999 0.026280217089997102 0 0.29094175984665538 0.041246126856917753 0 0.27197740365790091 0.03486546700362788 0 0.29094175984665538 0.041246126856917753 0 0.28701264875376148 0.028346355681285351 0 0.27197740365790091 0.03486546700362788 0 0.29094175984665538 0.041246126856917753 0 0.28300147370917927 0.045255982643715699 0 0.27197740365790091 0.03486546700362788 0 0.29094175984665538 0.041246126856917753 0 0.28300147370917927 0.045255982643715699 0 0.29518743040961598 0.048513382429993833 0 0.29094175984665538 0.041246126856917753 0 0.29504492944097471 0.033327436998467068 0 0.28701264875376148 0.028346355681285351 0 0.30235720961076828 0.036917873065088112 0 0.29094175984665538 0.041246126856917753 0 0.29504492944097471 0.033327436998467068 0 0.29865340907706911 0.058047996137762438 0 0.2847959068321374 0.051475732345504427 0 0.28293853275281028 0.051760434547621838 0 0.28300147370917927 0.045255982643715699 0 0.28185737482447171 0.050201669988251763 0 0.2847959068321374 0.051475732345504427 0 0.30990611603541041 0.047626786710206273 0 0.2847959068321374 0.051475732345504427 0 0.29518743040961598 0.048513382429993833 0 0.28300147370917927 0.045255982643715699 0 0.2847959068321374 0.051475732345504427 0 0.29518743040961598 0.048513382429993833 0 0.29865340907706911 0.058047996137762438 0 0.28293853275281028 0.051760434547621838 0 0.2979253526894815 0.073367753111024239 0 0.2847959068321374 0.051475732345504427 0 0.28293853275281028 0.051760434547621838 0 0.28185737482447171 0.050201669988251763 0 0.2847959068321374 0.051475732345504427 0 0.28293853275281028 0.051760434547621838 0 0.28185737482447171 0.050201669988251763 0 0.28293853275281028 0.051760434547621838 0 0.2847959068321374 0.051475732345504427 0 0.29518743040961598 0.048513382429993833 0 0.3181898018030378 0.023978961712342189 0 0.31110271474751788 0.0026872010741936059 0 0.30143957322282472 0.012558151048538919 0 0.31110271474751788 0.0026872010741936059 0 0.30143957322282472 0.012558151048538919 0 0.29874056080967082 -0.0010937581671198371 0 0.3181898018030378 0.023978961712342189 0 0.30143957322282472 0.012558151048538919 0 0.30097194981337999 0.026280217089997102 0 0.3181898018030378 0.023978961712342189 0 0.31134039322423168 0.036014912185624158 0 0.30097194981337999 0.026280217089997102 0 0.28701264875376148 0.028346355681285351 0 0.28787712113982339 0.01182494580150528 0 0.27453490744044329 0.022206053736125841 0 0.30097194981337999 0.026280217089997102 0 0.28701264875376148 0.028346355681285351 0 0.28787712113982339 0.01182494580150528 0 0.29504492944097471 0.033327436998467068 0 0.30097194981337999 0.026280217089997102 0 0.28701264875376148 0.028346355681285351 0 0.30143957322282472 0.012558151048538919 0 0.30097194981337999 0.026280217089997102 0 0.28787712113982339 0.01182494580150528 0 0.28787712113982339 0.01182494580150528 0 0.27709451946524188 0.0028561288189435661 0 0.28670906533606488 -0.0045854248474324014 0 0.28787712113982339 0.01182494580150528 0 0.28670906533606488 -0.0045854248474324014 0 0.29874056080967082 -0.0010937581671198371 0 0.30143957322282472 0.012558151048538919 0 0.28787712113982339 0.01182494580150528 0 0.29874056080967082 -0.0010937581671198371 0 0.26683245321846139 0.0050158075653103694 0 0.27709451946524188 0.0028561288189435661 0 0.26904692479048742 -0.0040207750924403096 0 0.26683245321846139 0.0050158075653103694 0 0.27709451946524188 0.0028561288189435661 0 0.27331206059952418 0.01088264588679941 0 0.28787712113982339 0.01182494580150528 0 0.27709451946524188 0.0028561288189435661 0 0.27331206059952418 0.01088264588679941 0 0.28787712113982339 0.01182494580150528 0 0.27331206059952418 0.01088264588679941 0 0.27453490744044329 0.022206053736125841 0 0.26683245321846139 0.0050158075653103694 0 0.27331206059952418 0.01088264588679941 0 0.25906856699892372 0.014744483464566459 0 0.27331206059952418 0.01088264588679941 0 0.27453490744044329 0.022206053736125841 0 0.25906856699892372 0.014744483464566459 0 0.28701264875376148 0.028346355681285351 0 0.27453490744044329 0.022206053736125841 0 0.27197740365790091 0.03486546700362788 0 0.27453490744044329 0.022206053736125841 0 0.26034572262971822 0.02914141918536196 0 0.27197740365790091 0.03486546700362788 0 0.23820522320742779 0.031326333378083687 0 0.26034572262971822 0.02914141918536196 0 0.25906856699892372 0.014744483464566459 0 0.27453490744044329 0.022206053736125841 0 0.26034572262971822 0.02914141918536196 0 0.25906856699892372 0.014744483464566459 0 0.24304819672666861 0.0028562376093386119 0 0.25906856699892372 0.014744483464566459 0 0.25969689090617881 0.0019970246112113038 0 0.26683245321846139 0.0050158075653103694 0 0.25906856699892372 0.014744483464566459 0 0.25969689090617881 0.0019970246112113038 0 0.26683245321846139 0.0050158075653103694 0 0.25969689090617881 0.0019970246112113038 0 0.26904692479048742 -0.0040207750924403096 0 0.28293853275281028 0.051760434547621838 0 0.25473550410923812 0.060045162112203891 0 0.28293853275281028 0.051760434547621838 0 0.25473550410923812 0.060045162112203891 0 0.27896642991942761 0.071724914294450992 0 0.28293853275281028 0.051760434547621838 0 0.26778929608240959 0.054082541380289333 0 0.25473550410923812 0.060045162112203891 0 0.26778929608240959 0.054082541380289333 0 0.27324896668429433 0.045233517237997872 0 0.25881522611184821 0.041896590261575162 0 0.28185737482447171 0.050201669988251763 0 0.26778929608240959 0.054082541380289333 0 0.27324896668429433 0.045233517237997872 0 0.28185737482447171 0.050201669988251763 0 0.28293853275281028 0.051760434547621838 0 0.26778929608240959 0.054082541380289333 0 0.28300147370917927 0.045255982643715699 0 0.28185737482447171 0.050201669988251763 0 0.27324896668429433 0.045233517237997872 0 0.28293853275281028 0.051760434547621838 0 0.26778929608240959 0.054082541380289333 0 0.28300147370917927 0.045255982643715699 0 0.27197740365790091 0.03486546700362788 0 0.27324896668429433 0.045233517237997872 0 0.27197740365790091 0.03486546700362788 0 0.27324896668429433 0.045233517237997872 0 0.25881522611184821 0.041896590261575162 0 0.23820522320742779 0.031326333378083687 0 0.26034572262971822 0.02914141918536196 0 0.25881522611184821 0.041896590261575162 0 0.26034572262971822 0.02914141918536196 0 0.27197740365790091 0.03486546700362788 0 0.25881522611184821 0.041896590261575162 0 0.26778929608240959 0.054082541380289333 0 0.25881522611184821 0.041896590261575162 0 0.25264005941200879 0.056404648212956661 0 0.26778929608240959 0.054082541380289333 0 0.25473550410923812 0.060045162112203891 0 0.25264005941200879 0.056404648212956661 0 0.26778929608240959 0.054082541380289333 0 0.25264005941200879 0.056404648212956661 0 0.25473550410923812 0.060045162112203891 0 0.25264005941200879 0.056404648212956661 0 0.24198506759167229 0.077413012218392516 0 0.24661873871824511 0.067450547448760584 0 0.26847053087800288 0.083907665343305737 0 0.25473550410923812 0.060045162112203891 0 0.26847053087800288 0.083907665343305737 0 0.24661873871824511 0.067450547448760584 0 0.25473550410923812 0.060045162112203891 0 0.26847053087800288 0.083907665343305737 0 0.24198506759167229 0.077413012218392516 0 0.26847053087800288 0.083907665343305737 0 0.25127847260488878 0.098715175395591756 0 0.24198506759167229 0.077413012218392516 0 0.26847053087800288 0.083907665343305737 0 0.26847053087800288 0.083907665343305737 0 0.27896642991942761 0.071724914294450992 0 0.29062047433655269 0.089339180659631715 0 0.26847053087800288 0.083907665343305737 0 0.29062047433655269 0.089339180659631715 0 0.26847053087800288 0.083907665343305737 0 0.29062047433655269 0.089339180659631715 0 0.27861550728281542 0.10153300647405571 0 0.26847053087800288 0.083907665343305737 0 0.27861550728281542 0.10153300647405571 0 0.25473550410923812 0.060045162112203891 0 0.26847053087800288 0.083907665343305737 0 0.27896642991942761 0.071724914294450992 0 0.28293853275281028 0.051760434547621838 0 0.2979253526894815 0.073367753111024239 0 0.28293853275281028 0.051760434547621838 0 0.27896642991942761 0.071724914294450992 0 0.2979253526894815 0.073367753111024239 0 0.27896642991942761 0.071724914294450992 0 0.29062047433655269 0.089339180659631715 0 0.2979253526894815 0.073367753111024239 0 0.32320866918606872 0.082906465266580409 0 0.31277041779510267 0.094770695975957164 0 0.2979253526894815 0.073367753111024239 0 0.31277041779510267 0.094770695975957164 0 0.2979253526894815 0.073367753111024239 0 0.31277041779510267 0.094770695975957164 0 0.29062047433655269 0.089339180659631715 0 0.2979253526894815 0.073367753111024239 0 0.31277041779510267 0.094770695975957164 0 0.29062047433655269 0.089339180659631715 0 0.31640504598581132 0.068775920904655369 0 0.29865340907706911 0.058047996137762438 0 0.2979253526894815 0.073367753111024239 0 0.32045181388148469 0.1058453851329275 0 0.31167427786168411 0.1186260193646205 0 0.29953366058214992 0.10368919580349301 0 0.31167427786168411 0.1186260193646205 0 0.29953366058214992 0.10368919580349301 0 0.29290960372480729 0.12636680754887189 0 0.31277041779510267 0.094770695975957164 0 0.32045181388148469 0.1058453851329275 0 0.29953366058214992 0.10368919580349301 0 0.32045181388148469 0.1058453851329275 0 0.29953366058214992 0.10368919580349301 0 0.31277041779510267 0.094770695975957164 0 0.29062047433655269 0.089339180659631715 0 0.29953366058214992 0.10368919580349301 0 0.29062047433655269 0.089339180659631715 0 0.29953366058214992 0.10368919580349301 0 0.27861550728281542 0.10153300647405571 0 0.29953366058214992 0.10368919580349301 0 0.27861550728281542 0.10153300647405571 0 0.29953366058214992 0.10368919580349301 0 0.27861550728281542 0.10153300647405571 0 0.29290960372480729 0.12636680754887189 0 0.27861550728281542 0.10153300647405571 0 0.29290960372480729 0.12636680754887189 0 0.26691951551822968 0.124717926915532 0 0.27861550728281542 0.10153300647405571 0 0.29290960372480729 0.12636680754887189 0 0.26847053087800288 0.083907665343305737 0 0.27861550728281542 0.10153300647405571 0 0.25127847260488878 0.098715175395591756 0 0.26691951551822968 0.124717926915532 0 0.27861550728281542 0.10153300647405571 0 0.25127847260488878 0.098715175395591756 0 0.27861550728281542 0.10153300647405571 0 0.25127847260488878 0.098715175395591756 0 0.2398000306206178 0.1189708119435446 0 0.26691951551822968 0.124717926915532 0 0.25127847260488878 0.098715175395591756 0 0.2398000306206178 0.1189708119435446 0 0.26691951551822968 0.124717926915532 0 0.250245600599031 0.1391975062087312 0 0.26691951551822968 0.124717926915532 0 0.250245600599031 0.1391975062087312 0 0.26764352279654108 0.14791022545393689 0 0.26691951551822968 0.124717926915532 0 0.26764352279654108 0.14791022545393689 0 0.28439428719455923 0.14196777556383619 0 0.26764352279654108 0.14791022545393689 0 0.28401191580155399 0.1582283725529233 0 0.28439428719455923 0.14196777556383619 0 0.26764352279654108 0.14791022545393689 0 0.27215458581923863 0.1620561527939455 0 0.28401191580155399 0.1582283725529233 0 0.250245600599031 0.1391975062087312 0 0.26764352279654108 0.14791022545393689 0 0.25043010064531701 0.159836949207317 0 0.26764352279654108 0.14791022545393689 0 0.25043010064531701 0.159836949207317 0 0.26197542546721347 0.16682294850373319 0 0.26764352279654108 0.14791022545393689 0 0.26197542546721347 0.16682294850373319 0 0.25043010064531701 0.159836949207317 0 0.26197542546721347 0.16682294850373319 0 0.25066210105875941 0.17356347832537489 0 0.26197542546721347 0.16682294850373319 0 0.25630732813788631 0.18573567155352971 0 0.26869283252144438 0.17274979160009121 0 0.26197542546721347 0.16682294850373319 0 0.25630732813788631 0.18573567155352971 0 0.26197542546721347 0.16682294850373319 0 0.25630732813788631 0.18573567155352971 0 0.25066210105875941 0.17356347832537489 0 0.24372935748137681 0.18326515597296661 0 0.25630732813788631 0.18573567155352971 0 0.25066210105875941 0.17356347832537489 0 0.25630732813788631 0.18573567155352971 0 0.26869283252144438 0.17274979160009121 0 0.25630732813788631 0.18573567155352971 0 0.27129719602057117 0.18220053823085039 0 0.26869283252144438 0.17274979160009121 0 0.25630732813788631 0.18573567155352971 0 0.27129719602057117 0.18220053823085039 0 0.26891918842835461 0.1942922102086381 0 0.27129719602057117 0.18220053823085039 0 0.26869283252144438 0.17274979160009121 0 0.27949788741052739 0.17145633175582681 0 0.27129719602057117 0.18220053823085039 0 0.27949788741052739 0.17145633175582681 0 0.28193020052368739 0.18426267535429389 0 0.27129719602057117 0.18220053823085039 0 0.28193020052368739 0.18426267535429389 0 0.26891918842835461 0.1942922102086381 0 0.26764352279654108 0.14791022545393689 0 0.26197542546721347 0.16682294850373319 0 0.27215458581923863 0.1620561527939455 0 0.26197542546721347 0.16682294850373319 0 0.26869283252144438 0.17274979160009121 0 0.27215458581923863 0.1620561527939455 0 0.26869283252144438 0.17274979160009121 0 0.27215458581923863 0.1620561527939455 0 0.27949788741052739 0.17145633175582681 0 0.27215458581923863 0.1620561527939455 0 0.27949788741052739 0.17145633175582681 0 0.28401191580155399 0.1582283725529233 0 0.28401191580155399 0.1582283725529233 0 0.29449492112152592 0.17167647899179089 0 0.30720370016679738 0.1512006086236892 0 0.27949788741052739 0.17145633175582681 0 0.28401191580155399 0.1582283725529233 0 0.29449492112152592 0.17167647899179089 0 0.29449492112152592 0.17167647899179089 0 0.28193020052368739 0.18426267535429389 0 0.2966602043726671 0.19033213118026471 0 0.27949788741052739 0.17145633175582681 0 0.29449492112152592 0.17167647899179089 0 0.28193020052368739 0.18426267535429389 0 0.29449492112152592 0.17167647899179089 0 0.2966602043726671 0.19033213118026471 0 0.32149779660878752 0.17603440969850639 0 0.29449492112152592 0.17167647899179089 0 0.30720370016679738 0.1512006086236892 0 0.32149779660878752 0.17603440969850639 0 0.30720370016679738 0.1512006086236892 0 0.31128354083390669 0.133056040259942 0 0.29290960372480729 0.12636680754887189 0 0.30720370016679738 0.1512006086236892 0 0.29290960372480729 0.12636680754887189 0 0.31167427786168411 0.1186260193646205 0 0.31128354083390669 0.133056040259942 0 0.29290960372480729 0.12636680754887189 0 0.30720370016679738 0.1512006086236892 0 0.29290960372480729 0.12636680754887189 0 0.28439428719455923 0.14196777556383619 0 0.26691951551822968 0.124717926915532 0 0.29290960372480729 0.12636680754887189 0 0.28439428719455923 0.14196777556383619 0 0.28401191580155399 0.1582283725529233 0 0.30720370016679738 0.1512006086236892 0 0.28439428719455923 0.14196777556383619 0 0.27761667945937502 0.24464694898140349 0 0.27395573263166861 0.2321183155714423 0 0.28341095834397301 0.23633074366644649 0 0.27761667945937502 0.24464694898140349 0 0.266948176038591 0.24203862852107011 0 0.27395573263166861 0.2321183155714423 0 0.266948176038591 0.24203862852107011 0 0.26120317034407159 0.23056730662019881 0 0.27395573263166861 0.2321183155714423 0 0.27761667945937502 0.24464694898140349 0 0.266948176038591 0.24203862852107011 0 0.27304687619396661 0.24917853260211251 0 0.26370936199651218 0.25240827875641292 0 0.266948176038591 0.24203862852107011 0 0.27304687619396661 0.24917853260211251 0 0.24350543671163599 0.24719628336326219 0 0.26370936199651218 0.25240827875641292 0 0.26370936199651218 0.25240827875641292 0 0.266948176038591 0.24203862852107011 0 0.25558910081757968 0.24140605204313401 0 0.24350543671163599 0.24719628336326219 0 0.26370936199651218 0.25240827875641292 0 0.25558910081757968 0.24140605204313401 0 0.266948176038591 0.24203862852107011 0 0.25558910081757968 0.24140605204313401 0 0.26120317034407159 0.23056730662019881 0 0.24451767247801409 0.22507417959112469 0 0.25646692230720158 0.21890447181220801 0 0.26120317034407159 0.23056730662019881 0 0.25646692230720158 0.21890447181220801 0 0.26120317034407159 0.23056730662019881 0 0.26973434609877073 0.21457147546518149 0 0.24451767247801409 0.22507417959112469 0 0.25558910081757968 0.24140605204313401 0 0.26120317034407159 0.23056730662019881 0 0.27395573263166861 0.2321183155714423 0 0.26973434609877073 0.21457147546518149 0 0.28303623530381022 0.2237193583562978 0 0.26120317034407159 0.23056730662019881 0 0.27395573263166861 0.2321183155714423 0 0.26973434609877073 0.21457147546518149 0 0.27395573263166861 0.2321183155714423 0 0.28303623530381022 0.2237193583562978 0 0.28341095834397301 0.23633074366644649 0 0.26973434609877073 0.21457147546518149 0 0.28214000840965647 0.21248833995015309 0 0.28303623530381022 0.2237193583562978 0 0.26973434609877073 0.21457147546518149 0 0.28211936396955811 0.19941204683950539 0 0.28214000840965647 0.21248833995015309 0 0.24451767247801409 0.22507417959112469 0 0.25646692230720158 0.21890447181220801 0 0.25041250030795009 0.20540492557232709 0 0.26973434609877073 0.21457147546518149 0 0.25041250030795009 0.20540492557232709 0 0.26891918842835461 0.1942922102086381 0 0.25646692230720158 0.21890447181220801 0 0.26973434609877073 0.21457147546518149 0 0.25041250030795009 0.20540492557232709 0 0.25630732813788631 0.18573567155352971 0 0.25041250030795009 0.20540492557232709 0 0.25630732813788631 0.18573567155352971 0 0.25041250030795009 0.20540492557232709 0 0.26891918842835461 0.1942922102086381 0 0.26973434609877073 0.21457147546518149 0 0.26891918842835461 0.1942922102086381 0 0.28211936396955811 0.19941204683950539 0 0.28193020052368739 0.18426267535429389 0 0.26891918842835461 0.1942922102086381 0 0.28211936396955811 0.19941204683950539 0 0.28211936396955811 0.19941204683950539 0 0.2966602043726671 0.19033213118026471 0 0.29439111920503119 0.21395277435993401 0 0.28193020052368739 0.18426267535429389 0 0.28211936396955811 0.19941204683950539 0 0.2966602043726671 0.19033213118026471 0 0.2966602043726671 0.19033213118026471 0 0.31245585689335009 0.19891016635631309 0 0.32149779660878752 0.17603440969850639 0 0.2966602043726671 0.19033213118026471 0 0.31245585689335009 0.19891016635631309 0 0.29439111920503119 0.21395277435993401 0 0.29439111920503119 0.21395277435993401 0 0.31083305522976679 0.22801776627240211 0 0.31671924857686201 0.2137893247773123 0 0.31245585689335009 0.19891016635631309 0 0.29439111920503119 0.21395277435993401 0 0.31671924857686201 0.2137893247773123 0 0.28211936396955811 0.19941204683950539 0 0.29439111920503119 0.21395277435993401 0 0.28214000840965647 0.21248833995015309 0 0.29439111920503119 0.21395277435993401 0 0.28214000840965647 0.21248833995015309 0 0.28303623530381022 0.2237193583562978 0 0.29439111920503119 0.21395277435993401 0 0.28303623530381022 0.2237193583562978 0 0.29555348581762109 0.23452766458890401 0 0.28303623530381022 0.2237193583562978 0 0.29555348581762109 0.23452766458890401 0 0.28341095834397301 0.23633074366644649 0 0.29439111920503119 0.21395277435993401 0 0.31083305522976679 0.22801776627240211 0 0.29555348581762109 0.23452766458890401 0 0.31101360932953132 0.24340543300068501 0 0.29791531764067869 0.24799911954174289 0 0.29555348581762109 0.23452766458890401 0 0.31083305522976679 0.22801776627240211 0 0.31101360932953132 0.24340543300068501 0 0.29555348581762109 0.23452766458890401 0 0.30820824554132281 0.25151906250621059 0 0.31101360932953132 0.24340543300068501 0 0.29791531764067869 0.24799911954174289 0 0.29791531764067869 0.24799911954174289 0 0.29555348581762109 0.23452766458890401 0 0.28689265850738987 0.2466414308341848 0 0.29555348581762109 0.23452766458890401 0 0.28341095834397301 0.23633074366644649 0 0.28689265850738987 0.2466414308341848 0 0.28391328728138832 0.25762027414956362 0 0.27761667945937502 0.24464694898140349 0 0.28689265850738987 0.2466414308341848 0 0.27761667945937502 0.24464694898140349 0 0.28341095834397301 0.23633074366644649 0 0.28689265850738987 0.2466414308341848 0 0.3419557224038996 0.25523910369578118 0 0.34639254431167471 0.25047709269690321 0 0.34126342475115168 0.23985649062211559 0 0.3419557224038996 0.25523910369578118 0 0.34126342475115168 0.23985649062211559 0 0.32639438881683319 0.2416284349840917 0 0.34126342475115168 0.23985649062211559 0 0.32639438881683319 0.2416284349840917 0 0.33691649450312933 0.2290877064586144 0 0.3419557224038996 0.25523910369578118 0 0.32639438881683319 0.2416284349840917 0 0.32041583562018161 0.25558504678715388 0 0.31101360932953132 0.24340543300068501 0 0.32639438881683319 0.2416284349840917 0 0.31083305522976679 0.22801776627240211 0 0.32639438881683319 0.2416284349840917 0 0.31083305522976679 0.22801776627240211 0 0.31101360932953132 0.24340543300068501 0 0.32639438881683319 0.2416284349840917 0 0.31083305522976679 0.22801776627240211 0 0.32639438881683319 0.2416284349840917 0 0.3292025910622543 0.2227166474542448 0 0.31083305522976679 0.22801776627240211 0 0.3292025910622543 0.2227166474542448 0 0.31671924857686201 0.2137893247773123 0 0.3292025910622543 0.2227166474542448 0 0.33691649450312933 0.2290877064586144 0 0.35008598949276842 0.2257020118481404 0 0.32639438881683319 0.2416284349840917 0 0.3292025910622543 0.2227166474542448 0 0.33691649450312933 0.2290877064586144 0 0.34126342475115168 0.23985649062211559 0 0.33691649450312933 0.2290877064586144 0 0.34687938780562672 0.23000173937670931 0 0.3292025910622543 0.2227166474542448 0 0.3357918930507775 0.2008682107733237 0 0.35008598949276842 0.2257020118481404 0 0.3357918930507775 0.2008682107733237 0 0.35008598949276842 0.2257020118481404 0 0.3292025910622543 0.2227166474542448 0 0.31671924857686201 0.2137893247773123 0 0.3357918930507775 0.2008682107733237 0 0.31245585689335009 0.19891016635631309 0 0.31671924857686201 0.2137893247773123 0 0.3357918930507775 0.2008682107733237 0 0.31245585689335009 0.19891016635631309 0 0.3357918930507775 0.2008682107733237 0 0.32149779660878752 0.17603440969850639 0 0.3357918930507775 0.2008682107733237 0 0.35423844151148381 0.19784798141312329 0 0.34096559260169901 0.1807873784507886 0 0.3357918930507775 0.2008682107733237 0 0.32149779660878752 0.17603440969850639 0 0.35423844151148381 0.19784798141312329 0 0.37450839045526269 0.20420436930028871 0 0.37597234569954507 0.18389254930698809 0 0.35423844151148381 0.19784798141312329 0 0.37450839045526269 0.20420436930028871 0 0.36157509989543601 0.2151478925124303 0 0.37450839045526269 0.20420436930028871 0 0.37055910206696008 0.21756997489680141 0 0.36157509989543601 0.2151478925124303 0 0.37055910206696008 0.21756997489680141 0 0.36157509989543601 0.2151478925124303 0 0.36528166633778608 0.22343718172462029 0 0.3357918930507775 0.2008682107733237 0 0.35423844151148381 0.19784798141312329 0 0.35008598949276842 0.2257020118481404 0 0.35423844151148381 0.19784798141312329 0 0.36157509989543601 0.2151478925124303 0 0.35008598949276842 0.2257020118481404 0 0.35423844151148381 0.19784798141312329 0 0.35008598949276842 0.2257020118481404 0 0.34126342475115168 0.23985649062211559 0 0.34687938780562672 0.23000173937670931 0 0.34904201066574803 0.23270486652059441 0 0.33691649450312933 0.2290877064586144 0 0.35008598949276842 0.2257020118481404 0 0.34687938780562672 0.23000173937670931 0 0.34687938780562672 0.23000173937670931 0 0.34904201066574803 0.23270486652059441 0 0.35008598949276842 0.2257020118481404 0 0.34904201066574803 0.23270486652059441 0 0.35008598949276842 0.2257020118481404 0 0.34687938780562672 0.23000173937670931 0 0.34904201066574803 0.23270486652059441 0 0.35008598949276842 0.2257020118481404 0 0.34904201066574803 0.23270486652059441 0 0.35765956584889808 0.23838427454911251 0 0.35008598949276842 0.2257020118481404 0 0.35765956584889808 0.23838427454911251 0 0.35008598949276842 0.2257020118481404 0 0.35756051962284169 0.22783032386005919 0 0.35765956584889808 0.23838427454911251 0 0.35756051962284169 0.22783032386005919 0 0.36089516619539608 0.2339703474568848 0 0.35765956584889808 0.23838427454911251 0 0.36157509989543601 0.2151478925124303 0 0.35008598949276842 0.2257020118481404 0 0.35756051962284169 0.22783032386005919 0 0.36157509989543601 0.2151478925124303 0 0.35756051962284169 0.22783032386005919 0 0.36528166633778608 0.22343718172462029 0 0.37055910206696008 0.21756997489680141 0 0.36528166633778608 0.22343718172462029 0 0.37171868520728762 0.22588361399863591 0 0.37055910206696008 0.21756997489680141 0 0.37171868520728762 0.22588361399863591 0 0.38096737793883878 0.217771964675192 0 0.37171868520728762 0.22588361399863591 0 0.37107769894695958 0.23440851593450049 0 0.3796795293522075 0.23085175643748079 0 0.37171868520728762 0.22588361399863591 0 0.36499492489640528 0.23075410335517441 0 0.37107769894695958 0.23440851593450049 0 0.36528166633778608 0.22343718172462029 0 0.37171868520728762 0.22588361399863591 0 0.36499492489640528 0.23075410335517441 0 0.36499492489640528 0.23075410335517441 0 0.36089516619539608 0.2339703474568848 0 0.36466589511360198 0.23607376516620529 0 0.36499492489640528 0.23075410335517441 0 0.36466589511360198 0.23607376516620529 0 0.37107769894695958 0.23440851593450049 0 0.35756051962284169 0.22783032386005919 0 0.36528166633778608 0.22343718172462029 0 0.36499492489640528 0.23075410335517441 0 0.35756051962284169 0.22783032386005919 0 0.36499492489640528 0.23075410335517441 0 0.36089516619539608 0.2339703474568848 0 0.37021891901449561 0.25917451910615508 0 0.3678488163181689 0.24285857779309611 0 0.35546781239473663 0.2407366687340714 0 0.36089516619539608 0.2339703474568848 0 0.36042287095655168 0.23706359918427239 0 0.35765956584889808 0.23838427454911251 0 0.36089516619539608 0.2339703474568848 0 0.36042287095655168 0.23706359918427239 0 0.36466589511360198 0.23607376516620529 0 0.36042287095655168 0.23706359918427239 0 0.36205828519910999 0.23946145721938061 0 0.36466589511360198 0.23607376516620529 0 0.37021891901449561 0.25917451910615508 0 0.35546781239473663 0.2407366687340714 0 0.36205828519910999 0.23946145721938061 0 0.3678488163181689 0.24285857779309611 0 0.35546781239473663 0.2407366687340714 0 0.36042287095655168 0.23706359918427239 0 0.36205828519910999 0.23946145721938061 0 0.35765956584889808 0.23838427454911251 0 0.36205828519910999 0.23946145721938061 0 0.36466589511360198 0.23607376516620529 0 0.3678488163181689 0.24285857779309611 0 0.36466589511360198 0.23607376516620529 0 0.37107769894695958 0.23440851593450049 0 0.3678488163181689 0.24285857779309611 0 0.37107769894695958 0.23440851593450049 0 0.3678488163181689 0.24285857779309611 0 0.3772563180053532 0.23990089151386251 0 0.3678488163181689 0.24285857779309611 0 0.37689560825093532 0.24878939164875991 0 0.3772563180053532 0.23990089151386251 0 0.34639254431167471 0.25047709269690321 0 0.34904201066574803 0.23270486652059441 0 0.35546781239473663 0.2407366687340714 0 0.34639254431167471 0.25047709269690321 0 0.34904201066574803 0.23270486652059441 0 0.34639254431167471 0.25047709269690321 0 0.34126342475115168 0.23985649062211559 0 0.34904201066574803 0.23270486652059441 0 0.36205828519910999 0.23946145721938061 0 0.35765956584889808 0.23838427454911251 0 0.35546781239473663 0.2407366687340714 0 0.34904201066574803 0.23270486652059441 0 0.35546781239473663 0.2407366687340714 0 0.34904201066574803 0.23270486652059441 0 0.35765956584889808 0.23838427454911251 0 0.35546781239473663 0.2407366687340714 0 0.35765956584889808 0.23838427454911251 0 0.35546781239473663 0.2407366687340714 0 0.34639254431167471 0.25047709269690321 0 0.35546781239473663 0.2407366687340714 0 0.35117710710054928 0.25387272089892587 0 0.34639254431167471 0.25047709269690321 0 0.35546781239473663 0.2407366687340714 0 0.32633512599799452 0.13892479600337901 0 0.33304495581974669 0.1583821001239302 0 0.34668913922192202 0.14044293384935211 0 0.33813272825157631 0.1261481468483038 0 0.32633512599799452 0.13892479600337901 0 0.32198765632345422 0.1264387322471007 0 0.33813272825157631 0.1261481468483038 0 0.32633512599799452 0.13892479600337901 0 0.34668913922192202 0.14044293384935211 0 0.31128354083390669 0.133056040259942 0 0.32633512599799452 0.13892479600337901 0 0.32198765632345422 0.1264387322471007 0 0.31167427786168411 0.1186260193646205 0 0.31128354083390669 0.133056040259942 0 0.32198765632345422 0.1264387322471007 0 0.30720370016679738 0.1512006086236892 0 0.32633512599799452 0.13892479600337901 0 0.33304495581974669 0.1583821001239302 0 0.30720370016679738 0.1512006086236892 0 0.31128354083390669 0.133056040259942 0 0.32633512599799452 0.13892479600337901 0 0.30720370016679738 0.1512006086236892 0 0.32149779660878752 0.17603440969850639 0 0.33304495581974669 0.1583821001239302 0 0.30720370016679738 0.1512006086236892 0 0.32149779660878752 0.17603440969850639 0 0.3357918930507775 0.2008682107733237 0 0.32149779660878752 0.17603440969850639 0 0.34096559260169901 0.1807873784507886 0 0.32149779660878752 0.17603440969850639 0 0.34096559260169901 0.1807873784507886 0 0.33304495581974669 0.1583821001239302 0 0.33304495581974669 0.1583821001239302 0 0.35839089353019832 0.16999395097810591 0 0.34668913922192202 0.14044293384935211 0 0.34096559260169901 0.1807873784507886 0 0.33304495581974669 0.1583821001239302 0 0.35839089353019832 0.16999395097810591 0 0.35423844151148381 0.19784798141312329 0 0.34096559260169901 0.1807873784507886 0 0.35839089353019832 0.16999395097810591 0 0.35423844151148381 0.19784798141312329 0 0.35839089353019832 0.16999395097810591 0 0.35423844151148381 0.19784798141312329 0 0.35839089353019832 0.16999395097810591 0 0.37597234569954507 0.18389254930698809 0 0.35839089353019832 0.16999395097810591 0 0.366343779148388 0.14828963917674129 0 0.38851510684575558 0.15669323678673519 0 0.35839089353019832 0.16999395097810591 0 0.38851510684575558 0.15669323678673519 0 0.37597234569954507 0.18389254930698809 0 0.35839089353019832 0.16999395097810591 0 0.366343779148388 0.14828963917674129 0 0.34668913922192202 0.14044293384935211 0 0.366343779148388 0.14828963917674129 0 0.34668913922192202 0.14044293384935211 0 0.36003508159978409 0.1278966641696074 0 0.33813272825157631 0.1261481468483038 0 0.34668913922192202 0.14044293384935211 0 0.36003508159978409 0.1278966641696074 0 0.366343779148388 0.14828963917674129 0 0.36003508159978409 0.1278966641696074 0 0.38205529107153408 0.13411134420792509 0 0.39569855446944913 0.12502676434190621 0 0.39639982763770909 0.1438717594687397 0 0.41178575286563551 0.1450606814049793 0 0.39569855446944913 0.12502676434190621 0 0.41178575286563551 0.1450606814049793 0 0.41087180245672611 0.1188267020032223 0 0.38205529107153408 0.13411134420792509 0 0.39569855446944913 0.12502676434190621 0 0.39639982763770909 0.1438717594687397 0 0.39639982763770909 0.1438717594687397 0 0.40237842768747362 0.15886081293092549 0 0.41178575286563551 0.1450606814049793 0 0.39639982763770909 0.1438717594687397 0 0.38851510684575558 0.15669323678673519 0 0.40237842768747362 0.15886081293092549 0 0.366343779148388 0.14828963917674129 0 0.38205529107153408 0.13411134420792509 0 0.38851510684575558 0.15669323678673519 0 0.38205529107153408 0.13411134420792509 0 0.38851510684575558 0.15669323678673519 0 0.38205529107153408 0.13411134420792509 0 0.39639982763770909 0.1438717594687397 0 0.38851510684575558 0.15669323678673519 0 0.37597234569954507 0.18389254930698809 0 0.39497492261997719 0.17927512936554529 0 0.38993273080920521 0.19610475424596241 0 0.38851510684575558 0.15669323678673519 0 0.37597234569954507 0.18389254930698809 0 0.39497492261997719 0.17927512936554529 0 0.39497492261997719 0.17927512936554529 0 0.41269970327454197 0.1712946608067365 0 0.40806048356373442 0.19117433134491449 0 0.38851510684575558 0.15669323678673519 0 0.39497492261997719 0.17927512936554529 0 0.40237842768747362 0.15886081293092549 0 0.39497492261997719 0.17927512936554529 0 0.40237842768747362 0.15886081293092549 0 0.41269970327454197 0.1712946608067365 0 0.38851510684575558 0.15669323678673519 0 0.39497492261997719 0.17927512936554529 0 0.41269970327454197 0.1712946608067365 0 0.42341018068444308 0.1580405090248172 0 0.41178575286563551 0.1450606814049793 0 0.40237842768747362 0.15886081293092549 0 0.41269970327454197 0.1712946608067365 0 0.41178575286563551 0.1450606814049793 0 0.41269970327454197 0.1712946608067365 0 0.41178575286563551 0.1450606814049793 0 0.41269970327454197 0.1712946608067365 0 0.42416132265525108 0.17964448988238049 0 0.42341018068444308 0.1580405090248172 0 0.41269970327454197 0.1712946608067365 0 0.42416132265525108 0.17964448988238049 0 0.40806048356373442 0.19117433134491449 0 0.42416132265525108 0.17964448988238049 0 0.43621567979837861 0.16629593269700019 0 0.43994802906415681 0.18582450293980449 0 0.42341018068444308 0.1580405090248172 0 0.43621567979837861 0.16629593269700019 0 0.43248333053260068 0.14676736245419569 0 0.42416132265525108 0.17964448988238049 0 0.42341018068444308 0.1580405090248172 0 0.43621567979837861 0.16629593269700019 0 0.43621567979837861 0.16629593269700019 0 0.43248333053260068 0.14676736245419569 0 0.42341018068444308 0.1580405090248172 0 0.43248333053260068 0.14676736245419569 0 0.42080303886167369 0.14054559624407639 0 0.43621567979837861 0.16629593269700019 0 0.43248333053260068 0.14676736245419569 0 0.44156373476285721 0.15374245994500441 0 0.43248333053260068 0.14676736245419569 0 0.42917708006763278 0.1349266217268304 0 0.42080303886167369 0.14054559624407639 0 0.43248333053260068 0.14676736245419569 0 0.43537896272474658 0.1384824524826978 0 0.42917708006763278 0.1349266217268304 0 0.43537896272474658 0.1384824524826978 0 0.43495173335724041 0.13159520348935699 0 0.42917708006763278 0.1349266217268304 0 0.43661707321707882 0.12513984825208421 0 0.43495173335724041 0.13159520348935699 0 0.4294559248904124 0.12741724050192541 0 0.43495173335724041 0.13159520348935699 0 0.4294559248904124 0.12741724050192541 0 0.42917708006763278 0.1349266217268304 0 0.4294559248904124 0.12741724050192541 0 0.42397725720001339 0.13097366965194751 0 0.42917708006763278 0.1349266217268304 0 0.4294559248904124 0.12741724050192541 0 0.42397725720001339 0.13097366965194751 0 0.42248339696411857 0.1246150243908439 0 0.42397725720001339 0.13097366965194751 0 0.42917708006763278 0.1349266217268304 0 0.42080303886167369 0.14054559624407639 0 0.41178575286563551 0.1450606814049793 0 0.41087180245672611 0.1188267020032223 0 0.42080303886167369 0.14054559624407639 0 0.41178575286563551 0.1450606814049793 0 0.41087180245672611 0.1188267020032223 0 0.42397725720001339 0.13097366965194751 0 0.42080303886167369 0.14054559624407639 0 0.41087180245672611 0.1188267020032223 0 0.42341018068444308 0.1580405090248172 0 0.42080303886167369 0.14054559624407639 0 0.41178575286563551 0.1450606814049793 0 0.39714914837685172 0.2343757018185034 0 0.41498924952489991 0.2477882154193326 0 0.40342330412005212 0.24460128637610121 0 0.39714914837685172 0.2343757018185034 0 0.41498924952489991 0.2477882154193326 0 0.40342330412005212 0.24460128637610121 0 0.39680687846602508 0.2417279432178939 0 0.39714914837685172 0.2343757018185034 0 0.39680687846602508 0.2417279432178939 0 0.39714914837685172 0.2343757018185034 0 0.39249144592406998 0.23965941565567131 0 0.39714914837685172 0.2343757018185034 0 0.39249144592406998 0.23965941565567131 0 0.39680687846602508 0.2417279432178939 0 0.39249144592406998 0.23965941565567131 0 0.39416361544312661 0.24827536902129951 0 0.40342330412005212 0.24460128637610121 0 0.39680687846602508 0.2417279432178939 0 0.39416361544312661 0.24827536902129951 0 0.39249144592406998 0.23965941565567131 0 0.39416361544312661 0.24827536902129951 0 0.3845153274593518 0.24516232559020601 0 0.3845153274593518 0.24516232559020601 0 0.37689560825093532 0.24878939164875991 0 0.3772563180053532 0.23990089151386251 0 0.3845153274593518 0.24516232559020601 0 0.3772563180053532 0.23990089151386251 0 0.3850729749549815 0.2367412349257165 0 0.37107769894695958 0.23440851593450049 0 0.3772563180053532 0.23990089151386251 0 0.3796795293522075 0.23085175643748079 0 0.3772563180053532 0.23990089151386251 0 0.3850729749549815 0.2367412349257165 0 0.3796795293522075 0.23085175643748079 0 0.39249144592406998 0.23965941565567131 0 0.3845153274593518 0.24516232559020601 0 0.3850729749549815 0.2367412349257165 0 0.39249144592406998 0.23965941565567131 0 0.3850729749549815 0.2367412349257165 0 0.3891377878644568 0.2283526147887846 0 0.3850729749549815 0.2367412349257165 0 0.3891377878644568 0.2283526147887846 0 0.3796795293522075 0.23085175643748079 0 0.37171868520728762 0.22588361399863591 0 0.3796795293522075 0.23085175643748079 0 0.38096737793883878 0.217771964675192 0 0.3891377878644568 0.2283526147887846 0 0.3796795293522075 0.23085175643748079 0 0.38096737793883878 0.217771964675192 0 0.3891377878644568 0.2283526147887846 0 0.39020252985371812 0.2182660036499324 0 0.38096737793883878 0.217771964675192 0 0.3891377878644568 0.2283526147887846 0 0.39695166287181932 0.22426283393391089 0 0.39020252985371812 0.2182660036499324 0 0.39714914837685172 0.2343757018185034 0 0.39249144592406998 0.23965941565567131 0 0.3891377878644568 0.2283526147887846 0 0.39714914837685172 0.2343757018185034 0 0.3891377878644568 0.2283526147887846 0 0.39695166287181932 0.22426283393391089 0 0.39714914837685172 0.2343757018185034 0 0.3891377878644568 0.2283526147887846 0 0.39714914837685172 0.2343757018185034 0 0.39695166287181932 0.22426283393391089 0 0.40698336462690687 0.22321973275331289 0 0.39714914837685172 0.2343757018185034 0 0.40698336462690687 0.22321973275331289 0 0.39714914837685172 0.2343757018185034 0 0.40698336462690687 0.22321973275331289 0 0.41117711355754633 0.2370430091842613 0 0.39695166287181932 0.22426283393391089 0 0.39639990802174541 0.21208710042785711 0 0.40698336462690687 0.22321973275331289 0 0.39639990802174541 0.21208710042785711 0 0.38650845495114999 0.2067717202328361 0 0.38993273080920521 0.19610475424596241 0 0.39639990802174541 0.21208710042785711 0 0.40698336462690687 0.22321973275331289 0 0.39695166287181932 0.22426283393391089 0 0.39639990802174541 0.21208710042785711 0 0.39020252985371812 0.2182660036499324 0 0.39639990802174541 0.21208710042785711 0 0.39020252985371812 0.2182660036499324 0 0.38650845495114999 0.2067717202328361 0 0.39020252985371812 0.2182660036499324 0 0.38096737793883878 0.217771964675192 0 0.38650845495114999 0.2067717202328361 0 0.37450839045526269 0.20420436930028871 0 0.37055910206696008 0.21756997489680141 0 0.38096737793883878 0.217771964675192 0 0.37450839045526269 0.20420436930028871 0 0.38096737793883878 0.217771964675192 0 0.38650845495114999 0.2067717202328361 0 0.37450839045526269 0.20420436930028871 0 0.38650845495114999 0.2067717202328361 0 0.38993273080920521 0.19610475424596241 0 0.37450839045526269 0.20420436930028871 0 0.37597234569954507 0.18389254930698809 0 0.38993273080920521 0.19610475424596241 0 0.39639990802174541 0.21208710042785711 0 0.38993273080920521 0.19610475424596241 0 0.40806048356373442 0.19117433134491449 0 0.39497492261997719 0.17927512936554529 0 0.38993273080920521 0.19610475424596241 0 0.40806048356373442 0.19117433134491449 0 0.39639990802174541 0.21208710042785711 0 0.40806048356373442 0.19117433134491449 0 0.42346569684553081 0.20452211784655769 0 0.42416132265525108 0.17964448988238049 0 0.40806048356373442 0.19117433134491449 0 0.42346569684553081 0.20452211784655769 0 0.42416132265525108 0.17964448988238049 0 0.42346569684553081 0.20452211784655769 0 0.43994802906415681 0.18582450293980449 0 0.42346569684553081 0.20452211784655769 0 0.43994802906415681 0.18582450293980449 0 0.42346569684553081 0.20452211784655769 0 0.44020485238435098 0.2145799689469009 0 0.43994802906415681 0.18582450293980449 0 0.42346569684553081 0.20452211784655769 0 0.42524071344871639 0.22228400830724521 0 0.44020485238435098 0.2145799689469009 0 0.42346569684553081 0.20452211784655769 0 0.40698336462690687 0.22321973275331289 0 0.42346569684553081 0.20452211784655769 0 0.40698336462690687 0.22321973275331289 0 0.42524071344871639 0.22228400830724521 0 0.39639990802174541 0.21208710042785711 0 0.42346569684553081 0.20452211784655769 0 0.40698336462690687 0.22321973275331289 0 0.40698336462690687 0.22321973275331289 0 0.42558669170152652 0.24278838674589631 0 0.41117711355754633 0.2370430091842613 0 0.40698336462690687 0.22321973275331289 0 0.42558669170152652 0.24278838674589631 0 0.40698336462690687 0.22321973275331289 0 0.42524071344871639 0.22228400830724521 0 0.42558669170152652 0.24278838674589631 0 0.42524071344871639 0.22228400830724521 0 0.4372459868943942 0.22627264133293601 0 0.42558669170152652 0.24278838674589631 0 0.42524071344871639 0.22228400830724521 0 0.4372459868943942 0.22627264133293601 0 0.44020485238435098 0.2145799689469009 0 0.42558669170152652 0.24278838674589631 0 0.41498924952489991 0.2477882154193326 0 0.41117711355754633 0.2370430091842613 0 0.39714914837685172 0.2343757018185034 0 0.41498924952489991 0.2477882154193326 0 0.41117711355754633 0.2370430091842613 0 0.41061752288853881 0.25667326143670532 0 0.40342330412005212 0.24460128637610121 0 0.41498924952489991 0.2477882154193326 0 0.45428996840150632 0.26086506046091451 0 0.46118939111400942 0.24722263315192769 0 0.44982921511296109 0.23752530104185071 0 0.46118939111400942 0.24722263315192769 0 0.46254957528985408 0.2271212757247133 0 0.47830776954234522 0.2446342017285737 0 0.46118939111400942 0.24722263315192769 0 0.44982921511296109 0.23752530104185071 0 0.46254957528985408 0.2271212757247133 0 0.44419001877614589 0.26235704073847999 0 0.42558669170152652 0.24278838674589631 0 0.44982921511296109 0.23752530104185071 0 0.45428996840150632 0.26086506046091451 0 0.44982921511296109 0.23752530104185071 0 0.4372459868943942 0.22627264133293601 0 0.42558669170152652 0.24278838674589631 0 0.44982921511296109 0.23752530104185071 0 0.4372459868943942 0.22627264133293601 0 0.44982921511296109 0.23752530104185071 0 0.44536846182441608 0.21418554162278669 0 0.44982921511296109 0.23752530104185071 0 0.46254957528985408 0.2271212757247133 0 0.44536846182441608 0.21418554162278669 0 0.44982921511296109 0.23752530104185071 0 0.44536846182441608 0.21418554162278669 0 0.44536846182441608 0.21418554162278669 0 0.47268423091220829 0.21209900006062249 0 0.46254957528985408 0.2271212757247133 0 0.44536846182441608 0.21418554162278669 0 0.47268423091220829 0.21209900006062249 0 0.44536846182441608 0.21418554162278669 0 0.45425462503306668 0.19370065361892971 0 0.47268423091220829 0.21209900006062249 0 0.44536846182441608 0.21418554162278669 0 0.44020485238435098 0.2145799689469009 0 0.43994802906415681 0.18582450293980449 0 0.4372459868943942 0.22627264133293601 0 0.44536846182441608 0.21418554162278669 0 0.44020485238435098 0.2145799689469009 0 0.44536846182441608 0.21418554162278669 0 0.44020485238435098 0.2145799689469009 0 0.44536846182441608 0.21418554162278669 0 0.43994802906415681 0.18582450293980449 0 0.44536846182441608 0.21418554162278669 0 0.45425462503306668 0.19370065361892971 0 0.43994802906415681 0.18582450293980449 0 0.45425462503306668 0.19370065361892971 0 0.47095000518316388 0.18962465853288449 0 0.47268423091220829 0.21209900006062249 0 0.47095000518316388 0.18962465853288449 0 0.48530788605398067 0.1971456012314409 0 0.48445522351859732 0.18096566335629449 0 0.47095000518316388 0.18962465853288449 0 0.48530788605398067 0.1971456012314409 0 0.47268423091220829 0.21209900006062249 0 0.5 0.189828314755764 0 0.48530788605398067 0.1971456012314409 0 0.50000000000000067 0.21001245849846009 0 0.5 0.189828314755764 0 0.48530788605398067 0.1971456012314409 0 0.48445522351859732 0.18096566335629449 0 0.50000000000000067 0.21001245849846009 0 0.47268423091220829 0.21209900006062249 0 0.48364621516773248 0.22780510770368231 0 0.48530788605398067 0.1971456012314409 0 0.50000000000000067 0.21001245849846009 0 0.47268423091220829 0.21209900006062249 0 0.50000000000000067 0.21001245849846009 0 0.47268423091220829 0.21209900006062249 0 0.46254957528985408 0.2271212757247133 0 0.47268423091220829 0.21209900006062249 0 0.48364621516773248 0.22780510770368231 0 0.46254957528985408 0.2271212757247133 0 0.48364621516773248 0.22780510770368231 0 0.47830776954234522 0.2446342017285737 0 0.50000000000000067 0.21001245849846009 0 0.48364621516773248 0.22780510770368231 0 0.5 0.2377750945529031 0 0.48364621516773248 0.22780510770368231 0 0.5 0.2377750945529031 0 0.47830776954234522 0.2446342017285737 0 0.5 0.26553773060734631 0 0.5 0.2377750945529031 0 0.47830776954234522 0.2446342017285737 0 0.4584247833315962 0.14498388170226589 0 0.44674285721331553 0.14575815698898159 0 0.4610424898419046 0.1590430303010256 0 0.4584247833315962 0.14498388170226589 0 0.4610424898419046 0.1590430303010256 0 0.47304271567719891 0.14606961651907019 0 0.4584247833315962 0.14498388170226589 0 0.46286854901401581 0.13578998470973111 0 0.47304271567719891 0.14606961651907019 0 0.46286854901401581 0.13578998470973111 0 0.46370969943691392 0.12622941311662161 0 0.47783664026948153 0.1307461921831681 0 0.46286854901401581 0.13578998470973111 0 0.46370969943691392 0.12622941311662161 0 0.45318976764787322 0.12920373418489059 0 0.46370969943691392 0.12622941311662161 0 0.45318976764787322 0.12920373418489059 0 0.45570644693463702 0.11978708411432321 0 0.4584247833315962 0.14498388170226589 0 0.46286854901401581 0.13578998470973111 0 0.451007687721031 0.13750707055236991 0 0.46286854901401581 0.13578998470973111 0 0.45318976764787322 0.12920373418489059 0 0.451007687721031 0.13750707055236991 0 0.45318976764787322 0.12920373418489059 0 0.451007687721031 0.13750707055236991 0 0.44363835341690039 0.13214453768904649 0 0.451007687721031 0.13750707055236991 0 0.44242550514127832 0.13727683196653059 0 0.44674285721331553 0.14575815698898159 0 0.43661707321707882 0.12513984825208421 0 0.45318976764787322 0.12920373418489059 0 0.44363835341690039 0.13214453768904649 0 0.43661707321707882 0.12513984825208421 0 0.45318976764787322 0.12920373418489059 0 0.44538676651062409 0.12297248566988291 0 0.43661707321707882 0.12513984825208421 0 0.45318976764787322 0.12920373418489059 0 0.451007687721031 0.13750707055236991 0 0.44363835341690039 0.13214453768904649 0 0.44242550514127832 0.13727683196653059 0 0.43661707321707882 0.12513984825208421 0 0.43495173335724041 0.13159520348935699 0 0.44363835341690039 0.13214453768904649 0 0.43537896272474658 0.1384824524826978 0 0.44242550514127832 0.13727683196653059 0 0.44674285721331553 0.14575815698898159 0 0.43495173335724041 0.13159520348935699 0 0.44363835341690039 0.13214453768904649 0 0.44242550514127832 0.13727683196653059 0 0.43537896272474658 0.1384824524826978 0 0.43495173335724041 0.13159520348935699 0 0.44242550514127832 0.13727683196653059 0 0.43248333053260068 0.14676736245419569 0 0.43537896272474658 0.1384824524826978 0 0.44674285721331553 0.14575815698898159 0 0.44674285721331553 0.14575815698898159 0 0.44156373476285721 0.15374245994500441 0 0.4610424898419046 0.1590430303010256 0 0.4584247833315962 0.14498388170226589 0 0.451007687721031 0.13750707055236991 0 0.44674285721331553 0.14575815698898159 0 0.43248333053260068 0.14676736245419569 0 0.44674285721331553 0.14575815698898159 0 0.44156373476285721 0.15374245994500441 0 0.44156373476285721 0.15374245994500441 0 0.4483413645777195 0.167653029844192 0 0.4610424898419046 0.1590430303010256 0 0.43621567979837861 0.16629593269700019 0 0.44156373476285721 0.15374245994500441 0 0.4483413645777195 0.167653029844192 0 0.44156373476285721 0.15374245994500441 0 0.4610424898419046 0.1590430303010256 0 0.43621567979837861 0.16629593269700019 0 0.4483413645777195 0.167653029844192 0 0.44464603146664378 0.1804950726997423 0 0.45425462503306668 0.19370065361892971 0 0.44464603146664378 0.1804950726997423 0 0.45832695595466982 0.17735418724462459 0 0.43621567979837861 0.16629593269700019 0 0.43994802906415681 0.18582450293980449 0 0.44464603146664378 0.1804950726997423 0 0.43621567979837861 0.16629593269700019 0 0.43994802906415681 0.18582450293980449 0 0.43994802906415681 0.18582450293980449 0 0.44464603146664378 0.1804950726997423 0 0.4483413645777195 0.167653029844192 0 0.44464603146664378 0.1804950726997423 0 0.45832695595466982 0.17735418724462459 0 0.45425462503306668 0.19370065361892971 0 0.43994802906415681 0.18582450293980449 0 0.44464603146664378 0.1804950726997423 0 0.45425462503306668 0.19370065361892971 0 0.47095000518316388 0.18962465853288449 0 0.45832695595466982 0.17735418724462459 0 0.47095000518316388 0.18962465853288449 0 0.45832695595466982 0.17735418724462459 0 0.47105918388385759 0.17426622801837521 0 0.4483413645777195 0.167653029844192 0 0.45832695595466982 0.17735418724462459 0 0.4610424898419046 0.1590430303010256 0 0.45832695595466982 0.17735418724462459 0 0.4610424898419046 0.1590430303010256 0 0.47105918388385759 0.17426622801837521 0 0.4610424898419046 0.1590430303010256 0 0.48052124492095211 0.16434360065704681 0 0.47304271567719891 0.14606961651907019 0 0.4610424898419046 0.1590430303010256 0 0.48052124492095211 0.16434360065704681 0 0.4610424898419046 0.1590430303010256 0 0.48052124492095211 0.16434360065704681 0 0.47105918388385759 0.17426622801837521 0 0.48052124492095211 0.16434360065704681 0 0.47105918388385759 0.17426622801837521 0 0.48445522351859732 0.18096566335629449 0 0.47095000518316388 0.18962465853288449 0 0.47105918388385759 0.17426622801837521 0 0.48445522351859732 0.18096566335629449 0 0.5 0.189828314755764 0 0.48445522351859732 0.18096566335629449 0 0.49999999999999961 0.16964417101306789 0 0.48052124492095211 0.16434360065704681 0 0.49999999999999961 0.16964417101306789 0 0.5 0.14163806953089211 0 0.48052124492095211 0.16434360065704681 0 0.49999999999999961 0.16964417101306789 0 0.48052124492095211 0.16434360065704681 0 0.48445522351859732 0.18096566335629449 0 0.49999999999999961 0.16964417101306789 0 0.48052124492095211 0.16434360065704681 0 0.5 0.14163806953089211 0 0.47304271567719891 0.14606961651907019 0 0.5 0.14163806953089211 0 0.47304271567719891 0.14606961651907019 0 0.47783664026948153 0.1307461921831681 0 0.46286854901401581 0.13578998470973111 0 0.47304271567719891 0.14606961651907019 0 0.47783664026948153 0.1307461921831681 0 0.5 0.14163806953089211 0 0.47783664026948153 0.1307461921831681 0 0.5 0.1136319680487162 0 0.5 0.1136319680487162 0 0.47802956228729648 0.1001388114087155 0 0.5 0.085625866566540254 0 0.47802956228729648 0.1001388114087155 0 0.47138450663331788 0.1157471303607029 0 0.45812384716993959 0.107785912651281 0 0.47783664026948153 0.1307461921831681 0 0.5 0.1136319680487162 0 0.47138450663331788 0.1157471303607029 0 0.5 0.1136319680487162 0 0.47802956228729648 0.1001388114087155 0 0.47138450663331788 0.1157471303607029 0 0.46370969943691392 0.12622941311662161 0 0.47783664026948153 0.1307461921831681 0 0.47138450663331788 0.1157471303607029 0 0.5 0.085625866566540254 0 0.48498316826748589 0.057956866968411729 0 0.50000000000000122 0.057619765084364387 0 0.5 0.085625866566540254 0 0.47537760541319068 0.069504682139042553 0 0.48498316826748589 0.057956866968411729 0 0.47802956228729648 0.1001388114087155 0 0.5 0.085625866566540254 0 0.47576712875320548 0.085325374524534703 0 0.47802956228729648 0.1001388114087155 0 0.47576712875320548 0.085325374524534703 0 0.46114643444266779 0.092698151636566209 0 0.5 0.085625866566540254 0 0.47576712875320548 0.085325374524534703 0 0.47537760541319068 0.069504682139042553 0 0.47576712875320548 0.085325374524534703 0 0.47537760541319068 0.069504682139042553 0 0.46428204162287268 0.078659360871809095 0 0.47537760541319068 0.069504682139042553 0 0.45741950290987032 0.063891187669331176 0 0.46428204162287268 0.078659360871809095 0 0.45741950290987032 0.063891187669331176 0 0.46428204162287268 0.078659360871809095 0 0.45105210527386153 0.078714436242967423 0 0.46428204162287268 0.078659360871809095 0 0.46114643444266779 0.092698151636566209 0 0.45105210527386153 0.078714436242967423 0 0.47576712875320548 0.085325374524534703 0 0.46428204162287268 0.078659360871809095 0 0.46114643444266779 0.092698151636566209 0 0.46114643444266779 0.092698151636566209 0 0.44699359917714843 0.090079524040452719 0 0.45105210527386153 0.078714436242967423 0 0.44699359917714843 0.090079524040452719 0 0.43620770190789571 0.097691734183412302 0 0.43680369476770248 0.088165219047517909 0 0.44699359917714843 0.090079524040452719 0 0.43893725495719271 0.078445516470333015 0 0.43680369476770248 0.088165219047517909 0 0.44699359917714843 0.090079524040452719 0 0.43893725495719271 0.078445516470333015 0 0.45105210527386153 0.078714436242967423 0 0.45741950290987032 0.063891187669331176 0 0.45105210527386153 0.078714436242967423 0 0.44022568248748889 0.065336749670225527 0 0.43893725495719271 0.078445516470333015 0 0.45105210527386153 0.078714436242967423 0 0.44022568248748889 0.065336749670225527 0 0.47138450663331788 0.1157471303607029 0 0.45570644693463702 0.11978708411432321 0 0.45812384716993959 0.107785912651281 0 0.46370969943691392 0.12622941311662161 0 0.47138450663331788 0.1157471303607029 0 0.45570644693463702 0.11978708411432321 0 0.45570644693463702 0.11978708411432321 0 0.45812384716993959 0.107785912651281 0 0.44674760438562788 0.11087575280493391 0 0.47802956228729648 0.1001388114087155 0 0.46114643444266779 0.092698151636566209 0 0.45812384716993959 0.107785912651281 0 0.46114643444266779 0.092698151636566209 0 0.45812384716993959 0.107785912651281 0 0.4476379608922012 0.1016224961269545 0 0.45812384716993959 0.107785912651281 0 0.4476379608922012 0.1016224961269545 0 0.44674760438562788 0.11087575280493391 0 0.46114643444266779 0.092698151636566209 0 0.44699359917714843 0.090079524040452719 0 0.4476379608922012 0.1016224961269545 0 0.44699359917714843 0.090079524040452719 0 0.4476379608922012 0.1016224961269545 0 0.43620770190789571 0.097691734183412302 0 0.4476379608922012 0.1016224961269545 0 0.43788714237274201 0.1072223497708915 0 0.43620770190789571 0.097691734183412302 0 0.4476379608922012 0.1016224961269545 0 0.43788714237274201 0.1072223497708915 0 0.44674760438562788 0.11087575280493391 0 0.45570644693463702 0.11978708411432321 0 0.43603377824290762 0.1177592761282337 0 0.45570644693463702 0.11978708411432321 0 0.44674760438562788 0.11087575280493391 0 0.43603377824290762 0.1177592761282337 0 0.43788714237274201 0.1072223497708915 0 0.44674760438562788 0.11087575280493391 0 0.43603377824290762 0.1177592761282337 0 0.45570644693463702 0.11978708411432321 0 0.44538676651062409 0.12297248566988291 0 0.43603377824290762 0.1177592761282337 0 0.45318976764787322 0.12920373418489059 0 0.45570644693463702 0.11978708411432321 0 0.44538676651062409 0.12297248566988291 0 0.43661707321707882 0.12513984825208421 0 0.44538676651062409 0.12297248566988291 0 0.43603377824290762 0.1177592761282337 0 0.43603377824290762 0.1177592761282337 0 0.41636110955117789 0.1157314681421453 0 0.43661707321707882 0.12513984825208421 0 0.43603377824290762 0.1177592761282337 0 0.42004437878628459 0.1210759623192765 0 0.43603377824290762 0.1177592761282337 0 0.42653546216698479 0.11116979748234419 0 0.41636110955117789 0.1157314681421453 0 0.43603377824290762 0.1177592761282337 0 0.42004437878628459 0.1210759623192765 0 0.41636110955117789 0.1157314681421453 0 0.43661707321707882 0.12513984825208421 0 0.42004437878628459 0.1210759623192765 0 0.43661707321707882 0.12513984825208421 0 0.4294559248904124 0.12741724050192541 0 0.42004437878628459 0.1210759623192765 0 0.43788714237274201 0.1072223497708915 0 0.43603377824290762 0.1177592761282337 0 0.4328847918468014 0.11134002314492029 0 0.43603377824290762 0.1177592761282337 0 0.4328847918468014 0.11134002314492029 0 0.42653546216698479 0.11116979748234419 0 0.4294559248904124 0.12741724050192541 0 0.42248339696411857 0.1246150243908439 0 0.42004437878628459 0.1210759623192765 0 0.42004437878628459 0.1210759623192765 0 0.41636110955117789 0.1157314681421453 0 0.41087180245672611 0.1188267020032223 0 0.42248339696411857 0.1246150243908439 0 0.42004437878628459 0.1210759623192765 0 0.41087180245672611 0.1188267020032223 0 0.42397725720001339 0.13097366965194751 0 0.42248339696411857 0.1246150243908439 0 0.41087180245672611 0.1188267020032223 0 0.42004437878628459 0.1210759623192765 0 0.41087180245672611 0.1188267020032223 0 0.42248339696411857 0.1246150243908439 0 0.42004437878628459 0.1210759623192765 0 0.42004437878628459 0.1210759623192765 0 0.41636110955117789 0.1157314681421453 0 0.42653546216698479 0.11116979748234419 0 0.41636110955117789 0.1157314681421453 0 0.41961955386728411 0.1071069245193758 0 0.41636110955117789 0.1157314681421453 0 0.41046596255235768 0.1071774969829906 0 0.41961955386728411 0.1071069245193758 0 0.41636110955117789 0.1157314681421453 0 0.41074379732260641 0.1151524500752039 0 0.41074379732260641 0.1151524500752039 0 0.41046596255235768 0.1071774969829906 0 0.41636110955117789 0.1157314681421453 0 0.41074379732260641 0.1151524500752039 0 0.41046596255235768 0.1071774969829906 0 0.41636110955117789 0.1157314681421453 0 0.41074379732260641 0.1151524500752039 0 0.41087180245672611 0.1188267020032223 0 0.41636110955117789 0.1157314681421453 0 0.41046596255235768 0.1071774969829906 0 0.41074379732260641 0.1151524500752039 0 0.41087180245672611 0.1188267020032223 0 0.41046596255235768 0.1071774969829906 0 0.4097294202232945 0.086035828790847757 0 0.41046596255235768 0.1071774969829906 0 0.41840010990866078 0.097019547439317733 0 0.4097294202232945 0.086035828790847757 0 0.41046596255235768 0.1071774969829906 0 0.41961955386728411 0.1071069245193758 0 0.41840010990866078 0.097019547439317733 0 0.42779210556485048 0.103093555160218 0 0.43620770190789571 0.097691734183412302 0 0.42474529549220852 0.088921311158533328 0 0.41840010990866078 0.097019547439317733 0 0.42779210556485048 0.103093555160218 0 0.42474529549220852 0.088921311158533328 0 0.41961955386728411 0.1071069245193758 0 0.41840010990866078 0.097019547439317733 0 0.42779210556485048 0.103093555160218 0 0.4328847918468014 0.11134002314492029 0 0.42653546216698479 0.11116979748234419 0 0.42779210556485048 0.103093555160218 0 0.42653546216698479 0.11116979748234419 0 0.41961955386728411 0.1071069245193758 0 0.42779210556485048 0.103093555160218 0 0.43788714237274201 0.1072223497708915 0 0.42779210556485048 0.103093555160218 0 0.43620770190789571 0.097691734183412302 0 0.43788714237274201 0.1072223497708915 0 0.4328847918468014 0.11134002314492029 0 0.42779210556485048 0.103093555160218 0 0.43620770190789571 0.097691734183412302 0 0.43680369476770248 0.088165219047517909 0 0.42474529549220852 0.088921311158533328 0 0.43893725495719271 0.078445516470333015 0 0.43680369476770248 0.088165219047517909 0 0.42852621686349562 0.074797314001404644 0 0.43680369476770248 0.088165219047517909 0 0.42474529549220852 0.088921311158533328 0 0.42852621686349562 0.074797314001404644 0 0.42474529549220852 0.088921311158533328 0 0.42852621686349562 0.074797314001404644 0 0.41825199930807039 0.075330597697218254 0 0.44022568248748889 0.065336749670225527 0 0.42852621686349562 0.074797314001404644 0 0.42371335036283309 0.062200134122480218 0 0.43893725495719271 0.078445516470333015 0 0.44022568248748889 0.065336749670225527 0 0.42852621686349562 0.074797314001404644 0 0.42852621686349562 0.074797314001404644 0 0.41825199930807039 0.075330597697218254 0 0.42371335036283309 0.062200134122480218 0 0.41825199930807039 0.075330597697218254 0 0.40899287789423089 0.064894160598704786 0 0.4097294202232945 0.086035828790847757 0 0.40899287789423089 0.064894160598704786 0 0.4097294202232945 0.086035828790847757 0 0.41825199930807039 0.075330597697218254 0 0.40899287789423089 0.064894160598704786 0 0.42371335036283309 0.062200134122480218 0 0.41840010990866078 0.097019547439317733 0 0.42474529549220852 0.088921311158533328 0 0.4097294202232945 0.086035828790847757 0 0.42474529549220852 0.088921311158533328 0 0.41825199930807039 0.075330597697218254 0 0.4097294202232945 0.086035828790847757 0 0.41046596255235768 0.1071774969829906 0 0.4097294202232945 0.086035828790847757 0 0.39489018150213312 0.084576740477409151 0 0.4097294202232945 0.086035828790847757 0 0.39489018150213312 0.084576740477409151 0 0.39935165099721709 0.071600951953109865 0 0.39489018150213312 0.084576740477409151 0 0.39935165099721709 0.071600951953109865 0 0.37931440045190862 0.061975983971827589 0 0.40899287789423089 0.064894160598704786 0 0.4097294202232945 0.086035828790847757 0 0.39935165099721709 0.071600951953109865 0 0.39489018150213312 0.084576740477409151 0 0.37931440045190862 0.061975983971827589 0 0.39489018150213312 0.084576740477409151 0 0.37816212205045041 0.084888251775124046 0 0.37931440045190862 0.061975983971827589 0 0.39489018150213312 0.084576740477409151 0 0.37816212205045041 0.084888251775124046 0 0.38220016643649501 0.099235311755894756 0 0.37188453547291372 0.092891913412360666 0 0.37816212205045041 0.084888251775124046 0 0.38220016643649501 0.099235311755894756 0 0.37305893620072578 0.1026623483860698 0 0.37188453547291372 0.092891913412360666 0 0.38220016643649501 0.099235311755894756 0 0.38220016643649501 0.099235311755894756 0 0.38511480089846012 0.1125106791777853 0 0.39699976017366889 0.105864741093187 0 0.38220016643649501 0.099235311755894756 0 0.3751792170458485 0.110074317388732 0 0.38511480089846012 0.1125106791777853 0 0.37305893620072578 0.1026623483860698 0 0.38220016643649501 0.099235311755894756 0 0.3751792170458485 0.110074317388732 0 0.3751792170458485 0.110074317388732 0 0.3755954752973123 0.1115294516291151 0 0.38511480089846012 0.1125106791777853 0 0.38205529107153408 0.13411134420792509 0 0.3755954752973123 0.1115294516291151 0 0.38511480089846012 0.1125106791777853 0 0.38205529107153408 0.13411134420792509 0 0.39569855446944913 0.12502676434190621 0 0.38511480089846012 0.1125106791777853 0 0.38205529107153408 0.13411134420792509 0 0.3755954752973123 0.1115294516291151 0 0.3755954752973123 0.1115294516291151 0 0.38511480089846012 0.1125106791777853 0 0.3751792170458485 0.110074317388732 0 0.38511480089846012 0.1125106791777853 0 0.3751792170458485 0.110074317388732 0 0.3755954752973123 0.1115294516291151 0 0.41087180245672611 0.1188267020032223 0 0.38511480089846012 0.1125106791777853 0 0.41074379732260641 0.1151524500752039 0 0.38511480089846012 0.1125106791777853 0 0.39699976017366889 0.105864741093187 0 0.41074379732260641 0.1151524500752039 0 0.38511480089846012 0.1125106791777853 0 0.39569855446944913 0.12502676434190621 0 0.41087180245672611 0.1188267020032223 0 0.38511480089846012 0.1125106791777853 0 0.41074379732260641 0.1151524500752039 0 0.41087180245672611 0.1188267020032223 0 0.38511480089846012 0.1125106791777853 0 0.41074379732260641 0.1151524500752039 0 0.41046596255235768 0.1071774969829906 0 0.39699976017366889 0.105864741093187 0 0.41046596255235768 0.1071774969829906 0 0.39489018150213312 0.084576740477409151 0 0.39699976017366889 0.105864741093187 0 0.39489018150213312 0.084576740477409151 0 0.38220016643649501 0.099235311755894756 0 0.39699976017366889 0.105864741093187 0 0.41046596255235768 0.1071774969829906 0 0.39489018150213312 0.084576740477409151 0 0.39646666621125087 0.023359734941093419 0 0.38439727355681202 0.036208625543587482 0 0.40505592771194349 0.033042023620923913 0 0.39646666621125087 0.023359734941093419 0 0.39377495823392361 0.01218405415862053 0 0.38353595233511673 0.023924328476665261 0 0.39646666621125087 0.023359734941093419 0 0.40505592771194349 0.033042023620923913 0 0.40904161713748072 0.023757909293201759 0 0.39646666621125087 0.023359734941093419 0 0.40904161713748072 0.023757909293201759 0 0.40647908431894891 0.011195540899366099 0 0.39646666621125087 0.023359734941093419 0 0.39377495823392361 0.01218405415862053 0 0.40647908431894891 0.011195540899366099 0 0.39377495823392361 0.01218405415862053 0 0.40647908431894891 0.011195540899366099 0 0.39811024661436101 -0.001812275774182501 0 0.39377495823392361 0.01218405415862053 0 0.38428284168994081 0.0042529422501603664 0 0.39811024661436101 -0.001812275774182501 0 0.36472049799435169 0.00050711610351814127 0 0.38428284168994081 0.0042529422501603664 0 0.38353595233511673 0.023924328476665261 0 0.39377495823392361 0.01218405415862053 0 0.38428284168994081 0.0042529422501603664 0 0.38353595233511673 0.023924328476665261 0 0.39646666621125087 0.023359734941093419 0 0.38353595233511673 0.023924328476665261 0 0.38439727355681202 0.036208625543587482 0 0.37227977885859592 0.029614699115919151 0 0.38353595233511673 0.023924328476665261 0 0.38439727355681202 0.036208625543587482 0 0.38111944860725772 0.046799012271134269 0 0.38439727355681202 0.036208625543587482 0 0.39702750101862988 0.049636212102870947 0 0.36373861940168001 0.039375227466248899 0 0.38111944860725772 0.046799012271134269 0 0.38439727355681202 0.036208625543587482 0 0.38111944860725772 0.046799012271134269 0 0.37931440045190862 0.061975983971827589 0 0.39702750101862988 0.049636212102870947 0 0.39935165099721709 0.071600951953109865 0 0.39702750101862988 0.049636212102870947 0 0.415309378460675 0.047270692342153302 0 0.39935165099721709 0.071600951953109865 0 0.37931440045190862 0.061975983971827589 0 0.39702750101862988 0.049636212102870947 0 0.39702750101862988 0.049636212102870947 0 0.40505592771194349 0.033042023620923913 0 0.415309378460675 0.047270692342153302 0 0.38439727355681202 0.036208625543587482 0 0.39702750101862988 0.049636212102870947 0 0.40505592771194349 0.033042023620923913 0 0.38439727355681202 0.036208625543587482 0 0.40505592771194349 0.033042023620923913 0 0.40505592771194349 0.033042023620923913 0 0.415309378460675 0.047270692342153302 0 0.41616266030057192 0.02971172560645377 0 0.415309378460675 0.047270692342153302 0 0.43126710592413281 0.022940432731196739 0 0.41616266030057192 0.02971172560645377 0 0.39935165099721709 0.071600951953109865 0 0.415309378460675 0.047270692342153302 0 0.40899287789423089 0.064894160598704786 0 0.415309378460675 0.047270692342153302 0 0.42371335036283309 0.062200134122480218 0 0.40899287789423089 0.064894160598704786 0 0.39935165099721709 0.071600951953109865 0 0.415309378460675 0.047270692342153302 0 0.415309378460675 0.047270692342153302 0 0.42371335036283309 0.062200134122480218 0 0.43185071202947029 0.05263802521108929 0 0.44022568248748889 0.065336749670225527 0 0.42371335036283309 0.062200134122480218 0 0.43185071202947029 0.05263802521108929 0 0.43185071202947029 0.05263802521108929 0 0.43428193139374471 0.039481928148032787 0 0.44572321744260979 0.04890062177255465 0 0.415309378460675 0.047270692342153302 0 0.43185071202947029 0.05263802521108929 0 0.43428193139374471 0.039481928148032787 0 0.415309378460675 0.047270692342153302 0 0.43428193139374471 0.039481928148032787 0 0.43126710592413281 0.022940432731196739 0 0.415309378460675 0.047270692342153302 0 0.43126710592413281 0.022940432731196739 0 0.43126710592413281 0.022940432731196739 0 0.42194822202074928 0.021413472751549988 0 0.42959131118279231 0.0080175831170792647 0 0.43126710592413281 0.022940432731196739 0 0.42194822202074928 0.021413472751549988 0 0.41616266030057192 0.02971172560645377 0 0.42194822202074928 0.021413472751549988 0 0.41616266030057192 0.02971172560645377 0 0.40904161713748072 0.023757909293201759 0 0.42194822202074928 0.021413472751549988 0 0.40904161713748072 0.023757909293201759 0 0.40647908431894891 0.011195540899366099 0 0.40505592771194349 0.033042023620923913 0 0.41616266030057192 0.02971172560645377 0 0.40904161713748072 0.023757909293201759 0 0.42194822202074928 0.021413472751549988 0 0.40647908431894891 0.011195540899366099 0 0.42184486956635081 -0.0065662830598484448 0 0.40647908431894891 0.011195540899366099 0 0.42184486956635081 -0.0065662830598484448 0 0.39811024661436101 -0.001812275774182501 0 0.43126710592413281 0.022940432731196739 0 0.42959131118279231 0.0080175831170792647 0 0.44722483338759061 -0.0013898268797596469 0 0.42194822202074928 0.021413472751549988 0 0.42959131118279231 0.0080175831170792647 0 0.42184486956635081 -0.0065662830598484448 0 0.42194822202074928 0.021413472751549988 0 0.42184486956635081 -0.0065662830598484448 0 0.42959131118279231 0.0080175831170792647 0 0.44722483338759061 -0.0013898268797596469 0 0.42184486956635081 -0.0065662830598484448 0 0.43126710592413281 0.022940432731196739 0 0.44696613100695781 0.016549713571948212 0 0.44722483338759061 -0.0013898268797596469 0 0.43126710592413281 0.022940432731196739 0 0.44722483338759061 -0.0013898268797596469 0 0.44696613100695781 0.016549713571948212 0 0.46002442579973052 0.01340291630512374 0 0.44722483338759061 -0.0013898268797596469 0 0.43126710592413281 0.022940432731196739 0 0.44696613100695781 0.016549713571948212 0 0.44850067465435051 0.030806061479188091 0 0.43428193139374471 0.039481928148032787 0 0.43126710592413281 0.022940432731196739 0 0.44850067465435051 0.030806061479188091 0 0.44696613100695781 0.016549713571948212 0 0.44850067465435051 0.030806061479188091 0 0.46002442579973052 0.01340291630512374 0 0.44850067465435051 0.030806061479188091 0 0.46516013741625067 0.028639695266975601 0 0.46002442579973052 0.01340291630512374 0 0.46516013741625067 0.028639695266975601 0 0.46002442579973052 0.01340291630512374 0 0.47446126916162629 0.0065119678009675419 0 0.46002442579973052 0.01340291630512374 0 0.44722483338759061 -0.0013898268797596469 0 0.46338424149775309 -0.0081895023176654404 0 0.46002442579973052 0.01340291630512374 0 0.47446126916162629 0.0065119678009675419 0 0.46338424149775309 -0.0081895023176654404 0 0.45741950290987032 0.063891187669331176 0 0.44022568248748889 0.065336749670225527 0 0.44572321744260979 0.04890062177255465 0 0.44022568248748889 0.065336749670225527 0 0.43185071202947029 0.05263802521108929 0 0.44572321744260979 0.04890062177255465 0 0.43428193139374471 0.039481928148032787 0 0.44850067465435051 0.030806061479188091 0 0.44572321744260979 0.04890062177255465 0 0.44850067465435051 0.030806061479188091 0 0.44572321744260979 0.04890062177255465 0 0.46567776783026921 0.048975549353024783 0 0.44850067465435051 0.030806061479188091 0 0.46516013741625067 0.028639695266975601 0 0.46567776783026921 0.048975549353024783 0 0.47537760541319068 0.069504682139042553 0 0.45741950290987032 0.063891187669331176 0 0.46567776783026921 0.048975549353024783 0 0.45741950290987032 0.063891187669331176 0 0.44572321744260979 0.04890062177255465 0 0.46567776783026921 0.048975549353024783 0 0.46567776783026921 0.048975549353024783 0 0.48258006870812631 0.04312973017566972 0 0.48498316826748589 0.057956866968411729 0 0.47537760541319068 0.069504682139042553 0 0.46567776783026921 0.048975549353024783 0 0.48498316826748589 0.057956866968411729 0 0.46516013741625067 0.028639695266975601 0 0.48258006870812631 0.04312973017566972 0 0.46516013741625067 0.028639695266975601 0 0.46567776783026921 0.048975549353024783 0 0.48258006870812631 0.04312973017566972 0 0.48258006870812631 0.04312973017566972 0 0.5 0.033002486167119427 0 0.48569738122088091 0.02069384670849694 0 0.48258006870812631 0.04312973017566972 0 0.5 0.033002486167119427 0 0.50000000000000122 0.057619765084364387 0 0.48258006870812631 0.04312973017566972 0 0.48498316826748589 0.057956866968411729 0 0.50000000000000122 0.057619765084364387 0 0.48258006870812631 0.04312973017566972 0 0.50000000000000122 0.057619765084364387 0 0.47446126916162629 0.0065119678009675419 0 0.48569738122088091 0.02069384670849694 0 0.4885470991405953 0.0066760572855903274 0 0.47446126916162629 0.0065119678009675419 0 0.4885470991405953 0.0066760572855903274 0 0.48465832911925838 -0.002749820599427574 0 0.46516013741625067 0.028639695266975601 0 0.48258006870812631 0.04312973017566972 0 0.48569738122088091 0.02069384670849694 0 0.46516013741625067 0.028639695266975601 0 0.47446126916162629 0.0065119678009675419 0 0.48569738122088091 0.02069384670849694 0 0.5 0.033002486167119427 0 0.48569738122088091 0.02069384670849694 0 0.5 0.0083852072498744601 0 0.48569738122088091 0.02069384670849694 0 0.5 0.0083852072498744601 0 0.4885470991405953 0.0066760572855903274 0 0.4885470991405953 0.0066760572855903274 0 0.49791851620121069 0.00053908526804026524 0 0.48465832911925838 -0.002749820599427574 0 0.5 0.0083852072498744601 0 0.4885470991405953 0.0066760572855903274 0 0.49791851620121069 0.00053908526804026524 0 0.5 0.0083852072498744601 0 0.49791851620121069 0.00053908526804026524 0 0.49999999999999911 -0.016232071667370441 0 0.49791851620121069 0.00053908526804026524 0 0.49602600523268159 -0.017256187470419009 0 0.49999999999999911 -0.016232071667370441 0 0.49791851620121069 0.00053908526804026524 0 0.49069755669776499 -0.0089676487788913142 0 0.49602600523268159 -0.017256187470419009 0 0.49791851620121069 0.00053908526804026524 0 0.49602600523268159 -0.017256187470419009 0 0.49069755669776499 -0.0089676487788913142 0 0.48418737623790992 -0.016403672313759651 0 0.49602600523268159 -0.017256187470419009 0 0.49069755669776499 -0.0089676487788913142 0 0.48465832911925838 -0.002749820599427574 0 0.48418737623790992 -0.016403672313759651 0 0.49791851620121069 0.00053908526804026524 0 0.49069755669776499 -0.0089676487788913142 0 0.48465832911925838 -0.002749820599427574 0 0.47446126916162629 0.0065119678009675419 0 0.48465832911925838 -0.002749820599427574 0 0.47574494954434687 -0.0088540360171625362 0 0.48465832911925838 -0.002749820599427574 0 0.47574494954434687 -0.0088540360171625362 0 0.48418737623790992 -0.016403672313759651 0 0.47574494954434687 -0.0088540360171625362 0 0.47203353170518708 -0.02343915265592858 0 0.46338424149775309 -0.0081895023176654404 0 0.47446126916162629 0.0065119678009675419 0 0.47574494954434687 -0.0088540360171625362 0 0.46338424149775309 -0.0081895023176654404 0 0.47203353170518708 -0.02343915265592858 0 0.49602600523268159 -0.017256187470419009 0 0.47203353170518708 -0.02343915265592858 0 0.48418737623790992 -0.016403672313759651 0 0.49602600523268159 -0.017256187470419009 0 0.47574494954434687 -0.0088540360171625362 0 0.47203353170518708 -0.02343915265592858 0 0.48418737623790992 -0.016403672313759651 0 0.47203353170518708 -0.02343915265592858 0 0.48418737623790992 -0.016403672313759651 0 0.49602600523268159 -0.017256187470419009 0 0.49357070429956379 -0.04034337189707999 0 0.49602600523268159 -0.017256187470419009 0 0.49999999999999911 -0.016232071667370441 0 0.5 -0.040480096962727918 0 0.47203353170518708 -0.02343915265592858 0 0.49602600523268159 -0.017256187470419009 0 0.49357070429956379 -0.04034337189707999 0 0.49602600523268159 -0.017256187470419009 0 0.49999999999999911 -0.016232071667370441 0 0.49602600523268159 -0.017256187470419009 0 0.49357070429956379 -0.04034337189707999 0 0.5 -0.040480096962727918 0 0.49357070429956379 -0.04034337189707999 0 0.5 -0.040480096962727918 0 0.49111540336644383 -0.063430556323740908 0 0.5 -0.040480096962727918 0 0.50000000000000011 -0.064728122258085496 0 0.49111540336644383 -0.063430556323740908 0 0.49357070429956379 -0.04034337189707999 0 0.47458033484052708 -0.043996897477654173 0 0.49111540336644383 -0.063430556323740908 0 0.49357070429956379 -0.04034337189707999 0 0.49111540336644383 -0.063430556323740908 0 0.46175201632611379 -0.059142130826019171 0 0.49111540336644383 -0.063430556323740908 0 0.47458033484052708 -0.043996897477654173 0 0.46175201632611379 -0.059142130826019171 0 0.49111540336644383 -0.063430556323740908 0 0.47203353170518708 -0.02343915265592858 0 0.47458033484052708 -0.043996897477654173 0 0.46452607451727929 -0.02778498473589382 0 0.47203353170518708 -0.02343915265592858 0 0.49357070429956379 -0.04034337189707999 0 0.47458033484052708 -0.043996897477654173 0 0.47458033484052708 -0.043996897477654173 0 0.45443001850532749 -0.03362927568550278 0 0.46452607451727929 -0.02778498473589382 0 0.47458033484052708 -0.043996897477654173 0 0.45443001850532749 -0.03362927568550278 0 0.46175201632611379 -0.059142130826019171 0 0.46175201632611379 -0.059142130826019171 0 0.44171215076947801 -0.056215374784351353 0 0.43682650530546852 -0.043819398715078103 0 0.46175201632611379 -0.059142130826019171 0 0.44171215076947801 -0.056215374784351353 0 0.45231741041949303 -0.066739334020185614 0 0.46175201632611379 -0.059142130826019171 0 0.43682650530546852 -0.043819398715078103 0 0.46175201632611379 -0.059142130826019171 0 0.44171215076947801 -0.056215374784351353 0 0.45443001850532749 -0.03362927568550278 0 0.43449209744037343 -0.033113744181783658 0 0.43682650530546852 -0.043819398715078103 0 0.45443001850532749 -0.03362927568550278 0 0.43682650530546852 -0.043819398715078103 0 0.45443001850532749 -0.03362927568550278 0 0.46175201632611379 -0.059142130826019171 0 0.43682650530546852 -0.043819398715078103 0 0.44626113308947801 -0.01942020440123279 0 0.46318256085104859 -0.025720086490715829 0 0.43449209744037343 -0.033113744181783658 0 0.45443001850532749 -0.03362927568550278 0 0.46318256085104859 -0.025720086490715829 0 0.43449209744037343 -0.033113744181783658 0 0.44626113308947801 -0.01942020440123279 0 0.43342686096581989 -0.018830922863454742 0 0.43449209744037343 -0.033113744181783658 0 0.46318256085104859 -0.025720086490715829 0 0.43449209744037343 -0.033113744181783658 0 0.44626113308947801 -0.01942020440123279 0 0.44722483338759061 -0.0013898268797596469 0 0.46318256085104859 -0.025720086490715829 0 0.44626113308947801 -0.01942020440123279 0 0.44722483338759061 -0.0013898268797596469 0 0.43342686096581989 -0.018830922863454742 0 0.44722483338759061 -0.0013898268797596469 0 0.46318256085104859 -0.025720086490715829 0 0.44722483338759061 -0.0013898268797596469 0 0.46338424149775309 -0.0081895023176654404 0 0.46318256085104859 -0.025720086490715829 0 0.47203353170518708 -0.02343915265592858 0 0.46338424149775309 -0.0081895023176654404 0 0.46318256085104859 -0.025720086490715829 0 0.47203353170518708 -0.02343915265592858 0 0.46318256085104859 -0.025720086490715829 0 0.47203353170518708 -0.02343915265592858 0 0.46452607451727929 -0.02778498473589382 0 0.47203353170518708 -0.02343915265592858 0 0.46452607451727929 -0.02778498473589382 0 0.46318256085104859 -0.025720086490715829 0 0.46452607451727929 -0.02778498473589382 0 0.46318256085104859 -0.025720086490715829 0 0.45443001850532749 -0.03362927568550278 0 0.46452607451727929 -0.02778498473589382 0 0.45443001850532749 -0.03362927568550278 0 0.46452607451727929 -0.02778498473589382 0 0.46318256085104859 -0.025720086490715829 0 0.48461341443476641 -0.12456873111154911 0 0.48717750471183779 -0.1004586009377556 0 0.48024365515176121 -0.105327351345561 0 0.48461341443476641 -0.12456873111154911 0 0.48024365515176121 -0.105327351345561 0 0.46266461605792292 -0.1257620525343193 0 0.48024365515176121 -0.105327351345561 0 0.46266461605792292 -0.1257620525343193 0 0.48024365515176121 -0.105327351345561 0 0.47090858167639088 -0.1087957783201335 0 0.46266461605792292 -0.1257620525343193 0 0.48461341443476641 -0.12456873111154911 0 0.48717750471183779 -0.1004586009377556 0 0.48461341443476641 -0.12456873111154911 0 0.5 -0.10786652507993361 0 0.5 -0.1330783178416233 0 0.48461341443476641 -0.12456873111154911 0 0.5 -0.10786652507993361 0 0.48717750471183779 -0.1004586009377556 0 0.5 -0.10786652507993361 0 0.48717750471183779 -0.1004586009377556 0 0.49999999999999678 -0.082654732318244051 0 0.48717750471183779 -0.1004586009377556 0 0.47882294508727319 -0.095602335983712886 0 0.4811478258706583 -0.087543136380658623 0 0.48717750471183779 -0.1004586009377556 0 0.47882294508727319 -0.095602335983712886 0 0.48024365515176121 -0.105327351345561 0 0.48024365515176121 -0.105327351345561 0 0.47090858167639088 -0.1087957783201335 0 0.47019350226551943 -0.098862891332724689 0 0.47882294508727319 -0.095602335983712886 0 0.48024365515176121 -0.105327351345561 0 0.47019350226551943 -0.098862891332724689 0 0.47882294508727319 -0.095602335983712886 0 0.47019350226551943 -0.098862891332724689 0 0.47259088344158479 -0.087341221379429401 0 0.47259088344158479 -0.087341221379429401 0 0.47711618339067552 -0.078277960033755908 0 0.46223323504412173 -0.076857456280878755 0 0.47711618339067552 -0.078277960033755908 0 0.4811478258706583 -0.087543136380658623 0 0.48974159498891101 -0.076348470763962228 0 0.47259088344158479 -0.087341221379429401 0 0.47711618339067552 -0.078277960033755908 0 0.4811478258706583 -0.087543136380658623 0 0.47882294508727319 -0.095602335983712886 0 0.47259088344158479 -0.087341221379429401 0 0.4811478258706583 -0.087543136380658623 0 0.48717750471183779 -0.1004586009377556 0 0.49999999999999678 -0.082654732318244051 0 0.48974159498891101 -0.076348470763962228 0 0.48717750471183779 -0.1004586009377556 0 0.48974159498891101 -0.076348470763962228 0 0.48717750471183779 -0.1004586009377556 0 0.4811478258706583 -0.087543136380658623 0 0.48974159498891101 -0.076348470763962228 0 0.49999999999999678 -0.082654732318244051 0 0.48974159498891101 -0.076348470763962228 0 0.48974159498891101 -0.076348470763962228 0 0.49521424958883792 -0.071790470416008362 0 0.49111540336644383 -0.063430556323740908 0 0.49999999999999678 -0.082654732318244051 0 0.49521424958883792 -0.071790470416008362 0 0.50000000000000011 -0.064728122258085496 0 0.49999999999999678 -0.082654732318244051 0 0.48974159498891101 -0.076348470763962228 0 0.49521424958883792 -0.071790470416008362 0 0.50000000000000011 -0.064728122258085496 0 0.49111540336644383 -0.063430556323740908 0 0.49521424958883792 -0.071790470416008362 0 0.50000000000000011 -0.064728122258085496 0 0.49111540336644383 -0.063430556323740908 0 0.48974159498891101 -0.076348470763962228 0 0.49111540336644383 -0.063430556323740908 0 0.48974159498891101 -0.076348470763962228 0 0.49111540336644383 -0.063430556323740908 0 0.47574680565751248 -0.067745300794990596 0 0.46175201632611379 -0.059142130826019171 0 0.49111540336644383 -0.063430556323740908 0 0.47574680565751248 -0.067745300794990596 0 0.47711618339067552 -0.078277960033755908 0 0.48974159498891101 -0.076348470763962228 0 0.47574680565751248 -0.067745300794990596 0 0.48974159498891101 -0.076348470763962228 0 0.47574680565751248 -0.067745300794990596 0 0.47711618339067552 -0.078277960033755908 0 0.47574680565751248 -0.067745300794990596 0 0.46223323504412173 -0.076857456280878755 0 0.46175201632611379 -0.059142130826019171 0 0.46223323504412173 -0.076857456280878755 0 0.45231741041949303 -0.066739334020185614 0 0.46175201632611379 -0.059142130826019171 0 0.47574680565751248 -0.067745300794990596 0 0.46223323504412173 -0.076857456280878755 0 0.46175201632611379 -0.059142130826019171 0 0.47574680565751248 -0.067745300794990596 0 0.44171215076947801 -0.056215374784351353 0 0.45231741041949303 -0.066739334020185614 0 0.44357223953825881 -0.074742374189492727 0 0.46223323504412173 -0.076857456280878755 0 0.45231741041949303 -0.066739334020185614 0 0.44357223953825881 -0.074742374189492727 0 0.46223323504412173 -0.076857456280878755 0 0.44357223953825881 -0.074742374189492727 0 0.45153468711065359 -0.090188904225797784 0 0.44357223953825881 -0.074742374189492727 0 0.45153468711065359 -0.090188904225797784 0 0.43642949682026788 -0.089067113407233764 0 0.46223323504412173 -0.076857456280878755 0 0.45153468711065359 -0.090188904225797784 0 0.46302540264908071 -0.0912349857782387 0 0.47259088344158479 -0.087341221379429401 0 0.46223323504412173 -0.076857456280878755 0 0.46302540264908071 -0.0912349857782387 0 0.47019350226551943 -0.098862891332724689 0 0.47259088344158479 -0.087341221379429401 0 0.46302540264908071 -0.0912349857782387 0 0.47019350226551943 -0.098862891332724689 0 0.46302540264908071 -0.0912349857782387 0 0.4594990835473951 -0.1034751674970629 0 0.47090858167639088 -0.1087957783201335 0 0.47019350226551943 -0.098862891332724689 0 0.4594990835473951 -0.1034751674970629 0 0.47090858167639088 -0.1087957783201335 0 0.4594990835473951 -0.1034751674970629 0 0.46133287059366967 -0.1132132983501771 0 0.45153468711065359 -0.090188904225797784 0 0.46302540264908071 -0.0912349857782387 0 0.4594990835473951 -0.1034751674970629 0 0.4594990835473951 -0.1034751674970629 0 0.44171615802137332 -0.1044209337592186 0 0.4525699066598402 -0.1145082620057646 0 0.45153468711065359 -0.090188904225797784 0 0.4594990835473951 -0.1034751674970629 0 0.44171615802137332 -0.1044209337592186 0 0.45153468711065359 -0.090188904225797784 0 0.44171615802137332 -0.1044209337592186 0 0.43642949682026788 -0.089067113407233764 0 0.44171615802137332 -0.1044209337592186 0 0.4525699066598402 -0.1145082620057646 0 0.44205130977292773 -0.1212379132070297 0 0.4525699066598402 -0.1145082620057646 0 0.44205130977292773 -0.1212379132070297 0 0.46266461605792292 -0.1257620525343193 0 0.44205130977292773 -0.1212379132070297 0 0.46266461605792292 -0.1257620525343193 0 0.4525699066598402 -0.1145082620057646 0 0.46133287059366967 -0.1132132983501771 0 0.46266461605792292 -0.1257620525343193 0 0.47090858167639088 -0.1087957783201335 0 0.46133287059366967 -0.1132132983501771 0 0.46266461605792292 -0.1257620525343193 0 0.4594990835473951 -0.1034751674970629 0 0.4525699066598402 -0.1145082620057646 0 0.46133287059366967 -0.1132132983501771 0 0.42143800348793281 -0.1167137738797397 0 0.40745669757868308 -0.12250339813550309 0 0.42137261517496771 -0.134415811440178 0 0.42143800348793281 -0.1167137738797397 0 0.3935407799823975 -0.11059098483082939 0 0.42143800348793281 -0.1167137738797397 0 0.40745669757868308 -0.12250339813550309 0 0.3935407799823975 -0.11059098483082939 0 0.44205130977292773 -0.1212379132070297 0 0.42143800348793281 -0.1167137738797397 0 0.43025095623296311 -0.12655282599692361 0 0.44171615802137332 -0.1044209337592186 0 0.44205130977292773 -0.1212379132070297 0 0.42143800348793281 -0.1167137738797397 0 0.44205130977292773 -0.1212379132070297 0 0.42143800348793281 -0.1167137738797397 0 0.44171615802137332 -0.1044209337592186 0 0.42151609739623558 -0.095572055500721856 0 0.43642949682026788 -0.089067113407233764 0 0.44171615802137332 -0.1044209337592186 0 0.42143800348793281 -0.1167137738797397 0 0.42151609739623558 -0.095572055500721856 0 0.42143800348793281 -0.1167137738797397 0 0.42151609739623558 -0.095572055500721856 0 0.40259772034347829 -0.095830996437907323 0 0.42143800348793281 -0.1167137738797397 0 0.42151609739623558 -0.095572055500721856 0 0.42151609739623558 -0.095572055500721856 0 0.42159419130453862 -0.074430337121704049 0 0.40771073745694519 -0.07793667354431788 0 0.42151609739623558 -0.095572055500721856 0 0.42159419130453862 -0.074430337121704049 0 0.42151609739623558 -0.095572055500721856 0 0.40771073745694519 -0.07793667354431788 0 0.40259772034347829 -0.095830996437907323 0 0.42151609739623558 -0.095572055500721856 0 0.43642949682026788 -0.089067113407233764 0 0.42159419130453862 -0.074430337121704049 0 0.44357223953825881 -0.074742374189492727 0 0.43642949682026788 -0.089067113407233764 0 0.42159419130453862 -0.074430337121704049 0 0.44171215076947801 -0.056215374784351353 0 0.44357223953825881 -0.074742374189492727 0 0.42159419130453862 -0.074430337121704049 0 0.42159419130453862 -0.074430337121704049 0 0.42167228521284178 -0.053288618742686297 0 0.42159419130453862 -0.074430337121704049 0 0.40771073745694519 -0.07793667354431788 0 0.41090956733743372 -0.058821903240489602 0 0.40771073745694519 -0.07793667354431788 0 0.39732422506348092 -0.063910156883753344 0 0.41090956733743372 -0.058821903240489602 0 0.40771073745694519 -0.07793667354431788 0 0.39732422506348092 -0.063910156883753344 0 0.39104345196185542 -0.078605697447275288 0 0.39732422506348092 -0.063910156883753344 0 0.38163544175336722 -0.063333262330934656 0 0.39104345196185542 -0.078605697447275288 0 0.38163544175336722 -0.063333262330934656 0 0.39104345196185542 -0.078605697447275288 0 0.37221883253223559 -0.074283469829812571 0 0.39104345196185542 -0.078605697447275288 0 0.40259772034347829 -0.095830996437907323 0 0.37296922488792639 -0.092981160332398075 0 0.39104345196185542 -0.078605697447275288 0 0.37221883253223559 -0.074283469829812571 0 0.37296922488792639 -0.092981160332398075 0 0.40771073745694519 -0.07793667354431788 0 0.39104345196185542 -0.078605697447275288 0 0.40259772034347829 -0.095830996437907323 0 0.42143800348793281 -0.1167137738797397 0 0.40259772034347829 -0.095830996437907323 0 0.3935407799823975 -0.11059098483082939 0 0.38540750171705263 -0.10881671339196181 0 0.3935407799823975 -0.11059098483082939 0 0.37296922488792639 -0.092981160332398075 0 0.3935407799823975 -0.11059098483082939 0 0.37296922488792639 -0.092981160332398075 0 0.40259772034347829 -0.095830996437907323 0 0.3935407799823975 -0.11059098483082939 0 0.37296922488792639 -0.092981160332398075 0 0.38540750171705263 -0.10881671339196181 0 0.3935407799823975 -0.11059098483082939 0 0.38540750171705263 -0.10881671339196181 0 0.37851991198349833 -0.13275546654106421 0 0.38540750171705263 -0.10881671339196181 0 0.37149691139903041 -0.1173368564447846 0 0.37851991198349833 -0.13275546654106421 0 0.38540750171705263 -0.10881671339196181 0 0.39382739685025647 -0.1243161728843979 0 0.37851991198349833 -0.13275546654106421 0 0.40745669757868308 -0.12250339813550309 0 0.39382739685025647 -0.1243161728843979 0 0.3935407799823975 -0.11059098483082939 0 0.38540750171705263 -0.10881671339196181 0 0.39382739685025647 -0.1243161728843979 0 0.3935407799823975 -0.11059098483082939 0 0.40745669757868308 -0.12250339813550309 0 0.3935407799823975 -0.11059098483082939 0 0.42184486956635081 -0.0065662830598484448 0 0.42174151711195512 -0.034546038871246847 0 0.40273451073942113 -0.022861653879657679 0 0.42184486956635081 -0.0065662830598484448 0 0.42174151711195512 -0.034546038871246847 0 0.42174151711195512 -0.034546038871246847 0 0.40273451073942113 -0.022861653879657679 0 0.42184486956635081 -0.0065662830598484448 0 0.40273451073942113 -0.022861653879657679 0 0.39811024661436101 -0.001812275774182501 0 0.44722483338759061 -0.0013898268797596469 0 0.42184486956635081 -0.0065662830598484448 0 0.43342686096581989 -0.018830922863454742 0 0.43342686096581989 -0.018830922863454742 0 0.43449209744037343 -0.033113744181783658 0 0.42174151711195512 -0.034546038871246847 0 0.42184486956635081 -0.0065662830598484448 0 0.43342686096581989 -0.018830922863454742 0 0.42174151711195512 -0.034546038871246847 0 0.43682650530546852 -0.043819398715078103 0 0.42167228521284178 -0.053288618742686297 0 0.42174151711195512 -0.034546038871246847 0 0.43449209744037343 -0.033113744181783658 0 0.43682650530546852 -0.043819398715078103 0 0.42174151711195512 -0.034546038871246847 0 0.43682650530546852 -0.043819398715078103 0 0.42174151711195512 -0.034546038871246847 0 0.44171215076947801 -0.056215374784351353 0 0.42159419130453862 -0.074430337121704049 0 0.42167228521284178 -0.053288618742686297 0 0.44171215076947801 -0.056215374784351353 0 0.43682650530546852 -0.043819398715078103 0 0.42167228521284178 -0.053288618742686297 0 0.44171215076947801 -0.056215374784351353 0 0.42167228521284178 -0.053288618742686297 0 0.43682650530546852 -0.043819398715078103 0 0.42167228521284178 -0.053288618742686297 0 0.42167228521284178 -0.053288618742686297 0 0.3956959749847192 -0.049494864603689417 0 0.42159419130453862 -0.074430337121704049 0 0.42167228521284178 -0.053288618742686297 0 0.41090956733743372 -0.058821903240489602 0 0.42167228521284178 -0.053288618742686297 0 0.41090956733743372 -0.058821903240489602 0 0.3956959749847192 -0.049494864603689417 0 0.42167228521284178 -0.053288618742686297 0 0.40957385603669222 -0.042756605570283969 0 0.3956959749847192 -0.049494864603689417 0 0.42167228521284178 -0.053288618742686297 0 0.41090956733743372 -0.058821903240489602 0 0.42174151711195512 -0.034546038871246847 0 0.40957385603669222 -0.042756605570283969 0 0.40273451073942113 -0.022861653879657679 0 0.42167228521284178 -0.053288618742686297 0 0.42174151711195512 -0.034546038871246847 0 0.42167228521284178 -0.053288618742686297 0 0.42174151711195512 -0.034546038871246847 0 0.40957385603669222 -0.042756605570283969 0 0.39800605274856432 -0.036485326129922467 0 0.3956959749847192 -0.049494864603689417 0 0.38539980493831127 -0.032527161565136173 0 0.40957385603669222 -0.042756605570283969 0 0.39800605274856432 -0.036485326129922467 0 0.40273451073942113 -0.022861653879657679 0 0.40957385603669222 -0.042756605570283969 0 0.39800605274856432 -0.036485326129922467 0 0.3956959749847192 -0.049494864603689417 0 0.39732422506348092 -0.063910156883753344 0 0.38163544175336722 -0.063333262330934656 0 0.3956959749847192 -0.049494864603689417 0 0.39732422506348092 -0.063910156883753344 0 0.41090956733743372 -0.058821903240489602 0 0.3956959749847192 -0.049494864603689417 0 0.38163544175336722 -0.063333262330934656 0 0.3956959749847192 -0.049494864603689417 0 0.37068104058527551 -0.045841516222754793 0 0.3956959749847192 -0.049494864603689417 0 0.37068104058527551 -0.045841516222754793 0 0.3956959749847192 -0.049494864603689417 0 0.38539980493831127 -0.032527161565136173 0 0.37068104058527551 -0.045841516222754793 0 0.38539980493831127 -0.032527161565136173 0 0.38372750436688641 -0.011177268888069841 0 0.36791820762306099 -0.02488114863949973 0 0.38539980493831127 -0.032527161565136173 0 0.40273451073942113 -0.022861653879657679 0 0.38372750436688641 -0.011177268888069841 0 0.40273451073942113 -0.022861653879657679 0 0.38372750436688641 -0.011177268888069841 0 0.39800605274856432 -0.036485326129922467 0 0.38539980493831127 -0.032527161565136173 0 0.40273451073942113 -0.022861653879657679 0 0.40273451073942113 -0.022861653879657679 0 0.39811024661436101 -0.001812275774182501 0 0.38372750436688641 -0.011177268888069841 0 0.38428284168994081 0.0042529422501603664 0 0.39811024661436101 -0.001812275774182501 0 0.38372750436688641 -0.011177268888069841 0 0.36472049799435169 0.00050711610351814127 0 0.38428284168994081 0.0042529422501603664 0 0.38372750436688641 -0.011177268888069841 0 0.36472049799435169 0.00050711610351814127 0 0.36791820762306099 -0.02488114863949973 0 0.34713525993743671 -0.021379001911652588 0 0.36472049799435169 0.00050711610351814127 0 0.38372750436688641 -0.011177268888069841 0 0.36791820762306099 -0.02488114863949973 0 0.36472049799435169 0.00050711610351814127 0 0.38372750436688641 -0.011177268888069841 0 0.36791820762306099 -0.02488114863949973 0 0.34713525993743671 -0.021379001911652588 0 0.35584513791610439 -0.038869059352902989 0 0.36472049799435169 0.00050711610351814127 0 0.34713525993743671 -0.021379001911652588 0 0.34402944143937603 -0.0055725786794763432 0 0.36472049799435169 0.00050711610351814127 0 0.34713525993743671 -0.021379001911652588 0 0.3328424792919546 0.0001001881096009792 0 0.34402944143937603 -0.0055725786794763432 0 0.32603084802228333 -0.017005308857759621 0 0.34713525993743671 -0.021379001911652588 0 0.34402944143937603 -0.0055725786794763432 0 0.32603084802228333 -0.017005308857759621 0 0.34713525993743671 -0.021379001911652588 0 0.32603084802228333 -0.017005308857759621 0 0.32955002188052063 -0.043265119926822637 0 0.32603084802228333 -0.017005308857759621 0 0.32955002188052063 -0.043265119926822637 0 0.31011651319528039 -0.03290349113274877 0 0.32603084802228333 -0.017005308857759621 0 0.30401562769199802 -0.018604559563955039 0 0.31011651319528039 -0.03290349113274877 0 0.3328424792919546 0.0001001881096009792 0 0.31110271474751788 0.0026872010741936059 0 0.32603084802228333 -0.017005308857759621 0 0.31110271474751788 0.0026872010741936059 0 0.32603084802228333 -0.017005308857759621 0 0.30401562769199802 -0.018604559563955039 0 0.32674695185537589 -0.046753746078861853 0 0.33182611469898371 -0.057761511335535941 0 0.31125455960451232 -0.040151686837104891 0 0.33182611469898371 -0.057761511335535941 0 0.31125455960451232 -0.040151686837104891 0 0.302815184560913 -0.061923362118266247 0 0.33182611469898371 -0.057761511335535941 0 0.31125455960451232 -0.040151686837104891 0 0.32955002188052063 -0.043265119926822637 0 0.31125455960451232 -0.040151686837104891 0 0.31011651319528039 -0.03290349113274877 0 0.32955002188052063 -0.043265119926822637 0 0.31011651319528039 -0.03290349113274877 0 0.32674695185537589 -0.046753746078861853 0 0.32955002188052063 -0.043265119926822637 0 0.31125455960451232 -0.040151686837104891 0 0.34713525993743671 -0.021379001911652588 0 0.32955002188052063 -0.043265119926822637 0 0.32674695185537589 -0.046753746078861853 0 0.32955002188052063 -0.043265119926822637 0 0.32955002188052063 -0.043265119926822637 0 0.3462991980725475 -0.052195506565655019 0 0.32955002188052063 -0.043265119926822637 0 0.33182611469898371 -0.057761511335535941 0 0.3462991980725475 -0.052195506565655019 0 0.33182611469898371 -0.057761511335535941 0 0.3462991980725475 -0.052195506565655019 0 0.34839283920739011 -0.061613561734911448 0 0.32674695185537589 -0.046753746078861853 0 0.32955002188052063 -0.043265119926822637 0 0.33182611469898371 -0.057761511335535941 0 0.3462991980725475 -0.052195506565655019 0 0.36304837426457409 -0.061125893204487802 0 0.3462991980725475 -0.052195506565655019 0 0.35584513791610439 -0.038869059352902989 0 0.36304837426457409 -0.061125893204487802 0 0.3462991980725475 -0.052195506565655019 0 0.34839283920739011 -0.061613561734911448 0 0.36304837426457409 -0.061125893204487802 0 0.32955002188052063 -0.043265119926822637 0 0.3462991980725475 -0.052195506565655019 0 0.35584513791610439 -0.038869059352902989 0 0.34713525993743671 -0.021379001911652588 0 0.32955002188052063 -0.043265119926822637 0 0.35584513791610439 -0.038869059352902989 0 0.36791820762306099 -0.02488114863949973 0 0.35584513791610439 -0.038869059352902989 0 0.37068104058527551 -0.045841516222754793 0 0.38539980493831127 -0.032527161565136173 0 0.36791820762306099 -0.02488114863949973 0 0.37068104058527551 -0.045841516222754793 0 0.38163544175336722 -0.063333262330934656 0 0.37068104058527551 -0.045841516222754793 0 0.36304837426457409 -0.061125893204487802 0 0.35584513791610439 -0.038869059352902989 0 0.37068104058527551 -0.045841516222754793 0 0.36304837426457409 -0.061125893204487802 0 0.38163544175336722 -0.063333262330934656 0 0.36304837426457409 -0.061125893204487802 0 0.37221883253223559 -0.074283469829812571 0 0.36304837426457409 -0.061125893204487802 0 0.37221883253223559 -0.074283469829812571 0 0.35239766979345499 -0.075371335833967018 0 0.37296922488792639 -0.092981160332398075 0 0.35239766979345499 -0.075371335833967018 0 0.37221883253223559 -0.074283469829812571 0 0.37296922488792639 -0.092981160332398075 0 0.35239766979345499 -0.075371335833967018 0 0.37296922488792639 -0.092981160332398075 0 0.34922961917545881 -0.093671626986802731 0 0.35239766979345499 -0.075371335833967018 0 0.34922961917545881 -0.093671626986802731 0 0.35239766979345499 -0.075371335833967018 0 0.33397317234112872 -0.080784209607164092 0 0.33182611469898371 -0.057761511335535941 0 0.34839283920739011 -0.061613561734911448 0 0.35239766979345499 -0.075371335833967018 0 0.34839283920739011 -0.061613561734911448 0 0.36304837426457409 -0.061125893204487802 0 0.35239766979345499 -0.075371335833967018 0 0.38540750171705263 -0.10881671339196181 0 0.37149691139903041 -0.1173368564447846 0 0.3621276640518476 -0.10369653950462911 0 0.37149691139903041 -0.1173368564447846 0 0.35993030785298302 -0.124089003522441 0 0.37851991198349833 -0.13275546654106421 0 0.37149691139903041 -0.1173368564447846 0 0.35993030785298302 -0.124089003522441 0 0.3621276640518476 -0.10369653950462911 0 0.37296922488792639 -0.092981160332398075 0 0.34922961917545881 -0.093671626986802731 0 0.3621276640518476 -0.10369653950462911 0 0.38540750171705263 -0.10881671339196181 0 0.3621276640518476 -0.10369653950462911 0 0.38540750171705263 -0.10881671339196181 0 0.37296922488792639 -0.092981160332398075 0 0.3621276640518476 -0.10369653950462911 0 0.34922961917545881 -0.093671626986802731 0 0.3621276640518476 -0.10369653950462911 0 0.34524257138274589 -0.11181185037188859 0 0.35993030785298302 -0.124089003522441 0 0.34524257138274589 -0.11181185037188859 0 0.3456266585756157 -0.13176246751671611 0 0.35993030785298302 -0.124089003522441 0 0.3621276640518476 -0.10369653950462911 0 0.34524257138274589 -0.11181185037188859 0 0.34524257138274589 -0.11181185037188859 0 0.32653128503778522 -0.1171783950245491 0 0.3456266585756157 -0.13176246751671611 0 0.34524257138274589 -0.11181185037188859 0 0.32913285190407399 -0.097372289790772781 0 0.32653128503778522 -0.1171783950245491 0 0.34922961917545881 -0.093671626986802731 0 0.34524257138274589 -0.11181185037188859 0 0.32913285190407399 -0.097372289790772781 0 0.32913285190407399 -0.097372289790772781 0 0.32653128503778522 -0.1171783950245491 0 0.30775109666913097 -0.099376382535948299 0 0.32653128503778522 -0.1171783950245491 0 0.30862183692621797 -0.1170190274074094 0 0.30775109666913097 -0.099376382535948299 0 0.32653128503778522 -0.1171783950245491 0 0.30862183692621797 -0.1170190274074094 0 0.31373811545385027 -0.13674550705437991 0 0.33182611469898371 -0.057761511335535941 0 0.35239766979345499 -0.075371335833967018 0 0.33397317234112872 -0.080784209607164092 0 0.33182611469898371 -0.057761511335535941 0 0.35239766979345499 -0.075371335833967018 0 0.34922961917545881 -0.093671626986802731 0 0.32913285190407399 -0.097372289790772781 0 0.33397317234112872 -0.080784209607164092 0 0.32913285190407399 -0.097372289790772781 0 0.33397317234112872 -0.080784209607164092 0 0.31389256782776781 -0.079568439060946128 0 0.32913285190407399 -0.097372289790772781 0 0.31389256782776781 -0.079568439060946128 0 0.30775109666913097 -0.099376382535948299 0 0.33182611469898371 -0.057761511335535941 0 0.31389256782776781 -0.079568439060946128 0 0.302815184560913 -0.061923362118266247 0 0.33182611469898371 -0.057761511335535941 0 0.33397317234112872 -0.080784209607164092 0 0.31389256782776781 -0.079568439060946128 0 0.31389256782776781 -0.079568439060946128 0 0.28650652309334063 -0.086435662226631071 0 0.302815184560913 -0.061923362118266247 0 0.31389256782776781 -0.079568439060946128 0 0.28650652309334063 -0.086435662226631071 0 0.30775109666913097 -0.099376382535948299 0 0.28650652309334063 -0.086435662226631071 0 0.28266807496929741 -0.063908973275341271 0 0.28650652309334063 -0.086435662226631071 0 0.28266807496929741 -0.063908973275341271 0 0.302815184560913 -0.061923362118266247 0 0.30862183692621797 -0.1170190274074094 0 0.2903449712173839 -0.1089623511779209 0 0.2941834193414285 -0.1314890401292105 0 0.30862183692621797 -0.1170190274074094 0 0.2941834193414285 -0.1314890401292105 0 0.30862183692621797 -0.1170190274074094 0 0.30775109666913097 -0.099376382535948299 0 0.2903449712173839 -0.1089623511779209 0 0.28650652309334063 -0.086435662226631071 0 0.2903449712173839 -0.1089623511779209 0 0.27783739936619473 -0.103969450299101 0 0.28650652309334063 -0.086435662226631071 0 0.2903449712173839 -0.1089623511779209 0 0.28650652309334063 -0.086435662226631071 0 0.30775109666913097 -0.099376382535948299 0 0.2903449712173839 -0.1089623511779209 0 0.2903449712173839 -0.1089623511779209 0 0.2941834193414285 -0.1314890401292105 0 0.2903449712173839 -0.1089623511779209 0 0.27710721179171349 -0.1165327318221354 0 0.2941834193414285 -0.1314890401292105 0 0.2903449712173839 -0.1089623511779209 0 0.27710721179171349 -0.1165327318221354 0 0.27783739936619473 -0.103969450299101 0 0.27710721179171349 -0.1165327318221354 0 0.26402460897334251 -0.1143098168969596 0 0.26100028799316582 -0.12905576502664479 0 0.27710721179171349 -0.1165327318221354 0 0.26100028799316582 -0.12905576502664479 0 0.27710721179171349 -0.1165327318221354 0 0.27783739936619473 -0.103969450299101 0 0.26402460897334251 -0.1143098168969596 0 0.28650652309334063 -0.086435662226631071 0 0.26574060720513648 -0.0972997175649436 0 0.27783739936619473 -0.103969450299101 0 0.26574060720513648 -0.0972997175649436 0 0.27783739936619473 -0.103969450299101 0 0.26402460897334251 -0.1143098168969596 0 0.26574060720513648 -0.0972997175649436 0 0.25042321778741577 -0.088498163389281431 0 0.24966775205228511 -0.1117210713920521 0 0.26574060720513648 -0.0972997175649436 0 0.26402460897334251 -0.1143098168969596 0 0.24966775205228511 -0.1117210713920521 0 0.26100028799316582 -0.12905576502664479 0 0.24966775205228511 -0.1117210713920521 0 0.24850843368760381 -0.12960869273444511 0 0.26402460897334251 -0.1143098168969596 0 0.26100028799316582 -0.12905576502664479 0 0.24966775205228511 -0.1117210713920521 0 0.28650652309334063 -0.086435662226631071 0 0.28266807496929741 -0.063908973275341271 0 0.2648039693877498 -0.07352633080447242 0 0.28266807496929741 -0.063908973275341271 0 0.2648039693877498 -0.07352633080447242 0 0.26728342107515979 -0.052082675393794547 0 0.28650652309334063 -0.086435662226631071 0 0.26574060720513648 -0.0972997175649436 0 0.2648039693877498 -0.07352633080447242 0 0.26574060720513648 -0.0972997175649436 0 0.25042321778741577 -0.088498163389281431 0 0.2648039693877498 -0.07352633080447242 0 0.25042321778741577 -0.088498163389281431 0 0.2648039693877498 -0.07352633080447242 0 0.24742844972315181 -0.071160919025872849 0 0.2648039693877498 -0.07352633080447242 0 0.25351095264522411 -0.056127677221165392 0 0.24742844972315181 -0.071160919025872849 0 0.2648039693877498 -0.07352633080447242 0 0.25351095264522411 -0.056127677221165392 0 0.26728342107515979 -0.052082675393794547 0 0.25351095264522411 -0.056127677221165392 0 0.26728342107515979 -0.052082675393794547 0 0.25591714703560497 -0.038082277907918911 0 0.28266807496929741 -0.063908973275341271 0 0.26728342107515979 -0.052082675393794547 0 0.27735202734220332 -0.045443113960308708 0 0.26728342107515979 -0.052082675393794547 0 0.27735202734220332 -0.045443113960308708 0 0.26949861283243998 -0.034336604301515652 0 0.2804939000802083 -0.033404531856869223 0 0.27735202734220332 -0.045443113960308708 0 0.26949861283243998 -0.034336604301515652 0 0.26728342107515979 -0.052082675393794547 0 0.26949861283243998 -0.034336604301515652 0 0.25591714703560497 -0.038082277907918911 0 0.25351095264522411 -0.056127677221165392 0 0.25591714703560497 -0.038082277907918911 0 0.24546318388198629 -0.045076968172456947 0 0.26949861283243998 -0.034336604301515652 0 0.25591714703560497 -0.038082277907918911 0 0.26354501366077732 -0.024131660976653039 0 0.25591714703560497 -0.038082277907918911 0 0.25071209178151888 -0.022501341022686989 0 0.26354501366077732 -0.024131660976653039 0 0.25071209178151888 -0.022501341022686989 0 0.26044802805238892 -0.016836160944980211 0 0.25174532895968033 -0.01046751453615574 0 0.25071209178151888 -0.022501341022686989 0 0.26044802805238892 -0.016836160944980211 0 0.26354501366077732 -0.024131660976653039 0 0.26044802805238892 -0.016836160944980211 0 0.26354501366077732 -0.024131660976653039 0 0.26675370014628352 -0.01797834262402976 0 0.24304819672666861 0.0028562376093386119 0 0.26686560061835429 -0.0098428123646683695 0 0.24304819672666861 0.0028562376093386119 0 0.25969689090617881 0.0019970246112113038 0 0.26686560061835429 -0.0098428123646683695 0 0.24304819672666861 0.0028562376093386119 0 0.25174532895968033 -0.01046751453615574 0 0.26686560061835429 -0.0098428123646683695 0 0.26044802805238892 -0.016836160944980211 0 0.26686560061835429 -0.0098428123646683695 0 0.26675370014628352 -0.01797834262402976 0 0.26044802805238892 -0.016836160944980211 0 0.25174532895968033 -0.01046751453615574 0 0.26686560061835429 -0.0098428123646683695 0 0.25969689090617881 0.0019970246112113038 0 0.26904692479048742 -0.0040207750924403096 0 0.26686560061835429 -0.0098428123646683695 0 0.26904692479048742 -0.0040207750924403096 0 0.29068300451004042 -0.022541862338674491 0 0.27709451946524188 0.0028561288189435661 0 0.26904692479048742 -0.0040207750924403096 0 0.28670906533606488 -0.0045854248474324014 0 0.26904692479048742 -0.0040207750924403096 0 0.26686560061835429 -0.0098428123646683695 0 0.29068300451004042 -0.022541862338674491 0 0.26686560061835429 -0.0098428123646683695 0 0.29068300451004042 -0.022541862338674491 0 0.26686560061835429 -0.0098428123646683695 0 0.27615615825361339 -0.021102736209817449 0 0.29068300451004042 -0.022541862338674491 0 0.26949861283243998 -0.034336604301515652 0 0.26354501366077732 -0.024131660976653039 0 0.27615615825361339 -0.021102736209817449 0 0.26354501366077732 -0.024131660976653039 0 0.26675370014628352 -0.01797834262402976 0 0.27615615825361339 -0.021102736209817449 0 0.26686560061835429 -0.0098428123646683695 0 0.26675370014628352 -0.01797834262402976 0 0.27615615825361339 -0.021102736209817449 0 0.2804939000802083 -0.033404531856869223 0 0.26949861283243998 -0.034336604301515652 0 0.27615615825361339 -0.021102736209817449 0 0.2804939000802083 -0.033404531856869223 0 0.27615615825361339 -0.021102736209817449 0 0.29068300451004042 -0.022541862338674491 0 0.29068300451004042 -0.022541862338674491 0 0.29503201847882871 -0.01214875950774771 0 0.30401562769199802 -0.018604559563955039 0 0.29068300451004042 -0.022541862338674491 0 0.28670906533606488 -0.0045854248474324014 0 0.29503201847882871 -0.01214875950774771 0 0.26904692479048742 -0.0040207750924403096 0 0.29068300451004042 -0.022541862338674491 0 0.28670906533606488 -0.0045854248474324014 0 0.28670906533606488 -0.0045854248474324014 0 0.29503201847882871 -0.01214875950774771 0 0.29874056080967082 -0.0010937581671198371 0 0.31110271474751788 0.0026872010741936059 0 0.29874056080967082 -0.0010937581671198371 0 0.30401562769199802 -0.018604559563955039 0 0.29503201847882871 -0.01214875950774771 0 0.29874056080967082 -0.0010937581671198371 0 0.30401562769199802 -0.018604559563955039 0 0.31110271474751788 0.0026872010741936059 0 0.30401562769199802 -0.018604559563955039 0 0.29068300451004042 -0.022541862338674491 0 0.30401562769199802 -0.018604559563955039 0 0.31011651319528039 -0.03290349113274877 0 0.29068300451004042 -0.022541862338674491 0 0.31011651319528039 -0.03290349113274877 0 0.29068300451004042 -0.022541862338674491 0 0.31125455960451232 -0.040151686837104891 0 0.29074326717157661 -0.043713899974038198 0 0.29068300451004042 -0.022541862338674491 0 0.31125455960451232 -0.040151686837104891 0 0.29068300451004042 -0.022541862338674491 0 0.31125455960451232 -0.040151686837104891 0 0.31011651319528039 -0.03290349113274877 0 0.31125455960451232 -0.040151686837104891 0 0.302815184560913 -0.061923362118266247 0 0.29074326717157661 -0.043713899974038198 0 0.28266807496929741 -0.063908973275341271 0 0.302815184560913 -0.061923362118266247 0 0.29074326717157661 -0.043713899974038198 0 0.28266807496929741 -0.063908973275341271 0 0.27735202734220332 -0.045443113960308708 0 0.29074326717157661 -0.043713899974038198 0 0.2804939000802083 -0.033404531856869223 0 0.29068300451004042 -0.022541862338674491 0 0.29074326717157661 -0.043713899974038198 0 0.2804939000802083 -0.033404531856869223 0 0.27735202734220332 -0.045443113960308708 0 0.29074326717157661 -0.043713899974038198 0 0.29454085908125588 -0.21356053030348501 0 0.28743511455076171 -0.20080932385302039 0 0.30070718207405162 -0.1979071166085262 0 0.29454085908125588 -0.21356053030348501 0 0.28743511455076171 -0.20080932385302039 0 0.27641781728785031 -0.21154498553803991 0 0.29454085908125588 -0.21356053030348501 0 0.28629280773902238 -0.230072300636811 0 0.27641781728785031 -0.21154498553803991 0 0.2890940266978369 -0.18760701788526429 0 0.30070718207405162 -0.1979071166085262 0 0.29956767179210281 -0.18039053870907809 0 0.28743511455076171 -0.20080932385302039 0 0.2890940266978369 -0.18760701788526429 0 0.27641568761281382 -0.19342696892978661 0 0.28743511455076171 -0.20080932385302039 0 0.2890940266978369 -0.18760701788526429 0 0.30070718207405162 -0.1979071166085262 0 0.30070718207405162 -0.1979071166085262 0 0.31562389203473901 -0.21194026379695891 0 0.31460694389628918 -0.19563928216874379 0 0.30070718207405162 -0.1979071166085262 0 0.310863028998345 -0.1826914247407033 0 0.31460694389628918 -0.19563928216874379 0 0.29454085908125588 -0.21356053030348501 0 0.30230355776152001 -0.22838305696914721 0 0.31562389203473901 -0.21194026379695891 0 0.29454085908125588 -0.21356053030348501 0 0.30070718207405162 -0.1979071166085262 0 0.31562389203473901 -0.21194026379695891 0 0.30230355776152001 -0.22838305696914721 0 0.31562389203473901 -0.21194026379695891 0 0.31671856696218231 -0.23624679004192939 0 0.30167872349749919 -0.24614799934162421 0 0.31671856696218231 -0.23624679004192939 0 0.31555104794034661 -0.25498671686932728 0 0.30230355776152001 -0.22838305696914721 0 0.30167872349749919 -0.24614799934162421 0 0.31671856696218231 -0.23624679004192939 0 0.30230355776152001 -0.22838305696914721 0 0.30167872349749919 -0.24614799934162421 0 0.28629280773902238 -0.230072300636811 0 0.30167872349749919 -0.24614799934162421 0 0.2839135516387799 -0.24913684813326861 0 0.28629280773902238 -0.230072300636811 0 0.29454085908125588 -0.21356053030348501 0 0.30230355776152001 -0.22838305696914721 0 0.28629280773902238 -0.230072300636811 0 0.28629280773902238 -0.230072300636811 0 0.26811345523682367 -0.22866750482514259 0 0.27641781728785031 -0.21154498553803991 0 0.2839135516387799 -0.24913684813326861 0 0.26811345523682367 -0.22866750482514259 0 0.26824137516285002 -0.24464664588689489 0 0.2839135516387799 -0.24913684813326861 0 0.26811345523682367 -0.22866750482514259 0 0.2839135516387799 -0.24913684813326861 0 0.28629280773902238 -0.230072300636811 0 0.26811345523682367 -0.22866750482514259 0 0.26811345523682367 -0.22866750482514259 0 0.26824137516285002 -0.24464664588689489 0 0.25477425875175691 -0.24219102984847479 0 0.26824137516285002 -0.24464664588689489 0 0.25477425875175691 -0.24219102984847479 0 0.26616423502403908 -0.25859120074069342 0 0.26811345523682367 -0.22866750482514259 0 0.25285722842640701 -0.22483162935596679 0 0.2593443973922176 -0.21253582456319331 0 0.26811345523682367 -0.22866750482514259 0 0.25477425875175691 -0.24219102984847479 0 0.25285722842640701 -0.22483162935596679 0 0.2593443973922176 -0.21253582456319331 0 0.26428759009151348 -0.1993768835033409 0 0.25333503254828788 -0.20253173111870459 0 0.2593443973922176 -0.21253582456319331 0 0.27641781728785031 -0.21154498553803991 0 0.26428759009151348 -0.1993768835033409 0 0.26811345523682367 -0.22866750482514259 0 0.2593443973922176 -0.21253582456319331 0 0.27641781728785031 -0.21154498553803991 0 0.27641781728785031 -0.21154498553803991 0 0.27641568761281382 -0.19342696892978661 0 0.26428759009151348 -0.1993768835033409 0 0.28743511455076171 -0.20080932385302039 0 0.27641781728785031 -0.21154498553803991 0 0.27641568761281382 -0.19342696892978661 0 0.27641568761281382 -0.19342696892978661 0 0.26428759009151348 -0.1993768835033409 0 0.26887925681195762 -0.1865731571805338 0 0.26428759009151348 -0.1993768835033409 0 0.25353019085601608 -0.18970850042794379 0 0.26887925681195762 -0.1865731571805338 0 0.26428759009151348 -0.1993768835033409 0 0.25333503254828788 -0.20253173111870459 0 0.25353019085601608 -0.18970850042794379 0 0.25353019085601608 -0.18970850042794379 0 0.27088242985862732 -0.1709112848755471 0 0.26887925681195762 -0.1865731571805338 0 0.25353019085601608 -0.18970850042794379 0 0.25816744960462829 -0.1675838224846245 0 0.27088242985862732 -0.1709112848755471 0 0.25353019085601608 -0.18970850042794379 0 0.25816744960462829 -0.1675838224846245 0 0.23914470535333701 -0.1866481936113992 0 0.25353019085601608 -0.18970850042794379 0 0.27088242985862732 -0.1709112848755471 0 0.25816744960462829 -0.1675838224846245 0 0.2520404706641407 -0.15250892310637881 0 0.24208375000554491 -0.15893054116536359 0 0.25816744960462829 -0.1675838224846245 0 0.2520404706641407 -0.15250892310637881 0 0.26210997328748942 -0.15341533043583869 0 0.25816744960462829 -0.1675838224846245 0 0.27719019385591981 -0.14851945135785011 0 0.27088242985862732 -0.1709112848755471 0 0.28823466886123861 -0.15211406932315041 0 0.25816744960462829 -0.1675838224846245 0 0.27088242985862732 -0.1709112848755471 0 0.27719019385591981 -0.14851945135785011 0 0.25816744960462829 -0.1675838224846245 0 0.26210997328748942 -0.15341533043583869 0 0.27719019385591981 -0.14851945135785011 0 0.27088242985862732 -0.1709112848755471 0 0.27719019385591981 -0.14851945135785011 0 0.28823466886123861 -0.15211406932315041 0 0.27088242985862732 -0.1709112848755471 0 0.27984597888057627 -0.17955231074736741 0 0.26887925681195762 -0.1865731571805338 0 0.27088242985862732 -0.1709112848755471 0 0.27984597888057627 -0.17955231074736741 0 0.28464815406216509 -0.16760549742919451 0 0.27641568761281382 -0.19342696892978661 0 0.27984597888057627 -0.17955231074736741 0 0.26887925681195762 -0.1865731571805338 0 0.26100028799316582 -0.12905576502664479 0 0.26104177902526859 -0.14504912479450141 0 0.24489336419461721 -0.1415787982311533 0 0.26100028799316582 -0.12905576502664479 0 0.26104177902526859 -0.14504912479450141 0 0.26896338056033048 -0.1387879502731286 0 0.26100028799316582 -0.12905576502664479 0 0.24489336419461721 -0.1415787982311533 0 0.26100028799316582 -0.12905576502664479 0 0.24850843368760381 -0.12960869273444511 0 0.24489336419461721 -0.1415787982311533 0 0.26104177902526859 -0.14504912479450141 0 0.24489336419461721 -0.1415787982311533 0 0.26104177902526859 -0.14504912479450141 0 0.2520404706641407 -0.15250892310637881 0 0.24489336419461721 -0.1415787982311533 0 0.26104177902526859 -0.14504912479450141 0 0.2520404706641407 -0.15250892310637881 0 0.26210997328748942 -0.15341533043583869 0 0.26104177902526859 -0.14504912479450141 0 0.27719019385591981 -0.14851945135785011 0 0.26896338056033048 -0.1387879502731286 0 0.26104177902526859 -0.14504912479450141 0 0.27719019385591981 -0.14851945135785011 0 0.26104177902526859 -0.14504912479450141 0 0.26210997328748942 -0.15341533043583869 0 0.27719019385591981 -0.14851945135785011 0 0.27719019385591981 -0.14851945135785011 0 0.26896338056033048 -0.1387879502731286 0 0.27662126136696769 -0.13252745991351811 0 0.27710721179171349 -0.1165327318221354 0 0.26100028799316582 -0.12905576502664479 0 0.27662126136696769 -0.13252745991351811 0 0.26100028799316582 -0.12905576502664479 0 0.26896338056033048 -0.1387879502731286 0 0.27662126136696769 -0.13252745991351811 0 0.27719019385591981 -0.14851945135785011 0 0.27662126136696769 -0.13252745991351811 0 0.2941834193414285 -0.1314890401292105 0 0.27719019385591981 -0.14851945135785011 0 0.2941834193414285 -0.1314890401292105 0 0.27710721179171349 -0.1165327318221354 0 0.27662126136696769 -0.13252745991351811 0 0.2941834193414285 -0.1314890401292105 0 0.27719019385591981 -0.14851945135785011 0 0.2941834193414285 -0.1314890401292105 0 0.29785090458598512 -0.15301239974428851 0 0.27719019385591981 -0.14851945135785011 0 0.28823466886123861 -0.15211406932315041 0 0.29785090458598512 -0.15301239974428851 0 0.2941834193414285 -0.1314890401292105 0 0.29785090458598512 -0.15301239974428851 0 0.27719019385591981 -0.14851945135785011 0 0.29785090458598512 -0.15301239974428851 0 0.28823466886123861 -0.15211406932315041 0 0.29785090458598512 -0.15301239974428851 0 0.29283634202759601 -0.1626107536364996 0 0.29785090458598512 -0.15301239974428851 0 0.32424969379694618 -0.1586326317793289 0 0.31373811545385027 -0.13674550705437991 0 0.29785090458598512 -0.15301239974428851 0 0.32424969379694618 -0.1586326317793289 0 0.30862183692621797 -0.1170190274074094 0 0.2941834193414285 -0.1314890401292105 0 0.31373811545385027 -0.13674550705437991 0 0.2941834193414285 -0.1314890401292105 0 0.29785090458598512 -0.15301239974428851 0 0.31373811545385027 -0.13674550705437991 0 0.2890940266978369 -0.18760701788526429 0 0.2914413506827872 -0.17283906856340789 0 0.29956767179210281 -0.18039053870907809 0 0.2890940266978369 -0.18760701788526429 0 0.27984597888057627 -0.17955231074736741 0 0.2914413506827872 -0.17283906856340789 0 0.2890940266978369 -0.18760701788526429 0 0.27641568761281382 -0.19342696892978661 0 0.27984597888057627 -0.17955231074736741 0 0.27984597888057627 -0.17955231074736741 0 0.2914413506827872 -0.17283906856340789 0 0.28464815406216509 -0.16760549742919451 0 0.27088242985862732 -0.1709112848755471 0 0.28823466886123861 -0.15211406932315041 0 0.28464815406216509 -0.16760549742919451 0 0.28823466886123861 -0.15211406932315041 0 0.28464815406216509 -0.16760549742919451 0 0.29283634202759601 -0.1626107536364996 0 0.2914413506827872 -0.17283906856340789 0 0.28464815406216509 -0.16760549742919451 0 0.29283634202759601 -0.1626107536364996 0 0.29785090458598512 -0.15301239974428851 0 0.30658505449841539 -0.16761240816018441 0 0.32424969379694618 -0.1586326317793289 0 0.2914413506827872 -0.17283906856340789 0 0.29283634202759601 -0.1626107536364996 0 0.30658505449841539 -0.16761240816018441 0 0.29785090458598512 -0.15301239974428851 0 0.29283634202759601 -0.1626107536364996 0 0.30658505449841539 -0.16761240816018441 0 0.30070718207405162 -0.1979071166085262 0 0.29956767179210281 -0.18039053870907809 0 0.310863028998345 -0.1826914247407033 0 0.30658505449841539 -0.16761240816018441 0 0.29956767179210281 -0.18039053870907809 0 0.310863028998345 -0.1826914247407033 0 0.2914413506827872 -0.17283906856340789 0 0.30658505449841539 -0.16761240816018441 0 0.29956767179210281 -0.18039053870907809 0 0.310863028998345 -0.1826914247407033 0 0.32636517577811891 -0.18052227732058651 0 0.31460694389628918 -0.19563928216874379 0 0.30658505449841539 -0.16761240816018441 0 0.310863028998345 -0.1826914247407033 0 0.32636517577811891 -0.18052227732058651 0 0.30658505449841539 -0.16761240816018441 0 0.32636517577811891 -0.18052227732058651 0 0.32424969379694618 -0.1586326317793289 0 0.32636517577811891 -0.18052227732058651 0 0.32424969379694618 -0.1586326317793289 0 0.34157405173600008 -0.17365496264571509 0 0.32424969379694618 -0.1586326317793289 0 0.34157405173600008 -0.17365496264571509 0 0.34771270652523639 -0.15208281409629651 0 0.32636517577811891 -0.18052227732058651 0 0.34157405173600008 -0.17365496264571509 0 0.34430337905975228 -0.19177924657322229 0 0.32653128503778522 -0.1171783950245491 0 0.31373811545385027 -0.13674550705437991 0 0.33098068236688749 -0.14319213254551591 0 0.32424969379694618 -0.1586326317793289 0 0.31373811545385027 -0.13674550705437991 0 0.33098068236688749 -0.14319213254551591 0 0.32424969379694618 -0.1586326317793289 0 0.33098068236688749 -0.14319213254551591 0 0.34771270652523639 -0.15208281409629651 0 0.33098068236688749 -0.14319213254551591 0 0.3456266585756157 -0.13176246751671611 0 0.34771270652523639 -0.15208281409629651 0 0.32653128503778522 -0.1171783950245491 0 0.33098068236688749 -0.14319213254551591 0 0.3456266585756157 -0.13176246751671611 0 0.35993030785298302 -0.124089003522441 0 0.3456266585756157 -0.13176246751671611 0 0.36174439941636122 -0.1411261473030786 0 0.3456266585756157 -0.13176246751671611 0 0.34771270652523639 -0.15208281409629651 0 0.36174439941636122 -0.1411261473030786 0 0.34771270652523639 -0.15208281409629651 0 0.36174439941636122 -0.1411261473030786 0 0.37163232224994402 -0.1566942196901667 0 0.36174439941636122 -0.1411261473030786 0 0.37163232224994402 -0.1566942196901667 0 0.37851991198349833 -0.13275546654106421 0 0.35993030785298302 -0.124089003522441 0 0.36174439941636122 -0.1411261473030786 0 0.37851991198349833 -0.13275546654106421 0 0.34157405173600008 -0.17365496264571509 0 0.36474473251638978 -0.18063297283926921 0 0.34430337905975228 -0.19177924657322229 0 0.34157405173600008 -0.17365496264571509 0 0.34771270652523639 -0.15208281409629651 0 0.36474473251638978 -0.18063297283926921 0 0.37163232224994402 -0.1566942196901667 0 0.36474473251638978 -0.18063297283926921 0 0.38549641138121571 -0.16892058264022361 0 0.37163232224994402 -0.1566942196901667 0 0.36474473251638978 -0.18063297283926921 0 0.34771270652523639 -0.15208281409629651 0 0.37163232224994402 -0.1566942196901667 0 0.36474473251638978 -0.18063297283926921 0 0.3605034986317408 -0.19892168424033421 0 0.37974331433220437 -0.20014978225090141 0 0.38360703748853969 -0.18623097785560999 0 0.36474473251638978 -0.18063297283926921 0 0.3605034986317408 -0.19892168424033421 0 0.38360703748853969 -0.18623097785560999 0 0.36474473251638978 -0.18063297283926921 0 0.3605034986317408 -0.19892168424033421 0 0.35785714278283548 -0.20457172598837159 0 0.36474473251638978 -0.18063297283926921 0 0.35785714278283548 -0.20457172598837159 0 0.3605034986317408 -0.19892168424033421 0 0.38360703748853969 -0.18623097785560999 0 0.3605034986317408 -0.19892168424033421 0 0.36714239455052772 -0.205530309074721 0 0.37974331433220437 -0.20014978225090141 0 0.3605034986317408 -0.19892168424033421 0 0.36714239455052772 -0.205530309074721 0 0.35785714278283548 -0.20457172598837159 0 0.37253107292760579 -0.21581453842494089 0 0.36505668197376251 -0.2143382691564161 0 0.37219180780766542 -0.22308018935272189 0 0.37253107292760579 -0.21581453842494089 0 0.37255133503209559 -0.20967008373758159 0 0.36505668197376251 -0.2143382691564161 0 0.37255133503209559 -0.20967008373758159 0 0.36714239455052772 -0.205530309074721 0 0.37974331433220437 -0.20014978225090141 0 0.37255133503209559 -0.20967008373758159 0 0.36714239455052772 -0.205530309074721 0 0.36505668197376251 -0.2143382691564161 0 0.36714239455052772 -0.205530309074721 0 0.36505668197376251 -0.2143382691564161 0 0.35785714278283548 -0.20457172598837159 0 0.35785714278283548 -0.20457172598837159 0 0.34013700428387961 -0.21077010174895061 0 0.35096955304928079 -0.22851047913747391 0 0.36505668197376251 -0.2143382691564161 0 0.35785714278283548 -0.20457172598837159 0 0.35096955304928079 -0.22851047913747391 0 0.35785714278283548 -0.20457172598837159 0 0.35096955304928079 -0.22851047913747391 0 0.36474473251638978 -0.18063297283926921 0 0.35785714278283548 -0.20457172598837159 0 0.34430337905975228 -0.19177924657322229 0 0.35785714278283548 -0.20457172598837159 0 0.34430337905975228 -0.19177924657322229 0 0.34013700428387961 -0.21077010174895061 0 0.34430337905975228 -0.19177924657322229 0 0.32839918876404828 -0.19670059351818961 0 0.34013700428387961 -0.21077010174895061 0 0.32636517577811891 -0.18052227732058651 0 0.34430337905975228 -0.19177924657322229 0 0.32839918876404828 -0.19670059351818961 0 0.34013700428387961 -0.21077010174895061 0 0.31562389203473901 -0.21194026379695891 0 0.3299723756598949 -0.226553114624443 0 0.32839918876404828 -0.19670059351818961 0 0.34013700428387961 -0.21077010174895061 0 0.31562389203473901 -0.21194026379695891 0 0.32636517577811891 -0.18052227732058651 0 0.32839918876404828 -0.19670059351818961 0 0.31460694389628918 -0.19563928216874379 0 0.32839918876404828 -0.19670059351818961 0 0.31562389203473901 -0.21194026379695891 0 0.31460694389628918 -0.19563928216874379 0 0.31671856696218231 -0.23624679004192939 0 0.33113835124624369 -0.24205487272376741 0 0.31555104794034661 -0.25498671686932728 0 0.31671856696218231 -0.23624679004192939 0 0.3299723756598949 -0.226553114624443 0 0.33113835124624369 -0.24205487272376741 0 0.31562389203473901 -0.21194026379695891 0 0.31671856696218231 -0.23624679004192939 0 0.3299723756598949 -0.226553114624443 0 0.34013700428387961 -0.21077010174895061 0 0.3299723756598949 -0.226553114624443 0 0.35096955304928079 -0.22851047913747391 0 0.3299723756598949 -0.226553114624443 0 0.35096955304928079 -0.22851047913747391 0 0.3299723756598949 -0.226553114624443 0 0.33113835124624369 -0.24205487272376741 0 0.35096955304928079 -0.22851047913747391 0 0.33113835124624369 -0.24205487272376741 0 0.34511374820939678 -0.2488631238178616 0 0.35096955304928079 -0.22851047913747391 0 0.34511374820939678 -0.2488631238178616 0 0.35590130418823729 -0.24986874370970499 0 0.35096955304928079 -0.22851047913747391 0 0.34511374820939678 -0.2488631238178616 0 0.35096955304928079 -0.22851047913747391 0 0.35096955304928079 -0.22851047913747391 0 0.37254466500696032 -0.23052171892115961 0 0.36505668197376251 -0.2143382691564161 0 0.35096955304928079 -0.22851047913747391 0 0.37219180780766542 -0.22308018935272189 0 0.35096955304928079 -0.22851047913747391 0 0.37254466500696032 -0.23052171892115961 0 0.37219180780766542 -0.22308018935272189 0 0.35590130418823729 -0.24986874370970499 0 0.35096955304928079 -0.22851047913747391 0 0.37254466500696032 -0.23052171892115961 0 0.35590130418823729 -0.24986874370970499 0 0.37254466500696032 -0.23052171892115961 0 0.37192528824684518 -0.24582274916853061 0 0.35590130418823729 -0.24986874370970499 0 0.37254466500696032 -0.23052171892115961 0 0.37254466500696032 -0.23052171892115961 0 0.38284406097530549 -0.24127072749574319 0 0.39246343402131573 -0.2323785538132461 0 0.38284406097530549 -0.24127072749574319 0 0.397738040916289 -0.2495782292145588 0 0.38160228539367702 -0.25296088863687738 0 0.37192528824684518 -0.24582274916853061 0 0.38284406097530549 -0.24127072749574319 0 0.38160228539367702 -0.25296088863687738 0 0.37254466500696032 -0.23052171892115961 0 0.37192528824684518 -0.24582274916853061 0 0.38284406097530549 -0.24127072749574319 0 0.397738040916289 -0.2495782292145588 0 0.39246343402131573 -0.2323785538132461 0 0.41238220303567102 -0.23423538870533331 0 0.38284406097530549 -0.24127072749574319 0 0.397738040916289 -0.2495782292145588 0 0.39246343402131573 -0.2323785538132461 0 0.39246343402131573 -0.2323785538132461 0 0.41238220303567102 -0.23423538870533331 0 0.40766263961730598 -0.2237064421121038 0 0.39246343402131573 -0.2323785538132461 0 0.41238220303567102 -0.23423538870533331 0 0.39246343402131573 -0.2323785538132461 0 0.3977296986522979 -0.2162379781059218 0 0.40766263961730598 -0.2237064421121038 0 0.39246343402131573 -0.2323785538132461 0 0.38096934230781848 -0.2207284780997639 0 0.3977296986522979 -0.2162379781059218 0 0.37254466500696032 -0.23052171892115961 0 0.39246343402131573 -0.2323785538132461 0 0.37254466500696032 -0.23052171892115961 0 0.39246343402131573 -0.2323785538132461 0 0.38096934230781848 -0.2207284780997639 0 0.37254466500696032 -0.23052171892115961 0 0.37219180780766542 -0.22308018935272189 0 0.38096934230781848 -0.2207284780997639 0 0.37253107292760579 -0.21581453842494089 0 0.37219180780766542 -0.22308018935272189 0 0.38096934230781848 -0.2207284780997639 0 0.37254466500696032 -0.23052171892115961 0 0.38096934230781848 -0.2207284780997639 0 0.37219180780766542 -0.22308018935272189 0 0.38096934230781848 -0.2207284780997639 0 0.38096934230781848 -0.2207284780997639 0 0.38065559111281472 -0.20957904711648059 0 0.3974828909643493 -0.20153235306921569 0 0.37253107292760579 -0.21581453842494089 0 0.38096934230781848 -0.2207284780997639 0 0.38065559111281472 -0.20957904711648059 0 0.37253107292760579 -0.21581453842494089 0 0.37255133503209559 -0.20967008373758159 0 0.38065559111281472 -0.20957904711648059 0 0.38065559111281472 -0.20957904711648059 0 0.37974331433220437 -0.20014978225090141 0 0.3974828909643493 -0.20153235306921569 0 0.38096934230781848 -0.2207284780997639 0 0.3974828909643493 -0.20153235306921569 0 0.38096934230781848 -0.2207284780997639 0 0.3977296986522979 -0.2162379781059218 0 0.37255133503209559 -0.20967008373758159 0 0.38065559111281472 -0.20957904711648059 0 0.37974331433220437 -0.20014978225090141 0 0.37974331433220437 -0.20014978225090141 0 0.38360703748853969 -0.18623097785560999 0 0.39971428224798528 -0.18675092902012139 0 0.3974828909643493 -0.20153235306921569 0 0.39971428224798528 -0.18675092902012139 0 0.41399643962088079 -0.1823362280386682 0 0.37974331433220437 -0.20014978225090141 0 0.3974828909643493 -0.20153235306921569 0 0.39971428224798528 -0.18675092902012139 0 0.3974828909643493 -0.20153235306921569 0 0.41399643962088079 -0.1823362280386682 0 0.38096934230781848 -0.2207284780997639 0 0.3974828909643493 -0.20153235306921569 0 0.3977296986522979 -0.2162379781059218 0 0.3977296986522979 -0.2162379781059218 0 0.41449005499677688 -0.21174747811207889 0 0.3974828909643493 -0.20153235306921569 0 0.3977296986522979 -0.2162379781059218 0 0.41449005499677688 -0.21174747811207889 0 0.3977296986522979 -0.2162379781059218 0 0.41449005499677688 -0.21174747811207889 0 0.40766263961730598 -0.2237064421121038 0 0.3974828909643493 -0.20153235306921569 0 0.41449005499677688 -0.21174747811207889 0 0.41399643962088079 -0.1823362280386682 0 0.41449005499677688 -0.21174747811207889 0 0.41399643962088079 -0.1823362280386682 0 0.41449005499677688 -0.21174747811207889 0 0.42508173313044018 -0.1940043459057588 0 0.41399643962088079 -0.1823362280386682 0 0.42508173313044018 -0.1940043459057588 0 0.41399643962088079 -0.1823362280386682 0 0.42508173313044018 -0.1940043459057588 0 0.43586828017625129 -0.20601974070222351 0 0.44522438781173018 -0.19226846339547041 0 0.42508173313044018 -0.1940043459057588 0 0.43193824431359878 -0.18123872171912189 0 0.44522438781173018 -0.19226846339547041 0 0.42508173313044018 -0.1940043459057588 0 0.43586828017625129 -0.20601974070222351 0 0.41449005499677688 -0.21174747811207889 0 0.43586828017625129 -0.20601974070222351 0 0.41449005499677688 -0.21174747811207889 0 0.43586828017625129 -0.20601974070222351 0 0.43004826530800838 -0.21478665267453989 0 0.41449005499677688 -0.21174747811207889 0 0.42508173313044018 -0.1940043459057588 0 0.43586828017625129 -0.20601974070222351 0 0.41449005499677688 -0.21174747811207889 0 0.42283063832112588 -0.218222619397587 0 0.43004826530800838 -0.21478665267453989 0 0.43586828017625129 -0.20601974070222351 0 0.43004826530800838 -0.21478665267453989 0 0.43727743545405512 -0.2188487112885609 0 0.43727743545405512 -0.2188487112885609 0 0.42963921007840972 -0.22426878639690079 0 0.43828976389791119 -0.22789189660813269 0 0.43004826530800838 -0.21478665267453989 0 0.43727743545405512 -0.2188487112885609 0 0.42963921007840972 -0.22426878639690079 0 0.42283063832112588 -0.218222619397587 0 0.42963921007840972 -0.22426878639690079 0 0.42067963440257761 -0.22658046831222359 0 0.42283063832112588 -0.218222619397587 0 0.43004826530800838 -0.21478665267453989 0 0.42963921007840972 -0.22426878639690079 0 0.42963921007840972 -0.22426878639690079 0 0.42515861666812488 -0.23036625203511679 0 0.42067963440257761 -0.22658046831222359 0 0.42199067420186298 -0.2333905306682364 0 0.42515861666812488 -0.23036625203511679 0 0.42674110702763612 -0.23497707858197611 0 0.42199067420186298 -0.2333905306682364 0 0.42515861666812488 -0.23036625203511679 0 0.42067963440257761 -0.22658046831222359 0 0.42963921007840972 -0.22426878639690079 0 0.42515861666812488 -0.23036625203511679 0 0.43078831459901068 -0.2304917210676363 0 0.42515861666812488 -0.23036625203511679 0 0.43078831459901068 -0.2304917210676363 0 0.42674110702763612 -0.23497707858197611 0 0.43078831459901068 -0.2304917210676363 0 0.43411287532297149 -0.23495459171605529 0 0.42674110702763612 -0.23497707858197611 0 0.42963921007840972 -0.22426878639690079 0 0.43078831459901068 -0.2304917210676363 0 0.43828976389791119 -0.22789189660813269 0 0.43078831459901068 -0.2304917210676363 0 0.43411287532297149 -0.23495459171605529 0 0.43828976389791119 -0.22789189660813269 0 0.43411287532297149 -0.23495459171605529 0 0.43678555963796489 -0.24056947941929049 0 0.44149649996580542 -0.235268673522226 0 0.43678555963796489 -0.24056947941929049 0 0.43035269124350778 -0.23936932902352631 0 0.42843617819030139 -0.24614502697172841 0 0.43411287532297149 -0.23495459171605529 0 0.43678555963796489 -0.24056947941929049 0 0.43035269124350778 -0.23936932902352631 0 0.43411287532297149 -0.23495459171605529 0 0.43035269124350778 -0.23936932902352631 0 0.42674110702763612 -0.23497707858197611 0 0.42843617819030139 -0.24614502697172841 0 0.43969750748853298 -0.24713740047738611 0 0.43601541459769377 -0.25344288737745002 0 0.43678555963796489 -0.24056947941929049 0 0.42843617819030139 -0.24614502697172841 0 0.43969750748853298 -0.24713740047738611 0 0.42843617819030139 -0.24614502697172841 0 0.42586086076925411 -0.23978964578587331 0 0.4207246404013863 -0.24150623466209009 0 0.43035269124350778 -0.23936932902352631 0 0.42674110702763612 -0.23497707858197611 0 0.42586086076925411 -0.23978964578587331 0 0.43035269124350778 -0.23936932902352631 0 0.42843617819030139 -0.24614502697172841 0 0.42586086076925411 -0.23978964578587331 0 0.42586086076925411 -0.23978964578587331 0 0.42281325160230337 -0.237355223165267 0 0.4207246404013863 -0.24150623466209009 0 0.42199067420186298 -0.2333905306682364 0 0.42674110702763612 -0.23497707858197611 0 0.42281325160230337 -0.237355223165267 0 0.42674110702763612 -0.23497707858197611 0 0.42586086076925411 -0.23978964578587331 0 0.42281325160230337 -0.237355223165267 0 0.42199067420186298 -0.2333905306682364 0 0.42281325160230337 -0.237355223165267 0 0.41940276549703398 -0.23641903805478351 0 0.41486836888605888 -0.23428868113646709 0 0.41524668277534299 -0.25682988416085523 0 0.41238220303567102 -0.23423538870533331 0 0.41486836888605888 -0.23428868113646709 0 0.41524668277534299 -0.25682988416085523 0 0.41940276549703398 -0.23641903805478351 0 0.4207246404013863 -0.24150623466209009 0 0.41486836888605888 -0.23428868113646709 0 0.397738040916289 -0.2495782292145588 0 0.41238220303567102 -0.23423538870533331 0 0.41524668277534299 -0.25682988416085523 0 0.4207246404013863 -0.24150623466209009 0 0.41486836888605888 -0.23428868113646709 0 0.41524668277534299 -0.25682988416085523 0 0.42281325160230337 -0.237355223165267 0 0.41940276549703398 -0.23641903805478351 0 0.4207246404013863 -0.24150623466209009 0 0.41940276549703398 -0.23641903805478351 0 0.41923536074688339 -0.23266967954292761 0 0.41486836888605888 -0.23428868113646709 0 0.42843617819030139 -0.24614502697172841 0 0.4207246404013863 -0.24150623466209009 0 0.41524668277534299 -0.25682988416085523 0 0.41449005499677688 -0.21174747811207889 0 0.40766263961730598 -0.2237064421121038 0 0.41486836888605888 -0.23428868113646709 0 0.41449005499677688 -0.21174747811207889 0 0.42067963440257761 -0.22658046831222359 0 0.41486836888605888 -0.23428868113646709 0 0.41449005499677688 -0.21174747811207889 0 0.41486836888605888 -0.23428868113646709 0 0.41238220303567102 -0.23423538870533331 0 0.40766263961730598 -0.2237064421121038 0 0.41486836888605888 -0.23428868113646709 0 0.41449005499677688 -0.21174747811207889 0 0.42283063832112588 -0.218222619397587 0 0.42067963440257761 -0.22658046831222359 0 0.42067963440257761 -0.22658046831222359 0 0.41923536074688339 -0.23266967954292761 0 0.41486836888605888 -0.23428868113646709 0 0.42199067420186298 -0.2333905306682364 0 0.42067963440257761 -0.22658046831222359 0 0.41923536074688339 -0.23266967954292761 0 0.42199067420186298 -0.2333905306682364 0 0.41940276549703398 -0.23641903805478351 0 0.41923536074688339 -0.23266967954292761 0 0.40745669757868308 -0.12250339813550309 0 0.39382739685025647 -0.1243161728843979 0 0.40306465822359577 -0.13176400899633789 0 0.40306465822359577 -0.13176400899633789 0 0.39542953993046198 -0.1393788565457075 0 0.40546315896931501 -0.14092775786589271 0 0.39382739685025647 -0.1243161728843979 0 0.40306465822359577 -0.13176400899633789 0 0.39542953993046198 -0.1393788565457075 0 0.39382739685025647 -0.1243161728843979 0 0.39542953993046198 -0.1393788565457075 0 0.37851991198349833 -0.13275546654106421 0 0.37163232224994402 -0.1566942196901667 0 0.37851991198349833 -0.13275546654106421 0 0.39542953993046198 -0.1393788565457075 0 0.37851991198349833 -0.13275546654106421 0 0.38826757644086979 -0.15256963203515531 0 0.37163232224994402 -0.1566942196901667 0 0.37851991198349833 -0.13275546654106421 0 0.38826757644086979 -0.15256963203515531 0 0.38826757644086979 -0.15256963203515531 0 0.40184654867102448 -0.15130892775429561 0 0.39801622324621277 -0.16385542195025429 0 0.39542953993046198 -0.1393788565457075 0 0.38826757644086979 -0.15256963203515531 0 0.40184654867102448 -0.15130892775429561 0 0.39542953993046198 -0.1393788565457075 0 0.40546315896931501 -0.14092775786589271 0 0.40184654867102448 -0.15130892775429561 0 0.39801622324621277 -0.16385542195025429 0 0.38549641138121571 -0.16892058264022361 0 0.40671057634533853 -0.17354027147088569 0 0.39801622324621277 -0.16385542195025429 0 0.40767666637262612 -0.16691819035039199 0 0.40769449424372278 -0.16034218233819891 0 0.40184654867102448 -0.15130892775429561 0 0.39801622324621277 -0.16385542195025429 0 0.40769449424372278 -0.16034218233819891 0 0.39801622324621277 -0.16385542195025429 0 0.40671057634533853 -0.17354027147088569 0 0.39801622324621277 -0.16385542195025429 0 0.40671057634533853 -0.17354027147088569 0 0.40767666637262612 -0.16691819035039199 0 0.37163232224994402 -0.1566942196901667 0 0.38826757644086979 -0.15256963203515531 0 0.38549641138121571 -0.16892058264022361 0 0.38826757644086979 -0.15256963203515531 0 0.39801622324621277 -0.16385542195025429 0 0.38549641138121571 -0.16892058264022361 0 0.36474473251638978 -0.18063297283926921 0 0.38549641138121571 -0.16892058264022361 0 0.38360703748853969 -0.18623097785560999 0 0.38360703748853969 -0.18623097785560999 0 0.40671057634533853 -0.17354027147088569 0 0.38360703748853969 -0.18623097785560999 0 0.39971428224798528 -0.18675092902012139 0 0.40671057634533853 -0.17354027147088569 0 0.38549641138121571 -0.16892058264022361 0 0.38360703748853969 -0.18623097785560999 0 0.40671057634533853 -0.17354027147088569 0 0.39971428224798528 -0.18675092902012139 0 0.40860152670832328 -0.1810676606743781 0 0.40671057634533853 -0.17354027147088569 0 0.39971428224798528 -0.18675092902012139 0 0.40860152670832328 -0.1810676606743781 0 0.41399643962088079 -0.1823362280386682 0 0.41399643962088079 -0.1823362280386682 0 0.40671057634533853 -0.17354027147088569 0 0.41378360908890383 -0.1696550752524833 0 0.40860152670832328 -0.1810676606743781 0 0.41399643962088079 -0.1823362280386682 0 0.40671057634533853 -0.17354027147088569 0 0.41399643962088079 -0.1823362280386682 0 0.41378360908890383 -0.1696550752524833 0 0.41399643962088079 -0.1823362280386682 0 0.40671057634533853 -0.17354027147088569 0 0.41399643962088079 -0.1823362280386682 0 0.43041832940905927 -0.16324665158430129 0 0.42508173313044018 -0.1940043459057588 0 0.41399643962088079 -0.1823362280386682 0 0.43193824431359878 -0.18123872171912189 0 0.43193824431359878 -0.18123872171912189 0 0.43041832940905927 -0.16324665158430129 0 0.44467158513213539 -0.1746851966007853 0 0.41399643962088079 -0.1823362280386682 0 0.43193824431359878 -0.18123872171912189 0 0.43041832940905927 -0.16324665158430129 0 0.43232645686710303 -0.15946954315074299 0 0.41378360908890383 -0.1696550752524833 0 0.43041832940905927 -0.16324665158430129 0 0.43232645686710303 -0.15946954315074299 0 0.41378360908890383 -0.1696550752524833 0 0.43232645686710303 -0.15946954315074299 0 0.42066099219747999 -0.16020393760898441 0 0.41378360908890383 -0.1696550752524833 0 0.43232645686710303 -0.15946954315074299 0 0.42066099219747999 -0.16020393760898441 0 0.42608168179211131 -0.1540631905203817 0 0.41378360908890383 -0.1696550752524833 0 0.41346505343908202 -0.15067446740133569 0 0.41399643962088079 -0.1823362280386682 0 0.43041832940905927 -0.16324665158430129 0 0.41378360908890383 -0.1696550752524833 0 0.42066099219747999 -0.16020393760898441 0 0.41378360908890383 -0.1696550752524833 0 0.41346505343908202 -0.15067446740133569 0 0.41378360908890383 -0.1696550752524833 0 0.40769449424372278 -0.16034218233819891 0 0.41346505343908202 -0.15067446740133569 0 0.41378360908890383 -0.1696550752524833 0 0.40767666637262612 -0.16691819035039199 0 0.40769449424372278 -0.16034218233819891 0 0.40671057634533853 -0.17354027147088569 0 0.41378360908890383 -0.1696550752524833 0 0.40671057634533853 -0.17354027147088569 0 0.41378360908890383 -0.1696550752524833 0 0.40767666637262612 -0.16691819035039199 0 0.41346505343908202 -0.15067446740133569 0 0.42132046499844411 -0.148533997728963 0 0.42137261517496771 -0.134415811440178 0 0.40546315896931501 -0.14092775786589271 0 0.41346505343908202 -0.15067446740133569 0 0.41314649778926271 -0.13169385955018811 0 0.41346505343908202 -0.15067446740133569 0 0.41314649778926271 -0.13169385955018811 0 0.40184654867102448 -0.15130892775429561 0 0.40769449424372278 -0.16034218233819891 0 0.41346505343908202 -0.15067446740133569 0 0.40546315896931501 -0.14092775786589271 0 0.40184654867102448 -0.15130892775429561 0 0.41346505343908202 -0.15067446740133569 0 0.42132046499844411 -0.148533997728963 0 0.42137261517496771 -0.134415811440178 0 0.41346505343908202 -0.15067446740133569 0 0.42132046499844411 -0.148533997728963 0 0.42038204810677943 -0.15336889831491621 0 0.42066099219747999 -0.16020393760898441 0 0.41346505343908202 -0.15067446740133569 0 0.42038204810677943 -0.15336889831491621 0 0.42066099219747999 -0.16020393760898441 0 0.42038204810677943 -0.15336889831491621 0 0.42608168179211131 -0.1540631905203817 0 0.43041832940905927 -0.16324665158430129 0 0.43232645686710303 -0.15946954315074299 0 0.4465414727334906 -0.14450435205930989 0 0.42132046499844411 -0.148533997728963 0 0.42608168179211131 -0.1540631905203817 0 0.4276143859345945 -0.14744580870138871 0 0.42132046499844411 -0.148533997728963 0 0.42038204810677943 -0.15336889831491621 0 0.42608168179211131 -0.1540631905203817 0 0.42608168179211131 -0.1540631905203817 0 0.43281296068820618 -0.15286428859236731 0 0.4276143859345945 -0.14744580870138871 0 0.43232645686710303 -0.15946954315074299 0 0.42608168179211131 -0.1540631905203817 0 0.43281296068820618 -0.15286428859236731 0 0.43281296068820618 -0.15286428859236731 0 0.43648420701924229 -0.14735175522505431 0 0.4276143859345945 -0.14744580870138871 0 0.43232645686710303 -0.15946954315074299 0 0.43281296068820618 -0.15286428859236731 0 0.4465414727334906 -0.14450435205930989 0 0.43648420701924229 -0.14735175522505431 0 0.42137261517496771 -0.134415811440178 0 0.43648420701924229 -0.14735175522505431 0 0.4276143859345945 -0.14744580870138871 0 0.42137261517496771 -0.134415811440178 0 0.42132046499844411 -0.148533997728963 0 0.4276143859345945 -0.14744580870138871 0 0.42137261517496771 -0.134415811440178 0 0.42143800348793281 -0.1167137738797397 0 0.43025095623296311 -0.12655282599692361 0 0.42137261517496771 -0.134415811440178 0 0.43648420701924229 -0.14735175522505431 0 0.43614189649602358 -0.13384380546074789 0 0.42137261517496771 -0.134415811440178 0 0.44205130977292773 -0.1212379132070297 0 0.43614189649602358 -0.13384380546074789 0 0.43025095623296311 -0.12655282599692361 0 0.43614189649602358 -0.13384380546074789 0 0.43025095623296311 -0.12655282599692361 0 0.42137261517496771 -0.134415811440178 0 0.40745669757868308 -0.12250339813550309 0 0.42137261517496771 -0.134415811440178 0 0.41346505343908202 -0.15067446740133569 0 0.42137261517496771 -0.134415811440178 0 0.41314649778926271 -0.13169385955018811 0 0.42143800348793281 -0.1167137738797397 0 0.42137261517496771 -0.134415811440178 0 0.40306465822359577 -0.13176400899633789 0 0.40546315896931501 -0.14092775786589271 0 0.41314649778926271 -0.13169385955018811 0 0.40745669757868308 -0.12250339813550309 0 0.40306465822359577 -0.13176400899633789 0 0.41314649778926271 -0.13169385955018811 0 0.40745669757868308 -0.12250339813550309 0 0.42137261517496771 -0.134415811440178 0 0.41314649778926271 -0.13169385955018811 0 0.46836674396900141 -0.1300630859120939 0 0.46266461605792292 -0.1257620525343193 0 0.46039708588598932 -0.1417314787791302 0 0.46266461605792292 -0.1257620525343193 0 0.4465414727334906 -0.14450435205930989 0 0.46266461605792292 -0.1257620525343193 0 0.4465414727334906 -0.14450435205930989 0 0.46039708588598932 -0.1417314787791302 0 0.44205130977292773 -0.1212379132070297 0 0.46266461605792292 -0.1257620525343193 0 0.44684982376509108 -0.13133703081535189 0 0.46266461605792292 -0.1257620525343193 0 0.44684982376509108 -0.13133703081535189 0 0.4465414727334906 -0.14450435205930989 0 0.44205130977292773 -0.1212379132070297 0 0.43614189649602358 -0.13384380546074789 0 0.44684982376509108 -0.13133703081535189 0 0.43614189649602358 -0.13384380546074789 0 0.44684982376509108 -0.13133703081535189 0 0.4465414727334906 -0.14450435205930989 0 0.43041832940905927 -0.16324665158430129 0 0.4465414727334906 -0.14450435205930989 0 0.43041832940905927 -0.16324665158430129 0 0.4465414727334906 -0.14450435205930989 0 0.44635368791385971 -0.16078636065530841 0 0.4465414727334906 -0.14450435205930989 0 0.45606121448173131 -0.1534107798142057 0 0.44635368791385971 -0.16078636065530841 0 0.43281296068820618 -0.15286428859236731 0 0.43648420701924229 -0.14735175522505431 0 0.4465414727334906 -0.14450435205930989 0 0.43648420701924229 -0.14735175522505431 0 0.43614189649602358 -0.13384380546074789 0 0.4465414727334906 -0.14450435205930989 0 0.46836674396900141 -0.1300630859120939 0 0.46039708588598932 -0.1417314787791302 0 0.46662243782278301 -0.15441658166884689 0 0.46836674396900141 -0.1300630859120939 0 0.46662243782278301 -0.15441658166884689 0 0.4465414727334906 -0.14450435205930989 0 0.45606121448173131 -0.1534107798142057 0 0.46039708588598932 -0.1417314787791302 0 0.45606121448173131 -0.1534107798142057 0 0.46039708588598932 -0.1417314787791302 0 0.46662243782278301 -0.15441658166884689 0 0.46662243782278301 -0.15441658166884689 0 0.46487813167656461 -0.17877007742559969 0 0.47343500051519999 -0.16357126056385951 0 0.46662243782278301 -0.15441658166884689 0 0.4603913880525341 -0.16561512590843311 0 0.46487813167656461 -0.17877007742559969 0 0.46662243782278301 -0.15441658166884689 0 0.46487813167656461 -0.17877007742559969 0 0.45606121448173131 -0.1534107798142057 0 0.46662243782278301 -0.15441658166884689 0 0.4603913880525341 -0.16561512590843311 0 0.45606121448173131 -0.1534107798142057 0 0.4603913880525341 -0.16561512590843311 0 0.44635368791385971 -0.16078636065530841 0 0.4603913880525341 -0.16561512590843311 0 0.44635368791385971 -0.16078636065530841 0 0.44467158513213539 -0.1746851966007853 0 0.43041832940905927 -0.16324665158430129 0 0.44635368791385971 -0.16078636065530841 0 0.44467158513213539 -0.1746851966007853 0 0.4603913880525341 -0.16561512590843311 0 0.44467158513213539 -0.1746851966007853 0 0.45209652044160492 -0.18398078296116471 0 0.43193824431359878 -0.18123872171912189 0 0.44467158513213539 -0.1746851966007853 0 0.44522438781173018 -0.19226846339547041 0 0.44467158513213539 -0.1746851966007853 0 0.45209652044160492 -0.18398078296116471 0 0.44522438781173018 -0.19226846339547041 0 0.4603913880525341 -0.16561512590843311 0 0.46072409849639862 -0.18623577358532389 0 0.4603913880525341 -0.16561512590843311 0 0.46072409849639862 -0.18623577358532389 0 0.46487813167656461 -0.17877007742559969 0 0.4603913880525341 -0.16561512590843311 0 0.45209652044160492 -0.18398078296116471 0 0.46072409849639862 -0.18623577358532389 0 0.45209652044160492 -0.18398078296116471 0 0.46072409849639862 -0.18623577358532389 0 0.45456182969550329 -0.19049627299738611 0 0.46487813167656461 -0.17877007742559969 0 0.47352409123348471 -0.18561623922124551 0 0.46999073029086008 -0.19430493241823479 0 0.46487813167656461 -0.17877007742559969 0 0.47352409123348471 -0.18561623922124551 0 0.47748493760960548 -0.17998024895454129 0 0.46487813167656461 -0.17877007742559969 0 0.47415575939632132 -0.17188297417902071 0 0.47748493760960548 -0.17998024895454129 0 0.47415575939632132 -0.17188297417902071 0 0.47748493760960548 -0.17998024895454129 0 0.48218058604519348 -0.16631281128367731 0 0.47748493760960548 -0.17998024895454129 0 0.48865799935809029 -0.17571790956503441 0 0.48218058604519348 -0.16631281128367731 0 0.47352409123348471 -0.18561623922124551 0 0.47748493760960548 -0.17998024895454129 0 0.48174256535690863 -0.18940969808660621 0 0.47748493760960548 -0.17998024895454129 0 0.48865799935809029 -0.17571790956503441 0 0.48174256535690863 -0.18940969808660621 0 0.5 -0.18350190336500241 0 0.48865799935809029 -0.17571790956503441 0 0.5 -0.15829011060331291 0 0.5 -0.18350190336500241 0 0.48865799935809029 -0.17571790956503441 0 0.48174256535690863 -0.18940969808660621 0 0.48865799935809029 -0.17571790956503441 0 0.5 -0.15829011060331291 0 0.48218058604519348 -0.16631281128367731 0 0.5 -0.15829011060331291 0 0.48218058604519348 -0.16631281128367731 0 0.48204932415769491 -0.14867886128534269 0 0.48218058604519348 -0.16631281128367731 0 0.47343500051519999 -0.16357126056385951 0 0.48204932415769491 -0.14867886128534269 0 0.47415575939632132 -0.17188297417902071 0 0.48218058604519348 -0.16631281128367731 0 0.47343500051519999 -0.16357126056385951 0 0.46487813167656461 -0.17877007742559969 0 0.47415575939632132 -0.17188297417902071 0 0.47343500051519999 -0.16357126056385951 0 0.46836674396900141 -0.1300630859120939 0 0.46662243782278301 -0.15441658166884689 0 0.47429172109902729 -0.1406883673492427 0 0.46662243782278301 -0.15441658166884689 0 0.47343500051519999 -0.16357126056385951 0 0.48204932415769491 -0.14867886128534269 0 0.46662243782278301 -0.15441658166884689 0 0.47429172109902729 -0.1406883673492427 0 0.48204932415769491 -0.14867886128534269 0 0.5 -0.15829011060331291 0 0.48204932415769491 -0.14867886128534269 0 0.5 -0.1330783178416233 0 0.48461341443476641 -0.12456873111154911 0 0.48204932415769491 -0.14867886128534269 0 0.5 -0.1330783178416233 0 0.46266461605792292 -0.1257620525343193 0 0.48012837844663009 -0.12959494053068721 0 0.47429172109902729 -0.1406883673492427 0 0.48204932415769491 -0.14867886128534269 0 0.48012837844663009 -0.12959494053068721 0 0.48461341443476641 -0.12456873111154911 0 0.48204932415769491 -0.14867886128534269 0 0.48012837844663009 -0.12959494053068721 0 0.46836674396900141 -0.1300630859120939 0 0.46266461605792292 -0.1257620525343193 0 0.48012837844663009 -0.12959494053068721 0 0.48461341443476641 -0.12456873111154911 0 0.48204932415769491 -0.14867886128534269 0 0.48461341443476641 -0.12456873111154911 0 0.46266461605792292 -0.1257620525343193 0 0.48012837844663009 -0.12959494053068721 0 0.46836674396900141 -0.1300630859120939 0 0.47429172109902729 -0.1406883673492427 0 0.48012837844663009 -0.12959494053068721 0 0.46138951938412781 -0.22747706893910549 0 0.46906995442516242 -0.21112505202846171 0 0.46913644990358999 -0.22330508169094701 0 0.46092709136636117 -0.2339333546048494 0 0.45170276862142039 -0.23125471421870539 0 0.44839768577130629 -0.21997654765353639 0 0.46092709136636117 -0.2339333546048494 0 0.45502462728838949 -0.23643600560075689 0 0.45170276862142039 -0.23125471421870539 0 0.46092709136636117 -0.2339333546048494 0 0.46138951938412781 -0.22747706893910549 0 0.44839768577130629 -0.21997654765353639 0 0.46092709136636117 -0.2339333546048494 0 0.44839768577130629 -0.21997654765353639 0 0.46575091089495629 -0.2302137587171956 0 0.46138951938412781 -0.22747706893910549 0 0.46913644990358999 -0.22330508169094701 0 0.46575091089495629 -0.2302137587171956 0 0.47124362091440097 -0.2307546790088949 0 0.46913644990358999 -0.22330508169094701 0 0.46092709136636117 -0.2339333546048494 0 0.46575091089495629 -0.2302137587171956 0 0.46711851908970048 -0.23348450721399161 0 0.46092709136636117 -0.2339333546048494 0 0.46575091089495629 -0.2302137587171956 0 0.46138951938412781 -0.22747706893910549 0 0.46092709136636117 -0.2339333546048494 0 0.46138951938412781 -0.22747706893910549 0 0.46575091089495629 -0.2302137587171956 0 0.46711851908970048 -0.23348450721399161 0 0.47124362091440097 -0.2307546790088949 0 0.46092709136636117 -0.2339333546048494 0 0.46711851908970048 -0.23348450721399161 0 0.46997548431514619 -0.23839353699346791 0 0.46092709136636117 -0.2339333546048494 0 0.46054614308436997 -0.23925204386654489 0 0.46177656945357798 -0.25146556482984078 0 0.46092709136636117 -0.2339333546048494 0 0.46817538622541588 -0.24828795625236541 0 0.46177656945357798 -0.25146556482984078 0 0.46092709136636117 -0.2339333546048494 0 0.46177656945357798 -0.25146556482984078 0 0.45408232122609532 -0.24438153344116401 0 0.46177656945357798 -0.25146556482984078 0 0.4536700932666683 -0.25131056014718078 0 0.45408232122609532 -0.24438153344116401 0 0.46054614308436997 -0.23925204386654489 0 0.46177656945357798 -0.25146556482984078 0 0.46092709136636117 -0.2339333546048494 0 0.46054614308436997 -0.23925204386654489 0 0.46092709136636117 -0.2339333546048494 0 0.46054614308436997 -0.23925204386654489 0 0.45502462728838949 -0.23643600560075689 0 0.45408232122609532 -0.24438153344116401 0 0.46054614308436997 -0.23925204386654489 0 0.45539838998791032 -0.23996376123500091 0 0.46054614308436997 -0.23925204386654489 0 0.45539838998791032 -0.23996376123500091 0 0.45502462728838949 -0.23643600560075689 0 0.45408232122609532 -0.24438153344116401 0 0.45539838998791032 -0.23996376123500091 0 0.45194046835278667 -0.23978546203153789 0 0.45539838998791032 -0.23996376123500091 0 0.45502462728838949 -0.23643600560075689 0 0.45194046835278667 -0.23978546203153789 0 0.45502462728838949 -0.23643600560075689 0 0.44853469553036412 -0.23577873814812561 0 0.45170276862142039 -0.23125471421870539 0 0.45408232122609532 -0.24438153344116401 0 0.45194046835278667 -0.23978546203153789 0 0.44580948169806672 -0.2418537824538084 0 0.45502462728838949 -0.23643600560075689 0 0.45194046835278667 -0.23978546203153789 0 0.44853469553036412 -0.23577873814812561 0 0.45194046835278667 -0.23978546203153789 0 0.44580948169806672 -0.2418537824538084 0 0.44853469553036412 -0.23577873814812561 0 0.45408232122609532 -0.24438153344116401 0 0.44580948169806672 -0.2418537824538084 0 0.44793597215460612 -0.25041036782998122 0 0.45408232122609532 -0.24438153344116401 0 0.4536700932666683 -0.25131056014718078 0 0.44793597215460612 -0.25041036782998122 0 0.44580948169806672 -0.2418537824538084 0 0.43969750748853298 -0.24713740047738611 0 0.44793597215460612 -0.25041036782998122 0 0.43678555963796489 -0.24056947941929049 0 0.44580948169806672 -0.2418537824538084 0 0.43969750748853298 -0.24713740047738611 0 0.43678555963796489 -0.24056947941929049 0 0.44580948169806672 -0.2418537824538084 0 0.44149649996580542 -0.235268673522226 0 0.44580948169806672 -0.2418537824538084 0 0.44853469553036412 -0.23577873814812561 0 0.44149649996580542 -0.235268673522226 0 0.43411287532297149 -0.23495459171605529 0 0.44149649996580542 -0.235268673522226 0 0.43828976389791119 -0.22789189660813269 0 0.44853469553036412 -0.23577873814812561 0 0.44149649996580542 -0.235268673522226 0 0.4456297431506816 -0.23014892508625859 0 0.44149649996580542 -0.235268673522226 0 0.43828976389791119 -0.22789189660813269 0 0.4456297431506816 -0.23014892508625859 0 0.44853469553036412 -0.23577873814812561 0 0.4456297431506816 -0.23014892508625859 0 0.45170276862142039 -0.23125471421870539 0 0.4456297431506816 -0.23014892508625859 0 0.45170276862142039 -0.23125471421870539 0 0.44839768577130629 -0.21997654765353639 0 0.43828976389791119 -0.22789189660813269 0 0.4456297431506816 -0.23014892508625859 0 0.44839768577130629 -0.21997654765353639 0 0.43727743545405512 -0.2188487112885609 0 0.43828976389791119 -0.22789189660813269 0 0.44839768577130629 -0.21997654765353639 0 0.43586828017625129 -0.20601974070222351 0 0.44839768577130629 -0.21997654765353639 0 0.43586828017625129 -0.20601974070222351 0 0.44839768577130629 -0.21997654765353639 0 0.46105680894026319 -0.20685642126221479 0 0.43586828017625129 -0.20601974070222351 0 0.46020231203227929 -0.19950007204758571 0 0.46105680894026319 -0.20685642126221479 0 0.43586828017625129 -0.20601974070222351 0 0.43727743545405512 -0.2188487112885609 0 0.44839768577130629 -0.21997654765353639 0 0.43586828017625129 -0.20601974070222351 0 0.46020231203227929 -0.19950007204758571 0 0.43586828017625129 -0.20601974070222351 0 0.44522438781173018 -0.19226846339547041 0 0.46020231203227929 -0.19950007204758571 0 0.45209652044160492 -0.18398078296116471 0 0.44522438781173018 -0.19226846339547041 0 0.45456182969550329 -0.19049627299738611 0 0.46487813167656461 -0.17877007742559969 0 0.46313382553034632 -0.20312357318235261 0 0.46487813167656461 -0.17877007742559969 0 0.46313382553034632 -0.20312357318235261 0 0.46999073029086008 -0.19430493241823479 0 0.46072409849639862 -0.18623577358532389 0 0.46105680894026319 -0.20685642126221479 0 0.46072409849639862 -0.18623577358532389 0 0.46487813167656461 -0.17877007742559969 0 0.46313382553034632 -0.20312357318235261 0 0.46072409849639862 -0.18623577358532389 0 0.46313382553034632 -0.20312357318235261 0 0.46105680894026319 -0.20685642126221479 0 0.46072409849639862 -0.18623577358532389 0 0.46020231203227929 -0.19950007204758571 0 0.46105680894026319 -0.20685642126221479 0 0.46072409849639862 -0.18623577358532389 0 0.45456182969550329 -0.19049627299738611 0 0.46020231203227929 -0.19950007204758571 0 0.44522438781173018 -0.19226846339547041 0 0.45456182969550329 -0.19049627299738611 0 0.46020231203227929 -0.19950007204758571 0 0.46313382553034632 -0.20312357318235261 0 0.46999073029086008 -0.19430493241823479 0 0.46961923400764938 -0.2010911788340439 0 0.46313382553034632 -0.20312357318235261 0 0.46889778955319411 -0.20513917440336121 0 0.46961923400764938 -0.2010911788340439 0 0.46138951938412781 -0.22747706893910549 0 0.46105680894026319 -0.20685642126221479 0 0.46138951938412781 -0.22747706893910549 0 0.46313382553034632 -0.20312357318235261 0 0.46906995442516242 -0.21112505202846171 0 0.46138951938412781 -0.22747706893910549 0 0.46313382553034632 -0.20312357318235261 0 0.46105680894026319 -0.20685642126221479 0 0.46138951938412781 -0.22747706893910549 0 0.46313382553034632 -0.20312357318235261 0 0.46138951938412781 -0.22747706893910549 0 0.44839768577130629 -0.21997654765353639 0 0.46105680894026319 -0.20685642126221479 0 0.46313382553034632 -0.20312357318235261 0 0.46906995442516242 -0.21112505202846171 0 0.46889778955319411 -0.20513917440336121 0 0.46906995442516242 -0.21112505202846171 0 0.47865319717415222 -0.21620463661589451 0 0.46913644990358999 -0.22330508169094701 0 0.46906995442516242 -0.21112505202846171 0 0.47584403642393752 -0.20381936225579239 0 0.47865319717415222 -0.21620463661589451 0 0.46889778955319411 -0.20513917440336121 0 0.47584403642393752 -0.20381936225579239 0 0.46961923400764938 -0.2010911788340439 0 0.46906995442516242 -0.21112505202846171 0 0.46889778955319411 -0.20513917440336121 0 0.47584403642393752 -0.20381936225579239 0 0.47584403642393752 -0.20381936225579239 0 0.47865319717415222 -0.21620463661589451 0 0.48765868349531172 -0.2009494434621584 0 0.47352409123348471 -0.18561623922124551 0 0.46999073029086008 -0.19430493241823479 0 0.48174256535690863 -0.18940969808660621 0 0.47584403642393752 -0.20381936225579239 0 0.46999073029086008 -0.19430493241823479 0 0.48174256535690863 -0.18940969808660621 0 0.47584403642393752 -0.20381936225579239 0 0.46999073029086008 -0.19430493241823479 0 0.46961923400764938 -0.2010911788340439 0 0.47584403642393752 -0.20381936225579239 0 0.48174256535690863 -0.18940969808660621 0 0.48765868349531172 -0.2009494434621584 0 0.5 -0.18350190336500241 0 0.48765868349531172 -0.2009494434621584 0 0.499999999999999 -0.20871369612669199 0 0.5 -0.18350190336500241 0 0.48174256535690863 -0.18940969808660621 0 0.48765868349531172 -0.2009494434621584 0 0.47865319717415222 -0.21620463661589451 0 0.48765868349531172 -0.2009494434621584 0 0.499999999999999 -0.20871369612669199 0 0.499999999999999 -0.20871369612669199 0 0.4886853575437205 -0.23282412950903481 0 0.47865319717415222 -0.21620463661589451 0 0.499999999999999 -0.20871369612669199 0 0.4886853575437205 -0.23282412950903481 0 0.499999999999999 -0.20871369612669199 0 0.5 -0.2308733702964049 0 0.4886853575437205 -0.23282412950903481 0 0.4886853575437205 -0.23282412950903481 0 0.47124362091440097 -0.2307546790088949 0 0.47654214148549739 -0.23885012244230741 0 0.47865319717415222 -0.21620463661589451 0 0.4886853575437205 -0.23282412950903481 0 0.47124362091440097 -0.2307546790088949 0 0.46711851908970048 -0.23348450721399161 0 0.47124362091440097 -0.2307546790088949 0 0.46997548431514619 -0.23839353699346791 0 0.47865319717415222 -0.21620463661589451 0 0.47124362091440097 -0.2307546790088949 0 0.46913644990358999 -0.22330508169094701 0 0.4886853575437205 -0.23282412950903481 0 0.47654214148549739 -0.23885012244230741 0 0.47883255360688248 -0.25381952320940038 0 0.46092709136636117 -0.2339333546048494 0 0.47883255360688248 -0.25381952320940038 0 0.46092709136636117 -0.2339333546048494 0 0.46817538622541588 -0.24828795625236541 0 0.47883255360688248 -0.25381952320940038 0 0.4886853575437205 -0.23282412950903481 0 0.47883255360688248 -0.25381952320940038 0 0.46092709136636117 -0.2339333546048494 0 0.46997548431514619 -0.23839353699346791 0 0.47883255360688248 -0.25381952320940038 0 0.46997548431514619 -0.23839353699346791 0 0.47654214148549739 -0.23885012244230741 0 0.47883255360688248 -0.25381952320940038 0 0.47124362091440097 -0.2307546790088949 0 0.46997548431514619 -0.23839353699346791 0 0.47654214148549739 -0.23885012244230741 0 0.4886853575437205 -0.23282412950903481 0 0.49030882807810039 -0.24660833704410989 0 0.47883255360688248 -0.25381952320940038 0 0.5 -0.2308733702964049 0 0.49030882807810039 -0.24660833704410989 0 0.5 -0.25303304446611768 0 0.5 -0.2308733702964049 0 0.4886853575437205 -0.23282412950903481 0 0.49030882807810039 -0.24660833704410989 0 0.5 -0.25303304446611768 0 0.48548806775933889 -0.25937657805761433 0 0.500000000000004 -0.27519271863583061 0 0.49030882807810039 -0.24660833704410989 0 0.48548806775933889 -0.25937657805761433 0 0.47737071508744278 -0.25693456289137812 0 0.49030882807810039 -0.24660833704410989 0 0.5 -0.25303304446611768 0 0.48548806775933889 -0.25937657805761433 0 0.500000000000004 -0.27519271863583061 0 0.47505939033977151 -0.27949273290948778 0 0.48548806775933889 -0.25937657805761433 0 0.500000000000004 -0.27519271863583061 0 0.47505939033977151 -0.27949273290948778 0 0.500000000000004 -0.27519271863583061 0 0.47505939033977151 -0.27949273290948778 0 0.49405180239686808 -0.28197240316901129 0 0.47505939033977151 -0.27949273290948778 0 0.47737071508744278 -0.25693456289137812 0 0.46605607263116622 -0.28104499627372181 0 0.47737071508744278 -0.25693456289137812 0 0.46605607263116622 -0.28104499627372181 0 0.47737071508744278 -0.25693456289137812 0 0.4675865131287702 -0.26222678954063727 0 0.46605607263116622 -0.28104499627372181 0 0.48548806775933889 -0.25937657805761433 0 0.47505939033977151 -0.27949273290948778 0 0.47505939033977151 -0.27949273290948778 0 0.46605607263116622 -0.28104499627372181 0 0.48548806775933889 -0.25937657805761433 0 0.47505939033977151 -0.27949273290948778 0 0.47737071508744278 -0.25693456289137812 0 0.49030882807810039 -0.24660833704410989 0 0.47737071508744278 -0.25693456289137812 0 0.47883255360688248 -0.25381952320940038 0 0.47737071508744278 -0.25693456289137812 0 0.47883255360688248 -0.25381952320940038 0 0.47737071508744278 -0.25693456289137812 0 0.47068012979880741 -0.25333374818497267 0 0.4675865131287702 -0.26222678954063727 0 0.46817538622541588 -0.24828795625236541 0 0.47883255360688248 -0.25381952320940038 0 0.47068012979880741 -0.25333374818497267 0 0.47737071508744278 -0.25693456289137812 0 0.47883255360688248 -0.25381952320940038 0 0.47068012979880741 -0.25333374818497267 0 0.46817538622541588 -0.24828795625236541 0 0.47068012979880741 -0.25333374818497267 0 0.46177656945357798 -0.25146556482984078 0 0.47068012979880741 -0.25333374818497267 0 0.46177656945357798 -0.25146556482984078 0 0.4675865131287702 -0.26222678954063727 0 0.46177656945357798 -0.25146556482984078 0 0.46204907867285749 -0.26835507552327392 0 0.45088551023239398 -0.25898477448773738 0 0.46177656945357798 -0.25146556482984078 0 0.4675865131287702 -0.26222678954063727 0 0.46204907867285749 -0.26835507552327392 0 0.46177656945357798 -0.25146556482984078 0 0.46204907867285749 -0.26835507552327392 0 0.46177656945357798 -0.25146556482984078 0 0.4536700932666683 -0.25131056014718078 0 0.45088551023239398 -0.25898477448773738 0 0.4675865131287702 -0.26222678954063727 0 0.46204907867285749 -0.26835507552327392 0 0.46605607263116622 -0.28104499627372181 0 0.46605607263116622 -0.28104499627372181 0 0.45407242263716341 -0.27662641865488069 0 0.44044646988904829 -0.28546035174554257 0 0.46204907867285749 -0.26835507552327392 0 0.46605607263116622 -0.28104499627372181 0 0.45407242263716341 -0.27662641865488069 0 0.46204907867285749 -0.26835507552327392 0 0.44773806935558258 -0.27164525107698539 0 0.45088551023239398 -0.25898477448773738 0 0.46204907867285749 -0.26835507552327392 0 0.45407242263716341 -0.27662641865488069 0 0.44773806935558258 -0.27164525107698539 0 0.45407242263716341 -0.27662641865488069 0 0.44773806935558258 -0.27164525107698539 0 0.44044646988904829 -0.28546035174554257 0 0.44773806935558258 -0.27164525107698539 0 0.44044646988904829 -0.28546035174554257 0 0.43635558598008839 -0.27447523562878318 0 0.44773806935558258 -0.27164525107698539 0 0.43877631622074581 -0.26331442597684962 0 0.43635558598008839 -0.27447523562878318 0 0.43877631622074581 -0.26331442597684962 0 0.4429411325461805 -0.25536061514189162 0 0.45088551023239398 -0.25898477448773738 0 0.43969750748853298 -0.24713740047738611 0 0.4429411325461805 -0.25536061514189162 0 0.43601541459769377 -0.25344288737745002 0 0.43969750748853298 -0.24713740047738611 0 0.4429411325461805 -0.25536061514189162 0 0.44793597215460612 -0.25041036782998122 0 0.43877631622074581 -0.26331442597684962 0 0.4429411325461805 -0.25536061514189162 0 0.43601541459769377 -0.25344288737745002 0 0.4536700932666683 -0.25131056014718078 0 0.44793597215460612 -0.25041036782998122 0 0.45088551023239398 -0.25898477448773738 0 0.4429411325461805 -0.25536061514189162 0 0.44793597215460612 -0.25041036782998122 0 0.45088551023239398 -0.25898477448773738 0 0.44773806935558258 -0.27164525107698539 0 0.43877631622074581 -0.26331442597684962 0 0.45088551023239398 -0.25898477448773738 0 0.44261517506137649 -0.30223561693128781 0 0.44857146396356862 -0.31830304434067819 0 0.43590545029558531 -0.31264822146409038 0 0.45731376829736681 -0.29967402030719981 0 0.44857146396356862 -0.31830304434067819 0 0.44261517506137649 -0.30223561693128781 0 0.45731376829736681 -0.29967402030719981 0 0.44857146396356862 -0.31830304434067819 0 0.44261517506137649 -0.30223561693128781 0 0.44044646988904829 -0.28546035174554257 0 0.42986429122119668 -0.30055951349401988 0 0.44261517506137649 -0.30223561693128781 0 0.44044646988904829 -0.28546035174554257 0 0.45731376829736681 -0.29967402030719981 0 0.47505939033977151 -0.27949273290948778 0 0.46605607263116622 -0.28104499627372181 0 0.46143305376040938 -0.30577693805518119 0 0.46605607263116622 -0.28104499627372181 0 0.46143305376040938 -0.30577693805518119 0 0.45731376829736681 -0.29967402030719981 0 0.46605607263116622 -0.28104499627372181 0 0.44044646988904829 -0.28546035174554257 0 0.47505939033977151 -0.27949273290948778 0 0.46143305376040938 -0.30577693805518119 0 0.46605607263116622 -0.28104499627372181 0 0.44044646988904829 -0.28546035174554257 0 0.45731376829736681 -0.29967402030719981 0 0.46605607263116622 -0.28104499627372181 0 0.45731376829736681 -0.29967402030719981 0 0.46143305376040938 -0.30577693805518119 0 0.45731376829736681 -0.29967402030719981 0 0.44857146396356862 -0.31830304434067819 0 0.46143305376040938 -0.30577693805518119 0 0.47398017250172769 -0.30276495995149422 0 0.46646268942883939 -0.32067020753293191 0 0.47398017250172769 -0.30276495995149422 0 0.48511866167663459 -0.30927927186499232 0 0.46646268942883939 -0.32067020753293191 0 0.47398017250172769 -0.30276495995149422 0 0.48205250672875022 -0.29337734197374621 0 0.48511866167663459 -0.30927927186499232 0 0.47505939033977151 -0.27949273290948778 0 0.46143305376040938 -0.30577693805518119 0 0.47398017250172769 -0.30276495995149422 0 0.47505939033977151 -0.27949273290948778 0 0.48205250672875022 -0.29337734197374621 0 0.49405180239686808 -0.28197240316901129 0 0.47505939033977151 -0.27949273290948778 0 0.47398017250172769 -0.30276495995149422 0 0.48205250672875022 -0.29337734197374621 0 0.500000000000004 -0.27519271863583061 0 0.49405180239686808 -0.28197240316901129 0 0.50000000000000189 -0.30019304654031498 0 0.48205250672875022 -0.29337734197374621 0 0.49405180239686808 -0.28197240316901129 0 0.48511866167663459 -0.30927927186499232 0 0.49405180239686808 -0.28197240316901129 0 0.48511866167663459 -0.30927927186499232 0 0.49405180239686808 -0.28197240316901129 0 0.48511866167663459 -0.30927927186499232 0 0.50000000000000189 -0.30019304654031498 0 0.48511866167663459 -0.30927927186499232 0 0.50000000000000189 -0.30019304654031498 0 0.5 -0.31676291321943428 0 0.48511866167663459 -0.30927927186499232 0 0.50000000000000189 -0.30019304654031498 0 0.48511866167663459 -0.30927927186499232 0 0.5 -0.31676291321943428 0 0.4904918865852726 -0.32504784655899699 0 0.48511866167663459 -0.30927927186499232 0 0.4904918865852726 -0.32504784655899699 0 0.47859308185031157 -0.32922669652371173 0 0.5 -0.31676291321943428 0 0.4904918865852726 -0.32504784655899699 0 0.50000000000000377 -0.33333277989855348 0 0.4904918865852726 -0.32504784655899699 0 0.48603375101199631 -0.34125345054049311 0 0.47859308185031157 -0.32922669652371173 0 0.4904918865852726 -0.32504784655899699 0 0.50000000000000377 -0.33333277989855348 0 0.48603375101199631 -0.34125345054049311 0 0.50000000000000377 -0.33333277989855348 0 0.48603375101199631 -0.34125345054049311 0 0.47859308185031157 -0.32922669652371173 0 0.47206750202398767 -0.34917412118243091 0 0.4630433216489207 -0.33566986411638428 0 0.47859308185031157 -0.32922669652371173 0 0.47206750202398767 -0.34917412118243091 0 0.48603375101199631 -0.34125345054049311 0 0.47859308185031157 -0.32922669652371173 0 0.47206750202398767 -0.34917412118243091 0 0.47859308185031157 -0.32922669652371173 0 0.46646268942883939 -0.32067020753293191 0 0.4630433216489207 -0.33566986411638428 0 0.48511866167663459 -0.30927927186499232 0 0.46646268942883939 -0.32067020753293191 0 0.48511866167663459 -0.30927927186499232 0 0.47859308185031157 -0.32922669652371173 0 0.46646268942883939 -0.32067020753293191 0 0.48511866167663459 -0.30927927186499232 0 0.47859308185031157 -0.32922669652371173 0 0.50000000000000377 -0.33333277989855348 0 0.48603375101199631 -0.34125345054049311 0 0.48587281665715543 -0.36506902195596469 0 0.50000000000000377 -0.33333277989855348 0 0.48587281665715543 -0.36506902195596469 0 0.5 -0.39500839275658028 0 0.48603375101199631 -0.34125345054049311 0 0.48587281665715543 -0.36506902195596469 0 0.47206750202398767 -0.34917412118243091 0 0.48603375101199631 -0.34125345054049311 0 0.47206750202398767 -0.34917412118243091 0 0.48587281665715543 -0.36506902195596469 0 0.47206750202398767 -0.34917412118243091 0 0.46517243643323231 -0.3702509917516475 0 0.47206750202398767 -0.34917412118243091 0 0.46517243643323231 -0.3702509917516475 0 0.44860209595516959 -0.36248204323866978 0 0.47206750202398767 -0.34917412118243091 0 0.46517243643323231 -0.3702509917516475 0 0.46517243643323231 -0.3702509917516475 0 0.44860209595516959 -0.36248204323866978 0 0.4509906764496292 -0.37757079971452873 0 0.47206750202398767 -0.34917412118243091 0 0.4535982680685644 -0.34666254519724959 0 0.4630433216489207 -0.33566986411638428 0 0.47206750202398767 -0.34917412118243091 0 0.4535982680685644 -0.34666254519724959 0 0.44860209595516959 -0.36248204323866978 0 0.47206750202398767 -0.34917412118243091 0 0.44860209595516959 -0.36248204323866978 0 0.4535982680685644 -0.34666254519724959 0 0.44780671718104581 -0.33206114320087399 0 0.4364717035336988 -0.35392555424789102 0 0.4535982680685644 -0.34666254519724959 0 0.44860209595516959 -0.36248204323866978 0 0.4364717035336988 -0.35392555424789102 0 0.44860209595516959 -0.36248204323866978 0 0.44007477167027798 -0.37624635774772319 0 0.42513668988635089 -0.3757899652949076 0 0.44860209595516959 -0.36248204323866978 0 0.44007477167027798 -0.37624635774772319 0 0.4509906764496292 -0.37757079971452873 0 0.46646268942883939 -0.32067020753293191 0 0.44780671718104581 -0.33206114320087399 0 0.46143305376040938 -0.30577693805518119 0 0.44780671718104581 -0.33206114320087399 0 0.46143305376040938 -0.30577693805518119 0 0.46646268942883939 -0.32067020753293191 0 0.44780671718104581 -0.33206114320087399 0 0.46646268942883939 -0.32067020753293191 0 0.4630433216489207 -0.33566986411638428 0 0.44780671718104581 -0.33206114320087399 0 0.4535982680685644 -0.34666254519724959 0 0.4630433216489207 -0.33566986411638428 0 0.44780671718104581 -0.33206114320087399 0 0.44780671718104581 -0.33206114320087399 0 0.43982915962977009 -0.33693206837415662 0 0.4364717035336988 -0.35392555424789102 0 0.44780671718104581 -0.33206114320087399 0 0.4364717035336988 -0.35392555424789102 0 0.44780671718104581 -0.33206114320087399 0 0.43982915962977009 -0.33693206837415662 0 0.44857146396356862 -0.31830304434067819 0 0.44780671718104581 -0.33206114320087399 0 0.43982915962977009 -0.33693206837415662 0 0.43982915962977009 -0.33693206837415662 0 0.44857146396356862 -0.31830304434067819 0 0.43982915962977009 -0.33693206837415662 0 0.44857146396356862 -0.31830304434067819 0 0.43514595894396962 -0.32367750640787502 0 0.46143305376040938 -0.30577693805518119 0 0.44780671718104581 -0.33206114320087399 0 0.44857146396356862 -0.31830304434067819 0 0.44857146396356862 -0.31830304434067819 0 0.43590545029558531 -0.31264822146409038 0 0.43514595894396962 -0.32367750640787502 0 0.43590545029558531 -0.31264822146409038 0 0.43514595894396962 -0.32367750640787502 0 0.42103740554746888 -0.31674757329647779 0 0.43514595894396962 -0.32367750640787502 0 0.42580040180276357 -0.33032091886374471 0 0.42103740554746888 -0.31674757329647779 0 0.43982915962977009 -0.33693206837415662 0 0.43514595894396962 -0.32367750640787502 0 0.42580040180276357 -0.33032091886374471 0 0.43982915962977009 -0.33693206837415662 0 0.42664135057466368 -0.34498426112790348 0 0.43982915962977009 -0.33693206837415662 0 0.42580040180276357 -0.33032091886374471 0 0.42664135057466368 -0.34498426112790348 0 0.42580040180276357 -0.33032091886374471 0 0.41104219562715949 -0.33815590126638218 0 0.40713716239853143 -0.32059062629227719 0 0.42580040180276357 -0.33032091886374471 0 0.41104219562715949 -0.33815590126638218 0 0.42664135057466368 -0.34498426112790348 0 0.40713716239853143 -0.32059062629227719 0 0.42103740554746888 -0.31674757329647779 0 0.40450240119187503 -0.30641163305185237 0 0.42580040180276357 -0.33032091886374471 0 0.40713716239853143 -0.32059062629227719 0 0.42103740554746888 -0.31674757329647779 0 0.44860209595516959 -0.36248204323866978 0 0.42513668988635089 -0.3757899652949076 0 0.4364717035336988 -0.35392555424789102 0 0.42513668988635089 -0.3757899652949076 0 0.44860209595516959 -0.36248204323866978 0 0.4364717035336988 -0.35392555424789102 0 0.42513668988635089 -0.3757899652949076 0 0.4364717035336988 -0.35392555424789102 0 0.43077880337575242 -0.35621752192624001 0 0.42513668988635089 -0.3757899652949076 0 0.43077880337575242 -0.35621752192624001 0 0.42042594869950922 -0.36383256559725491 0 0.42513668988635089 -0.3757899652949076 0 0.43982915962977009 -0.33693206837415662 0 0.4364717035336988 -0.35392555424789102 0 0.43077880337575242 -0.35621752192624001 0 0.43982915962977009 -0.33693206837415662 0 0.43077880337575242 -0.35621752192624001 0 0.43982915962977009 -0.33693206837415662 0 0.43077880337575242 -0.35621752192624001 0 0.42664135057466368 -0.34498426112790348 0 0.42282491104237058 -0.35451770063326232 0 0.43077880337575242 -0.35621752192624001 0 0.42664135057466368 -0.34498426112790348 0 0.42282491104237058 -0.35451770063326232 0 0.43077880337575242 -0.35621752192624001 0 0.42042594869950922 -0.36383256559725491 0 0.41104219562715949 -0.33815590126638218 0 0.41345354151955738 -0.35303645388165072 0 0.39442786998707519 -0.34920775237137641 0 0.42664135057466368 -0.34498426112790348 0 0.41345354151955738 -0.35303645388165072 0 0.41104219562715949 -0.33815590126638218 0 0.42664135057466368 -0.34498426112790348 0 0.41345354151955738 -0.35303645388165072 0 0.42282491104237058 -0.35451770063326232 0 0.42664135057466368 -0.34498426112790348 0 0.41345354151955738 -0.35303645388165072 0 0.42282491104237058 -0.35451770063326232 0 0.41345354151955738 -0.35303645388165072 0 0.42042594869950922 -0.36383256559725491 0 0.41345354151955738 -0.35303645388165072 0 0.40673312827715807 -0.36888812559633821 0 0.42042594869950922 -0.36383256559725491 0 0.40673312827715807 -0.36888812559633821 0 0.42042594869950922 -0.36383256559725491 0 0.42513668988635089 -0.3757899652949076 0 0.40673312827715807 -0.36888812559633821 0 0.39442786998707519 -0.34920775237137641 0 0.38897176574647219 -0.36758567176315637 0 0.41345354151955738 -0.35303645388165072 0 0.40673312827715807 -0.36888812559633821 0 0.39442786998707519 -0.34920775237137641 0 0.39442786998707519 -0.34920775237137641 0 0.38897176574647219 -0.36758567176315637 0 0.37106558432569903 -0.35689755855636252 0 0.39442786998707519 -0.34920775237137641 0 0.37251047465635589 -0.32883073808122693 0 0.37106558432569903 -0.35689755855636252 0 0.38897176574647219 -0.36758567176315637 0 0.37014430662258158 -0.37665961860795261 0 0.37106558432569903 -0.35689755855636252 0 0.40713716239853143 -0.32059062629227719 0 0.39721839975712409 -0.33105981745451812 0 0.3856003770482635 -0.3135095091891435 0 0.40713716239853143 -0.32059062629227719 0 0.3856003770482635 -0.3135095091891435 0 0.40450240119187503 -0.30641163305185237 0 0.41104219562715949 -0.33815590126638218 0 0.40713716239853143 -0.32059062629227719 0 0.39721839975712409 -0.33105981745451812 0 0.41104219562715949 -0.33815590126638218 0 0.39442786998707519 -0.34920775237137641 0 0.39721839975712409 -0.33105981745451812 0 0.39442786998707519 -0.34920775237137641 0 0.39721839975712409 -0.33105981745451812 0 0.37251047465635589 -0.32883073808122693 0 0.39721839975712409 -0.33105981745451812 0 0.37251047465635589 -0.32883073808122693 0 0.39721839975712409 -0.33105981745451812 0 0.3856003770482635 -0.3135095091891435 0 0.37251047465635589 -0.32883073808122693 0 0.3856003770482635 -0.3135095091891435 0 0.38922726440481159 -0.29429106268917998 0 0.36361766166269333 -0.29870641816099869 0 0.3856003770482635 -0.3135095091891435 0 0.40450240119187503 -0.30641163305185237 0 0.38922726440481159 -0.29429106268917998 0 0.38922726440481159 -0.29429106268917998 0 0.37981021261433773 -0.27642860736678831 0 0.40426651902746857 -0.27976991885114422 0 0.40450240119187503 -0.30641163305185237 0 0.38922726440481159 -0.29429106268917998 0 0.41483686714693002 -0.28987570721736128 0 0.38922726440481159 -0.29429106268917998 0 0.40426651902746857 -0.27976991885114422 0 0.41483686714693002 -0.28987570721736128 0 0.38922726440481159 -0.29429106268917998 0 0.41483686714693002 -0.28987570721736128 0 0.38922726440481159 -0.29429106268917998 0 0.37981021261433773 -0.27642860736678831 0 0.36648270414401291 -0.2828045433037375 0 0.38922726440481159 -0.29429106268917998 0 0.36361766166269333 -0.29870641816099869 0 0.37981021261433773 -0.27642860736678831 0 0.37690405024994028 -0.26421402962362872 0 0.39167849138858368 -0.26519283394702048 0 0.397738040916289 -0.2495782292145588 0 0.38160228539367702 -0.25296088863687738 0 0.39167849138858368 -0.26519283394702048 0 0.38160228539367702 -0.25296088863687738 0 0.37690405024994028 -0.26421402962362872 0 0.36776083002432541 -0.25694591821699547 0 0.38160228539367702 -0.25296088863687738 0 0.37690405024994028 -0.26421402962362872 0 0.39167849138858368 -0.26519283394702048 0 0.397738040916289 -0.2495782292145588 0 0.40491094615446233 -0.26614839067176438 0 0.41524668277534299 -0.25682988416085523 0 0.397738040916289 -0.2495782292145588 0 0.39167849138858368 -0.26519283394702048 0 0.40491094615446233 -0.26614839067176438 0 0.37981021261433773 -0.27642860736678831 0 0.40426651902746857 -0.27976991885114422 0 0.37981021261433773 -0.27642860736678831 0 0.39167849138858368 -0.26519283394702048 0 0.40426651902746857 -0.27976991885114422 0 0.39167849138858368 -0.26519283394702048 0 0.40491094615446233 -0.26614839067176438 0 0.40426651902746857 -0.27976991885114422 0 0.40426651902746857 -0.27976991885114422 0 0.4156249966646271 -0.27937108718524328 0 0.42872282544059948 -0.28311123033550012 0 0.4156249966646271 -0.27937108718524328 0 0.41524668277534299 -0.25682988416085523 0 0.42568300338496701 -0.26895246052563082 0 0.40491094615446233 -0.26614839067176438 0 0.4156249966646271 -0.27937108718524328 0 0.41524668277534299 -0.25682988416085523 0 0.4156249966646271 -0.27937108718524328 0 0.41524668277534299 -0.25682988416085523 0 0.40491094615446233 -0.26614839067176438 0 0.40426651902746857 -0.27976991885114422 0 0.4156249966646271 -0.27937108718524328 0 0.42843617819030139 -0.24614502697172841 0 0.41524668277534299 -0.25682988416085523 0 0.4289210625326878 -0.25812320371683611 0 0.41524668277534299 -0.25682988416085523 0 0.4289210625326878 -0.25812320371683611 0 0.42568300338496701 -0.26895246052563082 0 0.43877631622074581 -0.26331442597684962 0 0.4289210625326878 -0.25812320371683611 0 0.43601541459769377 -0.25344288737745002 0 0.43877631622074581 -0.26331442597684962 0 0.4289210625326878 -0.25812320371683611 0 0.42568300338496701 -0.26895246052563082 0 0.42843617819030139 -0.24614502697172841 0 0.4289210625326878 -0.25812320371683611 0 0.43601541459769377 -0.25344288737745002 0 0.4156249966646271 -0.27937108718524328 0 0.42568300338496701 -0.26895246052563082 0 0.42872282544059948 -0.28311123033550012 0 0.43877631622074581 -0.26331442597684962 0 0.42568300338496701 -0.26895246052563082 0 0.43635558598008839 -0.27447523562878318 0 0.42568300338496701 -0.26895246052563082 0 0.43635558598008839 -0.27447523562878318 0 0.42872282544059948 -0.28311123033550012 0 0.44044646988904829 -0.28546035174554257 0 0.43635558598008839 -0.27447523562878318 0 0.42872282544059948 -0.28311123033550012 0 0.44044646988904829 -0.28546035174554257 0 0.42986429122119668 -0.30055951349401988 0 0.41483686714693002 -0.28987570721736128 0 0.44044646988904829 -0.28546035174554257 0 0.41483686714693002 -0.28987570721736128 0 0.44044646988904829 -0.28546035174554257 0 0.42872282544059948 -0.28311123033550012 0 0.41483686714693002 -0.28987570721736128 0 0.43590545029558531 -0.31264822146409038 0 0.42103740554746888 -0.31674757329647779 0 0.42986429122119668 -0.30055951349401988 0 0.42103740554746888 -0.31674757329647779 0 0.42986429122119668 -0.30055951349401988 0 0.41756024127686758 -0.30339860676492791 0 0.44261517506137649 -0.30223561693128781 0 0.43590545029558531 -0.31264822146409038 0 0.42986429122119668 -0.30055951349401988 0 0.42103740554746888 -0.31674757329647779 0 0.40450240119187503 -0.30641163305185237 0 0.41756024127686758 -0.30339860676492791 0 0.40450240119187503 -0.30641163305185237 0 0.41756024127686758 -0.30339860676492791 0 0.41483686714693002 -0.28987570721736128 0 0.42986429122119668 -0.30055951349401988 0 0.41756024127686758 -0.30339860676492791 0 0.41483686714693002 -0.28987570721736128 0 0.40426651902746857 -0.27976991885114422 0 0.42872282544059948 -0.28311123033550012 0 0.40426651902746857 -0.27976991885114422 0 0.42872282544059948 -0.28311123033550012 0 0.41483686714693002 -0.28987570721736128 0 0.44778187927666591 -0.50000000000000067 0 0.43159454752244858 -0.47547233780203518 0 0.44778187927666591 -0.50000000000000067 0 0.44573155081052379 -0.48391299605509308 0 0.45867648497814328 -0.49999999999999678 0 0.45260255116699338 -0.47411094755009159 0 0.44573155081052379 -0.48391299605509308 0 0.45867648497814328 -0.49999999999999678 0 0.44778187927666591 -0.50000000000000067 0 0.44573155081052379 -0.48391299605509308 0 0.43159454752244858 -0.47547233780203518 0 0.43800229110836769 -0.46998169492333852 0 0.44573155081052379 -0.48391299605509308 0 0.43159454752244858 -0.47547233780203518 0 0.43800229110836769 -0.46998169492333852 0 0.45260255116699338 -0.47411094755009159 0 0.440576011048182 -0.46240714637150332 0 0.43800229110836769 -0.46998169492333852 0 0.45260255116699338 -0.47411094755009159 0 0.44573155081052379 -0.48391299605509308 0 0.45260255116699338 -0.47411094755009159 0 0.47715772557455871 -0.47905500171090648 0 0.4597112046299931 -0.45934240394122361 0 0.45260255116699338 -0.47411094755009159 0 0.45867648497814328 -0.49999999999999678 0 0.47715772557455871 -0.47905500171090648 0 0.45260255116699338 -0.47411094755009159 0 0.45867648497814328 -0.49999999999999678 0 0.45867648497814328 -0.49999999999999678 0 0.5 -0.5 0 0.47715772557455871 -0.47905500171090648 0 0.5 -0.5 0 0.47715772557455871 -0.47905500171090648 0 0.5 -0.44056307158688368 0 0.47715772557455871 -0.47905500171090648 0 0.47470033716354643 -0.45458790794828968 0 0.5 -0.44056307158688368 0 0.47715772557455871 -0.47905500171090648 0 0.47470033716354643 -0.45458790794828968 0 0.4597112046299931 -0.45934240394122361 0 0.47470033716354643 -0.45458790794828968 0 0.5 -0.44056307158688368 0 0.47527458381487642 -0.43649556142499979 0 0.47470033716354643 -0.45458790794828968 0 0.46284210417013522 -0.44614392012221599 0 0.47527458381487642 -0.43649556142499979 0 0.46284210417013522 -0.44614392012221599 0 0.4597112046299931 -0.45934240394122361 0 0.44652861735584282 -0.44822189510018651 0 0.46284210417013522 -0.44614392012221599 0 0.44652861735584282 -0.44822189510018651 0 0.45799577788641732 -0.43207183219638051 0 0.46284210417013522 -0.44614392012221599 0 0.45799577788641732 -0.43207183219638051 0 0.47527458381487642 -0.43649556142499979 0 0.47470033716354643 -0.45458790794828968 0 0.46284210417013522 -0.44614392012221599 0 0.4597112046299931 -0.45934240394122361 0 0.45260255116699338 -0.47411094755009159 0 0.440576011048182 -0.46240714637150332 0 0.44652861735584282 -0.44822189510018651 0 0.45260255116699338 -0.47411094755009159 0 0.44652861735584282 -0.44822189510018651 0 0.45260255116699338 -0.47411094755009159 0 0.4597112046299931 -0.45934240394122361 0 0.44652861735584282 -0.44822189510018651 0 0.44652861735584282 -0.44822189510018651 0 0.4403967357107621 -0.42477306728666431 0 0.43509976534132849 -0.44837420107273213 0 0.440576011048182 -0.46240714637150332 0 0.44652861735584282 -0.44822189510018651 0 0.43509976534132849 -0.44837420107273213 0 0.4403967357107621 -0.42477306728666431 0 0.43509976534132849 -0.44837420107273213 0 0.44652861735584282 -0.44822189510018651 0 0.4403967357107621 -0.42477306728666431 0 0.45799577788641732 -0.43207183219638051 0 0.4403967357107621 -0.42477306728666431 0 0.45932964227447259 -0.40944002384204181 0 0.45799577788641732 -0.43207183219638051 0 0.4403967357107621 -0.42477306728666431 0 0.44569370608019571 -0.40117193350059638 0 0.4403967357107621 -0.42477306728666431 0 0.44569370608019571 -0.40117193350059638 0 0.43141006151004041 -0.41125720743104299 0 0.4403967357107621 -0.42477306728666431 0 0.45932964227447259 -0.40944002384204181 0 0.44569370608019571 -0.40117193350059638 0 0.45932964227447259 -0.40944002384204181 0 0.45799577788641732 -0.43207183219638051 0 0.47873868870189967 -0.4163947725994912 0 0.5 -0.44056307158688368 0 0.47873868870189967 -0.4163947725994912 0 0.5 -0.39500839275658028 0 0.45799577788641732 -0.43207183219638051 0 0.47527458381487642 -0.43649556142499979 0 0.47873868870189967 -0.4163947725994912 0 0.5 -0.44056307158688368 0 0.47527458381487642 -0.43649556142499979 0 0.47873868870189967 -0.4163947725994912 0 0.45932964227447259 -0.40944002384204181 0 0.47873868870189967 -0.4163947725994912 0 0.47487557442508371 -0.39090067514825472 0 0.47873868870189967 -0.4163947725994912 0 0.47487557442508371 -0.39090067514825472 0 0.5 -0.39500839275658028 0 0.48587281665715543 -0.36506902195596469 0 0.47487557442508371 -0.39090067514825472 0 0.5 -0.39500839275658028 0 0.48587281665715543 -0.36506902195596469 0 0.46517243643323231 -0.3702509917516475 0 0.47487557442508371 -0.39090067514825472 0 0.46517243643323231 -0.3702509917516475 0 0.47487557442508371 -0.39090067514825472 0 0.45827737084247683 -0.39132786232086408 0 0.46517243643323231 -0.3702509917516475 0 0.45827737084247683 -0.39132786232086408 0 0.46517243643323231 -0.3702509917516475 0 0.45827737084247683 -0.39132786232086408 0 0.4509906764496292 -0.37757079971452873 0 0.45932964227447259 -0.40944002384204181 0 0.47487557442508371 -0.39090067514825472 0 0.45827737084247683 -0.39132786232086408 0 0.45932964227447259 -0.40944002384204181 0 0.45827737084247683 -0.39132786232086408 0 0.44569370608019571 -0.40117193350059638 0 0.44569370608019571 -0.40117193350059638 0 0.43800589570040421 -0.38719502060655953 0 0.43412392896843027 -0.3971449303226664 0 0.44569370608019571 -0.40117193350059638 0 0.4509906764496292 -0.37757079971452873 0 0.45827737084247683 -0.39132786232086408 0 0.44569370608019571 -0.40117193350059638 0 0.4509906764496292 -0.37757079971452873 0 0.44569370608019571 -0.40117193350059638 0 0.43800589570040421 -0.38719502060655953 0 0.4509906764496292 -0.37757079971452873 0 0.43800589570040421 -0.38719502060655953 0 0.44007477167027798 -0.37624635774772319 0 0.4509906764496292 -0.37757079971452873 0 0.42731149120325329 -0.38944605474231359 0 0.4254556782429334 -0.38409582364234301 0 0.41907867116490671 -0.3869147689204625 0 0.4254556782429334 -0.38409582364234301 0 0.4235399537713429 -0.37886995230138892 0 0.41907867116490671 -0.3869147689204625 0 0.42731149120325329 -0.38944605474231359 0 0.4254556782429334 -0.38409582364234301 0 0.42994924234806442 -0.38192914135831518 0 0.4235399537713429 -0.37886995230138892 0 0.42513668988635089 -0.3757899652949076 0 0.4235399537713429 -0.37886995230138892 0 0.42513668988635089 -0.3757899652949076 0 0.42994924234806442 -0.38192914135831518 0 0.4254556782429334 -0.38409582364234301 0 0.4235399537713429 -0.37886995230138892 0 0.42994924234806442 -0.38192914135831518 0 0.44007477167027798 -0.37624635774772319 0 0.42513668988635089 -0.3757899652949076 0 0.42994924234806442 -0.38192914135831518 0 0.43800589570040421 -0.38719502060655953 0 0.44007477167027798 -0.37624635774772319 0 0.42994924234806442 -0.38192914135831518 0 0.43800589570040421 -0.38719502060655953 0 0.42731149120325329 -0.38944605474231359 0 0.42994924234806442 -0.38192914135831518 0 0.43800589570040421 -0.38719502060655953 0 0.42731149120325329 -0.38944605474231359 0 0.43412392896843027 -0.3971449303226664 0 0.43412392896843027 -0.3971449303226664 0 0.42400655201410531 -0.3998850762459899 0 0.43141006151004041 -0.41125720743104299 0 0.44569370608019571 -0.40117193350059638 0 0.43412392896843027 -0.3971449303226664 0 0.43141006151004041 -0.41125720743104299 0 0.42731149120325329 -0.38944605474231359 0 0.42400655201410531 -0.3998850762459899 0 0.41907867116490671 -0.3869147689204625 0 0.42731149120325329 -0.38944605474231359 0 0.43412392896843027 -0.3971449303226664 0 0.42400655201410531 -0.3998850762459899 0 0.42400655201410531 -0.3998850762459899 0 0.41037879088029111 -0.3965206821944563 0 0.41907867116490671 -0.3869147689204625 0 0.42400655201410531 -0.3998850762459899 0 0.41037879088029111 -0.3965206821944563 0 0.41545449750308677 -0.4121752530224666 0 0.41037879088029111 -0.3965206821944563 0 0.40059139022174872 -0.40712010231862128 0 0.41545449750308677 -0.4121752530224666 0 0.41037879088029111 -0.3965206821944563 0 0.40995047966538051 -0.38440251183928281 0 0.41907867116490671 -0.3869147689204625 0 0.40673312827715807 -0.36888812559633821 0 0.42513668988635089 -0.3757899652949076 0 0.40995047966538051 -0.38440251183928281 0 0.4235399537713429 -0.37886995230138892 0 0.40995047966538051 -0.38440251183928281 0 0.41907867116490671 -0.3869147689204625 0 0.4235399537713429 -0.37886995230138892 0 0.42513668988635089 -0.3757899652949076 0 0.40995047966538051 -0.38440251183928281 0 0.42513668988635089 -0.3757899652949076 0 0.40995047966538051 -0.38440251183928281 0 0.40673312827715807 -0.36888812559633821 0 0.38897176574647219 -0.36758567176315637 0 0.39319115471251892 -0.38862638081991507 0 0.41037879088029111 -0.3965206821944563 0 0.40995047966538051 -0.38440251183928281 0 0.39319115471251892 -0.38862638081991507 0 0.40673312827715807 -0.36888812559633821 0 0.40995047966538051 -0.38440251183928281 0 0.39319115471251892 -0.38862638081991507 0 0.38897176574647219 -0.36758567176315637 0 0.39319115471251892 -0.38862638081991507 0 0.37014430662258158 -0.37665961860795261 0 0.39319115471251892 -0.38862638081991507 0 0.36924903040235829 -0.3969534034792559 0 0.37014430662258158 -0.37665961860795261 0 0.39319115471251892 -0.38862638081991507 0 0.38421323922733391 -0.41188005825711538 0 0.36924903040235829 -0.3969534034792559 0 0.41037879088029111 -0.3965206821944563 0 0.39319115471251892 -0.38862638081991507 0 0.40059139022174872 -0.40712010231862128 0 0.39319115471251892 -0.38862638081991507 0 0.40059139022174872 -0.40712010231862128 0 0.38421323922733391 -0.41188005825711538 0 0.40059139022174872 -0.40712010231862128 0 0.39921988401401509 -0.42641701340610422 0 0.41545449750308677 -0.4121752530224666 0 0.40059139022174872 -0.40712010231862128 0 0.38421323922733391 -0.41188005825711538 0 0.39921988401401509 -0.42641701340610422 0 0.38421323922733391 -0.41188005825711538 0 0.37674055016659302 -0.43621510238060868 0 0.36628742584676921 -0.41594834713818718 0 0.38421323922733391 -0.41188005825711538 0 0.37674055016659302 -0.43621510238060868 0 0.39921988401401509 -0.42641701340610422 0 0.37674055016659302 -0.43621510238060868 0 0.39921988401401509 -0.42641701340610422 0 0.39504633214556067 -0.44868027750293471 0 0.39921988401401509 -0.42641701340610422 0 0.4232852440215259 -0.4314971702928988 0 0.41540721576823192 -0.4509446756040697 0 0.39921988401401509 -0.42641701340610422 0 0.41545449750308677 -0.4121752530224666 0 0.4232852440215259 -0.4314971702928988 0 0.42400655201410531 -0.3998850762459899 0 0.41545449750308677 -0.4121752530224666 0 0.43141006151004041 -0.41125720743104299 0 0.41545449750308677 -0.4121752530224666 0 0.43141006151004041 -0.41125720743104299 0 0.4232852440215259 -0.4314971702928988 0 0.4403967357107621 -0.42477306728666431 0 0.43141006151004041 -0.41125720743104299 0 0.4232852440215259 -0.4314971702928988 0 0.4403967357107621 -0.42477306728666431 0 0.4232852440215259 -0.4314971702928988 0 0.43509976534132849 -0.44837420107273213 0 0.4232852440215259 -0.4314971702928988 0 0.43509976534132849 -0.44837420107273213 0 0.41540721576823192 -0.4509446756040697 0 0.41540721576823192 -0.4509446756040697 0 0.42944325514727572 -0.47221261757954969 0 0.43509976534132849 -0.44837420107273213 0 0.41540721576823192 -0.4509446756040697 0 0.42944325514727572 -0.47221261757954969 0 0.440576011048182 -0.46240714637150332 0 0.43509976534132849 -0.44837420107273213 0 0.42944325514727572 -0.47221261757954969 0 0.43509976534132849 -0.44837420107273213 0 0.42944325514727572 -0.47221261757954969 0 0.43800229110836769 -0.46998169492333852 0 0.440576011048182 -0.46240714637150332 0 0.42944325514727572 -0.47221261757954969 0 0.41540721576823192 -0.4509446756040697 0 0.41789820168166958 -0.46888731620170748 0 0.42944325514727572 -0.47221261757954969 0 0.41540721576823192 -0.4509446756040697 0 0.4019151499273183 -0.46159233047409948 0 0.41789820168166958 -0.46888731620170748 0 0.39921988401401509 -0.42641701340610422 0 0.41540721576823192 -0.4509446756040697 0 0.39921988401401509 -0.42641701340610422 0 0.41540721576823192 -0.4509446756040697 0 0.39504633214556067 -0.44868027750293471 0 0.37674055016659302 -0.43621510238060868 0 0.39504633214556067 -0.44868027750293471 0 0.38213559284313869 -0.46271074670045592 0 0.39504633214556067 -0.44868027750293471 0 0.38213559284313869 -0.46271074670045592 0 0.4019151499273183 -0.46159233047409948 0 0.41540721576823192 -0.4509446756040697 0 0.39504633214556067 -0.44868027750293471 0 0.4019151499273183 -0.46159233047409948 0 0.38213559284313869 -0.46271074670045592 0 0.4019151499273183 -0.46159233047409948 0 0.39908840719799032 -0.47673863636132952 0 0.38213559284313869 -0.46271074670045592 0 0.39908840719799032 -0.47673863636132952 0 0.37899049638827231 -0.48329220181886312 0 0.39908840719799032 -0.47673863636132952 0 0.37899049638827231 -0.48329220181886312 0 0.39186657590448792 -0.5 0 0.37899049638827231 -0.48329220181886312 0 0.39186657590448792 -0.5 0 0.36390892421839888 -0.5 0 0.39908840719799032 -0.47673863636132952 0 0.39186657590448792 -0.5 0 0.41809698598666811 -0.48408313416807841 0 0.39186657590448792 -0.5 0 0.41982422759057691 -0.5 0 0.41809698598666811 -0.48408313416807841 0 0.39908840719799032 -0.47673863636132952 0 0.41789820168166958 -0.46888731620170748 0 0.41809698598666811 -0.48408313416807841 0 0.4019151499273183 -0.46159233047409948 0 0.39908840719799032 -0.47673863636132952 0 0.41789820168166958 -0.46888731620170748 0 0.41789820168166958 -0.46888731620170748 0 0.41809698598666811 -0.48408313416807841 0 0.42364183718915538 -0.47789055706420219 0 0.42364183718915538 -0.47789055706420219 0 0.42697761356583541 -0.48311944008498769 0 0.43159454752244858 -0.47547233780203518 0 0.41809698598666811 -0.48408313416807841 0 0.42364183718915538 -0.47789055706420219 0 0.42697761356583541 -0.48311944008498769 0 0.41789820168166958 -0.46888731620170748 0 0.42364183718915538 -0.47789055706420219 0 0.43159454752244858 -0.47547233780203518 0 0.41789820168166958 -0.46888731620170748 0 0.42944325514727572 -0.47221261757954969 0 0.43159454752244858 -0.47547233780203518 0 0.43800229110836769 -0.46998169492333852 0 0.42944325514727572 -0.47221261757954969 0 0.43159454752244858 -0.47547233780203518 0 0.42944325514727572 -0.47221261757954969 0 0.43159454752244858 -0.47547233780203518 0 0.42697761356583541 -0.48311944008498769 0 0.43159454752244858 -0.47547233780203518 0 0.4317819058489008 -0.49065024536361129 0 0.41982422759057691 -0.5 0 0.41809698598666811 -0.48408313416807841 0 0.4317819058489008 -0.49065024536361129 0 0.44778187927666591 -0.50000000000000067 0 0.41982422759057691 -0.5 0 0.4317819058489008 -0.49065024536361129 0 0.44778187927666591 -0.50000000000000067 0 0.43159454752244858 -0.47547233780203518 0 0.4317819058489008 -0.49065024536361129 0 0.41809698598666811 -0.48408313416807841 0 0.42697761356583541 -0.48311944008498769 0 0.4317819058489008 -0.49065024536361129 0 0.33595127253230989 -0.5 0 0.33745994797925261 -0.4673271006652141 0 0.31169545602734777 -0.47331333197812409 0 0.33595127253230989 -0.5 0 0.31169545602734777 -0.47331333197812409 0 0.30799362084622101 -0.5 0 0.33745994797925261 -0.4673271006652141 0 0.31169545602734777 -0.47331333197812409 0 0.33595127253230989 -0.5 0 0.35905764571290921 -0.47788438491390711 0 0.33745994797925261 -0.4673271006652141 0 0.33595127253230989 -0.5 0 0.36390892421839888 -0.5 0 0.35905764571290921 -0.47788438491390711 0 0.37899049638827231 -0.48329220181886312 0 0.36390892421839888 -0.5 0 0.35905764571290921 -0.47788438491390711 0 0.38213559284313869 -0.46271074670045592 0 0.37899049638827231 -0.48329220181886312 0 0.35905764571290921 -0.47788438491390711 0 0.35905764571290921 -0.47788438491390711 0 0.35527218622095241 -0.45247219748846002 0 0.33745994797925261 -0.4673271006652141 0 0.38213559284313869 -0.46271074670045592 0 0.35905764571290921 -0.47788438491390711 0 0.35527218622095241 -0.45247219748846002 0 0.37674055016659302 -0.43621510238060868 0 0.35527218622095241 -0.45247219748846002 0 0.35022426859690242 -0.42966508615611892 0 0.37674055016659302 -0.43621510238060868 0 0.38213559284313869 -0.46271074670045592 0 0.35527218622095241 -0.45247219748846002 0 0.35527218622095241 -0.45247219748846002 0 0.32601511202691852 -0.44103076411445552 0 0.35022426859690242 -0.42966508615611892 0 0.35527218622095241 -0.45247219748846002 0 0.33745994797925261 -0.4673271006652141 0 0.32601511202691852 -0.44103076411445552 0 0.33745994797925261 -0.4673271006652141 0 0.31640540551618129 -0.45721423012028739 0 0.31169545602734777 -0.47331333197812409 0 0.33745994797925261 -0.4673271006652141 0 0.31640540551618129 -0.45721423012028739 0 0.32601511202691852 -0.44103076411445552 0 0.31640540551618129 -0.45721423012028739 0 0.32601511202691852 -0.44103076411445552 0 0.30034879604997888 -0.45038757888520281 0 0.32601511202691852 -0.44103076411445552 0 0.32754955170518002 -0.4184905002987297 0 0.30298796446410342 -0.42552251618166842 0 0.32754955170518002 -0.4184905002987297 0 0.30774087461884891 -0.40669620765727132 0 0.30298796446410342 -0.42552251618166842 0 0.32754955170518002 -0.4184905002987297 0 0.32784252096937039 -0.40019711142061482 0 0.30774087461884891 -0.40669620765727132 0 0.32754955170518002 -0.4184905002987297 0 0.35022426859690242 -0.42966508615611892 0 0.34986405640407892 -0.40756477492197107 0 0.32754955170518002 -0.4184905002987297 0 0.34986405640407892 -0.40756477492197107 0 0.32784252096937039 -0.40019711142061482 0 0.32601511202691852 -0.44103076411445552 0 0.32754955170518002 -0.4184905002987297 0 0.35022426859690242 -0.42966508615611892 0 0.37674055016659302 -0.43621510238060868 0 0.35022426859690242 -0.42966508615611892 0 0.36628742584676921 -0.41594834713818718 0 0.38421323922733391 -0.41188005825711538 0 0.36628742584676921 -0.41594834713818718 0 0.36924903040235829 -0.3969534034792559 0 0.36628742584676921 -0.41594834713818718 0 0.34986405640407892 -0.40756477492197107 0 0.36924903040235829 -0.3969534034792559 0 0.35022426859690242 -0.42966508615611892 0 0.36628742584676921 -0.41594834713818718 0 0.34986405640407892 -0.40756477492197107 0 0.34986405640407892 -0.40756477492197107 0 0.36924903040235829 -0.3969534034792559 0 0.34997178777208338 -0.38782831702414661 0 0.36924903040235829 -0.3969534034792559 0 0.37014430662258158 -0.37665961860795261 0 0.34997178777208338 -0.38782831702414661 0 0.37014430662258158 -0.37665961860795261 0 0.34997178777208338 -0.38782831702414661 0 0.34841651677635749 -0.36206638000487917 0 0.34997178777208338 -0.38782831702414661 0 0.33177685697986048 -0.38367607385121782 0 0.32784252096937039 -0.40019711142061482 0 0.34997178777208338 -0.38782831702414661 0 0.33177685697986048 -0.38367607385121782 0 0.34841651677635749 -0.36206638000487917 0 0.34986405640407892 -0.40756477492197107 0 0.34997178777208338 -0.38782831702414661 0 0.32784252096937039 -0.40019711142061482 0 0.32784252096937039 -0.40019711142061482 0 0.31079024716836062 -0.38673987542167798 0 0.30774087461884891 -0.40669620765727132 0 0.33177685697986048 -0.38367607385121782 0 0.32784252096937039 -0.40019711142061482 0 0.31079024716836062 -0.38673987542167798 0 0.33177685697986048 -0.38367607385121782 0 0.31079024716836062 -0.38673987542167798 0 0.3275716667105692 -0.36722189331823712 0 0.31079024716836062 -0.38673987542167798 0 0.29226635665849121 -0.39703193307006451 0 0.28770327984314009 -0.38138735692526798 0 0.31079024716836062 -0.38673987542167798 0 0.28770327984314009 -0.38138735692526798 0 0.30000766124738643 -0.37070201036879391 0 0.31079024716836062 -0.38673987542167798 0 0.29226635665849121 -0.39703193307006451 0 0.30774087461884891 -0.40669620765727132 0 0.29226635665849121 -0.39703193307006451 0 0.28770327984314009 -0.38138735692526798 0 0.27213878811448361 -0.39490661895162998 0 0.29226635665849121 -0.39703193307006451 0 0.28500860674758771 -0.41219530955087269 0 0.30774087461884891 -0.40669620765727132 0 0.29226635665849121 -0.39703193307006451 0 0.27213878811448361 -0.39490661895162998 0 0.28500860674758771 -0.41219530955087269 0 0.27252171705263778 -0.37598468839791388 0 0.26027504932346041 -0.3820608119872087 0 0.27213878811448361 -0.39490661895162998 0 0.28770327984314009 -0.38138735692526798 0 0.27252171705263778 -0.37598468839791388 0 0.27213878811448361 -0.39490661895162998 0 0.26027504932346041 -0.3820608119872087 0 0.25104037733827872 -0.36531633609668468 0 0.2451401582503899 -0.38171586476369018 0 0.26027504932346041 -0.3820608119872087 0 0.24990282932322611 -0.40285529692400301 0 0.2451401582503899 -0.38171586476369018 0 0.27213878811448361 -0.39490661895162998 0 0.26835574351298069 -0.41449423672619068 0 0.24990282932322611 -0.40285529692400301 0 0.26027504932346041 -0.3820608119872087 0 0.27213878811448361 -0.39490661895162998 0 0.24990282932322611 -0.40285529692400301 0 0.27213878811448361 -0.39490661895162998 0 0.26835574351298069 -0.41449423672619068 0 0.28500860674758771 -0.41219530955087269 0 0.26835574351298069 -0.41449423672619068 0 0.28254018781024171 -0.42882389421757527 0 0.28500860674758771 -0.41219530955087269 0 0.26835574351298069 -0.41449423672619068 0 0.25534870212305971 -0.42013663171497662 0 0.24990282932322611 -0.40285529692400301 0 0.26835574351298069 -0.41449423672619068 0 0.25534870212305971 -0.42013663171497662 0 0.26581227924227913 -0.43199670906799859 0 0.25534870212305971 -0.42013663171497662 0 0.25261409716154809 -0.43146340861477328 0 0.26581227924227913 -0.43199670906799859 0 0.25261409716154809 -0.43146340861477328 0 0.26581227924227913 -0.43199670906799859 0 0.25571864621363011 -0.44695744237987628 0 0.26581227924227913 -0.43199670906799859 0 0.28254018781024171 -0.42882389421757527 0 0.2749326966216491 -0.44749643077954221 0 0.26835574351298069 -0.41449423672619068 0 0.26581227924227913 -0.43199670906799859 0 0.28254018781024171 -0.42882389421757527 0 0.28254018781024171 -0.42882389421757527 0 0.30298796446410342 -0.42552251618166842 0 0.30034879604997888 -0.45038757888520281 0 0.28254018781024171 -0.42882389421757527 0 0.28500860674758771 -0.41219530955087269 0 0.30298796446410342 -0.42552251618166842 0 0.28500860674758771 -0.41219530955087269 0 0.30774087461884891 -0.40669620765727132 0 0.30298796446410342 -0.42552251618166842 0 0.32601511202691852 -0.44103076411445552 0 0.30298796446410342 -0.42552251618166842 0 0.30034879604997888 -0.45038757888520281 0 0.31640540551618129 -0.45721423012028739 0 0.30034879604997888 -0.45038757888520281 0 0.29702916184657713 -0.4658470851487474 0 0.31640540551618129 -0.45721423012028739 0 0.29702916184657713 -0.4658470851487474 0 0.31169545602734777 -0.47331333197812409 0 0.30034879604997888 -0.45038757888520281 0 0.28237891811220223 -0.46267930740833602 0 0.2749326966216491 -0.44749643077954221 0 0.30034879604997888 -0.45038757888520281 0 0.29702916184657713 -0.4658470851487474 0 0.28237891811220223 -0.46267930740833602 0 0.28254018781024171 -0.42882389421757527 0 0.30034879604997888 -0.45038757888520281 0 0.2749326966216491 -0.44749643077954221 0 0.26581227924227913 -0.43199670906799859 0 0.2749326966216491 -0.44749643077954221 0 0.25571864621363011 -0.44695744237987628 0 0.26644004921346492 -0.46552013452792479 0 0.25299251019630348 -0.4742739009488256 0 0.24874630441970849 -0.46242614125981518 0 0.25571864621363011 -0.44695744237987628 0 0.26644004921346492 -0.46552013452792479 0 0.24874630441970849 -0.46242614125981518 0 0.28237891811220223 -0.46267930740833602 0 0.2749326966216491 -0.44749643077954221 0 0.26644004921346492 -0.46552013452792479 0 0.2749326966216491 -0.44749643077954221 0 0.25571864621363011 -0.44695744237987628 0 0.26644004921346492 -0.46552013452792479 0 0.28237891811220223 -0.46267930740833602 0 0.26644004921346492 -0.46552013452792479 0 0.28593096407544311 -0.47929956329103413 0 0.26644004921346492 -0.46552013452792479 0 0.26016647212353838 -0.48528579460394411 0 0.28593096407544311 -0.47929956329103413 0 0.26016647212353838 -0.48528579460394411 0 0.28593096407544311 -0.47929956329103413 0 0.26644004921346492 -0.46552013452792479 0 0.25299251019630348 -0.4742739009488256 0 0.26016647212353838 -0.48528579460394411 0 0.25299251019630348 -0.4742739009488256 0 0.26016647212353838 -0.48528579460394411 0 0.2480039747190734 -0.48433679620794678 0 0.25207831747404302 -0.5 0 0.26016647212353838 -0.48528579460394411 0 0.28003596916013201 -0.5 0 0.25207831747404302 -0.5 0 0.26016647212353838 -0.48528579460394411 0 0.2480039747190734 -0.48433679620794678 0 0.26016647212353838 -0.48528579460394411 0 0.28003596916013201 -0.5 0 0.28593096407544311 -0.47929956329103413 0 0.28003596916013201 -0.5 0 0.28593096407544311 -0.47929956329103413 0 0.30799362084622101 -0.5 0 0.29702916184657713 -0.4658470851487474 0 0.28237891811220223 -0.46267930740833602 0 0.28593096407544311 -0.47929956329103413 0 0.28593096407544311 -0.47929956329103413 0 0.31169545602734777 -0.47331333197812409 0 0.28593096407544311 -0.47929956329103413 0 0.31169545602734777 -0.47331333197812409 0 0.30799362084622101 -0.5 0 0.29702916184657713 -0.4658470851487474 0 0.28593096407544311 -0.47929956329103413 0 0.31169545602734777 -0.47331333197812409 0 0.33531682716771938 -0.28960051560480599 0 0.32811088484678219 -0.29528612906263529 0 0.32467307402135009 -0.28616990606036702 0 0.33531682716771938 -0.28960051560480599 0 0.34019133654354011 -0.30047119261388577 0 0.32811088484678219 -0.29528612906263529 0 0.33531682716771938 -0.28960051560480599 0 0.32467307402135009 -0.28616990606036702 0 0.34001349011127852 -0.27962860097140002 0 0.32467307402135009 -0.28616990606036702 0 0.34001349011127852 -0.27962860097140002 0 0.33531682716771938 -0.28960051560480599 0 0.34351716617495281 -0.2876848812143597 0 0.34001349011127852 -0.27962860097140002 0 0.33531682716771938 -0.28960051560480599 0 0.34351716617495281 -0.2876848812143597 0 0.34019133654354011 -0.30047119261388577 0 0.34019133654354011 -0.30047119261388577 0 0.34949204683468832 -0.31274620231878791 0 0.33757806831787129 -0.315298506404601 0 0.34019133654354011 -0.30047119261388577 0 0.32778266266163752 -0.31173945710570589 0 0.33757806831787129 -0.315298506404601 0 0.34019133654354011 -0.30047119261388577 0 0.32509526544077161 -0.30269513130492331 0 0.32778266266163752 -0.31173945710570589 0 0.34019133654354011 -0.30047119261388577 0 0.32509526544077161 -0.30269513130492331 0 0.32811088484678219 -0.29528612906263529 0 0.32509526544077161 -0.30269513130492331 0 0.32097420930035508 -0.29973811975846648 0 0.32811088484678219 -0.29528612906263529 0 0.32509526544077161 -0.30269513130492331 0 0.32097420930035508 -0.29973811975846648 0 0.31814643356959449 -0.309970680958015 0 0.32509526544077161 -0.30269513130492331 0 0.32778266266163752 -0.31173945710570589 0 0.31814643356959449 -0.309970680958015 0 0.32097420930035508 -0.29973811975846648 0 0.31814643356959449 -0.309970680958015 0 0.30884538862327748 -0.30456875140639178 0 0.31551374444269209 -0.29007553474952102 0 0.31667726124721668 -0.29158289421813988 0 0.32467307402135009 -0.28616990606036702 0 0.32097420930035508 -0.29973811975846648 0 0.32467307402135009 -0.28616990606036702 0 0.30884538862327748 -0.30456875140639178 0 0.31667726124721668 -0.29158289421813988 0 0.32467307402135009 -0.28616990606036702 0 0.30884538862327748 -0.30456875140639178 0 0.32467307402135009 -0.28616990606036702 0 0.30884538862327748 -0.30456875140639178 0 0.31551374444269209 -0.29007553474952102 0 0.31667726124721668 -0.29158289421813988 0 0.30884538862327748 -0.30456875140639178 0 0.31551374444269209 -0.29007553474952102 0 0.31667726124721668 -0.29158289421813988 0 0.32097420930035508 -0.29973811975846648 0 0.32811088484678219 -0.29528612906263529 0 0.32467307402135009 -0.28616990606036702 0 0.31551374444269209 -0.29007553474952102 0 0.32467307402135009 -0.28616990606036702 0 0.31551374444269209 -0.29007553474952102 0 0.32467307402135009 -0.28616990606036702 0 0.32042227381807048 -0.28111132541359718 0 0.31551374444269209 -0.29007553474952102 0 0.31434604555407841 -0.27464422505261671 0 0.32042227381807048 -0.28111132541359718 0 0.31434604555407841 -0.27464422505261671 0 0.32715623125416121 -0.27355563579188391 0 0.32876056126228981 -0.26055339045895098 0 0.31434604555407841 -0.27464422505261671 0 0.32042227381807048 -0.28111132541359718 0 0.32715623125416121 -0.27355563579188391 0 0.32467307402135009 -0.28616990606036702 0 0.32042227381807048 -0.28111132541359718 0 0.32715623125416121 -0.27355563579188391 0 0.31434604555407841 -0.27464422505261671 0 0.31555104794034661 -0.25498671686932728 0 0.32876056126228981 -0.26055339045895098 0 0.33113835124624369 -0.24205487272376741 0 0.31555104794034661 -0.25498671686932728 0 0.32876056126228981 -0.26055339045895098 0 0.34511374820939678 -0.2488631238178616 0 0.33925794336951282 -0.26921576849824941 0 0.33113835124624369 -0.24205487272376741 0 0.34511374820939678 -0.2488631238178616 0 0.32876056126228981 -0.26055339045895098 0 0.34511374820939678 -0.2488631238178616 0 0.32876056126228981 -0.26055339045895098 0 0.33925794336951282 -0.26921576849824941 0 0.32467307402135009 -0.28616990606036702 0 0.33925794336951282 -0.26921576849824941 0 0.32467307402135009 -0.28616990606036702 0 0.32715623125416121 -0.27355563579188391 0 0.33925794336951282 -0.26921576849824941 0 0.32467307402135009 -0.28616990606036702 0 0.33925794336951282 -0.26921576849824941 0 0.33785937382333181 -0.27407668681990272 0 0.32467307402135009 -0.28616990606036702 0 0.33785937382333181 -0.27407668681990272 0 0.34001349011127852 -0.27962860097140002 0 0.32715623125416121 -0.27355563579188391 0 0.32876056126228981 -0.26055339045895098 0 0.33925794336951282 -0.26921576849824941 0 0.33925794336951282 -0.26921576849824941 0 0.33785937382333181 -0.27407668681990272 0 0.33925794336951282 -0.26921576849824941 0 0.33785937382333181 -0.27407668681990272 0 0.3447407846851091 -0.2746005826444804 0 0.33785937382333181 -0.27407668681990272 0 0.34001349011127852 -0.27962860097140002 0 0.3447407846851091 -0.2746005826444804 0 0.33925794336951282 -0.26921576849824941 0 0.35369046890991801 -0.26797103395912691 0 0.35531359814148128 -0.26147061680092992 0 0.34001349011127852 -0.27962860097140002 0 0.3447407846851091 -0.2746005826444804 0 0.35535390620120672 -0.27308729588243258 0 0.34001349011127852 -0.27962860097140002 0 0.35535390620120672 -0.27308729588243258 0 0.34001349011127852 -0.27962860097140002 0 0.35535390620120672 -0.27308729588243258 0 0.34981075512878362 -0.28199461013875238 0 0.33925794336951282 -0.26921576849824941 0 0.3447407846851091 -0.2746005826444804 0 0.35132638075779038 -0.27253704038635318 0 0.3447407846851091 -0.2746005826444804 0 0.35132638075779038 -0.27253704038635318 0 0.35535390620120672 -0.27308729588243258 0 0.33925794336951282 -0.26921576849824941 0 0.35132638075779038 -0.27253704038635318 0 0.35369046890991801 -0.26797103395912691 0 0.35535390620120672 -0.27308729588243258 0 0.35369046890991801 -0.26797103395912691 0 0.36366843182877739 -0.26954189995046152 0 0.35369046890991801 -0.26797103395912691 0 0.35531359814148128 -0.26147061680092992 0 0.36366843182877739 -0.26954189995046152 0 0.35132638075779038 -0.27253704038635318 0 0.35535390620120672 -0.27308729588243258 0 0.35132638075779038 -0.27253704038635318 0 0.35535390620120672 -0.27308729588243258 0 0.35369046890991801 -0.26797103395912691 0 0.35535390620120672 -0.27308729588243258 0 0.356637594233776 -0.28127566467388582 0 0.34981075512878362 -0.28199461013875238 0 0.35590130418823729 -0.24986874370970499 0 0.33925794336951282 -0.26921576849824941 0 0.35531359814148128 -0.26147061680092992 0 0.34511374820939678 -0.2488631238178616 0 0.35590130418823729 -0.24986874370970499 0 0.33925794336951282 -0.26921576849824941 0 0.35590130418823729 -0.24986874370970499 0 0.33925794336951282 -0.26921576849824941 0 0.35590130418823729 -0.24986874370970499 0 0.37192528824684518 -0.24582274916853061 0 0.36776083002432541 -0.25694591821699547 0 0.35590130418823729 -0.24986874370970499 0 0.35531359814148128 -0.26147061680092992 0 0.36776083002432541 -0.25694591821699547 0 0.35531359814148128 -0.26147061680092992 0 0.36776083002432541 -0.25694591821699547 0 0.36366843182877739 -0.26954189995046152 0 0.37690405024994028 -0.26421402962362872 0 0.36776083002432541 -0.25694591821699547 0 0.36366843182877739 -0.26954189995046152 0 0.37192528824684518 -0.24582274916853061 0 0.38160228539367702 -0.25296088863687738 0 0.36776083002432541 -0.25694591821699547 0 0.37981021261433773 -0.27642860736678831 0 0.35535390620120672 -0.27308729588243258 0 0.36648270414401291 -0.2828045433037375 0 0.37981021261433773 -0.27642860736678831 0 0.35535390620120672 -0.27308729588243258 0 0.36366843182877739 -0.26954189995046152 0 0.37981021261433773 -0.27642860736678831 0 0.35535390620120672 -0.27308729588243258 0 0.37981021261433773 -0.27642860736678831 0 0.37690405024994028 -0.26421402962362872 0 0.36366843182877739 -0.26954189995046152 0 0.35535390620120672 -0.27308729588243258 0 0.36648270414401291 -0.2828045433037375 0 0.356637594233776 -0.28127566467388582 0 0.35535390620120672 -0.27308729588243258 0 0.36366843182877739 -0.26954189995046152 0 0.36648270414401291 -0.2828045433037375 0 0.35330213556621171 -0.28847739754021501 0 0.36361766166269333 -0.29870641816099869 0 0.38922726440481159 -0.29429106268917998 0 0.36648270414401291 -0.2828045433037375 0 0.36361766166269333 -0.29870641816099869 0 0.36648270414401291 -0.2828045433037375 0 0.356637594233776 -0.28127566467388582 0 0.35330213556621171 -0.28847739754021501 0 0.34019133654354011 -0.30047119261388577 0 0.35330213556621171 -0.28847739754021501 0 0.36361766166269333 -0.29870641816099869 0 0.356637594233776 -0.28127566467388582 0 0.35330213556621171 -0.28847739754021501 0 0.34981075512878362 -0.28199461013875238 0 0.34351716617495281 -0.2876848812143597 0 0.34019133654354011 -0.30047119261388577 0 0.35330213556621171 -0.28847739754021501 0 0.34351716617495281 -0.2876848812143597 0 0.35330213556621171 -0.28847739754021501 0 0.34981075512878362 -0.28199461013875238 0 0.34351716617495281 -0.2876848812143597 0 0.34001349011127852 -0.27962860097140002 0 0.34981075512878362 -0.28199461013875238 0 0.34019133654354011 -0.30047119261388577 0 0.36361766166269333 -0.29870641816099869 0 0.34949204683468832 -0.31274620231878791 0 0.36361766166269333 -0.29870641816099869 0 0.36438486030985368 -0.31539189956214869 0 0.34949204683468832 -0.31274620231878791 0 0.3856003770482635 -0.3135095091891435 0 0.36361766166269333 -0.29870641816099869 0 0.36438486030985368 -0.31539189956214869 0 0.36438486030985368 -0.31539189956214869 0 0.37251047465635589 -0.32883073808122693 0 0.34780254955558759 -0.32660165870793562 0 0.3856003770482635 -0.3135095091891435 0 0.36438486030985368 -0.31539189956214869 0 0.37251047465635589 -0.32883073808122693 0 0.37251047465635589 -0.32883073808122693 0 0.34780254955558759 -0.32660165870793562 0 0.37251047465635589 -0.32883073808122693 0 0.34708010439025888 -0.34063506894550422 0 0.37106558432569903 -0.35689755855636252 0 0.37251047465635589 -0.32883073808122693 0 0.34708010439025888 -0.34063506894550422 0 0.34780254955558759 -0.32660165870793562 0 0.36438486030985368 -0.31539189956214869 0 0.34780254955558759 -0.32660165870793562 0 0.34949204683468832 -0.31274620231878791 0 0.34780254955558759 -0.32660165870793562 0 0.34949204683468832 -0.31274620231878791 0 0.33757806831787129 -0.315298506404601 0 0.37014430662258158 -0.37665961860795261 0 0.37106558432569903 -0.35689755855636252 0 0.34841651677635749 -0.36206638000487917 0 0.34708010439025888 -0.34063506894550422 0 0.37106558432569903 -0.35689755855636252 0 0.34708010439025888 -0.34063506894550422 0 0.37106558432569903 -0.35689755855636252 0 0.34841651677635749 -0.36206638000487917 0 0.34708010439025888 -0.34063506894550422 0 0.34841651677635749 -0.36206638000487917 0 0.33790688794856849 -0.35291893086005621 0 0.34841651677635749 -0.36206638000487917 0 0.33790688794856849 -0.35291893086005621 0 0.3275716667105692 -0.36722189331823712 0 0.33177685697986048 -0.38367607385121782 0 0.34841651677635749 -0.36206638000487917 0 0.3275716667105692 -0.36722189331823712 0 0.33790688794856849 -0.35291893086005621 0 0.32542136517394249 -0.34561339379438849 0 0.3275716667105692 -0.36722189331823712 0 0.34708010439025888 -0.34063506894550422 0 0.33790688794856849 -0.35291893086005621 0 0.32542136517394249 -0.34561339379438849 0 0.32542136517394249 -0.34561339379438849 0 0.3138492659878645 -0.3573886011045585 0 0.3275716667105692 -0.36722189331823712 0 0.32542136517394249 -0.34561339379438849 0 0.3138492659878645 -0.3573886011045585 0 0.30452859953961658 -0.34363258586159823 0 0.3138492659878645 -0.3573886011045585 0 0.3275716667105692 -0.36722189331823712 0 0.30000766124738643 -0.37070201036879391 0 0.31079024716836062 -0.38673987542167798 0 0.3275716667105692 -0.36722189331823712 0 0.30000766124738643 -0.37070201036879391 0 0.34780254955558759 -0.32660165870793562 0 0.32309462445481929 -0.32437257933464531 0 0.34780254955558759 -0.32660165870793562 0 0.33757806831787129 -0.315298506404601 0 0.32309462445481929 -0.32437257933464531 0 0.32778266266163752 -0.31173945710570589 0 0.33757806831787129 -0.315298506404601 0 0.32309462445481929 -0.32437257933464531 0 0.34708010439025888 -0.34063506894550422 0 0.32309462445481929 -0.32437257933464531 0 0.34708010439025888 -0.34063506894550422 0 0.32542136517394249 -0.34561339379438849 0 0.32309462445481929 -0.32437257933464531 0 0.34708010439025888 -0.34063506894550422 0 0.34780254955558759 -0.32660165870793562 0 0.32309462445481929 -0.32437257933464531 0 0.32542136517394249 -0.34561339379438849 0 0.31298117706618162 -0.33395164347265771 0 0.32309462445481929 -0.32437257933464531 0 0.32542136517394249 -0.34561339379438849 0 0.31298117706618162 -0.33395164347265771 0 0.30452859953961658 -0.34363258586159823 0 0.31814643356959449 -0.309970680958015 0 0.32309462445481929 -0.32437257933464531 0 0.30735885923207051 -0.31370351125084511 0 0.32309462445481929 -0.32437257933464531 0 0.30735885923207051 -0.31370351125084511 0 0.32778266266163752 -0.31173945710570589 0 0.31814643356959449 -0.309970680958015 0 0.32309462445481929 -0.32437257933464531 0 0.32309462445481929 -0.32437257933464531 0 0.29888011909634798 -0.32218801489999888 0 0.32309462445481929 -0.32437257933464531 0 0.30735885923207051 -0.31370351125084511 0 0.29888011909634798 -0.32218801489999888 0 0.31298117706618162 -0.33395164347265771 0 0.32309462445481929 -0.32437257933464531 0 0.29888011909634798 -0.32218801489999888 0 0.30735885923207051 -0.31370351125084511 0 0.29888011909634798 -0.32218801489999888 0 0.29931225729040539 -0.31038084232692692 0 0.31298117706618162 -0.33395164347265771 0 0.29888011909634798 -0.32218801489999888 0 0.30452859953961658 -0.34363258586159823 0 0.30452859953961658 -0.34363258586159823 0 0.28387043759477132 -0.33615047145311733 0 0.29888011909634798 -0.32218801489999888 0 0.30452859953961658 -0.34363258586159823 0 0.28387043759477132 -0.33615047145311733 0 0.29888011909634798 -0.32218801489999888 0 0.27466561373787662 -0.32000345046535361 0 0.28765072041206741 -0.31212061556748122 0 0.29888011909634798 -0.32218801489999888 0 0.27466561373787662 -0.32000345046535361 0 0.29888011909634798 -0.32218801489999888 0 0.28387043759477132 -0.33615047145311733 0 0.27466561373787662 -0.32000345046535361 0 0.29888011909634798 -0.32218801489999888 0 0.28765072041206741 -0.31212061556748122 0 0.29931225729040539 -0.31038084232692692 0 0.3138492659878645 -0.3573886011045585 0 0.30452859953961658 -0.34363258586159823 0 0.30000766124738643 -0.37070201036879391 0 0.30452859953961658 -0.34363258586159823 0 0.28387043759477132 -0.33615047145311733 0 0.28040346877266992 -0.35840154409446168 0 0.30452859953961658 -0.34363258586159823 0 0.30000766124738643 -0.37070201036879391 0 0.28040346877266992 -0.35840154409446168 0 0.28770327984314009 -0.38138735692526798 0 0.30000766124738643 -0.37070201036879391 0 0.28040346877266992 -0.35840154409446168 0 0.27252171705263778 -0.37598468839791388 0 0.28040346877266992 -0.35840154409446168 0 0.26426779032715297 -0.36590916334041867 0 0.28770327984314009 -0.38138735692526798 0 0.27252171705263778 -0.37598468839791388 0 0.28040346877266992 -0.35840154409446168 0 0.27252171705263778 -0.37598468839791388 0 0.26027504932346041 -0.3820608119872087 0 0.26426779032715297 -0.36590916334041867 0 0.28040346877266992 -0.35840154409446168 0 0.26239108693306962 -0.35285458544781828 0 0.2684612617311613 -0.34151777933372152 0 0.28040346877266992 -0.35840154409446168 0 0.26239108693306962 -0.35285458544781828 0 0.26426779032715297 -0.36590916334041867 0 0.28387043759477132 -0.33615047145311733 0 0.28040346877266992 -0.35840154409446168 0 0.2684612617311613 -0.34151777933372152 0 0.26239108693306962 -0.35285458544781828 0 0.2684612617311613 -0.34151777933372152 0 0.25458247863730982 -0.33960249450954 0 0.26239108693306962 -0.35285458544781828 0 0.25458247863730982 -0.33960249450954 0 0.24929859827594161 -0.35063200843897191 0 0.26239108693306962 -0.35285458544781828 0 0.25104037733827872 -0.36531633609668468 0 0.24929859827594161 -0.35063200843897191 0 0.26027504932346041 -0.3820608119872087 0 0.26426779032715297 -0.36590916334041867 0 0.25104037733827872 -0.36531633609668468 0 0.26239108693306962 -0.35285458544781828 0 0.26426779032715297 -0.36590916334041867 0 0.25104037733827872 -0.36531633609668468 0 0.27466561373787662 -0.32000345046535361 0 0.25045110837940532 -0.31781888603070729 0 0.27213865373383422 -0.30857110227031181 0 0.27466561373787662 -0.32000345046535361 0 0.27213865373383422 -0.30857110227031181 0 0.28765072041206741 -0.31212061556748122 0 0.28387043759477132 -0.33615047145311733 0 0.2684612617311613 -0.34151777933372152 0 0.26321227564992589 -0.32866835704463643 0 0.28387043759477132 -0.33615047145311733 0 0.26321227564992589 -0.32866835704463643 0 0.28387043759477132 -0.33615047145311733 0 0.27466561373787662 -0.32000345046535361 0 0.26321227564992589 -0.32866835704463643 0 0.2684612617311613 -0.34151777933372152 0 0.26321227564992589 -0.32866835704463643 0 0.25458247863730982 -0.33960249450954 0 0.25458247863730982 -0.33960249450954 0 0.25117820393433321 -0.3300720272402089 0 0.24436394774501671 -0.3308310147705068 0 0.26321227564992589 -0.32866835704463643 0 0.25458247863730982 -0.33960249450954 0 0.25117820393433321 -0.3300720272402089 0 0.26321227564992589 -0.32866835704463643 0 0.2425541137050812 -0.32118624263615408 0 0.27466561373787662 -0.32000345046535361 0 0.25045110837940532 -0.31781888603070729 0 0.26321227564992589 -0.32866835704463643 0 0.25117820393433321 -0.3300720272402089 0 0.2425541137050812 -0.32118624263615408 0 0.26321227564992589 -0.32866835704463643 0 0.25045110837940532 -0.31781888603070729 0 0.2425541137050812 -0.32118624263615408 0 0.27466561373787662 -0.32000345046535361 0 0.26321227564992589 -0.32866835704463643 0 0.25045110837940532 -0.31781888603070729 0 0.25045110837940532 -0.31781888603070729 0 0.27213865373383422 -0.30857110227031181 0 0.25045110837940532 -0.31781888603070729 0 0.25770152948775588 -0.30354910655035111 0 0.247266290286666 -0.30691057709804731 0 0.25045110837940532 -0.31781888603070729 0 0.25770152948775588 -0.30354910655035111 0 0.27213865373383422 -0.30857110227031181 0 0.25770152948775588 -0.30354910655035111 0 0.25064364448817478 -0.29694774561672932 0 0.25941668567657 -0.29209551309439102 0 0.25770152948775588 -0.30354910655035111 0 0.25064364448817478 -0.29694774561672932 0 0.247266290286666 -0.30691057709804731 0 0.25770152948775588 -0.30354910655035111 0 0.25941668567657 -0.29209551309439102 0 0.26730320483182107 -0.29764242532730362 0 0.25941668567657 -0.29209551309439102 0 0.26127708207381328 -0.28222272034072282 0 0.24985720623786131 -0.28387513795241559 0 0.25064364448817478 -0.29694774561672932 0 0.25941668567657 -0.29209551309439102 0 0.24985720623786131 -0.28387513795241559 0 0.25941668567657 -0.29209551309439102 0 0.27003393247843838 -0.28731297178999782 0 0.26730320483182107 -0.29764242532730362 0 0.25941668567657 -0.29209551309439102 0 0.26127708207381328 -0.28222272034072282 0 0.27003393247843838 -0.28731297178999782 0 0.26127708207381328 -0.28222272034072282 0 0.27003393247843838 -0.28731297178999782 0 0.26998111561743721 -0.27502292941518941 0 0.27003393247843838 -0.28731297178999782 0 0.27784820806192267 -0.29465811544796972 0 0.26730320483182107 -0.29764242532730362 0 0.27003393247843838 -0.28731297178999782 0 0.27784820806192267 -0.29465811544796972 0 0.28420483020477899 -0.28265375503206591 0 0.27003393247843838 -0.28731297178999782 0 0.28420483020477899 -0.28265375503206591 0 0.26998111561743721 -0.27502292941518941 0 0.25770152948775588 -0.30354910655035111 0 0.27213865373383422 -0.30857110227031181 0 0.26730320483182107 -0.29764242532730362 0 0.27784820806192267 -0.29465811544796972 0 0.27213865373383422 -0.30857110227031181 0 0.26730320483182107 -0.29764242532730362 0 0.27213865373383422 -0.30857110227031181 0 0.28765072041206741 -0.31212061556748122 0 0.29382619908826352 -0.29932331850991711 0 0.27213865373383422 -0.30857110227031181 0 0.29382619908826352 -0.29932331850991711 0 0.27784820806192267 -0.29465811544796972 0 0.27213865373383422 -0.30857110227031181 0 0.29382619908826352 -0.29932331850991711 0 0.28765072041206741 -0.31212061556748122 0 0.29382619908826352 -0.29932331850991711 0 0.29931225729040539 -0.31038084232692692 0 0.27784820806192267 -0.29465811544796972 0 0.29382619908826352 -0.29932331850991711 0 0.28420483020477899 -0.28265375503206591 0 0.29382619908826352 -0.29932331850991711 0 0.28420483020477899 -0.28265375503206591 0 0.29879727615855062 -0.28466176527643411 0 0.31551374444269209 -0.29007553474952102 0 0.29879727615855062 -0.28466176527643411 0 0.29971364804073619 -0.26960619144139469 0 0.31551374444269209 -0.29007553474952102 0 0.29382619908826352 -0.29932331850991711 0 0.29879727615855062 -0.28466176527643411 0 0.31551374444269209 -0.29007553474952102 0 0.29382619908826352 -0.29932331850991711 0 0.31551374444269209 -0.29007553474952102 0 0.29382619908826352 -0.29932331850991711 0 0.30884538862327748 -0.30456875140639178 0 0.30735885923207051 -0.31370351125084511 0 0.30884538862327748 -0.30456875140639178 0 0.29931225729040539 -0.31038084232692692 0 0.31814643356959449 -0.309970680958015 0 0.30735885923207051 -0.31370351125084511 0 0.30884538862327748 -0.30456875140639178 0 0.29382619908826352 -0.29932331850991711 0 0.30884538862327748 -0.30456875140639178 0 0.29931225729040539 -0.31038084232692692 0 0.30167872349749919 -0.24614799934162421 0 0.31555104794034661 -0.25498671686932728 0 0.29971364804073619 -0.26960619144139469 0 0.31434604555407841 -0.27464422505261671 0 0.31555104794034661 -0.25498671686932728 0 0.29971364804073619 -0.26960619144139469 0 0.31551374444269209 -0.29007553474952102 0 0.29971364804073619 -0.26960619144139469 0 0.31551374444269209 -0.29007553474952102 0 0.31434604555407841 -0.27464422505261671 0 0.29971364804073619 -0.26960619144139469 0 0.28420483020477899 -0.28265375503206591 0 0.29971364804073619 -0.26960619144139469 0 0.27992755567211852 -0.26712298457027578 0 0.28420483020477899 -0.28265375503206591 0 0.29879727615855062 -0.28466176527643411 0 0.29971364804073619 -0.26960619144139469 0 0.2839135516387799 -0.24913684813326861 0 0.29971364804073619 -0.26960619144139469 0 0.27992755567211852 -0.26712298457027578 0 0.30167872349749919 -0.24614799934162421 0 0.2839135516387799 -0.24913684813326861 0 0.29971364804073619 -0.26960619144139469 0 0.2839135516387799 -0.24913684813326861 0 0.29971364804073619 -0.26960619144139469 0 0.2839135516387799 -0.24913684813326861 0 0.26616423502403908 -0.25859120074069342 0 0.27992755567211852 -0.26712298457027578 0 0.2839135516387799 -0.24913684813326861 0 0.26824137516285002 -0.24464664588689489 0 0.26616423502403908 -0.25859120074069342 0 0.26616423502403908 -0.25859120074069342 0 0.27992755567211852 -0.26712298457027578 0 0.26998111561743721 -0.27502292941518941 0 0.28420483020477899 -0.28265375503206591 0 0.27992755567211852 -0.26712298457027578 0 0.26998111561743721 -0.27502292941518941 0 0.26616423502403908 -0.25859120074069342 0 0.26998111561743721 -0.27502292941518941 0 0.25709647035875982 -0.27280704945161999 0 0.26127708207381328 -0.28222272034072282 0 0.26998111561743721 -0.27502292941518941 0 0.25709647035875982 -0.27280704945161999 0 0.25709647035875982 -0.27280704945161999 0 0.25295835007984863 -0.25978066729687738 0 0.2471989966170608 -0.27166458897101042 0 0.25709647035875982 -0.27280704945161999 0 0.2471989966170608 -0.27166458897101042 0 0.24985720623786131 -0.28387513795241559 0 0.26127708207381328 -0.28222272034072282 0 0.25709647035875982 -0.27280704945161999 0 0.24985720623786131 -0.28387513795241559 0 0.25477425875175691 -0.24219102984847479 0 0.26616423502403908 -0.25859120074069342 0 0.25295835007984863 -0.25978066729687738 0 0.26616423502403908 -0.25859120074069342 0 0.25709647035875982 -0.27280704945161999 0 0.25295835007984863 -0.25978066729687738 0 0.25477425875175691 -0.24219102984847479 0 0.25295835007984863 -0.25978066729687738 0 0.23955778964762631 -0.25364946747258821 0 0.25295835007984863 -0.25978066729687738 0 0.23955778964762631 -0.25364946747258821 0 0.2471989966170608 -0.27166458897101042 0 0.23955778964762631 -0.25364946747258821 0 0.2471989966170608 -0.27166458897101042 0 0.23921670233984699 -0.27985477601577158 0 0.23955778964762631 -0.25364946747258821 0 0.23921670233984699 -0.27985477601577158 0 0.24515703577416639 -0.2790704591666458 0 0.2471989966170608 -0.27166458897101042 0 0.23921670233984699 -0.27985477601577158 0 0.24515703577416639 -0.2790704591666458 0 0.23921670233984699 -0.27985477601577158 0 0.24985720623786131 -0.28387513795241559 0 0.24515703577416639 -0.2790704591666458 0 0.2471989966170608 -0.27166458897101042 0 0.24985720623786131 -0.28387513795241559 0 0.23955778964762631 -0.25364946747258821 0 0.23921670233984699 -0.27985477601577158 0 0.22064209515767669 -0.2701105210675997 0 0.23921670233984699 -0.27985477601577158 0 0.22064209515767669 -0.2701105210675997 0 0.2180164751649766 -0.29223768278522988 0 0.23955778964762631 -0.25364946747258821 0 0.22064209515767669 -0.2701105210675997 0 0.21665031790005829 -0.24662261314836739 0 0.22064209515767669 -0.2701105210675997 0 0.20133851282493059 -0.26112758258429458 0 0.21665031790005829 -0.24662261314836739 0 0.20133851282493059 -0.26112758258429458 0 0.21665031790005829 -0.24662261314836739 0 0.20130028505074021 -0.24348279699889891 0 0.22064209515767669 -0.2701105210675997 0 0.20835564523221639 -0.27632768183893452 0 0.2180164751649766 -0.29223768278522988 0 0.22064209515767669 -0.2701105210675997 0 0.20835564523221639 -0.27632768183893452 0 0.20133851282493059 -0.26112758258429458 0 0.20835564523221639 -0.27632768183893452 0 0.20133851282493059 -0.26112758258429458 0 0.1934254977812819 -0.28183494091861411 0 0.20133851282493059 -0.26112758258429458 0 0.1934254977812819 -0.28183494091861411 0 0.18506103992789469 -0.26595144847214952 0 0.20133851282493059 -0.26112758258429458 0 0.18506103992789469 -0.26595144847214952 0 0.18586744723925031 -0.24810812562569079 0 0.20133851282493059 -0.26112758258429458 0 0.20130028505074021 -0.24348279699889891 0 0.18586744723925031 -0.24810812562569079 0 0.19681624799010419 -0.3046205895546848 0 0.20328077610347409 -0.31549770903855229 0 0.19289198861460641 -0.31735712627507329 0 0.19681624799010419 -0.3046205895546848 0 0.1934254977812819 -0.28183494091861411 0 0.1726204814403367 -0.29585720131086929 0 0.19681624799010419 -0.3046205895546848 0 0.1934254977812819 -0.28183494091861411 0 0.2180164751649766 -0.29223768278522988 0 0.20835564523221639 -0.27632768183893452 0 0.1934254977812819 -0.28183494091861411 0 0.2180164751649766 -0.29223768278522988 0 0.19681624799010419 -0.3046205895546848 0 0.2180164751649766 -0.29223768278522988 0 0.19681624799010419 -0.3046205895546848 0 0.2180164751649766 -0.29223768278522988 0 0.21218470960153391 -0.31018684411140818 0 0.19681624799010419 -0.3046205895546848 0 0.21218470960153391 -0.31018684411140818 0 0.19681624799010419 -0.3046205895546848 0 0.21218470960153391 -0.31018684411140818 0 0.20328077610347409 -0.31549770903855229 0 0.2180164751649766 -0.29223768278522988 0 0.22675093978708591 -0.30463263152813452 0 0.23897651075202089 -0.29830839338844162 0 0.21218470960153391 -0.31018684411140818 0 0.22675093978708591 -0.30463263152813452 0 0.22755317121296309 -0.31575309866813278 0 0.2180164751649766 -0.29223768278522988 0 0.21218470960153391 -0.31018684411140818 0 0.22675093978708591 -0.30463263152813452 0 0.22675093978708591 -0.30463263152813452 0 0.23873631916419549 -0.31676201076111171 0 0.22755317121296309 -0.31575309866813278 0 0.23921670233984699 -0.27985477601577158 0 0.2180164751649766 -0.29223768278522988 0 0.23921670233984699 -0.27985477601577158 0 0.2180164751649766 -0.29223768278522988 0 0.23897651075202089 -0.29830839338844162 0 0.23921670233984699 -0.27985477601577158 0 0.24985720623786131 -0.28387513795241559 0 0.23897651075202089 -0.29830839338844162 0 0.23921670233984699 -0.27985477601577158 0 0.23897651075202089 -0.29830839338844162 0 0.25064364448817478 -0.29694774561672932 0 0.24985720623786131 -0.28387513795241559 0 0.23897651075202089 -0.29830839338844162 0 0.23897651075202089 -0.29830839338844162 0 0.23873631916419549 -0.31676201076111171 0 0.22675093978708591 -0.30463263152813452 0 0.23897651075202089 -0.29830839338844162 0 0.23873631916419549 -0.31676201076111171 0 0.23897651075202089 -0.29830839338844162 0 0.247266290286666 -0.30691057709804731 0 0.23873631916419549 -0.31676201076111171 0 0.25064364448817478 -0.29694774561672932 0 0.23897651075202089 -0.29830839338844162 0 0.247266290286666 -0.30691057709804731 0 0.25045110837940532 -0.31781888603070729 0 0.247266290286666 -0.30691057709804731 0 0.23873631916419549 -0.31676201076111171 0 0.25045110837940532 -0.31781888603070729 0 0.2425541137050812 -0.32118624263615408 0 0.25045110837940532 -0.31781888603070729 0 0.23873631916419549 -0.31676201076111171 0 0.25045110837940532 -0.31781888603070729 0 0.23873631916419549 -0.31676201076111171 0 0.2425541137050812 -0.32118624263615408 0 0.23869691716445571 -0.31978921680733341 0 0.23873631916419549 -0.31676201076111171 0 0.22755317121296309 -0.31575309866813278 0 0.23869691716445571 -0.31978921680733341 0 0.23873631916419549 -0.31676201076111171 0 0.2425541137050812 -0.32118624263615408 0 0.23869691716445571 -0.31978921680733341 0 0.23873631916419549 -0.31676201076111171 0 0.23865710460230599 -0.3228479658466783 0 0.2425541137050812 -0.32118624263615408 0 0.24436394774501671 -0.3308310147705068 0 0.23869691716445571 -0.31978921680733341 0 0.23865710460230599 -0.3228479658466783 0 0.23182241413875179 -0.32066562805902132 0 0.23869691716445571 -0.31978921680733341 0 0.23865710460230599 -0.3228479658466783 0 0.2425541137050812 -0.32118624263615408 0 0.23869691716445571 -0.31978921680733341 0 0.23865710460230599 -0.3228479658466783 0 0.23869691716445571 -0.31978921680733341 0 0.2425541137050812 -0.32118624263615408 0 0.23865710460230599 -0.3228479658466783 0 0.2425541137050812 -0.32118624263615408 0 0.25117820393433321 -0.3300720272402089 0 0.2425541137050812 -0.32118624263615408 0 0.24436394774501671 -0.3308310147705068 0 0.23865710460230599 -0.3228479658466783 0 0.23845125900099501 -0.33866282430547712 0 0.24436394774501671 -0.3308310147705068 0 0.23865710460230599 -0.3228479658466783 0 0.23845125900099501 -0.33866282430547712 0 0.25458247863730982 -0.33960249450954 0 0.23845125900099501 -0.33866282430547712 0 0.24929859827594161 -0.35063200843897191 0 0.25458247863730982 -0.33960249450954 0 0.23845125900099501 -0.33866282430547712 0 0.24436394774501671 -0.3308310147705068 0 0.23845125900099501 -0.33866282430547712 0 0.22372724759929449 -0.34800453906162049 0 0.21089266240781371 -0.33468699850097372 0 0.23865710460230599 -0.3228479658466783 0 0.23845125900099501 -0.33866282430547712 0 0.21089266240781371 -0.33468699850097372 0 0.23865710460230599 -0.3228479658466783 0 0.21089266240781371 -0.33468699850097372 0 0.23865710460230599 -0.3228479658466783 0 0.2223824635752821 -0.32427223091394047 0 0.21089266240781371 -0.33468699850097372 0 0.23865710460230599 -0.3228479658466783 0 0.2223824635752821 -0.32427223091394047 0 0.23182241413875179 -0.32066562805902132 0 0.21218470960153391 -0.31018684411140818 0 0.22755317121296309 -0.31575309866813278 0 0.2223824635752821 -0.32427223091394047 0 0.2188199808031859 -0.31496521484032958 0 0.22755317121296309 -0.31575309866813278 0 0.21218470960153391 -0.31018684411140818 0 0.2188199808031859 -0.31496521484032958 0 0.22755317121296309 -0.31575309866813278 0 0.2188199808031859 -0.31496521484032958 0 0.22755317121296309 -0.31575309866813278 0 0.2223824635752821 -0.32427223091394047 0 0.22755317121296309 -0.31575309866813278 0 0.23182241413875179 -0.32066562805902132 0 0.23869691716445571 -0.31978921680733341 0 0.22755317121296309 -0.31575309866813278 0 0.23873631916419549 -0.31676201076111171 0 0.22755317121296309 -0.31575309866813278 0 0.23869691716445571 -0.31978921680733341 0 0.22755317121296309 -0.31575309866813278 0 0.23182241413875179 -0.32066562805902132 0 0.25104037733827872 -0.36531633609668468 0 0.23664191488640041 -0.3689641259121022 0 0.2451401582503899 -0.38171586476369018 0 0.25104037733827872 -0.36531633609668468 0 0.23664191488640041 -0.3689641259121022 0 0.23824541339968319 -0.35447768276427583 0 0.23845125900099501 -0.33866282430547712 0 0.23824541339968319 -0.35447768276427583 0 0.24929859827594161 -0.35063200843897191 0 0.23845125900099501 -0.33866282430547712 0 0.23824541339968319 -0.35447768276427583 0 0.25104037733827872 -0.36531633609668468 0 0.23824541339968319 -0.35447768276427583 0 0.24929859827594161 -0.35063200843897191 0 0.23845125900099501 -0.33866282430547712 0 0.23824541339968319 -0.35447768276427583 0 0.22372724759929449 -0.34800453906162049 0 0.23824541339968319 -0.35447768276427583 0 0.22372724759929449 -0.34800453906162049 0 0.22382140999506511 -0.3618110153077545 0 0.23664191488640041 -0.3689641259121022 0 0.22382140999506511 -0.3618110153077545 0 0.2239542938803816 -0.38183164467116532 0 0.22382140999506511 -0.3618110153077545 0 0.20914645027206499 -0.36589793505711732 0 0.2239542938803816 -0.38183164467116532 0 0.23664191488640041 -0.3689641259121022 0 0.23824541339968319 -0.35447768276427583 0 0.22382140999506511 -0.3618110153077545 0 0.22372724759929449 -0.34800453906162049 0 0.20712309941875101 -0.35022682092839369 0 0.21089266240781371 -0.33468699850097372 0 0.22372724759929449 -0.34800453906162049 0 0.22382140999506511 -0.3618110153077545 0 0.20712309941875101 -0.35022682092839369 0 0.22382140999506511 -0.3618110153077545 0 0.20914645027206499 -0.36589793505711732 0 0.20712309941875101 -0.35022682092839369 0 0.20712309941875101 -0.35022682092839369 0 0.1949940520001939 -0.34670337155179992 0 0.1893941443990006 -0.35687882958947142 0 0.20914645027206499 -0.36589793505711732 0 0.20712309941875101 -0.35022682092839369 0 0.1893941443990006 -0.35687882958947142 0 0.20712309941875101 -0.35022682092839369 0 0.1949940520001939 -0.34670337155179992 0 0.19769146023002299 -0.33681262913348342 0 0.1949940520001939 -0.34670337155179992 0 0.1893941443990006 -0.35687882958947142 0 0.18576750395300101 -0.34289520655585132 0 0.1893941443990006 -0.35687882958947142 0 0.20054990574542961 -0.37909497914268109 0 0.18232217971076861 -0.38719931784173262 0 0.20914645027206499 -0.36589793505711732 0 0.1893941443990006 -0.35687882958947142 0 0.20054990574542961 -0.37909497914268109 0 0.21208063206321559 -0.3220648336607671 0 0.21089266240781371 -0.33468699850097372 0 0.20243030224790981 -0.32325915159082957 0 0.20328077610347409 -0.31549770903855229 0 0.21208063206321559 -0.3220648336607671 0 0.20243030224790981 -0.32325915159082957 0 0.21218470960153391 -0.31018684411140818 0 0.20328077610347409 -0.31549770903855229 0 0.21208063206321559 -0.3220648336607671 0 0.21218470960153391 -0.31018684411140818 0 0.2188199808031859 -0.31496521484032958 0 0.21208063206321559 -0.3220648336607671 0 0.2223824635752821 -0.32427223091394047 0 0.2188199808031859 -0.31496521484032958 0 0.21208063206321559 -0.3220648336607671 0 0.2223824635752821 -0.32427223091394047 0 0.21208063206321559 -0.3220648336607671 0 0.21089266240781371 -0.33468699850097372 0 0.20712309941875101 -0.35022682092839369 0 0.21089266240781371 -0.33468699850097372 0 0.19769146023002299 -0.33681262913348342 0 0.21089266240781371 -0.33468699850097372 0 0.19769146023002299 -0.33681262913348342 0 0.20243030224790981 -0.32325915159082957 0 0.19769146023002299 -0.33681262913348342 0 0.18332918138236859 -0.33105732300925489 0 0.18576750395300101 -0.34289520655585132 0 0.1949940520001939 -0.34670337155179992 0 0.19769146023002299 -0.33681262913348342 0 0.18576750395300101 -0.34289520655585132 0 0.19681624799010419 -0.3046205895546848 0 0.19289198861460641 -0.31735712627507329 0 0.17716558355049511 -0.31609840739628259 0 0.19769146023002299 -0.33681262913348342 0 0.19289198861460641 -0.31735712627507329 0 0.17716558355049511 -0.31609840739628259 0 0.19769146023002299 -0.33681262913348342 0 0.20243030224790981 -0.32325915159082957 0 0.19289198861460641 -0.31735712627507329 0 0.20328077610347409 -0.31549770903855229 0 0.20243030224790981 -0.32325915159082957 0 0.19289198861460641 -0.31735712627507329 0 0.19769146023002299 -0.33681262913348342 0 0.17716558355049511 -0.31609840739628259 0 0.18332918138236859 -0.33105732300925489 0 0.19769146023002299 -0.33681262913348342 0 0.17716558355049511 -0.31609840739628259 0 0.17716558355049511 -0.31609840739628259 0 0.1746163605792127 -0.31758739098723859 0 0.17719854247078609 -0.32528266855403137 0 0.17716558355049511 -0.31609840739628259 0 0.1746163605792127 -0.31758739098723859 0 0.17716558355049511 -0.31609840739628259 0 0.17719854247078609 -0.32528266855403137 0 0.18332918138236859 -0.33105732300925489 0 0.1746163605792127 -0.31758739098723859 0 0.17719854247078609 -0.32528266855403137 0 0.16811642414597211 -0.32405349929715782 0 0.17719854247078609 -0.32528266855403137 0 0.1706761488320738 -0.33223914346750638 0 0.16811642414597211 -0.32405349929715782 0 0.18332918138236859 -0.33105732300925489 0 0.18576750395300101 -0.34289520655585132 0 0.17705838359722631 -0.33766788179238461 0 0.17705838359722631 -0.33766788179238461 0 0.1706761488320738 -0.33223914346750638 0 0.17088145830357571 -0.34553077670486188 0 0.18576750395300101 -0.34289520655585132 0 0.17705838359722631 -0.33766788179238461 0 0.17088145830357571 -0.34553077670486188 0 0.17719854247078609 -0.32528266855403137 0 0.17705838359722631 -0.33766788179238461 0 0.1706761488320738 -0.33223914346750638 0 0.17719854247078609 -0.32528266855403137 0 0.18332918138236859 -0.33105732300925489 0 0.17705838359722631 -0.33766788179238461 0 0.1706761488320738 -0.33223914346750638 0 0.15755386119426379 -0.32952811949369432 0 0.17088145830357571 -0.34553077670486188 0 0.15755386119426379 -0.32952811949369432 0 0.15722110124021271 -0.355218353662827 0 0.17088145830357571 -0.34553077670486188 0 0.1706761488320738 -0.33223914346750638 0 0.15755386119426379 -0.32952811949369432 0 0.16811642414597211 -0.32405349929715782 0 0.15755386119426379 -0.32952811949369432 0 0.16053720765352419 -0.31563017398331789 0 0.16811642414597211 -0.32405349929715782 0 0.1746163605792127 -0.31758739098723859 0 0.16053720765352419 -0.31563017398331789 0 0.16811642414597211 -0.32405349929715782 0 0.1893941443990006 -0.35687882958947142 0 0.16492406848319449 -0.37008441691230481 0 0.18232217971076861 -0.38719931784173262 0 0.1893941443990006 -0.35687882958947142 0 0.18576750395300101 -0.34289520655585132 0 0.17088145830357571 -0.34553077670486188 0 0.1893941443990006 -0.35687882958947142 0 0.17088145830357571 -0.34553077670486188 0 0.16492406848319449 -0.37008441691230481 0 0.15722110124021271 -0.355218353662827 0 0.17088145830357571 -0.34553077670486188 0 0.16492406848319449 -0.37008441691230481 0 0.15722110124021271 -0.355218353662827 0 0.16492406848319449 -0.37008441691230481 0 0.14535595171690621 -0.36953241230801859 0 0.15722110124021271 -0.355218353662827 0 0.14535595171690621 -0.36953241230801859 0 0.1427200540586881 -0.34684135342083922 0 0.15755386119426379 -0.32952811949369432 0 0.15722110124021271 -0.355218353662827 0 0.1427200540586881 -0.34684135342083922 0 0.1427200540586881 -0.34684135342083922 0 0.12092835606567599 -0.3598291654768605 0 0.1427200540586881 -0.34684135342083922 0 0.1280813217705386 -0.34366312274795108 0 0.12092835606567599 -0.3598291654768605 0 0.1427200540586881 -0.34684135342083922 0 0.1310527607331442 -0.37055904182967792 0 0.12092835606567599 -0.3598291654768605 0 0.14535595171690621 -0.36953241230801859 0 0.1427200540586881 -0.34684135342083922 0 0.1310527607331442 -0.37055904182967792 0 0.14535595171690621 -0.36953241230801859 0 0.1310527607331442 -0.37055904182967792 0 0.1370705058440562 -0.38152880872420608 0 0.15755386119426379 -0.32952811949369432 0 0.16053720765352419 -0.31563017398331789 0 0.1386820851401564 -0.32191792139293363 0 0.16053720765352419 -0.31563017398331789 0 0.1386820851401564 -0.32191792139293363 0 0.14921501292919251 -0.30660987315736271 0 0.15755386119426379 -0.32952811949369432 0 0.1427200540586881 -0.34684135342083922 0 0.1386820851401564 -0.32191792139293363 0 0.1427200540586881 -0.34684135342083922 0 0.12927028740037819 -0.33237171540210209 0 0.1386820851401564 -0.32191792139293363 0 0.1427200540586881 -0.34684135342083922 0 0.1280813217705386 -0.34366312274795108 0 0.12927028740037819 -0.33237171540210209 0 0.1280813217705386 -0.34366312274795108 0 0.12927028740037819 -0.33237171540210209 0 0.1222110792197969 -0.33444780146167091 0 0.12927028740037819 -0.33237171540210209 0 0.1246261330417807 -0.32184534633243028 0 0.12124250472052971 -0.32856753205642508 0 0.12927028740037819 -0.33237171540210209 0 0.1386820851401564 -0.32191792139293363 0 0.1246261330417807 -0.32184534633243028 0 0.1386820851401564 -0.32191792139293363 0 0.12679166890738081 -0.31275036152923619 0 0.13474616074321799 -0.30706838900968442 0 0.1386820851401564 -0.32191792139293363 0 0.12679166890738081 -0.31275036152923619 0 0.1246261330417807 -0.32184534633243028 0 0.12679166890738081 -0.31275036152923619 0 0.13474616074321799 -0.30706838900968442 0 0.1193671048840985 -0.3054297213675749 0 0.13474616074321799 -0.30706838900968442 0 0.1218249651145384 -0.29586802589409322 0 0.1193671048840985 -0.3054297213675749 0 0.13474616074321799 -0.30706838900968442 0 0.13158957615001371 -0.29186646316882242 0 0.1218249651145384 -0.29586802589409322 0 0.13474616074321799 -0.30706838900968442 0 0.14099386617824819 -0.29815963460073119 0 0.13158957615001371 -0.29186646316882242 0 0.1386820851401564 -0.32191792139293363 0 0.13474616074321799 -0.30706838900968442 0 0.14921501292919251 -0.30660987315736271 0 0.14921501292919251 -0.30660987315736271 0 0.14842471489056869 -0.28709381306705528 0 0.1627951492205319 -0.30159611023166899 0 0.14099386617824819 -0.29815963460073119 0 0.14921501292919251 -0.30660987315736271 0 0.14842471489056869 -0.28709381306705528 0 0.13474616074321799 -0.30706838900968442 0 0.14099386617824819 -0.29815963460073119 0 0.14921501292919251 -0.30660987315736271 0 0.14842471489056869 -0.28709381306705528 0 0.1627951492205319 -0.30159611023166899 0 0.14842471489056869 -0.28709381306705528 0 0.1212999226465078 -0.27726957026083732 0 0.14842471489056869 -0.28709381306705528 0 0.13158957615001371 -0.29186646316882242 0 0.1212999226465078 -0.27726957026083732 0 0.14099386617824819 -0.29815963460073119 0 0.14842471489056869 -0.28709381306705528 0 0.13158957615001371 -0.29186646316882242 0 0.14842471489056869 -0.28709381306705528 0 0.12887638776966481 -0.26736611086480999 0 0.14842471489056869 -0.28709381306705528 0 0.12887638776966481 -0.26736611086480999 0 0.1212999226465078 -0.27726957026083732 0 0.12874991848255951 -0.25032773391022978 0 0.13642476653185071 -0.25879042432296168 0 0.14478666825658501 -0.25169129676084329 0 0.12887638776966481 -0.26736611086480999 0 0.13642476653185071 -0.25879042432296168 0 0.14567240371624199 -0.26527415548574101 0 0.12874991848255951 -0.25032773391022978 0 0.13642476653185071 -0.25879042432296168 0 0.1228284943869582 -0.25836741009604719 0 0.12887638776966481 -0.26736611086480999 0 0.13642476653185071 -0.25879042432296168 0 0.1228284943869582 -0.25836741009604719 0 0.13642476653185071 -0.25879042432296168 0 0.14478666825658501 -0.25169129676084329 0 0.14567240371624199 -0.26527415548574101 0 0.14567240371624199 -0.26527415548574101 0 0.15938676369433671 -0.26894057798579252 0 0.1579020857418808 -0.25506212704317299 0 0.14478666825658501 -0.25169129676084329 0 0.14567240371624199 -0.26527415548574101 0 0.1579020857418808 -0.25506212704317299 0 0.14842471489056869 -0.28709381306705528 0 0.12887638776966481 -0.26736611086480999 0 0.14567240371624199 -0.26527415548574101 0 0.14842471489056869 -0.28709381306705528 0 0.14567240371624199 -0.26527415548574101 0 0.15938676369433671 -0.26894057798579252 0 0.14842471489056869 -0.28709381306705528 0 0.15938676369433671 -0.26894057798579252 0 0.1727842733120151 -0.27837303569232869 0 0.15938676369433671 -0.26894057798579252 0 0.17115205436851899 -0.26011559468001821 0 0.1727842733120151 -0.27837303569232869 0 0.15938676369433671 -0.26894057798579252 0 0.1579020857418808 -0.25506212704317299 0 0.17115205436851899 -0.26011559468001821 0 0.1579020857418808 -0.25506212704317299 0 0.17115205436851899 -0.26011559468001821 0 0.16916628393100719 -0.2459741580780867 0 0.17115205436851899 -0.26011559468001821 0 0.18506103992789469 -0.26595144847214952 0 0.18586744723925031 -0.24810812562569079 0 0.17115205436851899 -0.26011559468001821 0 0.18586744723925031 -0.24810812562569079 0 0.16916628393100719 -0.2459741580780867 0 0.1934254977812819 -0.28183494091861411 0 0.18506103992789469 -0.26595144847214952 0 0.1727842733120151 -0.27837303569232869 0 0.17115205436851899 -0.26011559468001821 0 0.18506103992789469 -0.26595144847214952 0 0.1727842733120151 -0.27837303569232869 0 0.1934254977812819 -0.28183494091861411 0 0.1727842733120151 -0.27837303569232869 0 0.1726204814403367 -0.29585720131086929 0 0.19681624799010419 -0.3046205895546848 0 0.1726204814403367 -0.29585720131086929 0 0.19681624799010419 -0.3046205895546848 0 0.17716558355049511 -0.31609840739628259 0 0.1726204814403367 -0.29585720131086929 0 0.19681624799010419 -0.3046205895546848 0 0.17716558355049511 -0.31609840739628259 0 0.17716558355049511 -0.31609840739628259 0 0.1746163605792127 -0.31758739098723859 0 0.1627951492205319 -0.30159611023166899 0 0.1746163605792127 -0.31758739098723859 0 0.16053720765352419 -0.31563017398331789 0 0.1627951492205319 -0.30159611023166899 0 0.17716558355049511 -0.31609840739628259 0 0.1726204814403367 -0.29585720131086929 0 0.1627951492205319 -0.30159611023166899 0 0.17716558355049511 -0.31609840739628259 0 0.1627951492205319 -0.30159611023166899 0 0.16053720765352419 -0.31563017398331789 0 0.14921501292919251 -0.30660987315736271 0 0.1627951492205319 -0.30159611023166899 0 0.14842471489056869 -0.28709381306705528 0 0.1727842733120151 -0.27837303569232869 0 0.1726204814403367 -0.29585720131086929 0 0.14842471489056869 -0.28709381306705528 0 0.1726204814403367 -0.29585720131086929 0 0.14842471489056869 -0.28709381306705528 0 0.1726204814403367 -0.29585720131086929 0 0.1627951492205319 -0.30159611023166899 0 0.1961630141018649 -0.49999999999999728 0 0.19414434172850081 -0.48354812908417849 0 0.20918207101238839 -0.49032807853499949 0 0.1961630141018649 -0.49999999999999728 0 0.19414434172850081 -0.48354812908417849 0 0.19414434172850081 -0.48354812908417849 0 0.19212566935513589 -0.46709625816835981 0 0.21130281155648689 -0.4777843072032279 0 0.19212566935513589 -0.46709625816835981 0 0.19414434172850081 -0.48354812908417849 0 0.21130281155648689 -0.4777843072032279 0 0.19212566935513589 -0.46709625816835981 0 0.21130281155648689 -0.4777843072032279 0 0.2101103076568385 -0.46518999807120182 0 0.19212566935513589 -0.46709625816835981 0 0.19414434172850081 -0.48354812908417849 0 0.21130281155648689 -0.4777843072032279 0 0.20918207101238839 -0.49032807853499949 0 0.21130281155648689 -0.4777843072032279 0 0.22565416047921871 -0.47127217630440049 0 0.2101103076568385 -0.46518999807120182 0 0.21130281155648689 -0.4777843072032279 0 0.20918207101238839 -0.49032807853499949 0 0.21877137552866691 -0.48914618549408068 0 0.1961630141018649 -0.49999999999999728 0 0.20918207101238839 -0.49032807853499949 0 0.22412066578795389 -0.5 0 0.20918207101238839 -0.49032807853499949 0 0.22412066578795389 -0.5 0 0.21877137552866691 -0.48914618549408068 0 0.22412066578795389 -0.5 0 0.21877137552866691 -0.48914618549408068 0 0.23047995375783839 -0.48847235623809521 0 0.21130281155648689 -0.4777843072032279 0 0.21877137552866691 -0.48914618549408068 0 0.23047995375783839 -0.48847235623809521 0 0.25207831747404302 -0.5 0 0.23047995375783839 -0.48847235623809521 0 0.2480039747190734 -0.48433679620794678 0 0.25207831747404302 -0.5 0 0.22412066578795389 -0.5 0 0.23047995375783839 -0.48847235623809521 0 0.23047995375783839 -0.48847235623809521 0 0.2480039747190734 -0.48433679620794678 0 0.2416057505057321 -0.47380063814449702 0 0.25299251019630348 -0.4742739009488256 0 0.2416057505057321 -0.47380063814449702 0 0.24874630441970849 -0.46242614125981518 0 0.25299251019630348 -0.4742739009488256 0 0.2480039747190734 -0.48433679620794678 0 0.2416057505057321 -0.47380063814449702 0 0.2416057505057321 -0.47380063814449702 0 0.22565416047921871 -0.47127217630440049 0 0.23497310108482891 -0.46325730404263732 0 0.21130281155648689 -0.4777843072032279 0 0.23047995375783839 -0.48847235623809521 0 0.22565416047921871 -0.47127217630440049 0 0.23047995375783839 -0.48847235623809521 0 0.2416057505057321 -0.47380063814449702 0 0.22565416047921871 -0.47127217630440049 0 0.21130281155648689 -0.4777843072032279 0 0.23047995375783839 -0.48847235623809521 0 0.22565416047921871 -0.47127217630440049 0 0.2214637710527475 -0.45752828056064071 0 0.2101103076568385 -0.46518999807120182 0 0.2214637710527475 -0.45752828056064071 0 0.23497310108482891 -0.46325730404263732 0 0.23739551896673791 -0.45125928394383352 0 0.22565416047921871 -0.47127217630440049 0 0.2214637710527475 -0.45752828056064071 0 0.23497310108482891 -0.46325730404263732 0 0.2416057505057321 -0.47380063814449702 0 0.23497310108482891 -0.46325730404263732 0 0.24874630441970849 -0.46242614125981518 0 0.25571864621363011 -0.44695744237987628 0 0.24874630441970849 -0.46242614125981518 0 0.23739551896673791 -0.45125928394383352 0 0.23497310108482891 -0.46325730404263732 0 0.24874630441970849 -0.46242614125981518 0 0.23739551896673791 -0.45125928394383352 0 0.25261409716154809 -0.43146340861477328 0 0.25571864621363011 -0.44695744237987628 0 0.23971986334940901 -0.43711442997175132 0 0.25571864621363011 -0.44695744237987628 0 0.23739551896673791 -0.45125928394383352 0 0.23971986334940901 -0.43711442997175132 0 0.23739551896673791 -0.45125928394383352 0 0.2219848008352488 -0.44237744841836318 0 0.23971986334940901 -0.43711442997175132 0 0.2214637710527475 -0.45752828056064071 0 0.23739551896673791 -0.45125928394383352 0 0.2219848008352488 -0.44237744841836318 0 0.2219848008352488 -0.44237744841836318 0 0.2056380796466126 -0.43847575811538619 0 0.20476640283402861 -0.45313220837795171 0 0.2214637710527475 -0.45752828056064071 0 0.2219848008352488 -0.44237744841836318 0 0.20476640283402861 -0.45313220837795171 0 0.2214637710527475 -0.45752828056064071 0 0.20476640283402861 -0.45313220837795171 0 0.2101103076568385 -0.46518999807120182 0 0.20476640283402861 -0.45313220837795171 0 0.2101103076568385 -0.46518999807120182 0 0.19212566935513589 -0.46709625816835981 0 0.20476640283402861 -0.45313220837795171 0 0.19212566935513589 -0.46709625816835981 0 0.1887981031303346 -0.43997710266961909 0 0.19212566935513589 -0.46709625816835981 0 0.1887981031303346 -0.43997710266961909 0 0.2056380796466126 -0.43847575811538619 0 0.1887981031303346 -0.43997710266961909 0 0.2056380796466126 -0.43847575811538619 0 0.20476640283402861 -0.45313220837795171 0 0.1887981031303346 -0.43997710266961909 0 0.1887981031303346 -0.43997710266961909 0 0.20093616875273779 -0.42711909416207411 0 0.18556014142055149 -0.41358821025567583 0 0.2056380796466126 -0.43847575811538619 0 0.1887981031303346 -0.43997710266961909 0 0.20093616875273779 -0.42711909416207411 0 0.20093616875273779 -0.42711909416207411 0 0.20956205594894459 -0.41404853852774959 0 0.18556014142055149 -0.41358821025567583 0 0.20956205594894459 -0.41404853852774959 0 0.20567154332249271 -0.39652738081020739 0 0.18556014142055149 -0.41358821025567583 0 0.20956205594894459 -0.41404853852774959 0 0.21526691110337681 -0.42832961890368709 0 0.22448364145790711 -0.41812671085305791 0 0.2219848008352488 -0.44237744841836318 0 0.2056380796466126 -0.43847575811538619 0 0.21526691110337681 -0.42832961890368709 0 0.20093616875273779 -0.42711909416207411 0 0.20956205594894459 -0.41404853852774959 0 0.21526691110337681 -0.42832961890368709 0 0.2056380796466126 -0.43847575811538619 0 0.20093616875273779 -0.42711909416207411 0 0.21526691110337681 -0.42832961890368709 0 0.2219848008352488 -0.44237744841836318 0 0.22924461411991401 -0.42881976492082402 0 0.23971986334940901 -0.43711442997175132 0 0.2219848008352488 -0.44237744841836318 0 0.21526691110337681 -0.42832961890368709 0 0.22924461411991401 -0.42881976492082402 0 0.21526691110337681 -0.42832961890368709 0 0.22924461411991401 -0.42881976492082402 0 0.22448364145790711 -0.41812671085305791 0 0.22924461411991401 -0.42881976492082402 0 0.24005856137526441 -0.41987350724191758 0 0.22448364145790711 -0.41812671085305791 0 0.25261409716154809 -0.43146340861477328 0 0.23971986334940901 -0.43711442997175132 0 0.24005856137526441 -0.41987350724191758 0 0.22924461411991401 -0.42881976492082402 0 0.23971986334940901 -0.43711442997175132 0 0.24005856137526441 -0.41987350724191758 0 0.25534870212305971 -0.42013663171497662 0 0.25261409716154809 -0.43146340861477328 0 0.24005856137526441 -0.41987350724191758 0 0.24005856137526441 -0.41987350724191758 0 0.22808850509081471 -0.40318729104538481 0 0.24990282932322611 -0.40285529692400301 0 0.25534870212305971 -0.42013663171497662 0 0.24005856137526441 -0.41987350724191758 0 0.24990282932322611 -0.40285529692400301 0 0.24005856137526441 -0.41987350724191758 0 0.22448364145790711 -0.41812671085305791 0 0.22808850509081471 -0.40318729104538481 0 0.20956205594894459 -0.41404853852774959 0 0.22448364145790711 -0.41812671085305791 0 0.22808850509081471 -0.40318729104538481 0 0.22808850509081471 -0.40318729104538481 0 0.236771446636203 -0.39239752435106079 0 0.2239542938803816 -0.38183164467116532 0 0.22808850509081471 -0.40318729104538481 0 0.2239542938803816 -0.38183164467116532 0 0.20567154332249271 -0.39652738081020739 0 0.24990282932322611 -0.40285529692400301 0 0.236771446636203 -0.39239752435106079 0 0.2451401582503899 -0.38171586476369018 0 0.22808850509081471 -0.40318729104538481 0 0.24990282932322611 -0.40285529692400301 0 0.236771446636203 -0.39239752435106079 0 0.23664191488640041 -0.3689641259121022 0 0.2451401582503899 -0.38171586476369018 0 0.2239542938803816 -0.38183164467116532 0 0.236771446636203 -0.39239752435106079 0 0.2451401582503899 -0.38171586476369018 0 0.2239542938803816 -0.38183164467116532 0 0.2239542938803816 -0.38183164467116532 0 0.20567154332249271 -0.39652738081020739 0 0.20054990574542961 -0.37909497914268109 0 0.20914645027206499 -0.36589793505711732 0 0.2239542938803816 -0.38183164467116532 0 0.20054990574542961 -0.37909497914268109 0 0.20956205594894459 -0.41404853852774959 0 0.22808850509081471 -0.40318729104538481 0 0.20567154332249271 -0.39652738081020739 0 0.20567154332249271 -0.39652738081020739 0 0.18232217971076861 -0.38719931784173262 0 0.18556014142055149 -0.41358821025567583 0 0.20567154332249271 -0.39652738081020739 0 0.20054990574542961 -0.37909497914268109 0 0.18232217971076861 -0.38719931784173262 0 0.18232217971076861 -0.38719931784173262 0 0.18556014142055149 -0.41358821025567583 0 0.18232217971076861 -0.38719931784173262 0 0.1669921927024938 -0.40778408908310187 0 0.18556014142055149 -0.41358821025567583 0 0.18232217971076861 -0.38719931784173262 0 0.1621972630759867 -0.39057905035084839 0 0.1669921927024938 -0.40778408908310187 0 0.1621972630759867 -0.39057905035084839 0 0.14802252918013781 -0.40313557504012038 0 0.1669921927024938 -0.40778408908310187 0 0.16492406848319449 -0.37008441691230481 0 0.1621972630759867 -0.39057905035084839 0 0.14770410158539701 -0.38559568257026527 0 0.16492406848319449 -0.37008441691230481 0 0.18232217971076861 -0.38719931784173262 0 0.1621972630759867 -0.39057905035084839 0 0.14535595171690621 -0.36953241230801859 0 0.14770410158539701 -0.38559568257026527 0 0.1370705058440562 -0.38152880872420608 0 0.16492406848319449 -0.37008441691230481 0 0.14535595171690621 -0.36953241230801859 0 0.14770410158539701 -0.38559568257026527 0 0.1310527607331442 -0.37055904182967792 0 0.1370705058440562 -0.38152880872420608 0 0.12525039698375379 -0.38658810849349412 0 0.14770410158539701 -0.38559568257026527 0 0.1370705058440562 -0.38152880872420608 0 0.13598931820107979 -0.39536879841957451 0 0.1370705058440562 -0.38152880872420608 0 0.12525039698375379 -0.38658810849349412 0 0.13598931820107979 -0.39536879841957451 0 0.13598931820107979 -0.39536879841957451 0 0.13421905915086371 -0.40629711091538712 0 0.1244407163949231 -0.40056630990786529 0 0.12525039698375379 -0.38658810849349412 0 0.13598931820107979 -0.39536879841957451 0 0.1244407163949231 -0.40056630990786529 0 0.13598931820107979 -0.39536879841957451 0 0.14802252918013781 -0.40313557504012038 0 0.13421905915086371 -0.40629711091538712 0 0.1621972630759867 -0.39057905035084839 0 0.14770410158539701 -0.38559568257026527 0 0.14802252918013781 -0.40313557504012038 0 0.14770410158539701 -0.38559568257026527 0 0.13598931820107979 -0.39536879841957451 0 0.14802252918013781 -0.40313557504012038 0 0.14802252918013781 -0.40313557504012038 0 0.15459873278314351 -0.41964941860532118 0 0.138192201552818 -0.4193833555233244 0 0.14802252918013781 -0.40313557504012038 0 0.13421905915086371 -0.40629711091538712 0 0.138192201552818 -0.4193833555233244 0 0.138192201552818 -0.4193833555233244 0 0.1246907999769041 -0.42486174330011001 0 0.1244505304253599 -0.41303151568605079 0 0.13421905915086371 -0.40629711091538712 0 0.1244505304253599 -0.41303151568605079 0 0.1244407163949231 -0.40056630990786529 0 0.13421905915086371 -0.40629711091538712 0 0.138192201552818 -0.4193833555233244 0 0.1244505304253599 -0.41303151568605079 0 0.1323818029166785 -0.43379904592879198 0 0.1246907999769041 -0.42486174330011001 0 0.1224357618080074 -0.43606252638647508 0 0.138192201552818 -0.4193833555233244 0 0.1323818029166785 -0.43379904592879198 0 0.1246907999769041 -0.42486174330011001 0 0.138192201552818 -0.4193833555233244 0 0.1323818029166785 -0.43379904592879198 0 0.14671188215779879 -0.42993761165739131 0 0.1323818029166785 -0.43379904592879198 0 0.14671188215779879 -0.42993761165739131 0 0.14971824534778 -0.44346121273384997 0 0.15459873278314351 -0.41964941860532118 0 0.138192201552818 -0.4193833555233244 0 0.14671188215779879 -0.42993761165739131 0 0.15459873278314351 -0.41964941860532118 0 0.14671188215779879 -0.42993761165739131 0 0.15816370069489241 -0.43201343757379301 0 0.14671188215779879 -0.42993761165739131 0 0.15816370069489241 -0.43201343757379301 0 0.14971824534778 -0.44346121273384997 0 0.15459873278314351 -0.41964941860532118 0 0.17053146894668211 -0.42529978717067002 0 0.15816370069489241 -0.43201343757379301 0 0.17053146894668211 -0.42529978717067002 0 0.15816370069489241 -0.43201343757379301 0 0.16925817423905709 -0.44171915770173248 0 0.15459873278314351 -0.41964941860532118 0 0.17053146894668211 -0.42529978717067002 0 0.1669921927024938 -0.40778408908310187 0 0.14802252918013781 -0.40313557504012038 0 0.15459873278314351 -0.41964941860532118 0 0.1669921927024938 -0.40778408908310187 0 0.17053146894668211 -0.42529978717067002 0 0.1669921927024938 -0.40778408908310187 0 0.18556014142055149 -0.41358821025567583 0 0.1887981031303346 -0.43997710266961909 0 0.17053146894668211 -0.42529978717067002 0 0.16925817423905709 -0.44171915770173248 0 0.1887981031303346 -0.43997710266961909 0 0.17053146894668211 -0.42529978717067002 0 0.18556014142055149 -0.41358821025567583 0 0.1887981031303346 -0.43997710266961909 0 0.18556014142055149 -0.41358821025567583 0 0.1887981031303346 -0.43997710266961909 0 0.17092195735145779 -0.4552787354511052 0 0.16925817423905709 -0.44171915770173248 0 0.1887981031303346 -0.43997710266961909 0 0.16925817423905709 -0.44171915770173248 0 0.19212566935513589 -0.46709625816835981 0 0.1887981031303346 -0.43997710266961909 0 0.17092195735145779 -0.4552787354511052 0 0.19212566935513589 -0.46709625816835981 0 0.17092195735145779 -0.4552787354511052 0 0.17254610793142169 -0.47784848616872833 0 0.19212566935513589 -0.46709625816835981 0 0.17092195735145779 -0.4552787354511052 0 0.17092195735145779 -0.4552787354511052 0 0.15852472185651501 -0.46866811218758569 0 0.14971824534778 -0.44346121273384997 0 0.17092195735145779 -0.4552787354511052 0 0.15852472185651501 -0.46866811218758569 0 0.17254610793142169 -0.47784848616872833 0 0.15816370069489241 -0.43201343757379301 0 0.16925817423905709 -0.44171915770173248 0 0.14971824534778 -0.44346121273384997 0 0.16925817423905709 -0.44171915770173248 0 0.14971824534778 -0.44346121273384997 0 0.17092195735145779 -0.4552787354511052 0 0.14971824534778 -0.44346121273384997 0 0.17092195735145779 -0.4552787354511052 0 0.16925817423905709 -0.44171915770173248 0 0.14971824534778 -0.44346121273384997 0 0.14971824534778 -0.44346121273384997 0 0.13402497896993529 -0.44486032394945457 0 0.1323818029166785 -0.43379904592879198 0 0.14971824534778 -0.44346121273384997 0 0.14971824534778 -0.44346121273384997 0 0.13402497896993529 -0.44486032394945457 0 0.1415947404165126 -0.46211654165879928 0 0.13402497896993529 -0.44486032394945457 0 0.12708375334841421 -0.45916141858503567 0 0.1183317125920907 -0.44625943516505862 0 0.1323818029166785 -0.43379904592879198 0 0.14971824534778 -0.44346121273384997 0 0.13402497896993529 -0.44486032394945457 0 0.13402497896993529 -0.44486032394945457 0 0.1183317125920907 -0.44625943516505862 0 0.1323818029166785 -0.43379904592879198 0 0.13402497896993529 -0.44486032394945457 0 0.1224357618080074 -0.43606252638647508 0 0.12708375334841421 -0.45916141858503567 0 0.1415947404165126 -0.46211654165879928 0 0.12872326003888451 -0.47821865515914702 0 0.13402497896993529 -0.44486032394945457 0 0.12708375334841421 -0.45916141858503567 0 0.1415947404165126 -0.46211654165879928 0 0.15852472185651501 -0.46866811218758569 0 0.14971824534778 -0.44346121273384997 0 0.1415947404165126 -0.46211654165879928 0 0.15852472185651501 -0.46866811218758569 0 0.1415947404165126 -0.46211654165879928 0 0.150806884864498 -0.48102570313393628 0 0.1415947404165126 -0.46211654165879928 0 0.150806884864498 -0.48102570313393628 0 0.12872326003888451 -0.47821865515914702 0 0.12872326003888451 -0.47821865515914702 0 0.14317418047521521 -0.5 0 0.11667976366189051 -0.5 0 0.150806884864498 -0.48102570313393628 0 0.12872326003888451 -0.47821865515914702 0 0.14317418047521521 -0.5 0 0.150806884864498 -0.48102570313393628 0 0.14317418047521521 -0.5 0 0.16966859728854 -0.5 0 0.150806884864498 -0.48102570313393628 0 0.16966859728854 -0.5 0 0.17254610793142169 -0.47784848616872833 0 0.15852472185651501 -0.46866811218758569 0 0.150806884864498 -0.48102570313393628 0 0.17254610793142169 -0.47784848616872833 0 0.19414434172850081 -0.48354812908417849 0 0.19212566935513589 -0.46709625816835981 0 0.17254610793142169 -0.47784848616872833 0 0.19414434172850081 -0.48354812908417849 0 0.16966859728854 -0.5 0 0.17254610793142169 -0.47784848616872833 0 0.1961630141018649 -0.49999999999999728 0 0.19414434172850081 -0.48354812908417849 0 0.16966859728854 -0.5 0 0.063690930035241067 -0.5 0 0.083138667376203887 -0.48300981566491319 0 0.05906822445965651 -0.47913956825735798 0 0.083138667376203887 -0.48300981566491319 0 0.076291122735780023 -0.46759175197965069 0 0.05906822445965651 -0.47913956825735798 0 0.083138667376203887 -0.48300981566491319 0 0.097897425199853158 -0.46958927189593558 0 0.076291122735780023 -0.46759175197965069 0 0.063690930035241067 -0.5 0 0.083138667376203887 -0.48300981566491319 0 0.090185346848565717 -0.5 0 0.083138667376203887 -0.48300981566491319 0 0.090185346848565717 -0.5 0 0.1053365873907946 -0.48247701384201608 0 0.090185346848565717 -0.5 0 0.11667976366189051 -0.5 0 0.1053365873907946 -0.48247701384201608 0 0.12872326003888451 -0.47821865515914702 0 0.11667976366189051 -0.5 0 0.1053365873907946 -0.48247701384201608 0 0.12872326003888451 -0.47821865515914702 0 0.1053365873907946 -0.48247701384201608 0 0.11274407472464799 -0.46435213699271838 0 0.083138667376203887 -0.48300981566491319 0 0.1053365873907946 -0.48247701384201608 0 0.097897425199853158 -0.46958927189593558 0 0.1053365873907946 -0.48247701384201608 0 0.097897425199853158 -0.46958927189593558 0 0.11274407472464799 -0.46435213699271838 0 0.097897425199853158 -0.46958927189593558 0 0.102036136823415 -0.45169643803602749 0 0.088306620205040348 -0.45772712342124178 0 0.097897425199853158 -0.46958927189593558 0 0.11274407472464799 -0.46435213699271838 0 0.102036136823415 -0.45169643803602749 0 0.12708375334841421 -0.45916141858503567 0 0.11274407472464799 -0.46435213699271838 0 0.1183317125920907 -0.44625943516505862 0 0.11274407472464799 -0.46435213699271838 0 0.1183317125920907 -0.44625943516505862 0 0.102036136823415 -0.45169643803602749 0 0.12708375334841421 -0.45916141858503567 0 0.12872326003888451 -0.47821865515914702 0 0.11274407472464799 -0.46435213699271838 0 0.1183317125920907 -0.44625943516505862 0 0.1099311936900961 -0.43771273061624061 0 0.102036136823415 -0.45169643803602749 0 0.13402497896993529 -0.44486032394945457 0 0.1183317125920907 -0.44625943516505862 0 0.1224357618080074 -0.43606252638647508 0 0.1183317125920907 -0.44625943516505862 0 0.1099311936900961 -0.43771273061624061 0 0.1224357618080074 -0.43606252638647508 0 0.1099311936900961 -0.43771273061624061 0 0.102036136823415 -0.45169643803602749 0 0.097261759637763248 -0.43650498048741199 0 0.102036136823415 -0.45169643803602749 0 0.089914904177404997 -0.44642124658024362 0 0.097261759637763248 -0.43650498048741199 0 0.089914904177404997 -0.44642124658024362 0 0.084479763477808334 -0.43518070505018791 0 0.097261759637763248 -0.43650498048741199 0 0.089914904177404997 -0.44642124658024362 0 0.076221677223334353 -0.44887907208892058 0 0.084479763477808334 -0.43518070505018791 0 0.089914904177404997 -0.44642124658024362 0 0.088306620205040348 -0.45772712342124178 0 0.076221677223334353 -0.44887907208892058 0 0.102036136823415 -0.45169643803602749 0 0.089914904177404997 -0.44642124658024362 0 0.088306620205040348 -0.45772712342124178 0 0.097897425199853158 -0.46958927189593558 0 0.088306620205040348 -0.45772712342124178 0 0.076291122735780023 -0.46759175197965069 0 0.088306620205040348 -0.45772712342124178 0 0.076291122735780023 -0.46759175197965069 0 0.076221677223334353 -0.44887907208892058 0 0.076291122735780023 -0.46759175197965069 0 0.057432391192325433 -0.45722514031715811 0 0.05906822445965651 -0.47913956825735798 0 0.076291122735780023 -0.46759175197965069 0 0.076221677223334353 -0.44887907208892058 0 0.057432391192325433 -0.45722514031715811 0 0.062503364938326797 -0.44373340093288127 0 0.076221677223334353 -0.44887907208892058 0 0.057432391192325433 -0.45722514031715811 0 0.062503364938326797 -0.44373340093288127 0 0.076221677223334353 -0.44887907208892058 0 0.071083664221459578 -0.43365866986626139 0 0.076221677223334353 -0.44887907208892058 0 0.071083664221459578 -0.43365866986626139 0 0.084479763477808334 -0.43518070505018791 0 0.071083664221459578 -0.43365866986626139 0 0.065177390526060378 -0.41881562121833549 0 0.079517509627159658 -0.4220835437012565 0 0.062503364938326797 -0.44373340093288127 0 0.071083664221459578 -0.43365866986626139 0 0.056861392495820021 -0.43376484383133251 0 0.071083664221459578 -0.43365866986626139 0 0.065177390526060378 -0.41881562121833549 0 0.056861392495820021 -0.43376484383133251 0 0.065177390526060378 -0.41881562121833549 0 0.076821948681054311 -0.40735677313409141 0 0.065481002431568333 -0.40572448185030591 0 0.065177390526060378 -0.41881562121833549 0 0.076821948681054311 -0.40735677313409141 0 0.079517509627159658 -0.4220835437012565 0 0.076821948681054311 -0.40735677313409141 0 0.090330278014001689 -0.41159061734427882 0 0.087901952693596505 -0.40026425420823841 0 0.076821948681054311 -0.40735677313409141 0 0.090330278014001689 -0.41159061734427882 0 0.079517509627159658 -0.4220835437012565 0 0.090330278014001689 -0.41159061734427882 0 0.092037742936249861 -0.42359221979967687 0 0.079517509627159658 -0.4220835437012565 0 0.092037742936249861 -0.42359221979967687 0 0.079517509627159658 -0.4220835437012565 0 0.084479763477808334 -0.43518070505018791 0 0.071083664221459578 -0.43365866986626139 0 0.079517509627159658 -0.4220835437012565 0 0.084479763477808334 -0.43518070505018791 0 0.092037742936249861 -0.42359221979967687 0 0.084479763477808334 -0.43518070505018791 0 0.097261759637763248 -0.43650498048741199 0 0.092037742936249861 -0.42359221979967687 0 0.097261759637763248 -0.43650498048741199 0 0.1042369379380582 -0.42616337142886851 0 0.1099311936900961 -0.43771273061624061 0 0.097261759637763248 -0.43650498048741199 0 0.1042369379380582 -0.42616337142886851 0 0.1099311936900961 -0.43771273061624061 0 0.11525408270233981 -0.42888187935919458 0 0.1224357618080074 -0.43606252638647508 0 0.1099311936900961 -0.43771273061624061 0 0.1042369379380582 -0.42616337142886851 0 0.11525408270233981 -0.42888187935919458 0 0.1042369379380582 -0.42616337142886851 0 0.11525408270233981 -0.42888187935919458 0 0.1124451333061008 -0.41788400406438281 0 0.11525408270233981 -0.42888187935919458 0 0.1246907999769041 -0.42486174330011001 0 0.1124451333061008 -0.41788400406438281 0 0.11525408270233981 -0.42888187935919458 0 0.1246907999769041 -0.42486174330011001 0 0.1224357618080074 -0.43606252638647508 0 0.1244505304253599 -0.41303151568605079 0 0.11293775877040529 -0.4063398457142669 0 0.1244407163949231 -0.40056630990786529 0 0.1246907999769041 -0.42486174330011001 0 0.1244505304253599 -0.41303151568605079 0 0.1124451333061008 -0.41788400406438281 0 0.1244505304253599 -0.41303151568605079 0 0.1124451333061008 -0.41788400406438281 0 0.11293775877040529 -0.4063398457142669 0 0.1124451333061008 -0.41788400406438281 0 0.11293775877040529 -0.4063398457142669 0 0.10186961671338871 -0.41399051710281198 0 0.11293775877040529 -0.4063398457142669 0 0.10186961671338871 -0.41399051710281198 0 0.1008581183645499 -0.3995736792932934 0 0.1042369379380582 -0.42616337142886851 0 0.1124451333061008 -0.41788400406438281 0 0.10186961671338871 -0.41399051710281198 0 0.092037742936249861 -0.42359221979967687 0 0.1042369379380582 -0.42616337142886851 0 0.10186961671338871 -0.41399051710281198 0 0.090330278014001689 -0.41159061734427882 0 0.092037742936249861 -0.42359221979967687 0 0.10186961671338871 -0.41399051710281198 0 0.090330278014001689 -0.41159061734427882 0 0.10186961671338871 -0.41399051710281198 0 0.1008581183645499 -0.3995736792932934 0 0.1008581183645499 -0.3995736792932934 0 0.092877948092199875 -0.38709134208256929 0 0.087901952693596505 -0.40026425420823841 0 0.1008581183645499 -0.3995736792932934 0 0.11356607895940959 -0.39271866201196792 0 0.10478012777880701 -0.38432822548763829 0 0.11293775877040529 -0.4063398457142669 0 0.1008581183645499 -0.3995736792932934 0 0.11356607895940959 -0.39271866201196792 0 0.11293775877040529 -0.4063398457142669 0 0.11356607895940959 -0.39271866201196792 0 0.1244407163949231 -0.40056630990786529 0 0.12525039698375379 -0.38658810849349412 0 0.11356607895940959 -0.39271866201196792 0 0.1244407163949231 -0.40056630990786529 0 0.11356607895940959 -0.39271866201196792 0 0.1159671378425417 -0.376280536315381 0 0.10478012777880701 -0.38432822548763829 0 0.1310527607331442 -0.37055904182967792 0 0.12525039698375379 -0.38658810849349412 0 0.1159671378425417 -0.376280536315381 0 0.12525039698375379 -0.38658810849349412 0 0.11356607895940959 -0.39271866201196792 0 0.1159671378425417 -0.376280536315381 0 0.1159671378425417 -0.376280536315381 0 0.10478012777880701 -0.38432822548763829 0 0.099136658072663975 -0.37281697753288179 0 0.1008581183645499 -0.3995736792932934 0 0.10478012777880701 -0.38432822548763829 0 0.092877948092199875 -0.38709134208256929 0 0.10478012777880701 -0.38432822548763829 0 0.092877948092199875 -0.38709134208256929 0 0.099136658072663975 -0.37281697753288179 0 0.083562692996211899 -0.37663818422762041 0 0.076970886840440914 -0.38552739507976691 0 0.099136658072663975 -0.37281697753288179 0 0.092877948092199875 -0.38709134208256929 0 0.076970886840440914 -0.38552739507976691 0 0.099136658072663975 -0.37281697753288179 0 0.092877948092199875 -0.38709134208256929 0 0.07953886793107573 -0.39544184862068132 0 0.076970886840440914 -0.38552739507976691 0 0.076970886840440914 -0.38552739507976691 0 0.099136658072663975 -0.37281697753288179 0 0.083562692996211899 -0.37663818422762041 0 0.076970886840440914 -0.38552739507976691 0 0.092877948092199875 -0.38709134208256929 0 0.087901952693596505 -0.40026425420823841 0 0.07953886793107573 -0.39544184862068132 0 0.090330278014001689 -0.41159061734427882 0 0.1008581183645499 -0.3995736792932934 0 0.087901952693596505 -0.40026425420823841 0 0.076821948681054311 -0.40735677313409141 0 0.087901952693596505 -0.40026425420823841 0 0.07953886793107573 -0.39544184862068132 0 0.07953886793107573 -0.39544184862068132 0 0.069655361011686692 -0.39539255950502661 0 0.076970886840440914 -0.38552739507976691 0 0.076821948681054311 -0.40735677313409141 0 0.07953886793107573 -0.39544184862068132 0 0.069655361011686692 -0.39539255950502661 0 0.076821948681054311 -0.40735677313409141 0 0.065481002431568333 -0.40572448185030591 0 0.069655361011686692 -0.39539255950502661 0 0.065481002431568333 -0.40572448185030591 0 0.069655361011686692 -0.39539255950502661 0 0.0605292582431049 -0.3983720386242845 0 0.069655361011686692 -0.39539255950502661 0 0.062509692992270424 -0.39017323620382122 0 0.0605292582431049 -0.3983720386242845 0 0.069655361011686692 -0.39539255950502661 0 0.062509692992270424 -0.39017323620382122 0 0.069711336216446734 -0.38300607177119839 0 0.062509692992270424 -0.39017323620382122 0 0.069711336216446734 -0.38300607177119839 0 0.06248336388254986 -0.37923976072042298 0 0.067292564786811296 -0.37597865157845167 0 0.06248336388254986 -0.37923976072042298 0 0.063145763396454516 -0.37161259532367602 0 0.06248336388254986 -0.37923976072042298 0 0.063145763396454516 -0.37161259532367602 0 0.069711336216446734 -0.38300607177119839 0 0.067292564786811296 -0.37597865157845167 0 0.072935630748394487 -0.37587497852109658 0 0.069711336216446734 -0.38300607177119839 0 0.067292564786811296 -0.37597865157845167 0 0.06248336388254986 -0.37923976072042298 0 0.083562692996211899 -0.37663818422762041 0 0.069711336216446734 -0.38300607177119839 0 0.072935630748394487 -0.37587497852109658 0 0.083562692996211899 -0.37663818422762041 0 0.069711336216446734 -0.38300607177119839 0 0.076970886840440914 -0.38552739507976691 0 0.069655361011686692 -0.39539255950502661 0 0.069711336216446734 -0.38300607177119839 0 0.076970886840440914 -0.38552739507976691 0 0.069655361011686692 -0.39539255950502661 0 0.076970886840440914 -0.38552739507976691 0 0.051301390228860967 -0.37845479525750209 0 0.051716710188780532 -0.39212711711586068 0 0.063145763396454516 -0.37161259532367602 0 0.051716710188780532 -0.39212711711586068 0 0.063145763396454516 -0.37161259532367602 0 0.06248336388254986 -0.37923976072042298 0 0.051716710188780532 -0.39212711711586068 0 0.063145763396454516 -0.37161259532367602 0 0.051301390228860967 -0.37845479525750209 0 0.051716710188780532 -0.39212711711586068 0 0.042162780082560428 -0.38970124798138978 0 0.062509692992270424 -0.39017323620382122 0 0.06248336388254986 -0.37923976072042298 0 0.051716710188780532 -0.39212711711586068 0 0.062509692992270424 -0.39017323620382122 0 0.0605292582431049 -0.3983720386242845 0 0.051716710188780532 -0.39212711711586068 0 0.0605292582431049 -0.3983720386242845 0 0.051716710188780532 -0.39212711711586068 0 0.055221053695935343 -0.40868541676979131 0 0.051716710188780532 -0.39212711711586068 0 0.040287656981106361 -0.41264163890804528 0 0.055221053695935343 -0.40868541676979131 0 0.065481002431568333 -0.40572448185030591 0 0.0605292582431049 -0.3983720386242845 0 0.055221053695935343 -0.40868541676979131 0 0.051716710188780532 -0.39212711711586068 0 0.040287656981106361 -0.41264163890804528 0 0.051716710188780532 -0.39212711711586068 0 0.037043247169135977 -0.39885625393440077 0 0.040287656981106361 -0.41264163890804528 0 0.051716710188780532 -0.39212711711586068 0 0.037043247169135977 -0.39885625393440077 0 0.042162780082560428 -0.38970124798138978 0 0.037043247169135977 -0.39885625393440077 0 0.029519620496295092 -0.40667346069848631 0 0.040287656981106361 -0.41264163890804528 0 0.037043247169135977 -0.39885625393440077 0 0.032395176324101438 -0.38618653516835227 0 0.026727256960861371 -0.3948833149995431 0 0.037043247169135977 -0.39885625393440077 0 0.032395176324101438 -0.38618653516835227 0 0.042162780082560428 -0.38970124798138978 0 0.051301390228860967 -0.37845479525750209 0 0.042162780082560428 -0.38970124798138978 0 0.045770804739284243 -0.36594409984077447 0 0.042162780082560428 -0.38970124798138978 0 0.045770804739284243 -0.36594409984077447 0 0.032395176324101438 -0.38618653516835227 0 0.042162780082560428 -0.38970124798138978 0 0.037231138821534282 -0.37775143357069563 0 0.042162780082560428 -0.38970124798138978 0 0.037231138821534282 -0.37775143357069563 0 0.045770804739284243 -0.36594409984077447 0 0.032395176324101438 -0.38618653516835227 0 0.037231138821534282 -0.37775143357069563 0 0.030996663303414312 -0.37980157726253583 0 0.037231138821534282 -0.37775143357069563 0 0.030996663303414312 -0.37980157726253583 0 0.029394376611617101 -0.37243677632655442 0 0.02513544074438169 -0.37948497014677701 0 0.01955759864092459 -0.37588781475374372 0 0.029394376611617101 -0.37243677632655442 0 0.030996663303414312 -0.37980157726253583 0 0.02513544074438169 -0.37948497014677701 0 0.029394376611617101 -0.37243677632655442 0 0.030996663303414312 -0.37980157726253583 0 0.02513544074438169 -0.37948497014677701 0 0.025930644803610181 -0.38517568386767748 0 0.032395176324101438 -0.38618653516835227 0 0.025930644803610181 -0.38517568386767748 0 0.026727256960861371 -0.3948833149995431 0 0.025930644803610181 -0.38517568386767748 0 0.019515355560954441 -0.38678994639783171 0 0.026727256960861371 -0.3948833149995431 0 0.032395176324101438 -0.38618653516835227 0 0.030996663303414312 -0.37980157726253583 0 0.025930644803610181 -0.38517568386767748 0 0.02513544074438169 -0.37948497014677701 0 0.025930644803610181 -0.38517568386767748 0 0.019515355560954441 -0.38678994639783171 0 0.019515355560954441 -0.38678994639783171 0 0.01955759864092459 -0.37588781475374372 0 0.01510979307518282 -0.38076693103110038 0 0.02513544074438169 -0.37948497014677701 0 0.019515355560954441 -0.38678994639783171 0 0.01955759864092459 -0.37588781475374372 0 0.01955759864092459 -0.37588781475374372 0 0.01510979307518282 -0.38076693103110038 0 0.015234316137830699 -0.37386495934519087 0 0.01510979307518282 -0.38076693103110038 0 0.0072640114682639744 -0.38790134777899682 0 0.015234316137830699 -0.37386495934519087 0 0.0072640114682639744 -0.38790134777899682 0 0.0020668076532185391 -0.3789279601895158 0 0.0098381760256072998 -0.36542639910643138 0 0.0072640114682639744 -0.38790134777899682 0 0.012760827001095321 -0.36277658723557721 0 0.019515355560954441 -0.38678994639783171 0 0.01510979307518282 -0.38076693103110038 0 0.0072640114682639744 -0.38790134777899682 0 -0.0029146005423548731 -0.39167053935053459 0 0.0072640114682639744 -0.38790134777899682 0 0.0020668076532185391 -0.3789279601895158 0 -0.0029146005423548731 -0.39167053935053459 0 0.0072640114682639744 -0.38790134777899682 0 0.0017671959354303159 -0.41302610832241587 0 0.0072640114682639744 -0.38790134777899682 0 0.0017671959354303159 -0.41302610832241587 0 0.0072640114682639744 -0.38790134777899682 0 0.01429703111467248 -0.39798296491424628 0 0.0017671959354303159 -0.41302610832241587 0 0.019515355560954441 -0.38678994639783171 0 0.0072640114682639744 -0.38790134777899682 0 0.01429703111467248 -0.39798296491424628 0 0.01429703111467248 -0.39798296491424628 0 0.016211335647849968 -0.40731410707244359 0 0.0017671959354303159 -0.41302610832241587 0 0.01429703111467248 -0.39798296491424628 0 0.026727256960861371 -0.3948833149995431 0 0.016211335647849968 -0.40731410707244359 0 0.019515355560954441 -0.38678994639783171 0 0.01429703111467248 -0.39798296491424628 0 0.026727256960861371 -0.3948833149995431 0 0.026727256960861371 -0.3948833149995431 0 0.029519620496295092 -0.40667346069848631 0 0.016211335647849968 -0.40731410707244359 0 0.037043247169135977 -0.39885625393440077 0 0.026727256960861371 -0.3948833149995431 0 0.029519620496295092 -0.40667346069848631 0 0.025879565365814941 -0.41678855615166532 0 0.016211335647849968 -0.40731410707244359 0 0.01452060993039111 -0.42415741337912127 0 0.029519620496295092 -0.40667346069848631 0 0.025879565365814941 -0.41678855615166532 0 0.016211335647849968 -0.40731410707244359 0 0.016211335647849968 -0.40731410707244359 0 0.0017671959354303159 -0.41302610832241587 0 0.01452060993039111 -0.42415741337912127 0 0.016211335647849968 -0.40731410707244359 0 0.0017671959354303159 -0.41302610832241587 0 -0.0045755436354636501 -0.44201740554827712 0 0.01452060993039111 -0.42415741337912127 0 0.01520431088671069 -0.43899001791073622 0 -0.0045755436354636501 -0.44201740554827712 0 0.0017671959354303159 -0.41302610832241587 0 0.01452060993039111 -0.42415741337912127 0 0.025879565365814941 -0.41678855615166532 0 0.01452060993039111 -0.42415741337912127 0 0.02885860377343219 -0.43315616070022989 0 0.01452060993039111 -0.42415741337912127 0 0.02885860377343219 -0.43315616070022989 0 0.01520431088671069 -0.43899001791073622 0 0.02885860377343219 -0.43315616070022989 0 0.043454648063068577 -0.43380742678204898 0 0.040287656981106361 -0.41264163890804528 0 0.043454648063068577 -0.43380742678204898 0 0.040287656981106361 -0.41264163890804528 0 0.052200428352398132 -0.42154298950191071 0 0.02885860377343219 -0.43315616070022989 0 0.040287656981106361 -0.41264163890804528 0 0.025879565365814941 -0.41678855615166532 0 0.02885860377343219 -0.43315616070022989 0 0.040287656981106361 -0.41264163890804528 0 0.029519620496295092 -0.40667346069848631 0 0.025879565365814941 -0.41678855615166532 0 0.040287656981106361 -0.41264163890804528 0 0.040287656981106361 -0.41264163890804528 0 0.052200428352398132 -0.42154298950191071 0 0.055221053695935343 -0.40868541676979131 0 0.065177390526060378 -0.41881562121833549 0 0.065481002431568333 -0.40572448185030591 0 0.055221053695935343 -0.40868541676979131 0 0.065177390526060378 -0.41881562121833549 0 0.052200428352398132 -0.42154298950191071 0 0.055221053695935343 -0.40868541676979131 0 0.065177390526060378 -0.41881562121833549 0 0.052200428352398132 -0.42154298950191071 0 0.056861392495820021 -0.43376484383133251 0 0.043454648063068577 -0.43380742678204898 0 0.052200428352398132 -0.42154298950191071 0 0.056861392495820021 -0.43376484383133251 0 0.043454648063068577 -0.43380742678204898 0 0.056861392495820021 -0.43376484383133251 0 0.051526199111418231 -0.44334583278551237 0 0.051526199111418231 -0.44334583278551237 0 0.057432391192325433 -0.45722514031715811 0 0.037379198867550319 -0.44819835206414099 0 0.062503364938326797 -0.44373340093288127 0 0.056861392495820021 -0.43376484383133251 0 0.051526199111418231 -0.44334583278551237 0 0.062503364938326797 -0.44373340093288127 0 0.051526199111418231 -0.44334583278551237 0 0.057432391192325433 -0.45722514031715811 0 0.057432391192325433 -0.45722514031715811 0 0.037379198867550319 -0.44819835206414099 0 0.037287856044733288 -0.47409917603207108 0 0.037379198867550319 -0.44819835206414099 0 0.037287856044733288 -0.47409917603207108 0 0.043454648063068577 -0.43380742678204898 0 0.051526199111418231 -0.44334583278551237 0 0.037379198867550319 -0.44819835206414099 0 0.02885860377343219 -0.43315616070022989 0 0.043454648063068577 -0.43380742678204898 0 0.037379198867550319 -0.44819835206414099 0 0.02885860377343219 -0.43315616070022989 0 0.01520431088671069 -0.43899001791073622 0 0.01742955056575804 -0.45367068249241449 0 0.02885860377343219 -0.43315616070022989 0 0.01742955056575804 -0.45367068249241449 0 0.02885860377343219 -0.43315616070022989 0 0.037379198867550319 -0.44819835206414099 0 0.01742955056575804 -0.45367068249241449 0 -0.0045755436354636501 -0.44201740554827712 0 0.01520431088671069 -0.43899001791073622 0 0.01742955056575804 -0.45367068249241449 0 -0.0045755436354636501 -0.44201740554827712 0 -0.01091828320635994 -0.47100870277413781 0 0.01742955056575804 -0.45367068249241449 0 -0.01091828320635994 -0.47100870277413781 0 0.01742955056575804 -0.45367068249241449 0 0.0139884351183816 -0.47688201441074662 0 0.037379198867550319 -0.44819835206414099 0 0.01742955056575804 -0.45367068249241449 0 0.037287856044733288 -0.47409917603207108 0 0.01742955056575804 -0.45367068249241449 0 0.0139884351183816 -0.47688201441074662 0 0.037287856044733288 -0.47409917603207108 0 0.0139884351183816 -0.47688201441074662 0 0.037196513221916278 -0.50000000000000122 0 0.037287856044733288 -0.47409917603207108 0 -0.01091828320635994 -0.47100870277413781 0 0.0139884351183816 -0.47688201441074662 0 0.0099677452223301266 -0.5 0 0.0139884351183816 -0.47688201441074662 0 0.0099677452223301266 -0.5 0 0.037196513221916278 -0.50000000000000122 0 0.037196513221916278 -0.50000000000000122 0 0.037287856044733288 -0.47409917603207108 0 0.05906822445965651 -0.47913956825735798 0 0.037196513221916278 -0.50000000000000122 0 0.037287856044733288 -0.47409917603207108 0 0.057432391192325433 -0.45722514031715811 0 0.037287856044733288 -0.47409917603207108 0 0.05906822445965651 -0.47913956825735798 0 0.063690930035241067 -0.5 0 0.037196513221916278 -0.50000000000000122 0 0.05906822445965651 -0.47913956825735798 0 0.083852494211603443 -0.28865640679549759 0 0.083829403777193945 -0.30774422741895952 0 0.070055427183160102 -0.29205162429203502 0 0.083852494211603443 -0.28865640679549759 0 0.076270588634479039 -0.28327926410945231 0 0.081407139517005012 -0.28083922223471791 0 0.083852494211603443 -0.28865640679549759 0 0.081407139517005012 -0.28083922223471791 0 0.087322865163162885 -0.2762053184251736 0 0.083852494211603443 -0.28865640679549759 0 0.087322865163162885 -0.2762053184251736 0 0.096809454807961548 -0.28599833879120612 0 0.083852494211603443 -0.28865640679549759 0 0.093906568246635291 -0.29629604896846129 0 0.096809454807961548 -0.28599833879120612 0 0.083829403777193945 -0.30774422741895952 0 0.093906568246635291 -0.29629604896846129 0 0.1005764050872741 -0.30546836508322228 0 0.083852494211603443 -0.28865640679549759 0 0.083829403777193945 -0.30774422741895952 0 0.093906568246635291 -0.29629604896846129 0 0.083829403777193945 -0.30774422741895952 0 0.075929245680920882 -0.30771948922285902 0 0.07983397272817902 -0.31844254386761939 0 0.070055427183160102 -0.29205162429203502 0 0.068214697243528827 -0.31324661523876363 0 0.055871788757544477 -0.29943386321015902 0 0.083829403777193945 -0.30774422741895952 0 0.070055427183160102 -0.29205162429203502 0 0.070055427183160102 -0.29205162429203502 0 0.069998179035150515 -0.31263956131282211 0 0.068214697243528827 -0.31324661523876363 0 0.075929245680920882 -0.30771948922285902 0 0.070055427183160102 -0.29205162429203502 0 0.069998179035150515 -0.31263956131282211 0 0.083829403777193945 -0.30774422741895952 0 0.075929245680920882 -0.30771948922285902 0 0.070055427183160102 -0.29205162429203502 0 0.070055427183160102 -0.29205162429203502 0 0.068214697243528827 -0.31324661523876363 0 0.083852494211603443 -0.28865640679549759 0 0.070055427183160102 -0.29205162429203502 0 0.076270588634479039 -0.28327926410945231 0 0.070055427183160102 -0.29205162429203502 0 0.071325972428209067 -0.27742199591124272 0 0.070055427183160102 -0.29205162429203502 0 0.076270588634479039 -0.28327926410945231 0 0.071325972428209067 -0.27742199591124272 0 0.070055427183160102 -0.29205162429203502 0 0.071325972428209067 -0.27742199591124272 0 0.059194330907700717 -0.27967764701608089 0 0.070055427183160102 -0.29205162429203502 0 0.059194330907700717 -0.27967764701608089 0 0.071325972428209067 -0.27742199591124272 0 0.073251002518219907 -0.25525633518526603 0 0.071325972428209067 -0.27742199591124272 0 0.073251002518219907 -0.25525633518526603 0 0.060502000747777188 -0.27740577115377107 0 0.073251002518219907 -0.25525633518526603 0 0.060502000747777188 -0.27740577115377107 0 0.071325972428209067 -0.27742199591124272 0 0.060502000747777188 -0.27740577115377107 0 0.071325972428209067 -0.27742199591124272 0 0.073251002518219907 -0.25525633518526603 0 0.079964421873547256 -0.26594746472272618 0 0.071325972428209067 -0.27742199591124272 0 0.059194330907700717 -0.27967764701608089 0 0.060502000747777188 -0.27740577115377107 0 0.074711909832417614 -0.27742707131376798 0 0.071325972428209067 -0.27742199591124272 0 0.079964421873547256 -0.26594746472272618 0 0.076270588634479039 -0.28327926410945231 0 0.074711909832417614 -0.27742707131376798 0 0.081407139517005012 -0.28083922223471791 0 0.076270588634479039 -0.28327926410945231 0 0.074711909832417614 -0.27742707131376798 0 0.071325972428209067 -0.27742199591124272 0 0.074711909832417614 -0.27742707131376798 0 0.071325972428209067 -0.27742199591124272 0 0.073251002518219907 -0.25525633518526603 0 0.060502000747777188 -0.27740577115377107 0 0.063404260152664441 -0.2498360761037639 0 0.073251002518219907 -0.25525633518526603 0 0.079964421873547256 -0.26594746472272618 0 0.094839658821390338 -0.25156638523825448 0 0.079964421873547256 -0.26594746472272618 0 0.095450082772816899 -0.26597289803852753 0 0.094839658821390338 -0.25156638523825448 0 0.074711909832417614 -0.27742707131376798 0 0.081407139517005012 -0.28083922223471791 0 0.087322865163162885 -0.2762053184251736 0 0.074711909832417614 -0.27742707131376798 0 0.079964421873547256 -0.26594746472272618 0 0.087322865163162885 -0.2762053184251736 0 0.079964421873547256 -0.26594746472272618 0 0.087322865163162885 -0.2762053184251736 0 0.095450082772816899 -0.26597289803852753 0 0.087322865163162885 -0.2762053184251736 0 0.098400783737968511 -0.27556225337608198 0 0.095450082772816899 -0.26597289803852753 0 0.087322865163162885 -0.2762053184251736 0 0.098400783737968511 -0.27556225337608198 0 0.096809454807961548 -0.28599833879120612 0 0.095450082772816899 -0.26597289803852753 0 0.1036107109575832 -0.2707113256323912 0 0.1123108125839737 -0.26254276229097712 0 0.098400783737968511 -0.27556225337608198 0 0.1082811647355738 -0.27876738882397839 0 0.096809454807961548 -0.28599833879120612 0 0.1036107109575832 -0.2707113256323912 0 0.1082811647355738 -0.27876738882397839 0 0.1123108125839737 -0.26254276229097712 0 0.098400783737968511 -0.27556225337608198 0 0.095450082772816899 -0.26597289803852753 0 0.1036107109575832 -0.2707113256323912 0 0.098400783737968511 -0.27556225337608198 0 0.1036107109575832 -0.2707113256323912 0 0.1082811647355738 -0.27876738882397839 0 0.095450082772816899 -0.26597289803852753 0 0.094839658821390338 -0.25156638523825448 0 0.1123108125839737 -0.26254276229097712 0 0.094839658821390338 -0.25156638523825448 0 0.1123108125839737 -0.26254276229097712 0 0.1144660021553132 -0.2453163401376551 0 0.12887638776966481 -0.26736611086480999 0 0.1123108125839737 -0.26254276229097712 0 0.1228284943869582 -0.25836741009604719 0 0.1123108125839737 -0.26254276229097712 0 0.1228284943869582 -0.25836741009604719 0 0.1144660021553132 -0.2453163401376551 0 0.12874991848255951 -0.25032773391022978 0 0.1228284943869582 -0.25836741009604719 0 0.1144660021553132 -0.2453163401376551 0 0.12887638776966481 -0.26736611086480999 0 0.1123108125839737 -0.26254276229097712 0 0.1212999226465078 -0.27726957026083732 0 0.1082811647355738 -0.27876738882397839 0 0.1123108125839737 -0.26254276229097712 0 0.1212999226465078 -0.27726957026083732 0 0.1082811647355738 -0.27876738882397839 0 0.1212999226465078 -0.27726957026083732 0 0.1199189842195274 -0.28682525467317499 0 0.13158957615001371 -0.29186646316882242 0 0.1212999226465078 -0.27726957026083732 0 0.1199189842195274 -0.28682525467317499 0 0.13158957615001371 -0.29186646316882242 0 0.1199189842195274 -0.28682525467317499 0 0.1218249651145384 -0.29586802589409322 0 0.1199189842195274 -0.28682525467317499 0 0.1218249651145384 -0.29586802589409322 0 0.11331237312901341 -0.29086773840956343 0 0.11331237312901341 -0.29086773840956343 0 0.10396226349366711 -0.29299496165276862 0 0.11088761495554419 -0.30057188984017957 0 0.1218249651145384 -0.29586802589409322 0 0.11331237312901341 -0.29086773840956343 0 0.11088761495554419 -0.30057188984017957 0 0.1082811647355738 -0.27876738882397839 0 0.1199189842195274 -0.28682525467317499 0 0.11331237312901341 -0.29086773840956343 0 0.1082811647355738 -0.27876738882397839 0 0.11331237312901341 -0.29086773840956343 0 0.10396226349366711 -0.29299496165276862 0 0.1082811647355738 -0.27876738882397839 0 0.10396226349366711 -0.29299496165276862 0 0.096809454807961548 -0.28599833879120612 0 0.10396226349366711 -0.29299496165276862 0 0.093906568246635291 -0.29629604896846129 0 0.096809454807961548 -0.28599833879120612 0 0.083829403777193945 -0.30774422741895952 0 0.1005764050872741 -0.30546836508322228 0 0.09760338037122776 -0.32343683054588401 0 0.10396226349366711 -0.29299496165276862 0 0.093906568246635291 -0.29629604896846129 0 0.1005764050872741 -0.30546836508322228 0 0.10396226349366711 -0.29299496165276862 0 0.1005764050872741 -0.30546836508322228 0 0.11088761495554419 -0.30057188984017957 0 0.1005764050872741 -0.30546836508322228 0 0.11088761495554419 -0.30057188984017957 0 0.110022328284177 -0.31308404140640261 0 0.11088761495554419 -0.30057188984017957 0 0.1193671048840985 -0.3054297213675749 0 0.110022328284177 -0.31308404140640261 0 0.1193671048840985 -0.3054297213675749 0 0.1190628678541292 -0.31506273822205982 0 0.110022328284177 -0.31308404140640261 0 0.1218249651145384 -0.29586802589409322 0 0.11088761495554419 -0.30057188984017957 0 0.1193671048840985 -0.3054297213675749 0 0.12679166890738081 -0.31275036152923619 0 0.1193671048840985 -0.3054297213675749 0 0.1190628678541292 -0.31506273822205982 0 0.12679166890738081 -0.31275036152923619 0 0.1190628678541292 -0.31506273822205982 0 0.1246261330417807 -0.32184534633243028 0 0.1190628678541292 -0.31506273822205982 0 0.114507104153209 -0.32220422047465458 0 0.1246261330417807 -0.32184534633243028 0 0.1190628678541292 -0.31506273822205982 0 0.110022328284177 -0.31308404140640261 0 0.114507104153209 -0.32220422047465458 0 0.114507104153209 -0.32220422047465458 0 0.12124250472052971 -0.32856753205642508 0 0.11562123024028979 -0.33340646739011748 0 0.114507104153209 -0.32220422047465458 0 0.1246261330417807 -0.32184534633243028 0 0.12124250472052971 -0.32856753205642508 0 0.12927028740037819 -0.33237171540210209 0 0.12124250472052971 -0.32856753205642508 0 0.1222110792197969 -0.33444780146167091 0 0.12124250472052971 -0.32856753205642508 0 0.1222110792197969 -0.33444780146167091 0 0.11562123024028979 -0.33340646739011748 0 0.1280813217705386 -0.34366312274795108 0 0.1222110792197969 -0.33444780146167091 0 0.1186684248597689 -0.34010112670498271 0 0.1280813217705386 -0.34366312274795108 0 0.1186684248597689 -0.34010112670498271 0 0.11868645058387089 -0.34745663711992719 0 0.1222110792197969 -0.33444780146167091 0 0.1186684248597689 -0.34010112670498271 0 0.11562123024028979 -0.33340646739011748 0 0.1113773569652622 -0.33912943367280779 0 0.11868645058387089 -0.34745663711992719 0 0.1186684248597689 -0.34010112670498271 0 0.1113773569652622 -0.33912943367280779 0 0.11868645058387089 -0.34745663711992719 0 0.1186684248597689 -0.34010112670498271 0 0.1113773569652622 -0.33912943367280779 0 0.11562123024028979 -0.33340646739011748 0 0.1113773569652622 -0.33912943367280779 0 0.11562123024028979 -0.33340646739011748 0 0.1113773569652622 -0.33912943367280779 0 0.11562123024028979 -0.33340646739011748 0 0.09760338037122776 -0.32343683054588401 0 0.1113773569652622 -0.33912943367280779 0 0.09760338037122776 -0.32343683054588401 0 0.1113773569652622 -0.33912943367280779 0 0.095845207381714814 -0.34228587391813298 0 0.09760338037122776 -0.32343683054588401 0 0.110022328284177 -0.31308404140640261 0 0.114507104153209 -0.32220422047465458 0 0.09760338037122776 -0.32343683054588401 0 0.1005764050872741 -0.30546836508322228 0 0.110022328284177 -0.31308404140640261 0 0.09760338037122776 -0.32343683054588401 0 0.114507104153209 -0.32220422047465458 0 0.11562123024028979 -0.33340646739011748 0 0.09760338037122776 -0.32343683054588401 0 0.1159671378425417 -0.376280536315381 0 0.12092835606567599 -0.3598291654768605 0 0.099136658072663975 -0.37281697753288179 0 0.12092835606567599 -0.3598291654768605 0 0.099136658072663975 -0.37281697753288179 0 0.1310527607331442 -0.37055904182967792 0 0.1159671378425417 -0.376280536315381 0 0.12092835606567599 -0.3598291654768605 0 0.12092835606567599 -0.3598291654768605 0 0.10951976933364201 -0.35542320455053827 0 0.099136658072663975 -0.37281697753288179 0 0.1113773569652622 -0.33912943367280779 0 0.10951976933364201 -0.35542320455053827 0 0.11868645058387089 -0.34745663711992719 0 0.1280813217705386 -0.34366312274795108 0 0.12092835606567599 -0.3598291654768605 0 0.11868645058387089 -0.34745663711992719 0 0.12092835606567599 -0.3598291654768605 0 0.10951976933364201 -0.35542320455053827 0 0.11868645058387089 -0.34745663711992719 0 0.1113773569652622 -0.33912943367280779 0 0.10951976933364201 -0.35542320455053827 0 0.097470024980737105 -0.35788380895021421 0 0.1113773569652622 -0.33912943367280779 0 0.097470024980737105 -0.35788380895021421 0 0.1113773569652622 -0.33912943367280779 0 0.095845207381714814 -0.34228587391813298 0 0.097470024980737105 -0.35788380895021421 0 0.095845207381714814 -0.34228587391813298 0 0.097470024980737105 -0.35788380895021421 0 0.088457107489110162 -0.35293343144524358 0 0.10951976933364201 -0.35542320455053827 0 0.097470024980737105 -0.35788380895021421 0 0.099136658072663975 -0.37281697753288179 0 0.083562692996211899 -0.37663818422762041 0 0.097470024980737105 -0.35788380895021421 0 0.082218796058850116 -0.36110792773869588 0 0.083562692996211899 -0.37663818422762041 0 0.097470024980737105 -0.35788380895021421 0 0.099136658072663975 -0.37281697753288179 0 0.083562692996211899 -0.37663818422762041 0 0.097470024980737105 -0.35788380895021421 0 0.083562692996211899 -0.37663818422762041 0 0.082218796058850116 -0.36110792773869588 0 0.075040872978276954 -0.36805432525548198 0 0.088457107489110162 -0.35293343144524358 0 0.084651895719709339 -0.34407213058076902 0 0.072373343725365746 -0.35316437269226891 0 0.082218796058850116 -0.36110792773869588 0 0.088457107489110162 -0.35293343144524358 0 0.072373343725365746 -0.35316437269226891 0 0.097470024980737105 -0.35788380895021421 0 0.082218796058850116 -0.36110792773869588 0 0.088457107489110162 -0.35293343144524358 0 0.095845207381714814 -0.34228587391813298 0 0.088457107489110162 -0.35293343144524358 0 0.084651895719709339 -0.34407213058076902 0 0.072373343725365746 -0.35316437269226891 0 0.067034284332330801 -0.36463291415246302 0 0.065680230319990957 -0.34242960528121968 0 0.063145763396454516 -0.37161259532367602 0 0.065680230319990957 -0.34242960528121968 0 0.072373343725365746 -0.35316437269226891 0 0.076525599976170491 -0.33927537576750921 0 0.065680230319990957 -0.34242960528121968 0 0.084651895719709339 -0.34407213058076902 0 0.072373343725365746 -0.35316437269226891 0 0.076525599976170491 -0.33927537576750921 0 0.082218796058850116 -0.36110792773869588 0 0.072373343725365746 -0.35316437269226891 0 0.074166824273705897 -0.36173988495972742 0 0.067034284332330801 -0.36463291415246302 0 0.063145763396454516 -0.37161259532367602 0 0.065680230319990957 -0.34242960528121968 0 0.082218796058850116 -0.36110792773869588 0 0.074166824273705897 -0.36173988495972742 0 0.075040872978276954 -0.36805432525548198 0 0.072373343725365746 -0.35316437269226891 0 0.074166824273705897 -0.36173988495972742 0 0.067034284332330801 -0.36463291415246302 0 0.074166824273705897 -0.36173988495972742 0 0.067034284332330801 -0.36463291415246302 0 0.075040872978276954 -0.36805432525548198 0 0.067034284332330801 -0.36463291415246302 0 0.069202906269333619 -0.37103324360750989 0 0.063145763396454516 -0.37161259532367602 0 0.067034284332330801 -0.36463291415246302 0 0.063145763396454516 -0.37161259532367602 0 0.067292564786811296 -0.37597865157845167 0 0.072935630748394487 -0.37587497852109658 0 0.069202906269333619 -0.37103324360750989 0 0.067292564786811296 -0.37597865157845167 0 0.069202906269333619 -0.37103324360750989 0 0.063145763396454516 -0.37161259532367602 0 0.083562692996211899 -0.37663818422762041 0 0.072935630748394487 -0.37587497852109658 0 0.075040872978276954 -0.36805432525548198 0 0.072935630748394487 -0.37587497852109658 0 0.069202906269333619 -0.37103324360750989 0 0.075040872978276954 -0.36805432525548198 0 0.067034284332330801 -0.36463291415246302 0 0.069202906269333619 -0.37103324360750989 0 0.075040872978276954 -0.36805432525548198 0 0.083829403777193945 -0.30774422741895952 0 0.09760338037122776 -0.32343683054588401 0 0.07983397272817902 -0.31844254386761939 0 0.083829403777193945 -0.30774422741895952 0 0.09760338037122776 -0.32343683054588401 0 0.09760338037122776 -0.32343683054588401 0 0.07983397272817902 -0.31844254386761939 0 0.086360637083564479 -0.33075836570362582 0 0.07983397272817902 -0.31844254386761939 0 0.086360637083564479 -0.33075836570362582 0 0.074455829595787087 -0.32603736825886742 0 0.095845207381714814 -0.34228587391813298 0 0.09760338037122776 -0.32343683054588401 0 0.086360637083564479 -0.33075836570362582 0 0.095845207381714814 -0.34228587391813298 0 0.084651895719709339 -0.34407213058076902 0 0.086360637083564479 -0.33075836570362582 0 0.084651895719709339 -0.34407213058076902 0 0.086360637083564479 -0.33075836570362582 0 0.076525599976170491 -0.33927537576750921 0 0.086360637083564479 -0.33075836570362582 0 0.076525599976170491 -0.33927537576750921 0 0.074455829595787087 -0.32603736825886742 0 0.065680230319990957 -0.34242960528121968 0 0.068214697243528827 -0.31324661523876363 0 0.057693435406355867 -0.33129714877339972 0 0.076525599976170491 -0.33927537576750921 0 0.065680230319990957 -0.34242960528121968 0 0.074455829595787087 -0.32603736825886742 0 0.065680230319990957 -0.34242960528121968 0 0.068214697243528827 -0.31324661523876363 0 0.065680230319990957 -0.34242960528121968 0 0.074455829595787087 -0.32603736825886742 0 0.068214697243528827 -0.31324661523876363 0 0.07983397272817902 -0.31844254386761939 0 0.074455829595787087 -0.32603736825886742 0 0.069998179035150515 -0.31263956131282211 0 0.074455829595787087 -0.32603736825886742 0 0.069998179035150515 -0.31263956131282211 0 0.068214697243528827 -0.31324661523876363 0 0.075929245680920882 -0.30771948922285902 0 0.07983397272817902 -0.31844254386761939 0 0.069998179035150515 -0.31263956131282211 0 0.069998179035150515 -0.31263956131282211 0 0.068214697243528827 -0.31324661523876363 0 0.068214697243528827 -0.31324661523876363 0 0.052986854052729709 -0.31842980355954359 0 0.057693435406355867 -0.33129714877339972 0 0.068214697243528827 -0.31324661523876363 0 0.052986854052729709 -0.31842980355954359 0 0.052986854052729709 -0.31842980355954359 0 0.049378829396008038 -0.34218695170015928 0 0.044440665027263883 -0.32956919200554752 0 0.052986854052729709 -0.31842980355954359 0 0.057693435406355867 -0.33129714877339972 0 0.049378829396008038 -0.34218695170015928 0 0.052986854052729709 -0.31842980355954359 0 0.049378829396008038 -0.34218695170015928 0 0.065680230319990957 -0.34242960528121968 0 0.057693435406355867 -0.33129714877339972 0 0.057351702197263731 -0.34310347635431609 0 0.057693435406355867 -0.33129714877339972 0 0.057351702197263731 -0.34310347635431609 0 0.049378829396008038 -0.34218695170015928 0 0.039402382940753461 -0.33669637677542369 0 0.044149122755523379 -0.34901176521814498 0 0.025288106603638179 -0.33858451342644791 0 0.049378829396008038 -0.34218695170015928 0 0.044440665027263883 -0.32956919200554752 0 0.039402382940753461 -0.33669637677542369 0 0.049378829396008038 -0.34218695170015928 0 0.039402382940753461 -0.33669637677542369 0 0.044149122755523379 -0.34901176521814498 0 0.044440665027263883 -0.32956919200554752 0 0.039402382940753461 -0.33669637677542369 0 0.032966668809283672 -0.32524418882955081 0 0.039402382940753461 -0.33669637677542369 0 0.032966668809283672 -0.32524418882955081 0 0.025288106603638179 -0.33858451342644791 0 0.052986854052729709 -0.31842980355954359 0 0.044440665027263883 -0.32956919200554752 0 0.032966668809283672 -0.32524418882955081 0 0.052986854052729709 -0.31842980355954359 0 0.032966668809283672 -0.32524418882955081 0 0.045861696135817809 -0.30284105584516119 0 0.052986854052729709 -0.31842980355954359 0 0.032966668809283672 -0.32524418882955081 0 0.032966668809283672 -0.32524418882955081 0 0.045861696135817809 -0.30284105584516119 0 0.032356749125103897 -0.30993791804674942 0 0.032966668809283672 -0.32524418882955081 0 0.045861696135817809 -0.30284105584516119 0 0.051301390228860967 -0.37845479525750209 0 0.054218068007824929 -0.36812792252110949 0 0.045770804739284243 -0.36594409984077447 0 0.051301390228860967 -0.37845479525750209 0 0.063145763396454516 -0.37161259532367602 0 0.054218068007824929 -0.36812792252110949 0 0.063145763396454516 -0.37161259532367602 0 0.054218068007824929 -0.36812792252110949 0 0.056654313666700033 -0.35650019966248558 0 0.054218068007824929 -0.36812792252110949 0 0.056654313666700033 -0.35650019966248558 0 0.045770804739284243 -0.36594409984077447 0 0.049378829396008038 -0.34218695170015928 0 0.045770804739284243 -0.36594409984077447 0 0.063145763396454516 -0.37161259532367602 0 0.065680230319990957 -0.34242960528121968 0 0.056654313666700033 -0.35650019966248558 0 0.049378829396008038 -0.34218695170015928 0 0.056654313666700033 -0.35650019966248558 0 0.045770804739284243 -0.36594409984077447 0 0.065680230319990957 -0.34242960528121968 0 0.057351702197263731 -0.34310347635431609 0 0.056654313666700033 -0.35650019966248558 0 0.057351702197263731 -0.34310347635431609 0 0.049378829396008038 -0.34218695170015928 0 0.056654313666700033 -0.35650019966248558 0 0.049378829396008038 -0.34218695170015928 0 0.044149122755523379 -0.34901176521814498 0 0.045770804739284243 -0.36594409984077447 0 0.033997890088821543 -0.35749234954956699 0 0.044149122755523379 -0.34901176521814498 0 0.017609544397996651 -0.35192483802334718 0 0.033997890088821543 -0.35749234954956699 0 0.044149122755523379 -0.34901176521814498 0 0.045770804739284243 -0.36594409984077447 0 0.037231138821534282 -0.37775143357069563 0 0.045770804739284243 -0.36594409984077447 0 0.029394376611617101 -0.37243677632655442 0 0.033997890088821543 -0.35749234954956699 0 0.045770804739284243 -0.36594409984077447 0 0.028462088462482469 -0.36308869511600161 0 0.045770804739284243 -0.36594409984077447 0 0.029394376611617101 -0.37243677632655442 0 0.028462088462482469 -0.36308869511600161 0 0.01955759864092459 -0.37588781475374372 0 0.02089682832504984 -0.36880458629683088 0 0.029394376611617101 -0.37243677632655442 0 0.01955759864092459 -0.37588781475374372 0 0.02089682832504984 -0.36880458629683088 0 0.015234316137830699 -0.37386495934519087 0 0.02089682832504984 -0.36880458629683088 0 0.017111158538964371 -0.36696639061262482 0 0.015234316137830699 -0.37386495934519087 0 0.02089682832504984 -0.36880458629683088 0 0.029394376611617101 -0.37243677632655442 0 0.028462088462482469 -0.36308869511600161 0 0.02089682832504984 -0.36880458629683088 0 0.028462088462482469 -0.36308869511600161 0 0.019552662691881641 -0.36241942957290008 0 0.019552662691881641 -0.36241942957290008 0 0.017111158538964371 -0.36696639061262482 0 0.012760827001095321 -0.36277658723557721 0 0.02089682832504984 -0.36880458629683088 0 0.019552662691881641 -0.36241942957290008 0 0.017111158538964371 -0.36696639061262482 0 0.044149122755523379 -0.34901176521814498 0 0.017609544397996651 -0.35192483802334718 0 0.025288106603638179 -0.33858451342644791 0 0.017609544397996651 -0.35192483802334718 0 0.0064188652240442382 -0.34387000388206029 0 0.025288106603638179 -0.33858451342644791 0 0.044149122755523379 -0.34901176521814498 0 0.017609544397996651 -0.35192483802334718 0 0.033997890088821543 -0.35749234954956699 0 0.028462088462482469 -0.36308869511600161 0 0.017609544397996651 -0.35192483802334718 0 0.028462088462482469 -0.36308869511600161 0 0.019552662691881641 -0.36241942957290008 0 0.017609544397996651 -0.35192483802334718 0 0.019552662691881641 -0.36241942957290008 0 0.017609544397996651 -0.35192483802334718 0 0.012760827001095321 -0.36277658723557721 0 0.017609544397996651 -0.35192483802334718 0 0.025288106603638179 -0.33858451342644791 0 -0.0038194374425436009 -0.35427695467727288 0 0.017609544397996651 -0.35192483802334718 0 0.0064188652240442382 -0.34387000388206029 0 -0.0038194374425436009 -0.35427695467727288 0 0.017609544397996651 -0.35192483802334718 0 0.0051109748368537104 -0.35969907599973627 0 -0.0038194374425436009 -0.35427695467727288 0 0.017609544397996651 -0.35192483802334718 0 0.017609544397996651 -0.35192483802334718 0 0.0098381760256072998 -0.36542639910643138 0 0.0051109748368537104 -0.35969907599973627 0 0.017609544397996651 -0.35192483802334718 0 0.0098381760256072998 -0.36542639910643138 0 0.0072640114682639744 -0.38790134777899682 0 0.012760827001095321 -0.36277658723557721 0 0.015234316137830699 -0.37386495934519087 0 0.0072640114682639744 -0.38790134777899682 0 0.0098381760256072998 -0.36542639910643138 0 0.012760827001095321 -0.36277658723557721 0 0.017609544397996651 -0.35192483802334718 0 0.0098381760256072998 -0.36542639910643138 0 0.012760827001095321 -0.36277658723557721 0 -0.0031843836336449141 -0.36716811219189388 0 0.0098381760256072998 -0.36542639910643138 0 0.0051109748368537104 -0.35969907599973627 0 0.0020668076532185391 -0.3789279601895158 0 0.0098381760256072998 -0.36542639910643138 0 -0.0031843836336449141 -0.36716811219189388 0 0.0020668076532185391 -0.3789279601895158 0 0.0098381760256072998 -0.36542639910643138 0 0.017111158538964371 -0.36696639061262482 0 0.012760827001095321 -0.36277658723557721 0 0.015234316137830699 -0.37386495934519087 0 0.032966668809283672 -0.32524418882955081 0 0.020988168396785981 -0.32094176118760021 0 0.013318022595090569 -0.33193211122935601 0 0.020988168396785981 -0.32094176118760021 0 0.01179682656197812 -0.31448435079606968 0 0.021865922582043739 -0.31125755747731287 0 0.032966668809283672 -0.32524418882955081 0 0.020988168396785981 -0.32094176118760021 0 0.032356749125103897 -0.30993791804674942 0 0.020988168396785981 -0.32094176118760021 0 0.021865922582043739 -0.31125755747731287 0 0.032356749125103897 -0.30993791804674942 0 0.032966668809283672 -0.32524418882955081 0 0.013318022595090569 -0.33193211122935601 0 0.032966668809283672 -0.32524418882955081 0 0.025288106603638179 -0.33858451342644791 0 0.013318022595090569 -0.33193211122935601 0 0.032966668809283672 -0.32524418882955081 0 0.025288106603638179 -0.33858451342644791 0 -0.0063306236191043898 -0.33862003362915588 0 0.013318022595090569 -0.33193211122935601 0 0.0094451146864226107 -0.32360211764316632 0 -0.0023950513030178838 -0.32446824470888092 0 -0.0063306236191043898 -0.33862003362915588 0 0.0094451146864226107 -0.32360211764316632 0 -0.0063306236191043898 -0.33862003362915588 0 0.013318022595090569 -0.33193211122935601 0 -0.0063306236191043898 -0.33862003362915588 0 0.0064188652240442382 -0.34387000388206029 0 0.013318022595090569 -0.33193211122935601 0 -0.0063306236191043898 -0.33862003362915588 0 0.0094451146864226107 -0.32360211764316632 0 0.0064188652240442382 -0.34387000388206029 0 0.025288106603638179 -0.33858451342644791 0 0.013318022595090569 -0.33193211122935601 0 -0.0023950513030178838 -0.32446824470888092 0 0.0094451146864226107 -0.32360211764316632 0 0.00316616829166068 -0.31649898778082353 0 0.020988168396785981 -0.32094176118760021 0 0.013318022595090569 -0.33193211122935601 0 0.0094451146864226107 -0.32360211764316632 0 0.020988168396785981 -0.32094176118760021 0 0.0094451146864226107 -0.32360211764316632 0 0.01179682656197812 -0.31448435079606968 0 0.0094451146864226107 -0.32360211764316632 0 0.01179682656197812 -0.31448435079606968 0 0.00316616829166068 -0.31649898778082353 0 -0.006874801029324893 -0.31640872816515009 0 0.00316616829166068 -0.31649898778082353 0 0.0038587525422454482 -0.3035314975908503 0 0.01179682656197812 -0.31448435079606968 0 0.0038587525422454482 -0.3035314975908503 0 0.02165303375620482 -0.29075764189417752 0 0.01179682656197812 -0.31448435079606968 0 0.00316616829166068 -0.31649898778082353 0 0.0038587525422454482 -0.3035314975908503 0 0.0038587525422454482 -0.3035314975908503 0 0.005503686992996748 -0.28867369798978548 0 0.02165303375620482 -0.29075764189417752 0 0.005503686992996748 -0.28867369798978548 0 0.02165303375620482 -0.29075764189417752 0 0.014163146408666019 -0.2773363108211474 0 -0.0044967316446123057 -0.29443944060922089 0 0.0038587525422454482 -0.3035314975908503 0 0.005503686992996748 -0.28867369798978548 0 0.02165303375620482 -0.29075764189417752 0 0.034340004937217623 -0.29355187601294203 0 0.02722019918409541 -0.27735588288959312 0 0.02165303375620482 -0.29075764189417752 0 0.014163146408666019 -0.2773363108211474 0 0.02165303375620482 -0.29075764189417752 0 0.02722019918409541 -0.27735588288959312 0 0.014163146408666019 -0.2773363108211474 0 0.02165303375620482 -0.29075764189417752 0 0.02722019918409541 -0.27735588288959312 0 0.02165303375620482 -0.29075764189417752 0 0.032356749125103897 -0.30993791804674942 0 0.034340004937217623 -0.29355187601294203 0 0.01179682656197812 -0.31448435079606968 0 0.02165303375620482 -0.29075764189417752 0 0.021865922582043739 -0.31125755747731287 0 0.02165303375620482 -0.29075764189417752 0 0.032356749125103897 -0.30993791804674942 0 0.02165303375620482 -0.29075764189417752 0 0.021865922582043739 -0.31125755747731287 0 0.032356749125103897 -0.30993791804674942 0 0.01179682656197812 -0.31448435079606968 0 0.02165303375620482 -0.29075764189417752 0 0.045861696135817809 -0.30284105584516119 0 0.032356749125103897 -0.30993791804674942 0 0.034340004937217623 -0.29355187601294203 0 0.034340004937217623 -0.29355187601294203 0 0.044608346484865752 -0.28686688138902888 0 0.02722019918409541 -0.27735588288959312 0 0.045861696135817809 -0.30284105584516119 0 0.034340004937217623 -0.29355187601294203 0 0.044608346484865752 -0.28686688138902888 0 0.055871788757544477 -0.29943386321015902 0 0.059194330907700717 -0.27967764701608089 0 0.045861696135817809 -0.30284105584516119 0 0.044608346484865752 -0.28686688138902888 0 0.059194330907700717 -0.27967764701608089 0 0.045861696135817809 -0.30284105584516119 0 0.055871788757544477 -0.29943386321015902 0 0.059194330907700717 -0.27967764701608089 0 0.045861696135817809 -0.30284105584516119 0 0.059194330907700717 -0.27967764701608089 0 0.070055427183160102 -0.29205162429203502 0 0.055871788757544477 -0.29943386321015902 0 0.059194330907700717 -0.27967764701608089 0 0.044608346484865752 -0.28686688138902888 0 0.059194330907700717 -0.27967764701608089 0 0.057195871799816597 -0.27740081538134592 0 0.052986854052729709 -0.31842980355954359 0 0.055871788757544477 -0.29943386321015902 0 0.068214697243528827 -0.31324661523876363 0 0.052986854052729709 -0.31842980355954359 0 0.055871788757544477 -0.29943386321015902 0 0.052986854052729709 -0.31842980355954359 0 0.045861696135817809 -0.30284105584516119 0 0.055871788757544477 -0.29943386321015902 0 0.055571809743940707 -0.26288319257026171 0 0.060502000747777188 -0.27740577115377107 0 0.063404260152664441 -0.2498360761037639 0 0.060502000747777188 -0.27740577115377107 0 0.063404260152664441 -0.2498360761037639 0 0.050770385391593398 -0.26287140684995602 0 0.050179246030088151 -0.25323858558102602 0 0.055571809743940707 -0.26288319257026171 0 0.050770385391593398 -0.26287140684995602 0 0.050179246030088151 -0.25323858558102602 0 0.040134613992528122 -0.257963033867189 0 0.050179246030088151 -0.25323858558102602 0 0.055571809743940707 -0.26288319257026171 0 0.063404260152664441 -0.2498360761037639 0 0.057195871799816597 -0.27740081538134592 0 0.040134613992528122 -0.257963033867189 0 0.050770385391593398 -0.26287140684995602 0 0.057195871799816597 -0.27740081538134592 0 0.040134613992528122 -0.257963033867189 0 0.055571809743940707 -0.26288319257026171 0 0.060502000747777188 -0.27740577115377107 0 0.057195871799816597 -0.27740081538134592 0 0.060502000747777188 -0.27740577115377107 0 0.057195871799816597 -0.27740081538134592 0 0.059194330907700717 -0.27967764701608089 0 0.060502000747777188 -0.27740577115377107 0 0.059194330907700717 -0.27967764701608089 0 0.060502000747777188 -0.27740577115377107 0 0.057195871799816597 -0.27740081538134592 0 0.059194330907700717 -0.27967764701608089 0 0.057195871799816597 -0.27740081538134592 0 0.050770385391593398 -0.26287140684995602 0 0.055571809743940707 -0.26288319257026171 0 0.057195871799816597 -0.27740081538134592 0 0.057195871799816597 -0.27740081538134592 0 0.02722019918409541 -0.27735588288959312 0 0.057195871799816597 -0.27740081538134592 0 0.040134613992528122 -0.257963033867189 0 0.02722019918409541 -0.27735588288959312 0 0.044608346484865752 -0.28686688138902888 0 0.057195871799816597 -0.27740081538134592 0 0.02722019918409541 -0.27735588288959312 0 0.038042001206018798 -0.25130471114489578 0 0.02722019918409541 -0.27735588288959312 0 0.040134613992528122 -0.257963033867189 0 0.038042001206018798 -0.25130471114489578 0 0.02722019918409541 -0.27735588288959312 0 0.050179246030088151 -0.25323858558102602 0 0.040134613992528122 -0.257963033867189 0 0.038042001206018798 -0.25130471114489578 0 0.038042001206018798 -0.25130471114489578 0 0.020718600685745169 -0.25938177828881998 0 0.02722019918409541 -0.27735588288959312 0 0.020718600685745169 -0.25938177828881998 0 0.02722019918409541 -0.27735588288959312 0 0.014163146408666019 -0.2773363108211474 0 0.02722019918409541 -0.27735588288959312 0 0.014163146408666019 -0.2773363108211474 0 -0.007659766097520733 -0.27730359903353191 0 0.005503686992996748 -0.28867369798978548 0 0.014163146408666019 -0.2773363108211474 0 0.014163146408666019 -0.2773363108211474 0 0.0011525424753294591 -0.25402225885389901 0 -0.007659766097520733 -0.27730359903353191 0 0.014163146408666019 -0.2773363108211474 0 -0.007659766097520733 -0.27730359903353191 0 0.014163146408666019 -0.2773363108211474 0 0.0011525424753294591 -0.25402225885389901 0 0.020718600685745169 -0.25938177828881998 0 0.014163146408666019 -0.2773363108211474 0 0.0011525424753294591 -0.25402225885389901 0 0.020718600685745169 -0.25938177828881998 0 0.0011525424753294591 -0.25402225885389901 0 0.008727991604793487 -0.2345073506002591 0 -0.01185806145800696 -0.2307082068866507 0 0.008727991604793487 -0.2345073506002591 0 0.0056415927376127703 -0.21380244259047201 0 0.008727991604793487 -0.2345073506002591 0 0.02617339378384799 -0.21915260497452971 0 0.0056415927376127703 -0.21380244259047201 0 0.008727991604793487 -0.2345073506002591 0 0.02617339378384799 -0.21915260497452971 0 0.025762679063326979 -0.23875660441490629 0 0.020718600685745169 -0.25938177828881998 0 0.008727991604793487 -0.2345073506002591 0 0.025762679063326979 -0.23875660441490629 0 0.038042001206018798 -0.25130471114489578 0 0.020718600685745169 -0.25938177828881998 0 0.025762679063326979 -0.23875660441490629 0 -0.009501790685066961 -0.20516733012208491 0 0.0004106526282338385 -0.19734612325876619 0 0.0094537919982438379 -0.20639349148466901 0 0.01211537794078024 -0.19279380757301129 0 0.0004106526282338385 -0.19734612325876619 0 0.0037925995437396161 -0.18550716017365751 0 0.01211537794078024 -0.19279380757301129 0 0.0004106526282338385 -0.19734612325876619 0 0.0094537919982438379 -0.20639349148466901 0 0.0056415927376127703 -0.21380244259047201 0 0.0094537919982438379 -0.20639349148466901 0 0.02817138372655717 -0.19423456817049539 0 0.02617339378384799 -0.21915260497452971 0 0.0056415927376127703 -0.21380244259047201 0 0.02817138372655717 -0.19423456817049539 0 0.0056415927376127703 -0.21380244259047201 0 0.02817138372655717 -0.19423456817049539 0 0.01211537794078024 -0.19279380757301129 0 0.02817138372655717 -0.19423456817049539 0 0.01874846180712671 -0.18048769477746809 0 0.01211537794078024 -0.19279380757301129 0 0.0094537919982438379 -0.20639349148466901 0 0.02817138372655717 -0.19423456817049539 0 0.02817138372655717 -0.19423456817049539 0 0.041376977395099469 -0.20676507638300831 0 0.046998831091772497 -0.19279020513863859 0 0.02617339378384799 -0.21915260497452971 0 0.041376977395099469 -0.20676507638300831 0 0.04886380322794235 -0.22525353940019871 0 0.02617339378384799 -0.21915260497452971 0 0.02817138372655717 -0.19423456817049539 0 0.041376977395099469 -0.20676507638300831 0 0.059685605249865908 -0.19920236765550151 0 0.04886380322794235 -0.22525353940019871 0 0.065449493087007329 -0.21395278746296301 0 0.041376977395099469 -0.20676507638300831 0 0.059685605249865908 -0.19920236765550151 0 0.04886380322794235 -0.22525353940019871 0 0.059685605249865908 -0.19920236765550151 0 0.04886380322794235 -0.22525353940019871 0 0.041376977395099469 -0.20676507638300831 0 0.059685605249865908 -0.19920236765550151 0 0.046998831091772497 -0.19279020513863859 0 0.059685605249865908 -0.19920236765550151 0 0.046998831091772497 -0.19279020513863859 0 0.057114433675252381 -0.18527595302693031 0 0.038042001206018798 -0.25130471114489578 0 0.025762679063326979 -0.23875660441490629 0 0.04886380322794235 -0.22525353940019871 0 0.038042001206018798 -0.25130471114489578 0 0.04886380322794235 -0.22525353940019871 0 0.038042001206018798 -0.25130471114489578 0 0.04886380322794235 -0.22525353940019871 0 0.053086574268507943 -0.2429487367970993 0 0.02617339378384799 -0.21915260497452971 0 0.025762679063326979 -0.23875660441490629 0 0.04886380322794235 -0.22525353940019871 0 0.04886380322794235 -0.22525353940019871 0 0.058899830333645459 -0.23336936709239761 0 0.053086574268507943 -0.2429487367970993 0 0.04886380322794235 -0.22525353940019871 0 0.059724064262503228 -0.22427056417998981 0 0.065449493087007329 -0.21395278746296301 0 0.04886380322794235 -0.22525353940019871 0 0.059724064262503228 -0.22427056417998981 0 0.058899830333645459 -0.23336936709239761 0 0.059724064262503228 -0.22427056417998981 0 0.058899830333645459 -0.23336936709239761 0 0.067591008159021346 -0.2222683064575432 0 0.058899830333645459 -0.23336936709239761 0 0.053086574268507943 -0.2429487367970993 0 0.063404260152664441 -0.2498360761037639 0 0.050179246030088151 -0.25323858558102602 0 0.038042001206018798 -0.25130471114489578 0 0.053086574268507943 -0.2429487367970993 0 0.050179246030088151 -0.25323858558102602 0 0.053086574268507943 -0.2429487367970993 0 0.063404260152664441 -0.2498360761037639 0 0.073251002518219907 -0.25525633518526603 0 0.063404260152664441 -0.2498360761037639 0 0.075624874572115863 -0.22792250657323959 0 0.073251002518219907 -0.25525633518526603 0 0.075624874572115863 -0.22792250657323959 0 0.063404260152664441 -0.2498360761037639 0 0.067591008159021346 -0.2222683064575432 0 0.058899830333645459 -0.23336936709239761 0 0.063404260152664441 -0.2498360761037639 0 0.067591008159021346 -0.2222683064575432 0 0.073251002518219907 -0.25525633518526603 0 0.086347415442684858 -0.23250332559981751 0 0.075624874572115863 -0.22792250657323959 0 0.073251002518219907 -0.25525633518526603 0 0.086347415442684858 -0.23250332559981751 0 0.073251002518219907 -0.25525633518526603 0 0.094839658821390338 -0.25156638523825448 0 0.086347415442684858 -0.23250332559981751 0 0.086347415442684858 -0.23250332559981751 0 0.09944382836715264 -0.2097503160143708 0 0.086347415442684858 -0.23250332559981751 0 0.075624874572115863 -0.22792250657323959 0 0.08632689056667156 -0.21354913704906581 0 0.063404260152664441 -0.2498360761037639 0 0.075624874572115863 -0.22792250657323959 0 0.067591008159021346 -0.2222683064575432 0 0.075624874572115863 -0.22792250657323959 0 0.067591008159021346 -0.2222683064575432 0 0.065449493087007329 -0.21395278746296301 0 0.059724064262503228 -0.22427056417998981 0 0.067591008159021346 -0.2222683064575432 0 0.065449493087007329 -0.21395278746296301 0 0.065449493087007329 -0.21395278746296301 0 0.077998746626005783 -0.2005886779612128 0 0.071346672923107035 -0.19505723000337069 0 0.075624874572115863 -0.22792250657323959 0 0.077998746626005783 -0.2005886779612128 0 0.075624874572115863 -0.22792250657323959 0 0.065449493087007329 -0.21395278746296301 0 0.077998746626005783 -0.2005886779612128 0 0.065449493087007329 -0.21395278746296301 0 0.077998746626005783 -0.2005886779612128 0 0.059685605249865908 -0.19920236765550151 0 0.065449493087007329 -0.21395278746296301 0 0.071346672923107035 -0.19505723000337069 0 0.059685605249865908 -0.19920236765550151 0 0.071346672923107035 -0.19505723000337069 0 0.07050740727179039 -0.17315119591080469 0 0.077998746626005783 -0.2005886779612128 0 0.071346672923107035 -0.19505723000337069 0 0.078441233238131097 -0.19549368844859211 0 0.071346672923107035 -0.19505723000337069 0 0.078441233238131097 -0.19549368844859211 0 0.081526646112886653 -0.18270599373381599 0 0.077998746626005783 -0.2005886779612128 0 0.094630358014389779 -0.19633729884901399 0 0.096693687997389907 -0.1806798249892293 0 0.077998746626005783 -0.2005886779612128 0 0.078441233238131097 -0.19549368844859211 0 0.096693687997389907 -0.1806798249892293 0 0.077998746626005783 -0.2005886779612128 0 0.096693687997389907 -0.1806798249892293 0 0.077998746626005783 -0.2005886779612128 0 0.078441233238131097 -0.19549368844859211 0 0.075624874572115863 -0.22792250657323959 0 0.077998746626005783 -0.2005886779612128 0 0.08632689056667156 -0.21354913704906581 0 0.077998746626005783 -0.2005886779612128 0 0.08632689056667156 -0.21354913704906581 0 0.094630358014389779 -0.19633729884901399 0 0.086347415442684858 -0.23250332559981751 0 0.08632689056667156 -0.21354913704906581 0 0.09944382836715264 -0.2097503160143708 0 0.08632689056667156 -0.21354913704906581 0 0.09944382836715264 -0.2097503160143708 0 0.094630358014389779 -0.19633729884901399 0 0.09944382836715264 -0.2097503160143708 0 0.094630358014389779 -0.19633729884901399 0 0.11254024129162241 -0.18699730642892501 0 0.094630358014389779 -0.19633729884901399 0 0.11254024129162241 -0.18699730642892501 0 0.1005646016910751 -0.18491398605686171 0 0.09944382836715264 -0.2097503160143708 0 0.11254024129162241 -0.18699730642892501 0 0.09944382836715264 -0.2097503160143708 0 0.12460636947574209 -0.20863968553706061 0 0.11254024129162241 -0.18699730642892501 0 0.09944382836715264 -0.2097503160143708 0 0.12460636947574209 -0.20863968553706061 0 0.11665445730434811 -0.22665385701744331 0 0.11665445730434811 -0.22665385701744331 0 0.1144660021553132 -0.2453163401376551 0 0.12701508539926901 -0.23731035940676529 0 0.11665445730434811 -0.22665385701744331 0 0.1144660021553132 -0.2453163401376551 0 0.1023502724181778 -0.23315804480150831 0 0.12874991848255951 -0.25032773391022978 0 0.1144660021553132 -0.2453163401376551 0 0.12701508539926901 -0.23731035940676529 0 0.094839658821390338 -0.25156638523825448 0 0.1144660021553132 -0.2453163401376551 0 0.1023502724181778 -0.23315804480150831 0 0.094839658821390338 -0.25156638523825448 0 0.086347415442684858 -0.23250332559981751 0 0.1023502724181778 -0.23315804480150831 0 0.09944382836715264 -0.2097503160143708 0 0.11665445730434811 -0.22665385701744331 0 0.1023502724181778 -0.23315804480150831 0 0.086347415442684858 -0.23250332559981751 0 0.09944382836715264 -0.2097503160143708 0 0.1023502724181778 -0.23315804480150831 0 0.10108876113113641 -0.15270188917620761 0 0.098439537604752339 -0.13908239718725951 0 0.1145384306895826 -0.14328367712306081 0 0.098439537604752339 -0.13908239718725951 0 0.089589509229003814 -0.12721512035424451 0 0.1069325287236422 -0.12202814115026039 0 0.098439537604752339 -0.13908239718725951 0 0.1145384306895826 -0.14328367712306081 0 0.1069325287236422 -0.12202814115026039 0 0.1225268611431294 -0.12770441849502481 0 0.1145384306895826 -0.14328367712306081 0 0.1069325287236422 -0.12202814115026039 0 0.1225268611431294 -0.12770441849502481 0 0.1232178624878444 -0.1380051072302525 0 0.1145384306895826 -0.14328367712306081 0 0.10108876113113641 -0.15270188917620761 0 0.1145384306895826 -0.14328367712306081 0 0.11538862936877591 -0.1607709720172476 0 0.1232178624878444 -0.1380051072302525 0 0.1145384306895826 -0.14328367712306081 0 0.13204459326885629 -0.14303349267425741 0 0.11538862936877591 -0.1607709720172476 0 0.13204459326885629 -0.14303349267425741 0 0.1145384306895826 -0.14328367712306081 0 0.11538862936877591 -0.1607709720172476 0 0.13204459326885629 -0.14303349267425741 0 0.11538862936877591 -0.1607709720172476 0 0.1299474116791349 -0.15675501665332611 0 0.11538862936877591 -0.1607709720172476 0 0.1212438264853781 -0.1718761615411252 0 0.096693687997389907 -0.1806798249892293 0 0.11538862936877591 -0.1607709720172476 0 0.1212438264853781 -0.1718761615411252 0 0.1299474116791349 -0.15675501665332611 0 0.1212438264853781 -0.1718761615411252 0 0.11254024129162241 -0.18699730642892501 0 0.13943567124422829 -0.1916761210062384 0 0.1212438264853781 -0.1718761615411252 0 0.11254024129162241 -0.18699730642892501 0 0.1005646016910751 -0.18491398605686171 0 0.1212438264853781 -0.1718761615411252 0 0.11254024129162241 -0.18699730642892501 0 0.1212438264853781 -0.1718761615411252 0 0.096693687997389907 -0.1806798249892293 0 0.1005646016910751 -0.18491398605686171 0 0.094630358014389779 -0.19633729884901399 0 0.096693687997389907 -0.1806798249892293 0 0.1005646016910751 -0.18491398605686171 0 0.11254024129162241 -0.18699730642892501 0 0.1005646016910751 -0.18491398605686171 0 0.10108876113113641 -0.15270188917620761 0 0.11538862936877591 -0.1607709720172476 0 0.092948018320283488 -0.1669610839640274 0 0.11538862936877591 -0.1607709720172476 0 0.096693687997389907 -0.1806798249892293 0 0.11538862936877591 -0.1607709720172476 0 0.092948018320283488 -0.1669610839640274 0 0.11538862936877591 -0.1607709720172476 0 0.096693687997389907 -0.1806798249892293 0 0.092948018320283488 -0.1669610839640274 0 0.092948018320283488 -0.1669610839640274 0 0.07050740727179039 -0.17315119591080469 0 0.080048458250396651 -0.15018315813252439 0 0.092948018320283488 -0.1669610839640274 0 0.07050740727179039 -0.17315119591080469 0 0.10108876113113641 -0.15270188917620761 0 0.092948018320283488 -0.1669610839640274 0 0.080048458250396651 -0.15018315813252439 0 0.092948018320283488 -0.1669610839640274 0 0.081526646112886653 -0.18270599373381599 0 0.07050740727179039 -0.17315119591080469 0 0.096693687997389907 -0.1806798249892293 0 0.092948018320283488 -0.1669610839640274 0 0.081526646112886653 -0.18270599373381599 0 0.078441233238131097 -0.19549368844859211 0 0.096693687997389907 -0.1806798249892293 0 0.081526646112886653 -0.18270599373381599 0 0.071346672923107035 -0.19505723000337069 0 0.081526646112886653 -0.18270599373381599 0 0.07050740727179039 -0.17315119591080469 0 0.059685605249865908 -0.19920236765550151 0 0.07050740727179039 -0.17315119591080469 0 0.07050740727179039 -0.17315119591080469 0 0.060325650452947133 -0.1759597742684689 0 0.07050740727179039 -0.17315119591080469 0 0.066071927739226669 -0.17164266829573541 0 0.060325650452947133 -0.1759597742684689 0 0.07050740727179039 -0.17315119591080469 0 0.057114433675252381 -0.18527595302693031 0 0.060325650452947133 -0.1759597742684689 0 0.07050740727179039 -0.17315119591080469 0 0.066071927739226669 -0.17164266829573541 0 0.064319059085229835 -0.1546912617474647 0 0.07050740727179039 -0.17315119591080469 0 0.064319059085229835 -0.1546912617474647 0 0.080048458250396651 -0.15018315813252439 0 0.07050740727179039 -0.17315119591080469 0 0.080048458250396651 -0.15018315813252439 0 0.064319059085229835 -0.1546912617474647 0 0.071784129729790924 -0.13406800948725681 0 0.053902874783753961 -0.13907072932949849 0 0.064319059085229835 -0.1546912617474647 0 0.080048458250396651 -0.15018315813252439 0 0.071784129729790924 -0.13406800948725681 0 0.10108876113113641 -0.15270188917620761 0 0.098439537604752339 -0.13908239718725951 0 0.080048458250396651 -0.15018315813252439 0 0.089589509229003814 -0.12721512035424451 0 0.071784129729790924 -0.13406800948725681 0 0.079360838544832737 -0.11488290199130451 0 0.080048458250396651 -0.15018315813252439 0 0.089589509229003814 -0.12721512035424451 0 0.080048458250396651 -0.15018315813252439 0 0.089589509229003814 -0.12721512035424451 0 0.071784129729790924 -0.13406800948725681 0 0.098439537604752339 -0.13908239718725951 0 0.080048458250396651 -0.15018315813252439 0 0.089589509229003814 -0.12721512035424451 0 0.071784129729790924 -0.13406800948725681 0 0.053902874783753961 -0.13907072932949849 0 0.063506276807715728 -0.1190018972561699 0 0.053902874783753961 -0.13907072932949849 0 0.041995454778926813 -0.1190674864035835 0 0.063506276807715728 -0.1190018972561699 0 0.053902874783753961 -0.13907072932949849 0 0.063506276807715728 -0.1190018972561699 0 0.053902874783753961 -0.13907072932949849 0 0.044299472759792367 -0.1591395614028272 0 0.064319059085229835 -0.1546912617474647 0 0.053902874783753961 -0.13907072932949849 0 0.044299472759792367 -0.1591395614028272 0 0.053902874783753961 -0.13907072932949849 0 0.038412576185439487 -0.14482439390804891 0 0.044299472759792367 -0.1591395614028272 0 0.038412576185439487 -0.14482439390804891 0 0.044299472759792367 -0.1591395614028272 0 0.024989389118254029 -0.14805050230915451 0 0.044299472759792367 -0.1591395614028272 0 0.024989389118254029 -0.14805050230915451 0 0.044299472759792367 -0.1591395614028272 0 0.032768376643141833 -0.16078011930366759 0 0.024989389118254029 -0.14805050230915451 0 0.038412576185439487 -0.14482439390804891 0 0.026145100964195839 -0.13368348799884899 0 0.041995454778926813 -0.1190674864035835 0 0.038412576185439487 -0.14482439390804891 0 0.041995454778926813 -0.1190674864035835 0 0.053902874783753961 -0.13907072932949849 0 0.038412576185439487 -0.14482439390804891 0 0.041995454778926813 -0.1190674864035835 0 0.046998831091772497 -0.19279020513863859 0 0.057114433675252381 -0.18527595302693031 0 0.050701174715501562 -0.17466669375051891 0 0.059685605249865908 -0.19920236765550151 0 0.07050740727179039 -0.17315119591080469 0 0.057114433675252381 -0.18527595302693031 0 0.066071927739226669 -0.17164266829573541 0 0.060325650452947133 -0.1759597742684689 0 0.050701174715501562 -0.17466669375051891 0 0.057114433675252381 -0.18527595302693031 0 0.060325650452947133 -0.1759597742684689 0 0.050701174715501562 -0.17466669375051891 0 0.066071927739226669 -0.17164266829573541 0 0.064319059085229835 -0.1546912617474647 0 0.044299472759792367 -0.1591395614028272 0 0.066071927739226669 -0.17164266829573541 0 0.050701174715501562 -0.17466669375051891 0 0.044299472759792367 -0.1591395614028272 0 0.066071927739226669 -0.17164266829573541 0 0.044299472759792367 -0.1591395614028272 0 0.044299472759792367 -0.1591395614028272 0 0.032768376643141833 -0.16078011930366759 0 0.038335112935401511 -0.17160365854693729 0 0.032768376643141833 -0.16078011930366759 0 0.038335112935401511 -0.17160365854693729 0 0.02344953175911962 -0.1643267549557515 0 0.050701174715501562 -0.17466669375051891 0 0.044299472759792367 -0.1591395614028272 0 0.038335112935401511 -0.17160365854693729 0 0.044299472759792367 -0.1591395614028272 0 0.038335112935401511 -0.17160365854693729 0 0.02817138372655717 -0.19423456817049539 0 0.050701174715501562 -0.17466669375051891 0 0.02817138372655717 -0.19423456817049539 0 0.046998831091772497 -0.19279020513863859 0 0.050701174715501562 -0.17466669375051891 0 0.02817138372655717 -0.19423456817049539 0 0.050701174715501562 -0.17466669375051891 0 0.038335112935401511 -0.17160365854693729 0 0.02817138372655717 -0.19423456817049539 0 0.038335112935401511 -0.17160365854693729 0 0.01874846180712671 -0.18048769477746809 0 0.038335112935401511 -0.17160365854693729 0 0.01874846180712671 -0.18048769477746809 0 0.02344953175911962 -0.1643267549557515 0 0.032768376643141833 -0.16078011930366759 0 0.02344953175911962 -0.1643267549557515 0 0.024989389118254029 -0.14805050230915451 0 0.01874846180712671 -0.18048769477746809 0 0.02344953175911962 -0.1643267549557515 0 0.0072989480615909662 -0.17078311459403411 0 0.02344953175911962 -0.1643267549557515 0 0.0072989480615909662 -0.17078311459403411 0 0.0047757710166849631 -0.15495779920535821 0 -0.0062686623422660041 -0.1640002743589091 0 0.0072989480615909662 -0.17078311459403411 0 0.0047757710166849631 -0.15495779920535821 0 -0.01023197163334176 -0.17567076170182699 0 0.0072989480615909662 -0.17078311459403411 0 0.0037925995437396161 -0.18550716017365751 0 0.01874846180712671 -0.18048769477746809 0 0.0072989480615909662 -0.17078311459403411 0 0.0037925995437396161 -0.18550716017365751 0 0.01211537794078024 -0.19279380757301129 0 0.01874846180712671 -0.18048769477746809 0 0.0037925995437396161 -0.18550716017365751 0 0.026145100964195839 -0.13368348799884899 0 0.024989389118254029 -0.14805050230915451 0 0.0056793054767144344 -0.13696144321548409 0 0.026145100964195839 -0.13368348799884899 0 0.0056793054767144344 -0.13696144321548409 0 0.01964877926164442 -0.1195136141579738 0 0.038412576185439487 -0.14482439390804891 0 0.026145100964195839 -0.13368348799884899 0 0.024989389118254029 -0.14805050230915451 0 0.02344953175911962 -0.1643267549557515 0 0.024989389118254029 -0.14805050230915451 0 0.0047757710166849631 -0.15495779920535821 0 0.024989389118254029 -0.14805050230915451 0 0.0047757710166849631 -0.15495779920535821 0 0.0056793054767144344 -0.13696144321548409 0 0.024989389118254029 -0.14805050230915451 0 0.0056793054767144344 -0.13696144321548409 0 -0.0080166740234683537 -0.14256639757978601 0 0.0047757710166849631 -0.15495779920535821 0 0.0056793054767144344 -0.13696144321548409 0 0.0056793054767144344 -0.13696144321548409 0 0.0042338053702284167 -0.1162363977784954 0 0.01964877926164442 -0.1195136141579738 0 0.0042338053702284167 -0.1162363977784954 0 0.01964877926164442 -0.1195136141579738 0 0.010356297377474269 -0.099185733868078496 0 0.026145100964195839 -0.13368348799884899 0 0.01964877926164442 -0.1195136141579738 0 0.041995454778926813 -0.1190674864035835 0 0.01964877926164442 -0.1195136141579738 0 0.02779201762839795 -0.10388928554674071 0 0.041995454778926813 -0.1190674864035835 0 0.02779201762839795 -0.10388928554674071 0 0.010356297377474269 -0.099185733868078496 0 0.02138122335153313 -0.088369014404950028 0 0.01964877926164442 -0.1195136141579738 0 0.02779201762839795 -0.10388928554674071 0 0.010356297377474269 -0.099185733868078496 0 -0.00088457709986631931 -0.099648813529125635 0 0.0042338053702284167 -0.1162363977784954 0 0.010356297377474269 -0.099185733868078496 0 -0.00088457709986631931 -0.099648813529125635 0 0.010356297377474269 -0.099185733868078496 0 0.010356297377474269 -0.099185733868078496 0 0.010776486220853559 -0.075657765873576727 0 0.02138122335153313 -0.088369014404950028 0 -0.0069865295907158937 -0.080122972459904573 0 -0.00088457709986631931 -0.099648813529125635 0 0.010776486220853559 -0.075657765873576727 0 -0.00088457709986631931 -0.099648813529125635 0 0.010776486220853559 -0.075657765873576727 0 -0.00088457709986631931 -0.099648813529125635 0 0.010356297377474269 -0.099185733868078496 0 0.010776486220853559 -0.075657765873576727 0 0.00063194016053734893 -0.069900198637516037 0 0.010776486220853559 -0.075657765873576727 0 0.01189989311752745 -0.059796303755116978 0 -0.0069865295907158937 -0.080122972459904573 0 0.00063194016053734893 -0.069900198637516037 0 0.010776486220853559 -0.075657765873576727 0 0.010776486220853559 -0.075657765873576727 0 0.02243754954157241 -0.05166671821802734 0 0.010776486220853559 -0.075657765873576727 0 0.029278072786392339 -0.069821121629179597 0 0.02138122335153313 -0.088369014404950028 0 0.010776486220853559 -0.075657765873576727 0 0.029278072786392339 -0.069821121629179597 0 0.02243754954157241 -0.05166671821802734 0 0.029278072786392339 -0.069821121629179597 0 0.02138122335153313 -0.088369014404950028 0 0.036148217968510102 -0.08121210257747194 0 0.02138122335153313 -0.088369014404950028 0 0.045578333372411142 -0.093310578899117591 0 0.036148217968510102 -0.08121210257747194 0 0.045578333372411142 -0.093310578899117591 0 0.048355242363703803 -0.073347695376640543 0 0.02138122335153313 -0.088369014404950028 0 0.036148217968510102 -0.08121210257747194 0 0.045578333372411142 -0.093310578899117591 0 0.029278072786392339 -0.069821121629179597 0 0.036148217968510102 -0.08121210257747194 0 0.048355242363703803 -0.073347695376640543 0 0.029278072786392339 -0.069821121629179597 0 0.048355242363703803 -0.073347695376640543 0 0.037013645579953951 -0.052797618972571181 0 0.048355242363703803 -0.073347695376640543 0 0.051132151354993417 -0.053384811854163147 0 0.067034264227098614 -0.070347857486100382 0 0.048355242363703803 -0.073347695376640543 0 0.051132151354993417 -0.053384811854163147 0 0.048355242363703803 -0.073347695376640543 0 0.061805044689837642 -0.086562819674785033 0 0.067034264227098614 -0.070347857486100382 0 0.045578333372411142 -0.093310578899117591 0 0.048355242363703803 -0.073347695376640543 0 0.061805044689837642 -0.086562819674785033 0 0.045578333372411142 -0.093310578899117591 0 0.048355242363703803 -0.073347695376640543 0 0.045578333372411142 -0.093310578899117591 0 0.061805044689837642 -0.086562819674785033 0 0.073109678831677891 -0.098933065182841382 0 0.045578333372411142 -0.093310578899117591 0 0.073109678831677891 -0.098933065182841382 0 0.045578333372411142 -0.093310578899117591 0 0.0560474359476828 -0.107578256935428 0 0.073109678831677891 -0.098933065182841382 0 0.045578333372411142 -0.093310578899117591 0 0.0560474359476828 -0.107578256935428 0 0.041995454778926813 -0.1190674864035835 0 0.0560474359476828 -0.107578256935428 0 0.041995454778926813 -0.1190674864035835 0 0.063506276807715728 -0.1190018972561699 0 0.02779201762839795 -0.10388928554674071 0 0.02138122335153313 -0.088369014404950028 0 0.045578333372411142 -0.093310578899117591 0 0.02779201762839795 -0.10388928554674071 0 0.045578333372411142 -0.093310578899117591 0 0.041995454778926813 -0.1190674864035835 0 0.045578333372411142 -0.093310578899117591 0 0.041995454778926813 -0.1190674864035835 0 0.016943432631187829 -0.012275576525860751 0 0.025980169011998889 -0.02151166619217474 0 0.031924566184293318 -0.0090939855058096621 0 0.020027263259778091 0.001710242029100309 0 0.016943432631187829 -0.012275576525860751 0 0.031924566184293318 -0.0090939855058096621 0 0.020027263259778091 0.001710242029100309 0 0.016943432631187829 -0.012275576525860751 0 0.0062808530658921714 -0.0067109580614591784 0 -0.0058121165389141572 -0.00063268993717582878 0 0.0089824762582250452 0.0062625481286675251 0 0.0062808530658921714 -0.0067109580614591784 0 -0.0051397743428687132 -0.01569841135217747 0 0.0062808530658921714 -0.0067109580614591784 0 0.0055197688422246004 -0.018618313456572669 0 0.016943432631187829 -0.012275576525860751 0 0.0062808530658921714 -0.0067109580614591784 0 0.0055197688422246004 -0.018618313456572669 0 0.014134272243794861 -0.021785600501782701 0 0.0055197688422246004 -0.018618313456572669 0 0.0079873747183572454 -0.025401934840661791 0 0.016943432631187829 -0.012275576525860751 0 0.014134272243794861 -0.021785600501782701 0 0.0055197688422246004 -0.018618313456572669 0 -0.002617090876322458 -0.02209514416032652 0 0.0055197688422246004 -0.018618313456572669 0 0.0019199568112456451 -0.026197442332365851 0 0.0055197688422246004 -0.018618313456572669 0 0.0019199568112456451 -0.026197442332365851 0 0.0079873747183572454 -0.025401934840661791 0 -0.00080951620615256174 -0.032262252471264179 0 0.0019199568112456451 -0.026197442332365851 0 0.0054700336557216376 -0.03173565688922101 0 0.0019199568112456451 -0.026197442332365851 0 0.0079873747183572454 -0.025401934840661791 0 0.0054700336557216376 -0.03173565688922101 0 0.0079873747183572454 -0.025401934840661791 0 0.01459529337741788 -0.031764682670032157 0 0.0054700336557216376 -0.03173565688922101 0 0.014134272243794861 -0.021785600501782701 0 0.0079873747183572454 -0.025401934840661791 0 0.01459529337741788 -0.031764682670032157 0 0.025980169011998889 -0.02151166619217474 0 0.02815718516677055 -0.031207287346731821 0 0.01459529337741788 -0.031764682670032157 0 0.014134272243794861 -0.021785600501782701 0 0.025980169011998889 -0.02151166619217474 0 0.01459529337741788 -0.031764682670032157 0 0.016943432631187829 -0.012275576525860751 0 0.014134272243794861 -0.021785600501782701 0 0.025980169011998889 -0.02151166619217474 0 0.02815718516677055 -0.031207287346731821 0 0.025334917251437189 -0.041235226764306958 0 0.036180291276508098 -0.037578945607915692 0 0.025334917251437189 -0.041235226764306958 0 0.0138366451498553 -0.042963385563481518 0 0.02243754954157241 -0.05166671821802734 0 0.02815718516677055 -0.031207287346731821 0 0.025334917251437189 -0.041235226764306958 0 0.01459529337741788 -0.031764682670032157 0 0.025334917251437189 -0.041235226764306958 0 0.01459529337741788 -0.031764682670032157 0 0.0138366451498553 -0.042963385563481518 0 0.01459529337741788 -0.031764682670032157 0 0.00809026503081791 -0.037835343557252453 0 0.0138366451498553 -0.042963385563481518 0 0.01459529337741788 -0.031764682670032157 0 0.00809026503081791 -0.037835343557252453 0 0.0054700336557216376 -0.03173565688922101 0 0.00809026503081791 -0.037835343557252453 0 0.0054700336557216376 -0.03173565688922101 0 0.00088410564189040546 -0.038601573117539208 0 -0.00080951620615256174 -0.032262252471264179 0 0.0054700336557216376 -0.03173565688922101 0 0.00088410564189040546 -0.038601573117539208 0 -0.003607088218716747 -0.045029142316149608 0 0.00088410564189040546 -0.038601573117539208 0 0.0047081223119785649 -0.044854761988527232 0 0.00809026503081791 -0.037835343557252453 0 0.00088410564189040546 -0.038601573117539208 0 0.0047081223119785649 -0.044854761988527232 0 0.00809026503081791 -0.037835343557252453 0 0.0047081223119785649 -0.044854761988527232 0 0.0138366451498553 -0.042963385563481518 0 0.0047081223119785649 -0.044854761988527232 0 0.0138366451498553 -0.042963385563481518 0 0.010204339306344269 -0.050845709668039502 0 0.010776486220853559 -0.075657765873576727 0 0.01189989311752745 -0.059796303755116978 0 0.02243754954157241 -0.05166671821802734 0 0.010204339306344269 -0.050845709668039502 0 0.01189989311752745 -0.059796303755116978 0 0.02243754954157241 -0.05166671821802734 0 0.0138366451498553 -0.042963385563481518 0 0.010204339306344269 -0.050845709668039502 0 0.02243754954157241 -0.05166671821802734 0 -0.00045855248742709991 -0.052759456602357667 0 0.0047081223119785649 -0.044854761988527232 0 0.010204339306344269 -0.050845709668039502 0 -0.003607088218716747 -0.045029142316149608 0 -0.00045855248742709991 -0.052759456602357667 0 0.0047081223119785649 -0.044854761988527232 0 -0.00045855248742709991 -0.052759456602357667 0 0.010204339306344269 -0.050845709668039502 0 0.01189989311752745 -0.059796303755116978 0 0.029278072786392339 -0.069821121629179597 0 0.02243754954157241 -0.05166671821802734 0 0.037013645579953951 -0.052797618972571181 0 0.025334917251437189 -0.041235226764306958 0 0.02243754954157241 -0.05166671821802734 0 0.037013645579953951 -0.052797618972571181 0 0.048355242363703803 -0.073347695376640543 0 0.037013645579953951 -0.052797618972571181 0 0.051132151354993417 -0.053384811854163147 0 0.037013645579953951 -0.052797618972571181 0 0.051132151354993417 -0.053384811854163147 0 0.044553911280643503 -0.04210803179514027 0 0.051132151354993417 -0.053384811854163147 0 0.063262068044675587 -0.041944581489658968 0 0.071924858084440768 -0.05389401198907276 0 0.051132151354993417 -0.053384811854163147 0 0.053909060346283053 -0.033421928331685738 0 0.044553911280643503 -0.04210803179514027 0 0.051132151354993417 -0.053384811854163147 0 0.053909060346283053 -0.033421928331685738 0 0.063262068044675587 -0.041944581489658968 0 0.051132151354993417 -0.053384811854163147 0 0.053909060346283053 -0.033421928331685738 0 0.053909060346283053 -0.033421928331685738 0 0.061942865279893483 -0.02935990533479936 0 0.063262068044675587 -0.041944581489658968 0 0.053909060346283053 -0.033421928331685738 0 0.045239095290473957 -0.032271077850607198 0 0.044553911280643503 -0.04210803179514027 0 0.045239095290473957 -0.032271077850607198 0 0.044553911280643503 -0.04210803179514027 0 0.036180291276508098 -0.037578945607915692 0 0.037013645579953951 -0.052797618972571181 0 0.044553911280643503 -0.04210803179514027 0 0.036180291276508098 -0.037578945607915692 0 0.025334917251437189 -0.041235226764306958 0 0.037013645579953951 -0.052797618972571181 0 0.036180291276508098 -0.037578945607915692 0 0.025980169011998889 -0.02151166619217474 0 0.02815718516677055 -0.031207287346731821 0 0.040071236766408468 -0.023696087431436499 0 0.02815718516677055 -0.031207287346731821 0 0.036180291276508098 -0.037578945607915692 0 0.040071236766408468 -0.023696087431436499 0 0.025980169011998889 -0.02151166619217474 0 0.040071236766408468 -0.023696087431436499 0 0.031924566184293318 -0.0090939855058096621 0 0.045239095290473957 -0.032271077850607198 0 0.040071236766408468 -0.023696087431436499 0 0.052890351672516697 -0.022378843369341019 0 0.045239095290473957 -0.032271077850607198 0 0.036180291276508098 -0.037578945607915692 0 0.040071236766408468 -0.023696087431436499 0 0.061942865279893483 -0.02935990533479936 0 0.052890351672516697 -0.022378843369341019 0 0.064304000322536414 -0.01267121375617049 0 0.053909060346283053 -0.033421928331685738 0 0.045239095290473957 -0.032271077850607198 0 0.052890351672516697 -0.022378843369341019 0 0.053909060346283053 -0.033421928331685738 0 0.061942865279893483 -0.02935990533479936 0 0.052890351672516697 -0.022378843369341019 0 0.040071236766408468 -0.023696087431436499 0 0.052890351672516697 -0.022378843369341019 0 0.047920974878280773 -0.0087021812280023668 0 0.058854773295453799 0.0028445163406619779 0 0.047920974878280773 -0.0087021812280023668 0 0.064304000322536414 -0.01267121375617049 0 0.052890351672516697 -0.022378843369341019 0 0.047920974878280773 -0.0087021812280023668 0 0.064304000322536414 -0.01267121375617049 0 0.040071236766408468 -0.023696087431436499 0 0.047920974878280773 -0.0087021812280023668 0 0.031924566184293318 -0.0090939855058096621 0 0.040604320558105873 0.0099113563135160634 0 0.047920974878280773 -0.0087021812280023668 0 0.031924566184293318 -0.0090939855058096621 0 0.084900520780693961 0.00035878413713994958 0 0.080444241092094623 -0.020233843599098359 0 0.097875728755835639 -0.01163551911884148 0 0.084900520780693961 0.00035878413713994958 0 0.080444241092094623 -0.020233843599098359 0 0.084900520780693961 0.00035878413713994958 0 0.097875728755835639 -0.01163551911884148 0 0.058854773295453799 0.0028445163406619779 0 0.084900520780693961 0.00035878413713994958 0 0.064304000322536414 -0.01267121375617049 0 0.084900520780693961 0.00035878413713994958 0 0.064304000322536414 -0.01267121375617049 0 0.080444241092094623 -0.020233843599098359 0 0.061942865279893483 -0.02935990533479936 0 0.080444241092094623 -0.020233843599098359 0 0.075896557708035411 -0.041248851079403709 0 0.061942865279893483 -0.02935990533479936 0 0.064304000322536414 -0.01267121375617049 0 0.080444241092094623 -0.020233843599098359 0 0.061942865279893483 -0.02935990533479936 0 0.080444241092094623 -0.020233843599098359 0 0.080444241092094623 -0.020233843599098359 0 0.095619245252403853 -0.034517307277788782 0 0.097875728755835639 -0.01163551911884148 0 0.080444241092094623 -0.020233843599098359 0 0.097875728755835639 -0.01163551911884148 0 0.080444241092094623 -0.020233843599098359 0 0.075896557708035411 -0.041248851079403709 0 0.075896557708035411 -0.041248851079403709 0 0.087925645252029561 -0.048908661558351517 0 0.095619245252403853 -0.034517307277788782 0 0.080444241092094623 -0.020233843599098359 0 0.075896557708035411 -0.041248851079403709 0 0.095619245252403853 -0.034517307277788782 0 0.061942865279893483 -0.02935990533479936 0 0.063262068044675587 -0.041944581489658968 0 0.075896557708035411 -0.041248851079403709 0 0.063262068044675587 -0.041944581489658968 0 0.075896557708035411 -0.041248851079403709 0 0.071924858084440768 -0.05389401198907276 0 0.051132151354993417 -0.053384811854163147 0 0.071924858084440768 -0.05389401198907276 0 0.067034264227098614 -0.070347857486100382 0 0.071924858084440768 -0.05389401198907276 0 0.087925645252029561 -0.048908661558351517 0 0.088504039257737824 -0.064539915033801409 0 0.075896557708035411 -0.041248851079403709 0 0.071924858084440768 -0.05389401198907276 0 0.087925645252029561 -0.048908661558351517 0 0.1076835259575299 -0.050343222411690931 0 0.088504039257737824 -0.064539915033801409 0 0.10701231590506979 -0.068430947693931238 0 0.087925645252029561 -0.048908661558351517 0 0.1076835259575299 -0.050343222411690931 0 0.088504039257737824 -0.064539915033801409 0 0.1076835259575299 -0.050343222411690931 0 0.124938698823838 -0.064168876204832512 0 0.13280368845983531 -0.043922981609238618 0 0.1076835259575299 -0.050343222411690931 0 0.10701231590506979 -0.068430947693931238 0 0.124938698823838 -0.064168876204832512 0 0.1076835259575299 -0.050343222411690931 0 0.1153397086078356 -0.02777925036403987 0 0.13280368845983531 -0.043922981609238618 0 0.1153397086078356 -0.02777925036403987 0 0.13280368845983531 -0.043922981609238618 0 0.087925645252029561 -0.048908661558351517 0 0.1076835259575299 -0.050343222411690931 0 0.095619245252403853 -0.034517307277788782 0 0.1076835259575299 -0.050343222411690931 0 0.095619245252403853 -0.034517307277788782 0 0.1153397086078356 -0.02777925036403987 0 0.1153397086078356 -0.02777925036403987 0 0.097875728755835639 -0.01163551911884148 0 0.095619245252403853 -0.034517307277788782 0 0.1153397086078356 -0.02777925036403987 0 0.097875728755835639 -0.01163551911884148 0 0.123653440279271 0.00107969672001668 0 0.1153397086078356 -0.02777925036403987 0 0.097875728755835639 -0.01163551911884148 0 0.123653440279271 0.00107969672001668 0 0.097875728755835639 -0.01163551911884148 0 0.123653440279271 0.00107969672001668 0 0.1036963935269106 0.0085885423860782295 0 0.097875728755835639 -0.01163551911884148 0 0.084900520780693961 0.00035878413713994958 0 0.1036963935269106 0.0085885423860782295 0 0.097875728755835639 -0.01163551911884148 0 0.079360838544832737 -0.11488290199130451 0 0.073109678831677891 -0.098933065182841382 0 0.099130560207611379 -0.1042470825759645 0 0.073109678831677891 -0.098933065182841382 0 0.089647047975584565 -0.091704288415504112 0 0.099130560207611379 -0.1042470825759645 0 0.073109678831677891 -0.098933065182841382 0 0.099130560207611379 -0.1042470825759645 0 0.089589509229003814 -0.12721512035424451 0 0.079360838544832737 -0.11488290199130451 0 0.099130560207611379 -0.1042470825759645 0 0.079360838544832737 -0.11488290199130451 0 0.063506276807715728 -0.1190018972561699 0 0.073109678831677891 -0.098933065182841382 0 0.071784129729790924 -0.13406800948725681 0 0.079360838544832737 -0.11488290199130451 0 0.063506276807715728 -0.1190018972561699 0 0.0560474359476828 -0.107578256935428 0 0.063506276807715728 -0.1190018972561699 0 0.073109678831677891 -0.098933065182841382 0 0.063506276807715728 -0.1190018972561699 0 0.073109678831677891 -0.098933065182841382 0 0.073109678831677891 -0.098933065182841382 0 0.077724379928165915 -0.089289434608701715 0 0.061805044689837642 -0.086562819674785033 0 0.073109678831677891 -0.098933065182841382 0 0.077724379928165915 -0.089289434608701715 0 0.061805044689837642 -0.086562819674785033 0 0.07153166563822265 -0.08078425170741968 0 0.067034264227098614 -0.070347857486100382 0 0.061805044689837642 -0.086562819674785033 0 0.07153166563822265 -0.08078425170741968 0 0.077724379928165915 -0.089289434608701715 0 0.07153166563822265 -0.08078425170741968 0 0.077724379928165915 -0.089289434608701715 0 0.079562973707788434 -0.076936895060091617 0 0.071924858084440768 -0.05389401198907276 0 0.067034264227098614 -0.070347857486100382 0 0.088504039257737824 -0.064539915033801409 0 0.07153166563822265 -0.08078425170741968 0 0.067034264227098614 -0.070347857486100382 0 0.079562973707788434 -0.076936895060091617 0 0.067034264227098614 -0.070347857486100382 0 0.079562973707788434 -0.076936895060091617 0 0.088504039257737824 -0.064539915033801409 0 0.079562973707788434 -0.076936895060091617 0 0.088504039257737824 -0.064539915033801409 0 0.091615224396585287 -0.079919209699742755 0 0.073109678831677891 -0.098933065182841382 0 0.077724379928165915 -0.089289434608701715 0 0.089647047975584565 -0.091704288415504112 0 0.077724379928165915 -0.089289434608701715 0 0.079562973707788434 -0.076936895060091617 0 0.091615224396585287 -0.079919209699742755 0 0.077724379928165915 -0.089289434608701715 0 0.091615224396585287 -0.079919209699742755 0 0.089647047975584565 -0.091704288415504112 0 0.091615224396585287 -0.079919209699742755 0 0.10665539651388301 -0.086132650010270567 0 0.10701231590506979 -0.068430947693931238 0 0.091615224396585287 -0.079919209699742755 0 0.089647047975584565 -0.091704288415504112 0 0.10665539651388301 -0.086132650010270567 0 0.088504039257737824 -0.064539915033801409 0 0.091615224396585287 -0.079919209699742755 0 0.10701231590506979 -0.068430947693931238 0 0.10701231590506979 -0.068430947693931238 0 0.124938698823838 -0.064168876204832512 0 0.12510605975605149 -0.084514912389826335 0 0.10665539651388301 -0.086132650010270567 0 0.1134677305607657 -0.096671073496879645 0 0.12510605975605149 -0.084514912389826335 0 0.10665539651388301 -0.086132650010270567 0 0.10701231590506979 -0.068430947693931238 0 0.12510605975605149 -0.084514912389826335 0 0.11736273759009209 -0.107970480962257 0 0.1134677305607657 -0.096671073496879645 0 0.099130560207611379 -0.1042470825759645 0 0.1243153737604643 -0.1008438390998688 0 0.1134677305607657 -0.096671073496879645 0 0.12510605975605149 -0.084514912389826335 0 0.1243153737604643 -0.1008438390998688 0 0.11736273759009209 -0.107970480962257 0 0.1134677305607657 -0.096671073496879645 0 0.1243153737604643 -0.1008438390998688 0 0.1237390321235598 -0.10830553465127959 0 0.11736273759009209 -0.107970480962257 0 0.10665539651388301 -0.086132650010270567 0 0.1134677305607657 -0.096671073496879645 0 0.099130560207611379 -0.1042470825759645 0 0.11736273759009209 -0.107970480962257 0 0.099130560207611379 -0.1042470825759645 0 0.10665539651388301 -0.086132650010270567 0 0.099130560207611379 -0.1042470825759645 0 0.089647047975584565 -0.091704288415504112 0 0.10665539651388301 -0.086132650010270567 0 0.099130560207611379 -0.1042470825759645 0 0.089589509229003814 -0.12721512035424451 0 0.099130560207611379 -0.1042470825759645 0 0.089589509229003814 -0.12721512035424451 0 0.099130560207611379 -0.1042470825759645 0 0.1069325287236422 -0.12202814115026039 0 0.11736273759009209 -0.107970480962257 0 0.099130560207611379 -0.1042470825759645 0 0.1069325287236422 -0.12202814115026039 0 0.1225268611431294 -0.12770441849502481 0 0.1069325287236422 -0.12202814115026039 0 0.1205668679936939 -0.1160912980634663 0 0.11736273759009209 -0.107970480962257 0 0.1069325287236422 -0.12202814115026039 0 0.1205668679936939 -0.1160912980634663 0 0.1237390321235598 -0.10830553465127959 0 0.11736273759009209 -0.107970480962257 0 0.1205668679936939 -0.1160912980634663 0 0.1225268611431294 -0.12770441849502481 0 0.13622157490227341 -0.1223594037149969 0 0.13282640408734239 -0.1067029955903203 0 0.1225268611431294 -0.12770441849502481 0 0.13282640408734239 -0.1067029955903203 0 0.1225268611431294 -0.12770441849502481 0 0.1205668679936939 -0.1160912980634663 0 0.13282640408734239 -0.1067029955903203 0 0.13622157490227341 -0.1223594037149969 0 0.1513979463159118 -0.1194880014012589 0 0.13282640408734239 -0.1067029955903203 0 0.1237390321235598 -0.10830553465127959 0 0.1205668679936939 -0.1160912980634663 0 0.13282640408734239 -0.1067029955903203 0 0.1513979463159118 -0.1194880014012589 0 0.13282640408734239 -0.1067029955903203 0 0.1513979463159118 -0.1194880014012589 0 0.14441131308984309 -0.10830729146542981 0 0.13282640408734239 -0.1067029955903203 0 0.15388997165666779 -0.1151584894354702 0 0.1513979463159118 -0.1194880014012589 0 0.14441131308984309 -0.10830729146542981 0 0.15388997165666779 -0.1151584894354702 0 0.15437898120817109 -0.1215402029874868 0 0.15388997165666779 -0.1151584894354702 0 0.15437898120817109 -0.1215402029874868 0 0.1513979463159118 -0.1194880014012589 0 0.15388997165666779 -0.1151584894354702 0 0.1513979463159118 -0.1194880014012589 0 0.15437898120817109 -0.1215402029874868 0 0.1513979463159118 -0.1194880014012589 0 0.1527354706013147 -0.100091922722925 0 0.14441131308984309 -0.10830729146542981 0 0.1420684922338879 -0.08785779025067475 0 0.15388997165666779 -0.1151584894354702 0 0.1527354706013147 -0.100091922722925 0 0.14441131308984309 -0.10830729146542981 0 0.15388997165666779 -0.1151584894354702 0 0.1527354706013147 -0.100091922722925 0 0.14441131308984309 -0.10830729146542981 0 0.13282640408734239 -0.1067029955903203 0 0.1420684922338879 -0.08785779025067475 0 0.13282640408734239 -0.1067029955903203 0 0.13152541377417629 -0.094585051584727436 0 0.1420684922338879 -0.08785779025067475 0 0.13282640408734239 -0.1067029955903203 0 0.1420684922338879 -0.08785779025067475 0 0.1243153737604643 -0.1008438390998688 0 0.13282640408734239 -0.1067029955903203 0 0.1243153737604643 -0.1008438390998688 0 0.1237390321235598 -0.10830553465127959 0 0.13282640408734239 -0.1067029955903203 0 0.1243153737604643 -0.1008438390998688 0 0.13282640408734239 -0.1067029955903203 0 0.13152541377417629 -0.094585051584727436 0 0.12510605975605149 -0.084514912389826335 0 0.13637490258742591 -0.073330752541649849 0 0.1420684922338879 -0.08785779025067475 0 0.1243153737604643 -0.1008438390998688 0 0.13152541377417629 -0.094585051584727436 0 0.12510605975605149 -0.084514912389826335 0 0.13152541377417629 -0.094585051584727436 0 0.12510605975605149 -0.084514912389826335 0 0.1420684922338879 -0.08785779025067475 0 0.124938698823838 -0.064168876204832512 0 0.12510605975605149 -0.084514912389826335 0 0.13637490258742591 -0.073330752541649849 0 0.124938698823838 -0.064168876204832512 0 0.13637490258742591 -0.073330752541649849 0 0.13845068174291791 -0.061099598951886158 0 0.13637490258742591 -0.073330752541649849 0 0.15131058038043399 -0.069012584911029504 0 0.1420684922338879 -0.08785779025067475 0 0.13637490258742591 -0.073330752541649849 0 0.15131058038043399 -0.069012584911029504 0 0.13845068174291791 -0.061099598951886158 0 0.1527354706013147 -0.100091922722925 0 0.1420684922338879 -0.08785779025067475 0 0.16016423424054549 -0.080676247414345981 0 0.15131058038043399 -0.069012584911029504 0 0.1420684922338879 -0.08785779025067475 0 0.15131058038043399 -0.069012584911029504 0 0.1420684922338879 -0.08785779025067475 0 0.16016423424054549 -0.080676247414345981 0 0.1527354706013147 -0.100091922722925 0 0.16016423424054549 -0.080676247414345981 0 0.16615598346128771 -0.093848174483174215 0 0.16016423424054549 -0.080676247414345981 0 0.1784219952659078 -0.072537859530878518 0 0.16615598346128771 -0.093848174483174215 0 0.16016423424054549 -0.080676247414345981 0 0.16616928494783961 -0.064581932655782368 0 0.1784219952659078 -0.072537859530878518 0 0.15131058038043399 -0.069012584911029504 0 0.16016423424054549 -0.080676247414345981 0 0.16616928494783961 -0.064581932655782368 0 0.16616928494783961 -0.064581932655782368 0 0.1784219952659078 -0.072537859530878518 0 0.18039694632533049 -0.050515591851273557 0 0.1784219952659078 -0.072537859530878518 0 0.18980976302253999 -0.060770885401279187 0 0.19237706845996491 -0.075599780387889295 0 0.1784219952659078 -0.072537859530878518 0 0.18531390345905771 -0.087478829186348667 0 0.16615598346128771 -0.093848174483174215 0 0.1784219952659078 -0.072537859530878518 0 0.16615598346128771 -0.093848174483174215 0 0.1784219952659078 -0.072537859530878518 0 0.18531390345905771 -0.087478829186348667 0 0.19237706845996491 -0.075599780387889295 0 0.18531390345905771 -0.087478829186348667 0 0.18522310974333581 -0.1045905933931584 0 0.16615598346128771 -0.093848174483174215 0 0.18522310974333581 -0.1045905933931584 0 0.16819908555241081 -0.1172716218445379 0 0.16615598346128771 -0.093848174483174215 0 0.18662613239057929 -0.1237419791272921 0 0.16819908555241081 -0.1172716218445379 0 0.16914440147492041 -0.13170500145106939 0 0.18522310974333581 -0.1045905933931584 0 0.18662613239057929 -0.1237419791272921 0 0.16819908555241081 -0.1172716218445379 0 0.15388997165666779 -0.1151584894354702 0 0.15437898120817109 -0.1215402029874868 0 0.16819908555241081 -0.1172716218445379 0 0.15437898120817109 -0.1215402029874868 0 0.16819908555241081 -0.1172716218445379 0 0.16914440147492041 -0.13170500145106939 0 0.15388997165666779 -0.1151584894354702 0 0.1527354706013147 -0.100091922722925 0 0.16615598346128771 -0.093848174483174215 0 0.15388997165666779 -0.1151584894354702 0 0.16615598346128771 -0.093848174483174215 0 0.15388997165666779 -0.1151584894354702 0 0.16819908555241081 -0.1172716218445379 0 0.16615598346128771 -0.093848174483174215 0 0.14269353518516981 -0.0030349321094748079 0 0.13793646534845369 -0.019372415472280798 0 0.15975308331024801 -0.0076419222445087628 0 0.123653440279271 0.00107969672001668 0 0.1153397086078356 -0.02777925036403987 0 0.13793646534845369 -0.019372415472280798 0 0.123653440279271 0.00107969672001668 0 0.14269353518516981 -0.0030349321094748079 0 0.13793646534845369 -0.019372415472280798 0 0.1153397086078356 -0.02777925036403987 0 0.13793646534845369 -0.019372415472280798 0 0.13280368845983531 -0.043922981609238618 0 0.13793646534845369 -0.019372415472280798 0 0.1521037741810361 -0.031032572655014769 0 0.15975308331024801 -0.0076419222445087628 0 0.13793646534845369 -0.019372415472280798 0 0.1521037741810361 -0.031032572655014769 0 0.13280368845983531 -0.043922981609238618 0 0.1521037741810361 -0.031032572655014769 0 0.13280368845983531 -0.043922981609238618 0 0.16055266852698019 -0.050167379571384237 0 0.124938698823838 -0.064168876204832512 0 0.13280368845983531 -0.043922981609238618 0 0.13845068174291791 -0.061099598951886158 0 0.15131058038043399 -0.069012584911029504 0 0.16055266852698019 -0.050167379571384237 0 0.15131058038043399 -0.069012584911029504 0 0.13845068174291791 -0.061099598951886158 0 0.16055266852698019 -0.050167379571384237 0 0.13280368845983531 -0.043922981609238618 0 0.13845068174291791 -0.061099598951886158 0 0.16055266852698019 -0.050167379571384237 0 0.16616928494783961 -0.064581932655782368 0 0.16055266852698019 -0.050167379571384237 0 0.18039694632533049 -0.050515591851273557 0 0.15131058038043399 -0.069012584911029504 0 0.16616928494783961 -0.064581932655782368 0 0.16055266852698019 -0.050167379571384237 0 0.1784219952659078 -0.072537859530878518 0 0.19068800707052419 -0.05122754457858042 0 0.18980976302253999 -0.060770885401279187 0 0.1784219952659078 -0.072537859530878518 0 0.18039694632533049 -0.050515591851273557 0 0.19068800707052419 -0.05122754457858042 0 0.1784219952659078 -0.072537859530878518 0 0.19068800707052419 -0.05122754457858042 0 0.18039694632533049 -0.050515591851273557 0 0.18321289287546619 -0.035743237155984132 0 0.17007501481778919 -0.029078757047891181 0 0.18039694632533049 -0.050515591851273557 0 0.17007501481778919 -0.029078757047891181 0 0.18039694632533049 -0.050515591851273557 0 0.18321289287546619 -0.035743237155984132 0 0.19068800707052419 -0.05122754457858042 0 0.1521037741810361 -0.031032572655014769 0 0.16055266852698019 -0.050167379571384237 0 0.17007501481778919 -0.029078757047891181 0 0.16055266852698019 -0.050167379571384237 0 0.18039694632533049 -0.050515591851273557 0 0.17007501481778919 -0.029078757047891181 0 0.1521037741810361 -0.031032572655014769 0 0.17007501481778919 -0.029078757047891181 0 0.15975308331024801 -0.0076419222445087628 0 0.17007501481778919 -0.029078757047891181 0 0.15975308331024801 -0.0076419222445087628 0 0.18321289287546619 -0.035743237155984132 0 0.17007501481778919 -0.029078757047891181 0 0.18164101643470409 -0.023974734305065439 0 0.17007501481778919 -0.029078757047891181 0 0.18164101643470409 -0.023974734305065439 0 0.17994763035349129 -0.0085423207511367925 0 0.18321289287546619 -0.035743237155984132 0 0.18164101643470409 -0.023974734305065439 0 0.19332852769206971 -0.022534622265249639 0 0.18164101643470409 -0.023974734305065439 0 0.17994763035349129 -0.0085423207511367925 0 0.19332852769206971 -0.022534622265249639 0 0.17007501481778919 -0.029078757047891181 0 0.17994763035349129 -0.0085423207511367925 0 0.15975308331024801 -0.0076419222445087628 0 0.17327332240769239 0.0079959289501135879 0 0.17994763035349129 -0.0085423207511367925 0 0.15975308331024801 -0.0076419222445087628 0 0.21119039907376591 0.0081763055295867235 0 0.19596904831361989 0.0061583000480806248 0 0.20933555079825489 -0.018830296291656352 0 0.2237703870028428 0.0062480185432127189 0 0.20933555079825489 -0.018830296291656352 0 0.21119039907376591 0.0081763055295867235 0 0.20933555079825489 -0.018830296291656352 0 0.2237703870028428 0.0062480185432127189 0 0.21119039907376591 0.0081763055295867235 0 0.20933555079825489 -0.018830296291656352 0 0.19596904831361989 0.0061583000480806248 0 0.19332852769206971 -0.022534622265249639 0 0.20933555079825489 -0.018830296291656352 0 0.19596904831361989 0.0061583000480806248 0 0.17994763035349129 -0.0085423207511367925 0 0.19332852769206971 -0.022534622265249639 0 0.19596904831361989 0.0061583000480806248 0 0.19332852769206971 -0.022534622265249639 0 0.19332852769206971 -0.022534622265249639 0 0.20933555079825489 -0.018830296291656352 0 0.2000117789343929 -0.035028920435120403 0 0.20933555079825489 -0.018830296291656352 0 0.2000117789343929 -0.035028920435120403 0 0.20933555079825489 -0.018830296291656352 0 0.20768748732043191 -0.042826110239985157 0 0.20933555079825489 -0.018830296291656352 0 0.2178857553340659 -0.032485358015763029 0 0.22330519215421771 -0.018997622974349111 0 0.20933555079825489 -0.018830296291656352 0 0.2178857553340659 -0.032485358015763029 0 0.20768748732043191 -0.042826110239985157 0 0.20933555079825489 -0.018830296291656352 0 0.20768748732043191 -0.042826110239985157 0 0.2000117789343929 -0.035028920435120403 0 0.2178857553340659 -0.032485358015763029 0 0.20768748732043191 -0.042826110239985157 0 0.22149813989228581 -0.044454269194417813 0 0.19332852769206971 -0.022534622265249639 0 0.2000117789343929 -0.035028920435120403 0 0.19068800707052419 -0.05122754457858042 0 0.19332852769206971 -0.022534622265249639 0 0.19068800707052419 -0.05122754457858042 0 0.2000117789343929 -0.035028920435120403 0 0.19068800707052419 -0.05122754457858042 0 0.18321289287546619 -0.035743237155984132 0 0.19332852769206971 -0.022534622265249639 0 0.19068800707052419 -0.05122754457858042 0 0.2000117789343929 -0.035028920435120403 0 0.19949363315425439 -0.046109066109956957 0 0.19068800707052419 -0.05122754457858042 0 0.20768748732043191 -0.042826110239985157 0 0.2000117789343929 -0.035028920435120403 0 0.19949363315425439 -0.046109066109956957 0 0.18980976302253999 -0.060770885401279187 0 0.19958725929166449 -0.055353689186139643 0 0.20603942384261201 -0.066821924188314064 0 0.20768748732043191 -0.042826110239985157 0 0.19949363315425439 -0.046109066109956957 0 0.19958725929166449 -0.055353689186139643 0 0.19949363315425439 -0.046109066109956957 0 0.19068800707052419 -0.05122754457858042 0 0.19958725929166449 -0.055353689186139643 0 0.19068800707052419 -0.05122754457858042 0 0.18980976302253999 -0.060770885401279187 0 0.19958725929166449 -0.055353689186139643 0 0.19068800707052419 -0.05122754457858042 0 0.18980976302253999 -0.060770885401279187 0 0.20768748732043191 -0.042826110239985157 0 0.20603942384261201 -0.066821924188314064 0 0.20768748732043191 -0.042826110239985157 0 0.21614514584542269 -0.055499101900709058 0 0.20603942384261201 -0.066821924188314064 0 0.20768748732043191 -0.042826110239985157 0 0.19958725929166449 -0.055353689186139643 0 0.20603942384261201 -0.066821924188314064 0 0.20768748732043191 -0.042826110239985157 0 0.21614514584542269 -0.055499101900709058 0 0.22149813989228581 -0.044454269194417813 0 0.21614514584542269 -0.055499101900709058 0 0.22704566883882379 -0.056173151753311883 0 0.22092672330939669 -0.065614852344226413 0 0.21614514584542269 -0.055499101900709058 0 0.22704566883882379 -0.056173151753311883 0 0.22149813989228581 -0.044454269194417813 0 0.22704566883882379 -0.056173151753311883 0 0.24016954476769181 -0.056836892022476708 0 0.2342825225046572 -0.044898407621922889 0 0.22704566883882379 -0.056173151753311883 0 0.2342825225046572 -0.044898407621922889 0 0.22149813989228581 -0.044454269194417813 0 0.22704566883882379 -0.056173151753311883 0 0.24016954476769181 -0.056836892022476708 0 0.23321995179678509 -0.068413700805853447 0 0.25351095264522411 -0.056127677221165392 0 0.24016954476769181 -0.056836892022476708 0 0.24742844972315181 -0.071160919025872849 0 0.25351095264522411 -0.056127677221165392 0 0.24016954476769181 -0.056836892022476708 0 0.24546318388198629 -0.045076968172456947 0 0.24016954476769181 -0.056836892022476708 0 0.24546318388198629 -0.045076968172456947 0 0.2342825225046572 -0.044898407621922889 0 0.24546318388198629 -0.045076968172456947 0 0.24201778845049959 -0.033501146278590202 0 0.2342825225046572 -0.044898407621922889 0 0.25591714703560497 -0.038082277907918911 0 0.25071209178151888 -0.022501341022686989 0 0.24201778845049959 -0.033501146278590202 0 0.25591714703560497 -0.038082277907918911 0 0.24546318388198629 -0.045076968172456947 0 0.24201778845049959 -0.033501146278590202 0 0.24201778845049959 -0.033501146278590202 0 0.22812791787500661 -0.033952334931957082 0 0.2342825225046572 -0.044898407621922889 0 0.22812791787500661 -0.033952334931957082 0 0.2342825225046572 -0.044898407621922889 0 0.22149813989228581 -0.044454269194417813 0 0.2178857553340659 -0.032485358015763029 0 0.22812791787500661 -0.033952334931957082 0 0.22149813989228581 -0.044454269194417813 0 0.22812791787500661 -0.033952334931957082 0 0.22330519215421771 -0.018997622974349111 0 0.23740634976091551 -0.01596814417558012 0 0.2178857553340659 -0.032485358015763029 0 0.22812791787500661 -0.033952334931957082 0 0.22330519215421771 -0.018997622974349111 0 0.24201778845049959 -0.033501146278590202 0 0.22812791787500661 -0.033952334931957082 0 0.23740634976091551 -0.01596814417558012 0 0.25071209178151888 -0.022501341022686989 0 0.24201778845049959 -0.033501146278590202 0 0.23740634976091551 -0.01596814417558012 0 0.25071209178151888 -0.022501341022686989 0 0.25174532895968033 -0.01046751453615574 0 0.23740634976091551 -0.01596814417558012 0 0.24304819672666861 0.0028562376093386119 0 0.25174532895968033 -0.01046751453615574 0 0.23740634976091551 -0.01596814417558012 0 0.24304819672666861 0.0028562376093386119 0 0.2237703870028428 0.0062480185432127189 0 0.23740634976091551 -0.01596814417558012 0 0.2237703870028428 0.0062480185432127189 0 0.20933555079825489 -0.018830296291656352 0 0.22330519215421771 -0.018997622974349111 0 0.2237703870028428 0.0062480185432127189 0 0.22330519215421771 -0.018997622974349111 0 0.23740634976091551 -0.01596814417558012 0 0.20274329688697221 -0.1148135520849717 0 0.20439136036479211 -0.090817738136642887 0 0.20274329688697221 -0.1148135520849717 0 0.20439136036479211 -0.090817738136642887 0 0.22061561753823389 -0.1021214132051734 0 0.20274329688697221 -0.1148135520849717 0 0.22061561753823389 -0.1021214132051734 0 0.2211208436993487 -0.11853796073488231 0 0.20274329688697221 -0.1148135520849717 0 0.2211208436993487 -0.11853796073488231 0 0.21005113903430669 -0.13465886968962351 0 0.18662613239057929 -0.1237419791272921 0 0.20274329688697221 -0.1148135520849717 0 0.21005113903430669 -0.13465886968962351 0 0.18522310974333581 -0.1045905933931584 0 0.18662613239057929 -0.1237419791272921 0 0.20274329688697221 -0.1148135520849717 0 0.18522310974333581 -0.1045905933931584 0 0.20274329688697221 -0.1148135520849717 0 0.20439136036479211 -0.090817738136642887 0 0.18531390345905771 -0.087478829186348667 0 0.18522310974333581 -0.1045905933931584 0 0.20439136036479211 -0.090817738136642887 0 0.18531390345905771 -0.087478829186348667 0 0.19237706845996491 -0.075599780387889295 0 0.20439136036479211 -0.090817738136642887 0 0.18980976302253999 -0.060770885401279187 0 0.19237706845996491 -0.075599780387889295 0 0.20603942384261201 -0.066821924188314064 0 0.19237706845996491 -0.075599780387889295 0 0.20603942384261201 -0.066821924188314064 0 0.20439136036479211 -0.090817738136642887 0 0.20603942384261201 -0.066821924188314064 0 0.22247220522927361 -0.081144587318972741 0 0.22092672330939669 -0.065614852344226413 0 0.21614514584542269 -0.055499101900709058 0 0.20603942384261201 -0.066821924188314064 0 0.22092672330939669 -0.065614852344226413 0 0.20603942384261201 -0.066821924188314064 0 0.20439136036479211 -0.090817738136642887 0 0.22247220522927361 -0.081144587318972741 0 0.20439136036479211 -0.090817738136642887 0 0.22247220522927361 -0.081144587318972741 0 0.22061561753823389 -0.1021214132051734 0 0.20603942384261201 -0.066821924188314064 0 0.20439136036479211 -0.090817738136642887 0 0.22247220522927361 -0.081144587318972741 0 0.2362189955306668 -0.095960496359693032 0 0.22061561753823389 -0.1021214132051734 0 0.22247220522927361 -0.081144587318972741 0 0.2379525640134586 -0.081035573379934708 0 0.2362189955306668 -0.095960496359693032 0 0.22247220522927361 -0.081144587318972741 0 0.22092672330939669 -0.065614852344226413 0 0.23321995179678509 -0.068413700805853447 0 0.22247220522927361 -0.081144587318972741 0 0.23321995179678509 -0.068413700805853447 0 0.2379525640134586 -0.081035573379934708 0 0.22704566883882379 -0.056173151753311883 0 0.22092672330939669 -0.065614852344226413 0 0.23321995179678509 -0.068413700805853447 0 0.24016954476769181 -0.056836892022476708 0 0.23321995179678509 -0.068413700805853447 0 0.24742844972315181 -0.071160919025872849 0 0.23321995179678509 -0.068413700805853447 0 0.24742844972315181 -0.071160919025872849 0 0.2379525640134586 -0.081035573379934708 0 0.25042321778741577 -0.088498163389281431 0 0.24742844972315181 -0.071160919025872849 0 0.2379525640134586 -0.081035573379934708 0 0.25042321778741577 -0.088498163389281431 0 0.2379525640134586 -0.081035573379934708 0 0.2362189955306668 -0.095960496359693032 0 0.2362189955306668 -0.095960496359693032 0 0.2342309529860693 -0.1121216238607453 0 0.24966775205228511 -0.1117210713920521 0 0.25042321778741577 -0.088498163389281431 0 0.2362189955306668 -0.095960496359693032 0 0.24966775205228511 -0.1117210713920521 0 0.2362189955306668 -0.095960496359693032 0 0.22061561753823389 -0.1021214132051734 0 0.2342309529860693 -0.1121216238607453 0 0.22061561753823389 -0.1021214132051734 0 0.2211208436993487 -0.11853796073488231 0 0.2342309529860693 -0.1121216238607453 0 0.2211208436993487 -0.11853796073488231 0 0.2342309529860693 -0.1121216238607453 0 0.2361924563269443 -0.1274479394645946 0 0.2342309529860693 -0.1121216238607453 0 0.2421498987632256 -0.12022483186295919 0 0.2361924563269443 -0.1274479394645946 0 0.2421498987632256 -0.12022483186295919 0 0.24966775205228511 -0.1117210713920521 0 0.24850843368760381 -0.12960869273444511 0 0.2342309529860693 -0.1121216238607453 0 0.2421498987632256 -0.12022483186295919 0 0.24966775205228511 -0.1117210713920521 0 0.24850843368760381 -0.12960869273444511 0 0.24201993828059551 -0.1343859808173761 0 0.2361924563269443 -0.1274479394645946 0 0.2421498987632256 -0.12022483186295919 0 0.24850843368760381 -0.12960869273444511 0 0.2361924563269443 -0.1274479394645946 0 0.24850843368760381 -0.12960869273444511 0 0.24201993828059551 -0.1343859808173761 0 0.24489336419461721 -0.1415787982311533 0 0.24201993828059551 -0.1343859808173761 0 0.23684059907723171 -0.13984824294208301 0 0.24489336419461721 -0.1415787982311533 0 0.24201993828059551 -0.1343859808173761 0 0.23684059907723171 -0.13984824294208301 0 0.2361924563269443 -0.1274479394645946 0 0.24489336419461721 -0.1415787982311533 0 0.22415261863696651 -0.15770459907018031 0 0.24208375000554491 -0.15893054116536359 0 0.2520404706641407 -0.15250892310637881 0 0.24489336419461721 -0.1415787982311533 0 0.24208375000554491 -0.15893054116536359 0 0.24489336419461721 -0.1415787982311533 0 0.22415261863696651 -0.15770459907018031 0 0.23684059907723171 -0.13984824294208301 0 0.24489336419461721 -0.1415787982311533 0 0.22415261863696651 -0.15770459907018031 0 0.23684059907723171 -0.13984824294208301 0 0.24489336419461721 -0.1415787982311533 0 0.23684059907723171 -0.13984824294208301 0 0.2230936342150743 -0.14230764122723399 0 0.22415261863696651 -0.15770459907018031 0 0.2361924563269443 -0.1274479394645946 0 0.21005113903430669 -0.13465886968962351 0 0.2361924563269443 -0.1274479394645946 0 0.2230936342150743 -0.14230764122723399 0 0.21005113903430669 -0.13465886968962351 0 0.2211208436993487 -0.11853796073488231 0 0.2361924563269443 -0.1274479394645946 0 0.21005113903430669 -0.13465886968962351 0 0.23684059907723171 -0.13984824294208301 0 0.2361924563269443 -0.1274479394645946 0 0.2230936342150743 -0.14230764122723399 0 0.2230936342150743 -0.14230764122723399 0 0.20823135799992259 -0.15187855496968861 0 0.22415261863696651 -0.15770459907018031 0 0.21005113903430669 -0.13465886968962351 0 0.20823135799992259 -0.15187855496968861 0 0.19138974300025319 -0.1470191211492268 0 0.2230936342150743 -0.14230764122723399 0 0.21005113903430669 -0.13465886968962351 0 0.20823135799992259 -0.15187855496968861 0 0.20823135799992259 -0.15187855496968861 0 0.19138974300025319 -0.1470191211492268 0 0.19793021922508439 -0.15878673633321971 0 0.21005113903430669 -0.13465886968962351 0 0.19138974300025319 -0.1470191211492268 0 0.18390982174166931 -0.14186979991465259 0 0.19138974300025319 -0.1470191211492268 0 0.18868790282084669 -0.16241886930475721 0 0.19793021922508439 -0.15878673633321971 0 0.19138974300025319 -0.1470191211492268 0 0.18390982174166931 -0.14186979991465259 0 0.21005113903430669 -0.13465886968962351 0 0.18390982174166931 -0.14186979991465259 0 0.18662613239057929 -0.1237419791272921 0 0.21005113903430669 -0.13465886968962351 0 0.18390982174166931 -0.14186979991465259 0 0.20341187307931499 -0.1738303999092064 0 0.19322653114944011 -0.20103375016086369 0 0.1828209373684013 -0.18155840703125789 0 0.18868790282084669 -0.16241886930475721 0 0.20341187307931499 -0.1738303999092064 0 0.1828209373684013 -0.18155840703125789 0 0.18868790282084669 -0.16241886930475721 0 0.19793021922508439 -0.15878673633321971 0 0.20341187307931499 -0.1738303999092064 0 0.20823135799992259 -0.15187855496968861 0 0.19793021922508439 -0.15878673633321971 0 0.20341187307931499 -0.1738303999092064 0 0.20341187307931499 -0.1738303999092064 0 0.22415261863696651 -0.15770459907018031 0 0.20823135799992259 -0.15187855496968861 0 0.20341187307931499 -0.1738303999092064 0 0.22415261863696651 -0.15770459907018031 0 0.20341187307931499 -0.1738303999092064 0 0.231857120588468 -0.17206841979684939 0 0.2188225597478495 -0.1863648901450346 0 0.20341187307931499 -0.1738303999092064 0 0.2188225597478495 -0.1863648901450346 0 0.19322653114944011 -0.20103375016086369 0 0.231857120588468 -0.17206841979684939 0 0.2188225597478495 -0.1863648901450346 0 0.23914470535333701 -0.1866481936113992 0 0.231857120588468 -0.17206841979684939 0 0.22415261863696651 -0.15770459907018031 0 0.24208375000554491 -0.15893054116536359 0 0.20341187307931499 -0.1738303999092064 0 0.231857120588468 -0.17206841979684939 0 0.22415261863696651 -0.15770459907018031 0 0.25816744960462829 -0.1675838224846245 0 0.231857120588468 -0.17206841979684939 0 0.24208375000554491 -0.15893054116536359 0 0.25816744960462829 -0.1675838224846245 0 0.23914470535333701 -0.1866481936113992 0 0.25816744960462829 -0.1675838224846245 0 0.231857120588468 -0.17206841979684939 0 0.23914470535333701 -0.1866481936113992 0 0.25333503254828788 -0.20253173111870459 0 0.25353019085601608 -0.18970850042794379 0 0.23617795185340471 -0.20850571598034051 0 0.25353019085601608 -0.18970850042794379 0 0.23617795185340471 -0.20850571598034051 0 0.25353019085601608 -0.18970850042794379 0 0.23914470535333701 -0.1866481936113992 0 0.23617795185340471 -0.20850571598034051 0 0.25285722842640701 -0.22483162935596679 0 0.2593443973922176 -0.21253582456319331 0 0.23617795185340471 -0.20850571598034051 0 0.2593443973922176 -0.21253582456319331 0 0.23617795185340471 -0.20850571598034051 0 0.2593443973922176 -0.21253582456319331 0 0.25333503254828788 -0.20253173111870459 0 0.23617795185340471 -0.20850571598034051 0 0.23617795185340471 -0.20850571598034051 0 0.22012196110204629 -0.20571256473817459 0 0.2175486601943076 -0.2286863284564491 0 0.23617795185340471 -0.20850571598034051 0 0.22012196110204629 -0.20571256473817459 0 0.23617795185340471 -0.20850571598034051 0 0.2175486601943076 -0.2286863284564491 0 0.23914470535333701 -0.1866481936113992 0 0.23617795185340471 -0.20850571598034051 0 0.22012196110204629 -0.20571256473817459 0 0.23914470535333701 -0.1866481936113992 0 0.22012196110204629 -0.20571256473817459 0 0.2188225597478495 -0.1863648901450346 0 0.23914470535333701 -0.1866481936113992 0 0.22012196110204629 -0.20571256473817459 0 0.23955778964762631 -0.25364946747258821 0 0.23989887695540621 -0.22744415892940489 0 0.25477425875175691 -0.24219102984847479 0 0.23955778964762631 -0.25364946747258821 0 0.23989887695540621 -0.22744415892940489 0 0.23955778964762631 -0.25364946747258821 0 0.23989887695540621 -0.22744415892940489 0 0.22866209580380931 -0.23882030652882791 0 0.25477425875175691 -0.24219102984847479 0 0.25285722842640701 -0.22483162935596679 0 0.23989887695540621 -0.22744415892940489 0 0.25285722842640701 -0.22483162935596679 0 0.23617795185340471 -0.20850571598034051 0 0.23989887695540621 -0.22744415892940489 0 0.23989887695540621 -0.22744415892940489 0 0.22866209580380931 -0.23882030652882791 0 0.2175486601943076 -0.2286863284564491 0 0.23617795185340471 -0.20850571598034051 0 0.23989887695540621 -0.22744415892940489 0 0.2175486601943076 -0.2286863284564491 0 0.23955778964762631 -0.25364946747258821 0 0.22866209580380931 -0.23882030652882791 0 0.21665031790005829 -0.24662261314836739 0 0.22866209580380931 -0.23882030652882791 0 0.21665031790005829 -0.24662261314836739 0 0.2175486601943076 -0.2286863284564491 0 0.21665031790005829 -0.24662261314836739 0 0.20655114125049981 -0.23259581446806921 0 0.2175486601943076 -0.2286863284564491 0 0.21665031790005829 -0.24662261314836739 0 0.20655114125049981 -0.23259581446806921 0 0.20130028505074021 -0.24348279699889891 0 0.20655114125049981 -0.23259581446806921 0 0.2175486601943076 -0.2286863284564491 0 0.20555840926882329 -0.2203079855357658 0 0.20655114125049981 -0.23259581446806921 0 0.19103566624423221 -0.2267067219128048 0 0.20130028505074021 -0.24348279699889891 0 0.20655114125049981 -0.23259581446806921 0 0.20555840926882329 -0.2203079855357658 0 0.19103566624423221 -0.2267067219128048 0 0.19103566624423221 -0.2267067219128048 0 0.20130028505074021 -0.24348279699889891 0 0.18586744723925031 -0.24810812562569079 0 0.2188225597478495 -0.1863648901450346 0 0.22012196110204629 -0.20571256473817459 0 0.19322653114944011 -0.20103375016086369 0 0.22012196110204629 -0.20571256473817459 0 0.20555840926882329 -0.2203079855357658 0 0.19322653114944011 -0.20103375016086369 0 0.22012196110204629 -0.20571256473817459 0 0.19322653114944011 -0.20103375016086369 0 0.22012196110204629 -0.20571256473817459 0 0.2175486601943076 -0.2286863284564491 0 0.20555840926882329 -0.2203079855357658 0 0.22012196110204629 -0.20571256473817459 0 0.20555840926882329 -0.2203079855357658 0 0.20555840926882329 -0.2203079855357658 0 0.19103566624423221 -0.2267067219128048 0 0.19322653114944011 -0.20103375016086369 0 0.19103566624423221 -0.2267067219128048 0 0.19322653114944011 -0.20103375016086369 0 0.17900613601567811 -0.21175844471342611 0 0.19322653114944011 -0.20103375016086369 0 0.17900613601567811 -0.21175844471342611 0 0.16633110119683431 -0.19635493558355099 0 0.19322653114944011 -0.20103375016086369 0 0.16633110119683431 -0.19635493558355099 0 0.19322653114944011 -0.20103375016086369 0 0.16633110119683431 -0.19635493558355099 0 0.1828209373684013 -0.18155840703125789 0 0.17900613601567811 -0.21175844471342611 0 0.16491183086900099 -0.21708621175684181 0 0.17691153658378389 -0.22433304629383041 0 0.17900613601567811 -0.21175844471342611 0 0.16491183086900099 -0.21708621175684181 0 0.16633110119683431 -0.19635493558355099 0 0.16491183086900099 -0.21708621175684181 0 0.16633110119683431 -0.19635493558355099 0 0.14730583164752989 -0.21042450413146049 0 0.18586744723925031 -0.24810812562569079 0 0.1778857862942389 -0.23611851967935321 0 0.16916628393100719 -0.2459741580780867 0 0.19103566624423221 -0.2267067219128048 0 0.18586744723925031 -0.24810812562569079 0 0.1778857862942389 -0.23611851967935321 0 0.1778857862942389 -0.23611851967935321 0 0.17691153658378389 -0.22433304629383041 0 0.16614753733321161 -0.23221733817422691 0 0.19103566624423221 -0.2267067219128048 0 0.1778857862942389 -0.23611851967935321 0 0.17691153658378389 -0.22433304629383041 0 0.19103566624423221 -0.2267067219128048 0 0.17900613601567811 -0.21175844471342611 0 0.17691153658378389 -0.22433304629383041 0 0.16491183086900099 -0.21708621175684181 0 0.17691153658378389 -0.22433304629383041 0 0.16614753733321161 -0.23221733817422691 0 0.16491183086900099 -0.21708621175684181 0 0.16614753733321161 -0.23221733817422691 0 0.1521613752797096 -0.22753701440281021 0 0.16614753733321161 -0.23221733817422691 0 0.15584841104152899 -0.2422550788344395 0 0.1521613752797096 -0.22753701440281021 0 0.1778857862942389 -0.23611851967935321 0 0.16614753733321161 -0.23221733817422691 0 0.16916628393100719 -0.2459741580780867 0 0.16614753733321161 -0.23221733817422691 0 0.16916628393100719 -0.2459741580780867 0 0.15584841104152899 -0.2422550788344395 0 0.1579020857418808 -0.25506212704317299 0 0.16916628393100719 -0.2459741580780867 0 0.15584841104152899 -0.2422550788344395 0 0.14478666825658501 -0.25169129676084329 0 0.15584841104152899 -0.2422550788344395 0 0.14014484041418071 -0.23910039227184701 0 0.15584841104152899 -0.2422550788344395 0 0.1521613752797096 -0.22753701440281021 0 0.14014484041418071 -0.23910039227184701 0 0.14478666825658501 -0.25169129676084329 0 0.1579020857418808 -0.25506212704317299 0 0.15584841104152899 -0.2422550788344395 0 0.1521613752797096 -0.22753701440281021 0 0.1350602086399435 -0.2251534736966512 0 0.14014484041418071 -0.23910039227184701 0 0.1521613752797096 -0.22753701440281021 0 0.1350602086399435 -0.2251534736966512 0 0.14730583164752989 -0.21042450413146049 0 0.11665445730434811 -0.22665385701744331 0 0.1350602086399435 -0.2251534736966512 0 0.12701508539926901 -0.23731035940676529 0 0.12460636947574209 -0.20863968553706061 0 0.11665445730434811 -0.22665385701744331 0 0.1350602086399435 -0.2251534736966512 0 0.1350602086399435 -0.2251534736966512 0 0.14014484041418071 -0.23910039227184701 0 0.12701508539926901 -0.23731035940676529 0 0.12874991848255951 -0.25032773391022978 0 0.14478666825658501 -0.25169129676084329 0 0.14014484041418071 -0.23910039227184701 0 0.12874991848255951 -0.25032773391022978 0 0.14014484041418071 -0.23910039227184701 0 0.12701508539926901 -0.23731035940676529 0 0.16633110119683431 -0.19635493558355099 0 0.13943567124422829 -0.1916761210062384 0 0.15864643741248119 -0.17723171864006021 0 0.16633110119683431 -0.19635493558355099 0 0.13943567124422829 -0.1916761210062384 0 0.16633110119683431 -0.19635493558355099 0 0.14730583164752989 -0.21042450413146049 0 0.13943567124422829 -0.1916761210062384 0 0.16491183086900099 -0.21708621175684181 0 0.1521613752797096 -0.22753701440281021 0 0.14730583164752989 -0.21042450413146049 0 0.12460636947574209 -0.20863968553706061 0 0.14730583164752989 -0.21042450413146049 0 0.13943567124422829 -0.1916761210062384 0 0.12460636947574209 -0.20863968553706061 0 0.1350602086399435 -0.2251534736966512 0 0.14730583164752989 -0.21042450413146049 0 0.12460636947574209 -0.20863968553706061 0 0.11254024129162241 -0.18699730642892501 0 0.13943567124422829 -0.1916761210062384 0 0.11254024129162241 -0.18699730642892501 0 0.13943567124422829 -0.1916761210062384 0 0.1212438264853781 -0.1718761615411252 0 0.13943567124422829 -0.1916761210062384 0 0.14019664800964571 -0.17271980055932001 0 0.13943567124422829 -0.1916761210062384 0 0.14019664800964571 -0.17271980055932001 0 0.15864643741248119 -0.17723171864006021 0 0.14019664800964571 -0.17271980055932001 0 0.15651579896285631 -0.1494262816569279 0 0.15864643741248119 -0.17723171864006021 0 0.14019664800964571 -0.17271980055932001 0 0.1299474116791349 -0.15675501665332611 0 0.15651579896285631 -0.1494262816569279 0 0.1212438264853781 -0.1718761615411252 0 0.14019664800964571 -0.17271980055932001 0 0.1299474116791349 -0.15675501665332611 0 0.1212438264853781 -0.1718761615411252 0 0.1299474116791349 -0.15675501665332611 0 0.11538862936877591 -0.1607709720172476 0 0.1299474116791349 -0.15675501665332611 0 0.13204459326885629 -0.14303349267425741 0 0.1299474116791349 -0.15675501665332611 0 0.13204459326885629 -0.14303349267425741 0 0.14067267899752359 -0.1381215090272927 0 0.1299474116791349 -0.15675501665332611 0 0.14067267899752359 -0.1381215090272927 0 0.13622157490227341 -0.1223594037149969 0 0.13093671415992539 -0.13384478622836479 0 0.14067267899752359 -0.1381215090272927 0 0.1225268611431294 -0.12770441849502481 0 0.13622157490227341 -0.1223594037149969 0 0.13093671415992539 -0.13384478622836479 0 0.1225268611431294 -0.12770441849502481 0 0.1232178624878444 -0.1380051072302525 0 0.13093671415992539 -0.13384478622836479 0 0.1232178624878444 -0.1380051072302525 0 0.13204459326885629 -0.14303349267425741 0 0.13093671415992539 -0.13384478622836479 0 0.13204459326885629 -0.14303349267425741 0 0.13093671415992539 -0.13384478622836479 0 0.14067267899752359 -0.1381215090272927 0 0.15437898120817109 -0.1215402029874868 0 0.14067267899752359 -0.1381215090272927 0 0.15651579896285631 -0.1494262816569279 0 0.15437898120817109 -0.1215402029874868 0 0.1513979463159118 -0.1194880014012589 0 0.14067267899752359 -0.1381215090272927 0 0.13622157490227341 -0.1223594037149969 0 0.1513979463159118 -0.1194880014012589 0 0.14067267899752359 -0.1381215090272927 0 0.1513979463159118 -0.1194880014012589 0 0.14067267899752359 -0.1381215090272927 0 0.15437898120817109 -0.1215402029874868 0 0.15651579896285631 -0.1494262816569279 0 0.1299474116791349 -0.15675501665332611 0 0.15651579896285631 -0.1494262816569279 0 0.1299474116791349 -0.15675501665332611 0 0.14067267899752359 -0.1381215090272927 0 0.15651579896285631 -0.1494262816569279 0 0.15651579896285631 -0.1494262816569279 0 0.18390982174166931 -0.14186979991465259 0 0.15651579896285631 -0.1494262816569279 0 0.17904573607820831 -0.15294422534117361 0 0.17472541386541579 -0.16398705468030261 0 0.15651579896285631 -0.1494262816569279 0 0.16914440147492041 -0.13170500145106939 0 0.18390982174166931 -0.14186979991465259 0 0.15437898120817109 -0.1215402029874868 0 0.15651579896285631 -0.1494262816569279 0 0.16914440147492041 -0.13170500145106939 0 0.15437898120817109 -0.1215402029874868 0 0.16914440147492041 -0.13170500145106939 0 0.18662613239057929 -0.1237419791272921 0 0.16914440147492041 -0.13170500145106939 0 0.18390982174166931 -0.14186979991465259 0 0.16914440147492041 -0.13170500145106939 0 0.18390982174166931 -0.14186979991465259 0 0.15651579896285631 -0.1494262816569279 0 0.17904573607820831 -0.15294422534117361 0 0.18390982174166931 -0.14186979991465259 0 0.19138974300025319 -0.1470191211492268 0 0.17904573607820831 -0.15294422534117361 0 0.18390982174166931 -0.14186979991465259 0 0.19138974300025319 -0.1470191211492268 0 0.18868790282084669 -0.16241886930475721 0 0.17904573607820831 -0.15294422534117361 0 0.18868790282084669 -0.16241886930475721 0 0.17472541386541579 -0.16398705468030261 0 0.1828209373684013 -0.18155840703125789 0 0.18868790282084669 -0.16241886930475721 0 0.17904573607820831 -0.15294422534117361 0 0.17472541386541579 -0.16398705468030261 0 0.16633110119683431 -0.19635493558355099 0 0.1828209373684013 -0.18155840703125789 0 0.17139776124589151 -0.17631951965148909 0 0.17472541386541579 -0.16398705468030261 0 0.1828209373684013 -0.18155840703125789 0 0.17139776124589151 -0.17631951965148909 0 0.17472541386541579 -0.16398705468030261 0 0.15864643741248119 -0.17723171864006021 0 0.17139776124589151 -0.17631951965148909 0 0.16633110119683431 -0.19635493558355099 0 0.15864643741248119 -0.17723171864006021 0 0.17139776124589151 -0.17631951965148909 0 0.15651579896285631 -0.1494262816569279 0 0.15864643741248119 -0.17723171864006021 0 0.15651579896285631 -0.1494262816569279 0 0.17472541386541579 -0.16398705468030261 0 0.15864643741248119 -0.17723171864006021 0 
</DataArray>
</Points>
<Cells>
<DataArray type="UInt32" Name="connectivity" format="ascii">
0 1 2 3 4 5 6 7 8 9 10 11 12 13 14 15 16 17 18 19 20 21 22 23 24 25 26 27 28 29 30 31 32 33 34 35 36 37 38 39 40 41 42 43 44 45 46 47 48 49 50 51 52 53 54 55 56 57 58 59 60 61 62 63 64 65 66 67 68 69 70 71 72 73 74 75 76 77 78 79 80 81 82 83 84 85 86 87 88 89 90 91 92 93 94 95 96 97 98 99 100 101 102 103 104 105 106 107 108 109 110 111 112 113 114 115 116 117 118 119 120 121 122 123 124 125 126 127 128 129 130 131 132 133 134 135 136 137 138 139 140 141 142 143 144 145 146 147 148 149 150 151 152 153 154 155 156 157 158 159 160 161 162 163 164 165 166 167 168 169 170 171 172 173 174 175 176 177 178 179 180 181 182 183 184 185 186 187 188 189 190 191 192 193 194 195 196 197 198 199 200 201 202 203 204 205 206 207 208 209 210 211 212 213 214 215 216 217 218 219 220 221 222 223 224 225 226 227 228 229 230 231 232 233 234 235 236 237 238 239 240 241 242 243 244 245 246 247 248 249 250 251 252 253 254 255 256 257 258 259 260 261 262 263 264 265 266 267 268 269 270 271 272 273 274 275 276 277 278 279 280 281 282 283 284 285 286 287 288 289 290 291 292 293 294 295 296 297 298 299 300 301 302 303 304 305 306 307 308 309 310 311 312 313 314 315 316 317 318 319 320 321 322 323 324 325 326 327 328 329 330 331 332 333 334 335 336 337 338 339 340 341 342 343 344 345 346 347 348 349 350 351 352 353 354 355 356 357 358 359 360 361 362 363 364 365 366 367 368 369 370 371 372 373 374 375 376 377 378 379 380 381 382 383 384 385 386 387 388 389 390 391 392 393 394 395 396 397 398 399 400 401 402 403 404 405 406 407 408 409 410 411 412 413 414 415 416 417 418 419 420 421 422 423 424 425 426 427 428 429 430 431 432 433 434 435 436 437 438 439 440 441 442 443 444 445 446 447 448 449 450 451 452 453 454 455 456 457 458 459 460 461 462 463 464 465 466 467 468 469 470 471 472 473 474 475 476 477 478 479 480 481 482 483 484 485 486 487 488 489 490 491 492 493 494 495 496 497 498 499 500 501 502 503 504 505 506 507 508 509 510 511 512 513 514 515 516 517 518 519 520 521 522 523 524 525 526 527 528 529 530 531 532 533 534 535 536 537 538 539 540 541 542 543 544 545 546 547 548 549 550 551 552 553 554 555 556 557 558 559 560 561 562 563 564 565 566 567 568 569 570 571 572 573 574 575 576 577 578 579 580 581 582 583 584 585 586 587 588 589 590 591 592 593 594 595 596 597 598 599 600 601 602 603 604 605 606 607 608 609 610 611 612 613 614 615 616 617 618 619 620 621 622 623 624 625 626 627 628 629 630 631 632 633 634 635 636 637 638 639 640 641 642 643 644 645 646 647 648 649 650 651 652 653 654 655 656 657 658 659 660 661 662 663 664 665 666 667 668 669 670 671 672 673 674 675 676 677 678 679 680 681 682 683 684 685 686 687 688 689 690 691 692 693 694 695 696 697 698 699 700 701 702 703 704 705 706 707 708 709 710 711 712 713 714 715 716 717 718 719 720 721 722 723 724 725 726 727 728 729 730 731 732 733 734 735 736 737 738 739 740 741 742 743 744 745 746 747 748 749 750 751 752 753 754 755 756 757 758 759 760 761 762 763 764 765 766 767 768 769 770 771 772 773 774 775 776 777 778 779 780 781 782 783 784 785 786 787 788 789 790 791 792 793 794 795 796 797 798 799 800 801 802 803 804 805 806 807 808 809 810 811 812 813 814 815 816 817 818 819 820 821 822 823 824 825 826 827 828 829 830 831 832 833 834 835 836 837 838 839 840 841 842 843 844 845 846 847 848 849 850 851 852 853 854 855 856 857 858 859 860 861 862 863 864 865 866 867 868 869 870 871 872 873 874 875 876 877 878 879 880 881 882 883 884 885 886 887 888 889 890 891 892 893 894 895 896 897 898 899 900 901 902 903 904 905 906 907 908 909 910 911 912 913 914 915 916 917 918 919 920 921 922 923 924 925 926 927 928 929 930 931 932 933 934 935 936 937 938 939 940 941 942 943 944 945 946 947 948 949 950 951 952 953 954 955 956 957 958 959 960 961 962 963 964 965 966 967 968 969 970 971 972 973 974 975 976 977 978 979 980 981 982 983 984 985 986 987 988 989 990 991 992 993 994 995 996 997 998 999 1000 1001 1002 1003 1004 1005 1006 1007 1008 1009 1010 1011 1012 1013 1014 1015 1016 1017 1018 1019 1020 1021 1022 1023 1024 1025 1026 1027 1028 1029 1030 1031 1032 1033 1034 1035 1036 1037 1038 1039 1040 1041 1042 1043 1044 1045 1046 1047 1048 1049 1050 1051 1052 1053 1054 1055 1056 1057 1058 1059 1060 1061 1062 1063 1064 1065 1066 1067 1068 1069 1070 1071 1072 1073 1074 1075 1076 1077 1078 1079 1080 1081 1082 1083 1084 1085 1086 1087 1088 1089 1090 1091 1092 1093 1094 1095 1096 1097 1098 1099 1100 1101 1102 1103 1104 1105 1106 1107 1108 1109 1110 1111 1112 1113 1114 1115 1116 1117 1118 1119 1120 1121 1122 1123 1124 1125 1126 1127 1128 1129 1130 1131 1132 1133 1134 1135 1136 1137 1138 1139 1140 1141 1142 1143 1144 1145 1146 1147 1148 1149 1150 1151 1152 1153 1154 1155 1156 1157 1158 1159 1160 1161 1162 1163 1164 1165 1166 1167 1168 1169 1170 1171 1172 1173 1174 1175 1176 1177 1178 1179 1180 1181 1182 1183 1184 1185 1186 1187 1188 1189 1190 1191 1192 1193 1194 1195 1196 1197 1198 1199 1200 1201 1202 1203 1204 1205 1206 1207 1208 1209 1210 1211 1212 1213 1214 1215 1216 1217 1218 1219 1220 1221 1222 1223 1224 1225 1226 1227 1228 1229 1230 1231 1232 1233 1234 1235 1236 1237 1238 1239 1240 1241 1242 1243 1244 1245 1246 1247 1248 1249 1250 1251 1252 1253 1254 1255 1256 1257 1258 1259 1260 1261 1262 1263 1264 1265 1266 1267 1268 1269 1270 1271 1272 1273 1274 1275 1276 1277 1278 1279 1280 1281 1282 1283 1284 1285 1286 1287 1288 1289 1290 1291 1292 1293 1294 1295 1296 1297 1298 1299 1300 1301 1302 1303 1304 1305 1306 1307 1308 1309 1310 1311 1312 1313 1314 1315 1316 1317 1318 1319 1320 1321 1322 1323 1324 1325 1326 1327 1328 1329 1330 1331 1332 1333 1334 1335 1336 1337 1338 1339 1340 1341 1342 1343 1344 1345 1346 1347 1348 1349 1350 1351 1352 1353 1354 1355 1356 1357 1358 1359 1360 1361 1362 1363 1364 1365 1366 1367 1368 1369 1370 1371 1372 1373 1374 1375 1376 1377 1378 1379 1380 1381 1382 1383 1384 1385 1386 1387 1388 1389 1390 1391 1392 1393 1394 1395 1396 1397 1398 1399 1400 1401 1402 1403 1404 1405 1406 1407 1408 1409 1410 1411 1412 1413 1414 1415 1416 1417 1418 1419 1420 1421 1422 1423 1424 1425 1426 1427 1428 1429 1430 1431 1432 1433 1434 1435 1436 1437 1438 1439 1440 1441 1442 1443 1444 1445 1446 1447 1448 1449 1450 1451 1452 1453 1454 1455 1456 1457 1458 1459 1460 1461 1462 1463 1464 1465 1466 1467 1468 1469 1470 1471 1472 1473 1474 1475 1476 1477 1478 1479 1480 1481 1482 1483 1484 1485 1486 1487 1488 1489 1490 1491 1492 1493 1494 1495 1496 1497 1498 1499 1500 1501 1502 1503 1504 1505 1506 1507 1508 1509 1510 1511 1512 1513 1514 1515 1516 1517 1518 1519 1520 1521 1522 1523 1524 1525 1526 1527 1528 1529 1530 1531 1532 1533 1534 1535 1536 1537 1538 1539 1540 1541 1542 1543 1544 1545 1546 1547 1548 1549 1550 1551 1552 1553 1554 1555 1556 1557 1558 1559 1560 1561 1562 1563 1564 1565 1566 1567 1568 1569 1570 1571 1572 1573 1574 1575 1576 1577 1578 1579 1580 1581 1582 1583 1584 1585 1586 1587 1588 1589 1590 1591 1592 1593 1594 1595 1596 1597 1598 1599 1600 1601 1602 1603 1604 1605 1606 1607 1608 1609 1610 1611 1612 1613 1614 1615 1616 1617 1618 1619 1620 1621 1622 1623 1624 1625 1626 1627 1628 1629 1630 1631 1632 1633 1634 1635 1636 1637 1638 1639 1640 1641 1642 1643 1644 1645 1646 1647 1648 1649 1650 1651 1652 1653 1654 1655 1656 1657 1658 1659 1660 1661 1662 1663 1664 1665 1666 1667 1668 1669 1670 1671 1672 1673 1674 1675 1676 1677 1678 1679 1680 1681 1682 1683 1684 1685 1686 1687 1688 1689 1690 1691 1692 1693 1694 1695 1696 1697 1698 1699 1700 1701 1702 1703 1704 1705 1706 1707 1708 1709 1710 1711 1712 1713 1714 1715 1716 1717 1718 1719 1720 1721 1722 1723 1724 1725 1726 1727 1728 1729 1730 1731 1732 1733 1734 1735 1736 1737 1738 1739 1740 1741 1742 1743 1744 1745 1746 1747 1748 1749 1750 1751 1752 1753 1754 1755 1756 1757 1758 1759 1760 1761 1762 1763 1764 1765 1766 1767 1768 1769 1770 1771 1772 1773 1774 1775 1776 1777 1778 1779 1780 1781 1782 1783 1784 1785 1786 1787 1788 1789 1790 1791 1792 1793 1794 1795 1796 1797 1798 1799 1800 1801 1802 1803 1804 1805 1806 1807 1808 1809 1810 1811 1812 1813 1814 1815 1816 1817 1818 1819 1820 1821 1822 1823 1824 1825 1826 1827 1828 1829 1830 1831 1832 1833 1834 1835 1836 1837 1838 1839 1840 1841 1842 1843 1844 1845 1846 1847 1848 1849 1850 1851 1852 1853 1854 1855 1856 1857 1858 1859 1860 1861 1862 1863 1864 1865 1866 1867 1868 1869 1870 1871 1872 1873 1874 1875 1876 1877 1878 1879 1880 1881 1882 1883 1884 1885 1886 1887 1888 1889 1890 1891 1892 1893 1894 1895 1896 1897 1898 1899 1900 1901 1902 1903 1904 1905 1906 1907 1908 1909 1910 1911 1912 1913 1914 1915 1916 1917 1918 1919 1920 1921 1922 1923 1924 1925 1926 1927 1928 1929 1930 1931 1932 1933 1934 1935 1936 1937 1938 1939 1940 1941 1942 1943 1944 1945 1946 1947 1948 1949 1950 1951 1952 1953 1954 1955 1956 1957 1958 1959 1960 1961 1962 1963 1964 1965 1966 1967 1968 1969 1970 1971 1972 1973 1974 1975 1976 1977 1978 1979 1980 1981 1982 1983 1984 1985 1986 1987 1988 1989 1990 1991 1992 1993 1994 1995 1996 1997 1998 1999 2000 2001 2002 2003 2004 2005 2006 2007 2008 2009 2010 2011 2012 2013 2014 2015 2016 2017 2018 2019 2020 2021 2022 2023 2024 2025 2026 2027 2028 2029 2030 2031 2032 2033 2034 2035 2036 2037 2038 2039 2040 2041 2042 2043 2044 2045 2046 2047 2048 2049 2050 2051 2052 2053 2054 2055 2056 2057 2058 2059 2060 2061 2062 2063 2064 2065 2066 2067 2068 2069 2070 2071 2072 2073 2074 2075 2076 2077 2078 2079 2080 2081 2082 2083 2084 2085 2086 2087 2088 2089 2090 2091 2092 2093 2094 2095 2096 2097 2098 2099 2100 2101 2102 2103 2104 2105 2106 2107 2108 2109 2110 2111 2112 2113 2114 2115 2116 2117 2118 2119 2120 2121 2122 2123 2124 2125 2126 2127 2128 2129 2130 2131 2132 2133 2134 2135 2136 2137 2138 2139 2140 2141 2142 2143 2144 2145 2146 2147 2148 2149 2150 2151 2152 2153 2154 2155 2156 2157 2158 2159 2160 2161 2162 2163 2164 2165 2166 2167 2168 2169 2170 2171 2172 2173 2174 2175 2176 2177 2178 2179 2180 2181 2182 2183 2184 2185 2186 2187 2188 2189 2190 2191 2192 2193 2194 2195 2196 2197 2198 2199 2200 2201 2202 2203 2204 2205 2206 2207 2208 2209 2210 2211 2212 2213 2214 2215 2216 2217 2218 2219 2220 2221 2222 2223 2224 2225 2226 2227 2228 2229 2230 2231 2232 2233 2234 2235 2236 2237 2238 2239 2240 2241 2242 2243 2244 2245 2246 2247 2248 2249 2250 2251 2252 2253 2254 2255 2256 2257 2258 2259 2260 2261 2262 2263 2264 2265 2266 2267 2268 2269 2270 2271 2272 2273 2274 2275 2276 2277 2278 2279 2280 2281 2282 2283 2284 2285 2286 2287 2288 2289 2290 2291 2292 2293 2294 2295 2296 2297 2298 2299 2300 2301 2302 2303 2304 2305 2306 2307 2308 2309 2310 2311 2312 2313 2314 2315 2316 2317 2318 2319 2320 2321 2322 2323 2324 2325 2326 2327 2328 2329 2330 2331 2332 2333 2334 2335 2336 2337 2338 2339 2340 2341 2342 2343 2344 2345 2346 2347 2348 2349 2350 2351 2352 2353 2354 2355 2356 2357 2358 2359 2360 2361 2362 2363 2364 2365 2366 2367 2368 2369 2370 2371 2372 2373 2374 2375 2376 2377 2378 2379 2380 2381 2382 2383 2384 2385 2386 2387 2388 2389 2390 2391 2392 2393 2394 2395 2396 2397 2398 2399 2400 2401 2402 2403 2404 2405 2406 2407 2408 2409 2410 2411 2412 2413 2414 2415 2416 2417 2418 2419 2420 2421 2422 2423 2424 2425 2426 2427 2428 2429 2430 2431 2432 2433 2434 2435 2436 2437 2438 2439 2440 2441 2442 2443 2444 2445 2446 2447 2448 2449 2450 2451 2452 2453 2454 2455 2456 2457 2458 2459 2460 2461 2462 2463 2464 2465 2466 2467 2468 2469 2470 2471 2472 2473 2474 2475 2476 2477 2478 2479 2480 2481 2482 2483 2484 2485 2486 2487 2488 2489 2490 2491 2492 2493 2494 2495 2496 2497 2498 2499 2500 2501 2502 2503 2504 2505 2506 2507 2508 2509 2510 2511 2512 2513 2514 2515 2516 2517 2518 2519 2520 2521 2522 2523 2524 2525 2526 2527 2528 2529 2530 2531 2532 2533 2534 2535 2536 2537 2538 2539 2540 2541 2542 2543 2544 2545 2546 2547 2548 2549 2550 2551 2552 2553 2554 2555 2556 2557 2558 2559 2560 2561 2562 2563 2564 2565 2566 2567 2568 2569 2570 2571 2572 2573 2574 2575 2576 2577 2578 2579 2580 2581 2582 2583 2584 2585 2586 2587 2588 2589 2590 2591 2592 2593 2594 2595 2596 2597 2598 2599 2600 2601 2602 2603 2604 2605 2606 2607 2608 2609 2610 2611 2612 2613 2614 2615 2616 2617 2618 2619 2620 2621 2622 2623 2624 2625 2626 2627 2628 2629 2630 2631 2632 2633 2634 2635 2636 2637 2638 2639 2640 2641 2642 2643 2644 2645 2646 2647 2648 2649 2650 2651 2652 2653 2654 2655 2656 2657 2658 2659 2660 2661 2662 2663 2664 2665 2666 2667 2668 2669 2670 2671 2672 2673 2674 2675 2676 2677 2678 2679 2680 2681 2682 2683 2684 2685 2686 2687 2688 2689 2690 2691 2692 2693 2694 2695 2696 2697 2698 2699 2700 2701 2702 2703 2704 2705 2706 2707 2708 2709 2710 2711 2712 2713 2714 2715 2716 2717 2718 2719 2720 2721 2722 2723 2724 2725 2726 2727 2728 2729 2730 2731 2732 2733 2734 2735 2736 2737 2738 2739 2740 2741 2742 2743 2744 2745 2746 2747 2748 2749 2750 2751 2752 2753 2754 2755 2756 2757 2758 2759 2760 2761 2762 2763 2764 2765 2766 2767 2768 2769 2770 2771 2772 2773 2774 2775 2776 2777 2778 2779 2780 2781 2782 2783 2784 2785 2786 2787 2788 2789 2790 2791 2792 2793 2794 2795 2796 2797 2798 2799 2800 2801 2802 2803 2804 2805 2806 2807 2808 2809 2810 2811 2812 2813 2814 2815 2816 2817 2818 2819 2820 2821 2822 2823 2824 2825 2826 2827 2828 2829 2830 2831 2832 2833 2834 2835 2836 2837 2838 2839 2840 2841 2842 2843 2844 2845 2846 2847 2848 2849 2850 2851 2852 2853 2854 2855 2856 2857 2858 2859 2860 2861 2862 2863 2864 2865 2866 2867 2868 2869 2870 2871 2872 2873 2874 2875 2876 2877 2878 2879 2880 2881 2882 2883 2884 2885 2886 2887 2888 2889 2890 2891 2892 2893 2894 2895 2896 2897 2898 2899 2900 2901 2902 2903 2904 2905 2906 2907 2908 2909 2910 2911 2912 2913 2914 2915 2916 2917 2918 2919 2920 2921 2922 2923 2924 2925 2926 2927 2928 2929 2930 2931 2932 2933 2934 2935 2936 2937 2938 2939 2940 2941 2942 2943 2944 2945 2946 2947 2948 2949 2950 2951 2952 2953 2954 2955 2956 2957 2958 2959 2960 2961 2962 2963 2964 2965 2966 2967 2968 2969 2970 2971 2972 2973 2974 2975 2976 2977 2978 2979 2980 2981 2982 2983 2984 2985 2986 2987 2988 2989 2990 2991 2992 2993 2994 2995 2996 2997 2998 2999 3000 3001 3002 3003 3004 3005 3006 3007 3008 3009 3010 3011 3012 3013 3014 3015 3016 3017 3018 3019 3020 3021 3022 3023 3024 3025 3026 3027 3028 3029 3030 3031 3032 3033 3034 3035 3036 3037 3038 3039 3040 3041 3042 3043 3044 3045 3046 3047 3048 3049 3050 3051 3052 3053 3054 3055 3056 3057 3058 3059 3060 3061 3062 3063 3064 3065 3066 3067 3068 3069 3070 3071 3072 3073 3074 3075 3076 3077 3078 3079 3080 3081 3082 3083 3084 3085 3086 3087 3088 3089 3090 3091 3092 3093 3094 3095 3096 3097 3098 3099 3100 3101 3102 3103 3104 3105 3106 3107 3108 3109 3110 3111 3112 3113 3114 3115 3116 3117 3118 3119 3120 3121 3122 3123 3124 3125 3126 3127 3128 3129 3130 3131 3132 3133 3134 3135 3136 3137 3138 3139 3140 3141 3142 3143 3144 3145 3146 3147 3148 3149 3150 3151 3152 3153 3154 3155 3156 3157 3158 3159 3160 3161 3162 3163 3164 3165 3166 3167 3168 3169 3170 3171 3172 3173 3174 3175 3176 3177 3178 3179 3180 3181 3182 3183 3184 3185 3186 3187 3188 3189 3190 3191 3192 3193 3194 3195 3196 3197 3198 3199 3200 3201 3202 3203 3204 3205 3206 3207 3208 3209 3210 3211 3212 3213 3214 3215 3216 3217 3218 3219 3220 3221 3222 3223 3224 3225 3226 3227 3228 3229 3230 3231 3232 3233 3234 3235 3236 3237 3238 3239 3240 3241 3242 3243 3244 3245 3246 3247 3248 3249 3250 3251 3252 3253 3254 3255 3256 3257 3258 3259 3260 3261 3262 3263 3264 3265 3266 3267 3268 3269 3270 3271 3272 3273 3274 3275 3276 3277 3278 3279 3280 3281 3282 3283 3284 3285 3286 3287 3288 3289 3290 3291 3292 3293 3294 3295 3296 3297 3298 3299 3300 3301 3302 3303 3304 3305 3306 3307 3308 3309 3310 3311 3312 3313 3314 3315 3316 3317 3318 3319 3320 3321 3322 3323 3324 3325 3326 3327 3328 3329 3330 3331 3332 3333 3334 3335 3336 3337 3338 3339 3340 3341 3342 3343 3344 3345 3346 3347 3348 3349 3350 3351 3352 3353 3354 3355 3356 3357 3358 3359 3360 3361 3362 3363 3364 3365 3366 3367 3368 3369 3370 3371 3372 3373 3374 3375 3376 3377 3378 3379 3380 3381 3382 3383 3384 3385 3386 3387 3388 3389 3390 3391 3392 3393 3394 3395 3396 3397 3398 3399 3400 3401 3402 3403 3404 3405 3406 3407 3408 3409 3410 3411 3412 3413 3414 3415 3416 3417 3418 3419 3420 3421 3422 3423 3424 3425 3426 3427 3428 3429 3430 3431 3432 3433 3434 3435 3436 3437 3438 3439 3440 3441 3442 3443 3444 3445 3446 3447 3448 3449 3450 3451 3452 3453 3454 3455 3456 3457 3458 3459 3460 3461 3462 3463 3464 3465 3466 3467 3468 3469 3470 3471 3472 3473 3474 3475 3476 3477 3478 3479 3480 3481 3482 3483 3484 3485 3486 3487 3488 3489 3490 3491 3492 3493 3494 3495 3496 3497 3498 3499 3500 3501 3502 3503 3504 3505 3506 3507 3508 3509 3510 3511 3512 3513 3514 3515 3516 3517 3518 3519 3520 3521 3522 3523 3524 3525 3526 3527 3528 3529 3530 3531 3532 3533 3534 3535 3536 3537 3538 3539 3540 3541 3542 3543 3544 3545 3546 3547 3548 3549 3550 3551 3552 3553 3554 3555 3556 3557 3558 3559 3560 3561 3562 3563 3564 3565 3566 3567 3568 3569 3570 3571 3572 3573 3574 3575 3576 3577 3578 3579 3580 3581 3582 3583 3584 3585 3586 3587 3588 3589 3590 3591 3592 3593 3594 3595 3596 3597 3598 3599 3600 3601 3602 3603 3604 3605 3606 3607 3608 3609 3610 3611 3612 3613 3614 3615 3616 3617 3618 3619 3620 3621 3622 3623 3624 3625 3626 3627 3628 3629 3630 3631 3632 3633 3634 3635 3636 3637 3638 3639 3640 3641 3642 3643 3644 3645 3646 3647 3648 3649 3650 3651 3652 3653 3654 3655 3656 3657 3658 3659 3660 3661 3662 3663 3664 3665 3666 3667 3668 3669 3670 3671 3672 3673 3674 3675 3676 3677 3678 3679 3680 3681 3682 3683 3684 3685 3686 3687 3688 3689 3690 3691 3692 3693 3694 3695 3696 3697 3698 3699 3700 3701 3702 3703 3704 3705 3706 3707 3708 3709 3710 3711 3712 3713 3714 3715 3716 3717 3718 3719 3720 3721 3722 3723 3724 3725 3726 3727 3728 3729 3730 3731 3732 3733 3734 3735 3736 3737 3738 3739 3740 3741 3742 3743 3744 3745 3746 3747 3748 3749 3750 3751 3752 3753 3754 3755 3756 3757 3758 3759 3760 3761 3762 3763 3764 3765 3766 3767 3768 3769 3770 3771 3772 3773 3774 3775 3776 3777 3778 3779 3780 3781 3782 3783 3784 3785 3786 3787 3788 3789 3790 3791 3792 3793 3794 3795 3796 3797 3798 3799 3800 3801 3802 3803 3804 3805 3806 3807 3808 3809 3810 3811 3812 3813 3814 3815 3816 3817 3818 3819 3820 3821 3822 3823 3824 3825 3826 3827 3828 3829 3830 3831 3832 3833 3834 3835 3836 3837 3838 3839 3840 3841 3842 3843 3844 3845 3846 3847 3848 3849 3850 3851 3852 3853 3854 3855 3856 3857 3858 3859 3860 3861 3862 3863 3864 3865 3866 3867 3868 3869 3870 3871 3872 3873 3874 3875 3876 3877 3878 3879 3880 3881 3882 3883 3884 3885 3886 3887 3888 3889 3890 3891 3892 3893 3894 3895 3896 3897 3898 3899 3900 3901 3902 3903 3904 3905 3906 3907 3908 3909 3910 3911 3912 3913 3914 3915 3916 3917 3918 3919 3920 3921 3922 3923 3924 3925 3926 3927 3928 3929 3930 3931 3932 3933 3934 3935 3936 3937 3938 3939 3940 3941 3942 3943 3944 3945 3946 3947 3948 3949 3950 3951 3952 3953 3954 3955 3956 3957 3958 3959 3960 3961 3962 3963 3964 3965 3966 3967 3968 3969 3970 3971 3972 3973 3974 3975 3976 3977 3978 3979 3980 3981 3982 3983 3984 3985 3986 3987 3988 3989 3990 3991 3992 3993 3994 3995 3996 3997 3998 3999 4000 4001 4002 4003 4004 4005 4006 4007 4008 4009 4010 4011 4012 4013 4014 4015 4016 4017 4018 4019 4020 4021 4022 4023 4024 4025 4026 4027 4028 4029 4030 4031 4032 4033 4034 4035 4036 4037 4038 4039 4040 4041 4042 4043 4044 4045 4046 4047 4048 4049 4050 4051 4052 4053 4054 4055 4056 4057 4058 4059 4060 4061 4062 4063 4064 4065 4066 4067 4068 4069 4070 4071 4072 4073 4074 4075 4076 4077 4078 4079 4080 4081 4082 4083 4084 4085 4086 4087 4088 4089 4090 4091 4092 4093 4094 4095 4096 4097 4098 4099 4100 4101 4102 4103 4104 4105 4106 4107 4108 4109 4110 4111 4112 4113 4114 4115 4116 4117 4118 4119 4120 4121 4122 4123 4124 4125 4126 4127 4128 4129 4130 4131 4132 4133 4134 4135 4136 4137 4138 4139 4140 4141 4142 4143 4144 4145 4146 4147 4148 4149 4150 4151 4152 4153 4154 4155 4156 4157 4158 4159 4160 4161 4162 4163 4164 4165 4166 4167 4168 4169 4170 4171 4172 4173 4174 4175 4176 4177 4178 4179 4180 4181 4182 4183 4184 4185 4186 4187 4188 4189 4190 4191 4192 4193 4194 4195 4196 4197 4198 4199 4200 4201 4202 4203 4204 4205 4206 4207 4208 4209 4210 4211 4212 4213 4214 4215 4216 4217 4218 4219 4220 4221 4222 4223 4224 4225 4226 4227 4228 4229 4230 4231 4232 4233 4234 4235 4236 4237 4238 4239 4240 4241 4242 4243 4244 4245 4246 4247 4248 4249 4250 4251 4252 4253 4254 4255 4256 4257 4258 4259 4260 4261 4262 4263 4264 4265 4266 4267 4268 4269 4270 4271 4272 4273 4274 4275 4276 4277 4278 4279 4280 4281 4282 4283 4284 4285 4286 4287 4288 4289 4290 4291 4292 4293 4294 4295 4296 4297 4298 4299 4300 4301 4302 4303 4304 4305 4306 4307 4308 4309 4310 4311 4312 4313 4314 4315 4316 4317 4318 4319 4320 4321 4322 4323 4324 4325 4326 4327 4328 4329 4330 4331 4332 4333 4334 4335 4336 4337 4338 4339 4340 4341 4342 4343 4344 4345 4346 4347 4348 4349 4350 4351 4352 4353 4354 4355 4356 4357 4358 4359 4360 4361 4362 4363 4364 4365 4366 4367 4368 4369 4370 4371 4372 4373 4374 4375 4376 4377 4378 4379 4380 4381 4382 4383 4384 4385 4386 4387 4388 4389 4390 4391 4392 4393 4394 4395 4396 4397 4398 4399 4400 4401 4402 4403 4404 4405 4406 4407 4408 4409 4410 4411 4412 4413 4414 4415 4416 4417 4418 4419 4420 4421 4422 4423 4424 4425 4426 4427 4428 4429 4430 4431 4432 4433 4434 4435 4436 4437 4438 4439 4440 4441 4442 4443 4444 4445 4446 4447 4448 4449 4450 4451 4452 4453 4454 4455 4456 4457 4458 4459 4460 4461 4462 4463 4464 4465 4466 4467 4468 4469 4470 4471 4472 4473 4474 4475 4476 4477 4478 4479 4480 4481 4482 4483 4484 4485 4486 4487 4488 4489 4490 4491 4492 4493 4494 4495 4496 4497 4498 4499 4500 4501 4502 4503 4504 4505 4506 4507 4508 4509 4510 4511 4512 4513 4514 4515 4516 4517 4518 4519 4520 4521 4522 4523 4524 4525 4526 4527 4528 4529 4530 4531 4532 4533 4534 4535 4536 4537 4538 4539 4540 4541 4542 4543 4544 4545 4546 4547 4548 4549 4550 4551 4552 4553 4554 4555 4556 4557 4558 4559 4560 4561 4562 4563 4564 4565 4566 4567 4568 4569 4570 4571 4572 4573 4574 4575 4576 4577 4578 4579 4580 4581 4582 4583 4584 4585 4586 4587 4588 4589 4590 4591 4592 4593 4594 4595 4596 4597 4598 4599 4600 4601 4602 4603 4604 4605 4606 4607 4608 4609 4610 4611 4612 4613 4614 4615 4616 4617 4618 4619 4620 4621 4622 4623 4624 4625 4626 4627 4628 4629 4630 4631 4632 4633 4634 4635 4636 4637 4638 4639 4640 4641 4642 4643 4644 4645 4646 4647 4648 4649 4650 4651 4652 4653 4654 4655 4656 4657 4658 4659 4660 4661 4662 4663 4664 4665 4666 4667 4668 4669 4670 4671 4672 4673 4674 4675 4676 4677 4678 4679 4680 4681 4682 4683 4684 4685 4686 4687 4688 4689 4690 4691 4692 4693 4694 4695 4696 4697 4698 4699 4700 4701 4702 4703 4704 4705 4706 4707 4708 4709 4710 4711 4712 4713 4714 4715 4716 4717 4718 4719 4720 4721 4722 4723 4724 4725 4726 4727 4728 4729 4730 4731 4732 4733 4734 4735 4736 4737 4738 4739 4740 4741 4742 4743 4744 4745 4746 4747 4748 4749 4750 4751 4752 4753 4754 4755 4756 4757 4758 4759 4760 4761 4762 4763 4764 4765 4766 4767 4768 4769 4770 4771 4772 4773 4774 4775 4776 4777 4778 4779 4780 4781 4782 4783 4784 4785 4786 4787 4788 4789 4790 4791 4792 4793 4794 4795 4796 4797 4798 4799 4800 4801 4802 4803 4804 4805 4806 4807 4808 4809 4810 4811 4812 4813 4814 4815 4816 4817 4818 4819 4820 4821 4822 4823 4824 4825 4826 4827 4828 4829 4830 4831 4832 4833 4834 4835 4836 4837 4838 4839 4840 4841 4842 4843 4844 4845 4846 4847 4848 4849 4850 4851 4852 4853 4854 4855 4856 4857 4858 4859 4860 4861 4862 4863 4864 4865 4866 4867 4868 4869 4870 4871 4872 4873 4874 4875 4876 4877 4878 4879 4880 4881 4882 4883 4884 4885 4886 4887 4888 4889 4890 4891 4892 4893 4894 4895 4896 4897 4898 4899 4900 4901 4902 4903 4904 4905 4906 4907 4908 4909 4910 4911 4912 4913 4914 4915 4916 4917 4918 4919 4920 4921 4922 4923 4924 4925 4926 4927 4928 4929 4930 4931 4932 4933 4934 4935 4936 4937 4938 4939 4940 4941 4942 4943 4944 4945 4946 4947 4948 4949 4950 4951 4952 4953 4954 4955 4956 4957 4958 4959 4960 4961 4962 4963 4964 4965 4966 4967 4968 4969 4970 4971 4972 4973 4974 4975 4976 4977 4978 4979 4980 4981 4982 4983 4984 4985 4986 4987 4988 4989 4990 4991 4992 4993 4994 4995 4996 4997 4998 4999 5000 5001 5002 5003 5004 5005 5006 5007 5008 5009 5010 5011 5012 5013 5014 5015 5016 5017 5018 5019 5020 5021 5022 5023 5024 5025 5026 5027 5028 5029 5030 5031 5032 5033 5034 5035 5036 5037 5038 5039 5040 5041 5042 5043 5044 5045 5046 5047 5048 5049 5050 5051 5052 5053 5054 5055 5056 5057 5058 5059 5060 5061 5062 5063 5064 5065 5066 5067 5068 5069 5070 5071 5072 5073 5074 5075 5076 5077 5078 5079 5080 5081 5082 5083 5084 5085 5086 5087 5088 5089 5090 5091 5092 5093 5094 5095 5096 5097 5098 5099 5100 5101 5102 5103 5104 5105 5106 5107 5108 5109 5110 5111 5112 5113 5114 5115 5116 5117 5118 5119 5120 5121 5122 5123 5124 5125 5126 5127 5128 5129 5130 5131 5132 5133 5134 5135 5136 5137 5138 5139 5140 5141 5142 5143 5144 5145 5146 5147 5148 5149 5150 5151 5152 5153 5154 5155 5156 5157 5158 5159 5160 5161 5162 5163 5164 5165 5166 5167 5168 5169 5170 5171 5172 5173 5174 5175 5176 5177 5178 5179 5180 5181 5182 5183 5184 5185 5186 5187 5188 5189 5190 5191 5192 5193 5194 5195 5196 5197 5198 5199 5200 5201 5202 5203 5204 5205 5206 5207 5208 5209 5210 5211 5212 5213 5214 5215 5216 5217 5218 5219 5220 5221 5222 5223 5224 5225 5226 5227 5228 5229 5230 5231 5232 5233 5234 5235 5236 5237 5238 5239 5240 5241 5242 5243 5244 5245 5246 5247 5248 5249 5250 5251 5252 5253 5254 5255 5256 5257 5258 5259 5260 5261 5262 5263 5264 5265 5266 5267 5268 5269 5270 5271 5272 5273 5274 5275 5276 5277 5278 5279 5280 5281 5282 5283 5284 5285 5286 5287 5288 5289 5290 5291 5292 5293 5294 5295 5296 5297 5298 5299 5300 5301 5302 5303 5304 5305 5306 5307 5308 5309 5310 5311 5312 5313 5314 5315 5316 5317 5318 5319 5320 5321 5322 5323 5324 5325 5326 5327 5328 5329 5330 5331 5332 5333 5334 5335 5336 5337 5338 5339 5340 5341 5342 5343 5344 5345 5346 5347 5348 5349 5350 5351 5352 5353 5354 5355 5356 5357 5358 5359 5360 5361 5362 5363 5364 5365 5366 5367 5368 5369 5370 5371 5372 5373 5374 5375 5376 5377 5378 5379 5380 5381 5382 5383 5384 5385 5386 5387 5388 5389 5390 5391 5392 5393 5394 5395 5396 5397 5398 5399 5400 5401 5402 5403 5404 5405 5406 5407 5408 5409 5410 5411 5412 5413 5414 5415 5416 5417 5418 5419 5420 5421 5422 5423 5424 5425 5426 5427 5428 5429 5430 5431 5432 5433 5434 5435 5436 5437 5438 5439 5440 5441 5442 5443 5444 5445 5446 5447 5448 5449 5450 5451 5452 5453 5454 5455 5456 5457 5458 5459 5460 5461 5462 5463 5464 5465 5466 5467 5468 5469 5470 5471 5472 5473 5474 5475 5476 5477 5478 5479 5480 5481 5482 5483 5484 5485 5486 5487 5488 5489 5490 5491 5492 5493 5494 5495 5496 5497 5498 5499 5500 5501 5502 5503 5504 5505 5506 5507 5508 5509 5510 5511 5512 5513 5514 5515 5516 5517 5518 5519 5520 5521 5522 5523 5524 5525 5526 5527 5528 5529 5530 5531 5532 5533 5534 5535 5536 5537 5538 5539 5540 5541 5542 5543 5544 5545 5546 5547 5548 5549 5550 5551 5552 5553 5554 5555 5556 5557 5558 5559 5560 5561 5562 5563 5564 5565 5566 5567 5568 5569 5570 5571 5572 5573 5574 5575 5576 5577 5578 5579 5580 5581 5582 5583 5584 5585 5586 5587 5588 5589 5590 5591 5592 5593 5594 5595 5596 5597 5598 5599 5600 5601 5602 5603 5604 5605 5606 5607 5608 5609 5610 5611 5612 5613 5614 5615 5616 5617 5618 5619 5620 5621 5622 5623 5624 5625 5626 5627 5628 5629 5630 5631 5632 5633 5634 5635 5636 5637 5638 5639 5640 5641 5642 5643 5644 5645 5646 5647 5648 5649 5650 5651 5652 5653 5654 5655 5656 5657 5658 5659 5660 5661 5662 5663 5664 5665 5666 5667 5668 5669 5670 5671 5672 5673 5674 5675 5676 5677 5678 5679 5680 5681 5682 5683 5684 5685 5686 5687 5688 5689 5690 5691 5692 5693 5694 5695 5696 5697 5698 5699 5700 5701 5702 5703 5704 5705 5706 5707 5708 5709 5710 5711 5712 5713 5714 5715 5716 5717 5718 5719 5720 5721 5722 5723 5724 5725 5726 5727 5728 5729 5730 5731 5732 5733 5734 5735 5736 5737 5738 5739 5740 5741 5742 5743 5744 5745 5746 5747 5748 5749 5750 5751 5752 5753 5754 5755 5756 5757 5758 5759 5760 5761 5762 5763 5764 5765 5766 5767 5768 5769 5770 5771 5772 5773 5774 5775 5776 5777 5778 5779 5780 5781 5782 5783 5784 5785 5786 5787 5788 5789 5790 5791 5792 5793 5794 5795 5796 5797 5798 5799 5800 5801 5802 5803 5804 5805 5806 5807 5808 5809 5810 5811 5812 5813 5814 5815 5816 5817 5818 5819 5820 5821 5822 5823 5824 5825 5826 5827 5828 5829 5830 5831 5832 5833 5834 5835 5836 5837 5838 5839 5840 5841 5842 5843 5844 5845 5846 5847 5848 5849 5850 5851 5852 5853 5854 5855 5856 5857 5858 5859 5860 5861 5862 5863 5864 5865 5866 5867 5868 5869 5870 5871 5872 5873 5874 5875 5876 5877 5878 5879 5880 5881 5882 5883 5884 5885 5886 5887 5888 5889 5890 5891 5892 5893 5894 5895 5896 5897 5898 5899 5900 5901 5902 5903 5904 5905 5906 5907 5908 5909 5910 5911 5912 5913 5914 5915 5916 5917 5918 5919 5920 5921 5922 5923 5924 5925 5926 5927 5928 5929 5930 5931 5932 5933 5934 5935 5936 5937 5938 5939 5940 5941 5942 5943 5944 5945 5946 5947 5948 5949 5950 5951 5952 5953 5954 5955 5956 5957 5958 5959 5960 5961 5962 5963 5964 5965 5966 5967 5968 5969 5970 5971 5972 5973 5974 5975 5976 5977 5978 5979 5980 5981 5982 5983 5984 5985 5986 5987 5988 5989 5990 5991 5992 5993 5994 5995 5996 5997 5998 5999 6000 6001 6002 6003 6004 6005 6006 6007 6008 6009 6010 6011 6012 6013 6014 6015 6016 6017 6018 6019 6020 6021 6022 6023 6024 6025 6026 6027 6028 6029 6030 6031 6032 6033 6034 6035 6036 6037 6038 6039 6040 6041 6042 6043 6044 6045 6046 6047 6048 6049 6050 6051 6052 6053 6054 6055 6056 6057 6058 6059 6060 6061 6062 6063 6064 6065 6066 6067 6068 6069 6070 6071 6072 6073 6074 6075 6076 6077 6078 6079 6080 6081 6082 6083 6084 6085 6086 6087 6088 6089 6090 6091 6092 6093 6094 6095 6096 6097 6098 6099 6100 6101 6102 6103 6104 6105 6106 6107 6108 6109 6110 6111 6112 6113 6114 6115 6116 6117 6118 6119 6120 6121 6122 6123 6124 6125 6126 6127 6128 6129 6130 6131 6132 6133 6134 6135 6136 6137 6138 6139 6140 6141 6142 6143 6144 6145 6146 6147 6148 6149 6150 6151 6152 6153 6154 6155 6156 6157 6158 6159 6160 6161 6162 6163 6164 6165 6166 6167 6168 6169 6170 6171 6172 6173 6174 6175 6176 6177 6178 6179 6180 6181 6182 6183 6184 6185 6186 6187 6188 6189 6190 6191 6192 6193 6194 6195 6196 6197 6198 6199 6200 6201 6202 6203 6204 6205 6206 6207 6208 6209 6210 6211 6212 6213 6214 6215 6216 6217 6218 6219 6220 6221 6222 6223 6224 6225 6226 6227 6228 6229 6230 6231 6232 6233 6234 6235 6236 6237 6238 6239 6240 6241 6242 6243 6244 6245 6246 6247 6248 6249 6250 6251 6252 6253 6254 6255 6256 6257 6258 6259 6260 6261 6262 6263 6264 6265 6266 6267 6268 6269 6270 6271 6272 6273 6274 6275 6276 6277 6278 6279 6280 6281 6282 6283 6284 6285 6286 6287 6288 6289 6290 6291 6292 6293 6294 6295 6296 6297 6298 6299 6300 6301 6302 6303 6304 6305 6306 6307 6308 6309 6310 6311 6312 6313 6314 6315 6316 6317 6318 6319 6320 6321 6322 6323 6324 6325 6326 6327 6328 6329 6330 6331 6332 6333 6334 6335 6336 6337 6338 6339 6340 6341 6342 6343 6344 6345 6346 6347 6348 6349 6350 6351 6352 6353 6354 6355 6356 6357 6358 6359 6360 6361 6362 6363 6364 6365 6366 6367 6368 6369 6370 6371 6372 6373 6374 6375 6376 6377 6378 6379 6380 6381 6382 6383 6384 6385 6386 6387 6388 6389 6390 6391 6392 6393 6394 6395 6396 6397 6398 6399 6400 6401 6402 6403 6404 6405 6406 6407 6408 6409 6410 6411 6412 6413 6414 6415 6416 6417 6418 6419 6420 6421 6422 6423 6424 6425 6426 6427 6428 6429 6430 6431 6432 6433 6434 6435 6436 6437 6438 6439 6440 6441 6442 6443 6444 6445 6446 6447 6448 6449 6450 6451 6452 6453 6454 6455 6456 6457 6458 6459 6460 6461 6462 6463 6464 6465 6466 6467 6468 6469 6470 6471 6472 6473 6474 6475 6476 6477 6478 6479 6480 6481 6482 6483 6484 6485 6486 6487 6488 6489 6490 6491 6492 6493 6494 6495 6496 6497 6498 6499 6500 6501 6502 6503 6504 6505 6506 6507 6508 6509 6510 6511 6512 6513 6514 6515 6516 6517 6518 6519 6520 6521 6522 6523 6524 6525 6526 6527 6528 6529 6530 6531 6532 6533 6534 6535 6536 6537 6538 6539 6540 6541 6542 6543 6544 6545 6546 6547 6548 6549 6550 6551 6552 6553 6554 6555 6556 6557 6558 6559 6560 6561 6562 6563 6564 6565 6566 6567 6568 6569 6570 6571 6572 6573 6574 6575 6576 6577 6578 6579 6580 6581 6582 6583 6584 6585 6586 6587 6588 6589 6590 6591 6592 6593 6594 6595 6596 6597 6598 6599 6600 6601 6602 6603 6604 6605 6606 6607 6608 6609 6610 6611 6612 6613 6614 6615 6616 6617 6618 6619 6620 6621 6622 6623 6624 6625 6626 6627 6628 6629 6630 6631 6632 6633 6634 6635 6636 6637 6638 6639 6640 6641 6642 6643 6644 6645 6646 6647 6648 6649 6650 6651 6652 6653 6654 6655 6656 6657 6658 6659 6660 6661 6662 6663 6664 6665 6666 6667 6668 6669 6670 6671 6672 6673 6674 6675 6676 6677 6678 6679 6680 6681 6682 6683 6684 6685 6686 6687 6688 6689 6690 6691 6692 6693 6694 6695 6696 6697 6698 6699 6700 6701 6702 6703 6704 6705 6706 6707 6708 6709 6710 6711 6712 6713 6714 6715 6716 6717 6718 6719 6720 6721 6722 6723 6724 6725 6726 6727 6728 6729 6730 6731 6732 6733 6734 6735 6736 6737 6738 6739 6740 6741 6742 6743 6744 6745 6746 6747 6748 6749 6750 6751 6752 6753 6754 6755 6756 6757 6758 6759 6760 6761 6762 6763 6764 6765 6766 6767 6768 6769 6770 6771 6772 6773 6774 6775 6776 6777 6778 6779 6780 6781 6782 6783 6784 6785 6786 6787 6788 6789 6790 6791 6792 6793 6794 6795 6796 6797 6798 6799 6800 6801 6802 6803 6804 6805 6806 6807 6808 6809 6810 6811 6812 6813 6814 6815 6816 6817 6818 6819 6820 6821 6822 6823 6824 6825 6826 6827 6828 6829 6830 6831 6832 6833 6834 6835 6836 6837 6838 6839 6840 6841 6842 6843 6844 6845 6846 6847 6848 6849 6850 6851 6852 6853 6854 6855 6856 6857 6858 6859 6860 6861 6862 6863 6864 6865 6866 6867 6868 6869 6870 6871 6872 6873 6874 6875 6876 6877 6878 6879 6880 6881 6882 6883 6884 6885 6886 6887 6888 6889 6890 6891 6892 6893 6894 6895 6896 6897 6898 6899 6900 6901 6902 6903 6904 6905 6906 6907 6908 6909 6910 6911 6912 6913 6914 6915 6916 6917 6918 6919 6920 6921 6922 6923 6924 6925 6926 6927 6928 6929 6930 6931 6932 6933 6934 6935 6936 6937 6938 6939 6940 6941 6942 6943 6944 6945 6946 6947 6948 6949 6950 6951 6952 6953 6954 6955 6956 6957 6958 6959 6960 6961 6962 6963 6964 6965 6966 6967 6968 6969 6970 6971 6972 6973 6974 6975 6976 6977 6978 6979 6980 6981 6982 6983 6984 6985 6986 6987 6988 6989 6990 6991 6992 6993 6994 6995 6996 6997 6998 6999 7000 7001 7002 7003 7004 7005 7006 7007 7008 7009 7010 7011 7012 7013 7014 7015 7016 7017 7018 7019 7020 7021 7022 7023 7024 7025 7026 7027 7028 7029 7030 7031 7032 7033 7034 7035 7036 7037 7038 7039 7040 7041 7042 7043 7044 7045 7046 7047 7048 7049 7050 7051 7052 7053 7054 7055 7056 7057 7058 7059 7060 7061 7062 7063 7064 7065 7066 7067 7068 7069 7070 7071 7072 7073 7074 7075 7076 7077 7078 7079 7080 7081 7082 7083 7084 7085 7086 7087 7088 7089 7090 7091 7092 7093 7094 7095 7096 7097 7098 7099 7100 7101 7102 7103 7104 7105 7106 7107 7108 7109 7110 7111 7112 7113 7114 7115 7116 7117 7118 7119 7120 7121 7122 7123 7124 7125 7126 7127 7128 7129 7130 7131 7132 7133 7134 7135 7136 7137 7138 7139 7140 7141 7142 7143 7144 7145 7146 7147 7148 7149 7150 7151 7152 7153 7154 7155 7156 7157 7158 7159 7160 7161 7162 7163 7164 7165 7166 7167 7168 7169 7170 7171 7172 7173 7174 7175 7176 7177 7178 7179 7180 7181 7182 7183 7184 7185 7186 7187 7188 7189 7190 7191 7192 7193 7194 7195 7196 7197 7198 7199 7200 7201 7202 7203 7204 7205 7206 7207 7208 7209 7210 7211 7212 7213 7214 7215 7216 7217 7218 7219 7220 7221 7222 7223 7224 7225 7226 7227 7228 7229 7230 7231 7232 7233 7234 7235 7236 7237 7238 7239 7240 7241 7242 7243 7244 7245 7246 7247 7248 7249 7250 7251 7252 7253 7254 7255 7256 7257 7258 7259 7260 7261 7262 7263 7264 7265 7266 7267 7268 7269 7270 7271 7272 7273 7274 7275 7276 7277 7278 7279 7280 7281 7282 7283 7284 7285 7286 7287 7288 7289 7290 7291 7292 7293 7294 7295 7296 7297 7298 7299 7300 7301 7302 7303 7304 7305 7306 7307 7308 7309 7310 7311 7312 7313 7314 7315 7316 7317 7318 7319 7320 7321 7322 7323 7324 7325 7326 7327 7328 7329 7330 7331 7332 7333 7334 7335 7336 7337 7338 7339 7340 7341 7342 7343 7344 7345 7346 7347 7348 7349 7350 7351 7352 7353 7354 7355 7356 7357 7358 7359 7360 7361 7362 7363 7364 7365 7366 7367 7368 7369 7370 7371 7372 7373 7374 7375 7376 7377 7378 7379 7380 7381 7382 7383 7384 7385 7386 7387 7388 7389 7390 7391 7392 7393 7394 7395 7396 7397 7398 7399 7400 7401 7402 7403 7404 7405 7406 7407 7408 7409 7410 7411 7412 7413 7414 7415 7416 7417 7418 7419 7420 7421 7422 7423 7424 7425 7426 7427 7428 7429 7430 7431 7432 7433 7434 7435 7436 7437 7438 7439 7440 7441 7442 7443 7444 7445 7446 7447 7448 7449 7450 7451 7452 7453 7454 7455 7456 7457 7458 7459 7460 7461 7462 7463 7464 7465 7466 7467 7468 7469 7470 7471 7472 7473 7474 7475 7476 7477 7478 7479 7480 7481 7482 7483 7484 7485 7486 7487 7488 7489 7490 7491 7492 7493 7494 7495 7496 7497 7498 7499 7500 7501 7502 7503 7504 7505 7506 7507 7508 7509 7510 7511 7512 7513 7514 7515 7516 7517 7518 7519 7520 7521 7522 7523 7524 7525 7526 7527 7528 7529 7530 7531 7532 7533 7534 7535 7536 7537 7538 7539 7540 7541 7542 7543 7544 7545 7546 7547 7548 7549 7550 7551 7552 7553 7554 7555 7556 7557 7558 7559 7560 7561 7562 7563 7564 7565 7566 7567 7568 7569 7570 7571 7572 7573 7574 7575 7576 7577 7578 7579 7580 7581 7582 7583 7584 7585 7586 7587 7588 7589 7590 7591 7592 7593 7594 7595 7596 7597 7598 7599 7600 7601 7602 7603 7604 7605 7606 7607 7608 7609 7610 7611 7612 7613 7614 7615 7616 7617 7618 7619 7620 7621 7622 7623 7624 7625 7626 7627 7628 7629 7630 7631 7632 7633 7634 7635 7636 7637 7638 7639 7640 7641 7642 7643 7644 7645 7646 7647 7648 7649 7650 7651 7652 7653 7654 7655 7656 7657 7658 7659 7660 7661 7662 7663 7664 7665 7666 7667 7668 7669 7670 7671 7672 7673 7674 7675 7676 7677 7678 7679 7680 7681 7682 7683 7684 7685 7686 7687 7688 7689 7690 7691 7692 7693 7694 7695 7696 7697 7698 7699 7700 7701 7702 7703 7704 7705 7706 7707 7708 7709 7710 7711 7712 7713 7714 7715 7716 7717 7718 7719 7720 7721 7722 7723 7724 7725 7726 7727 7728 7729 7730 7731 7732 7733 7734 7735 7736 7737 7738 7739 7740 7741 7742 7743 7744 7745 7746 7747 7748 7749 7750 7751 7752 7753 7754 7755 7756 7757 7758 7759 7760 7761 7762 7763 7764 7765 7766 7767 7768 7769 7770 7771 7772 7773 7774 7775 7776 7777 7778 7779 7780 7781 7782 7783 7784 7785 7786 7787 7788 7789 7790 7791 7792 7793 7794 7795 7796 7797 7798 7799 7800 7801 7802 7803 7804 7805 7806 7807 7808 7809 7810 7811 7812 7813 7814 7815 7816 7817 7818 7819 7820 7821 7822 7823 7824 7825 7826 7827 7828 7829 7830 7831 7832 7833 7834 7835 7836 7837 7838 7839 7840 7841 7842 7843 7844 7845 7846 7847 7848 7849 7850 7851 7852 7853 7854 7855 7856 7857 7858 7859 7860 7861 7862 7863 7864 7865 7866 7867 7868 7869 7870 7871 7872 7873 7874 7875 7876 7877 7878 7879 7880 7881 7882 7883 7884 7885 7886 7887 7888 7889 7890 7891 7892 7893 7894 7895 7896 7897 7898 7899 7900 7901 7902 7903 7904 7905 7906 7907 7908 7909 7910 7911 7912 7913 7914 7915 7916 7917 7918 7919 7920 7921 7922 7923 7924 7925 7926 7927 7928 7929 7930 7931 7932 7933 7934 7935 7936 7937 7938 7939 7940 7941 7942 7943 7944 7945 7946 7947 7948 7949 7950 7951 7952 7953 7954 7955 7956 7957 7958 7959 7960 7961 7962 7963 7964 7965 7966 7967 7968 7969 7970 7971 7972 7973 7974 7975 7976 7977 7978 7979 7980 7981 7982 7983 7984 7985 7986 7987 7988 7989 7990 7991 7992 7993 7994 7995 7996 7997 7998 7999 8000 8001 8002 8003 8004 8005 8006 8007 8008 8009 8010 8011 8012 8013 8014 8015 8016 8017 8018 8019 8020 8021 8022 8023 8024 8025 8026 8027 8028 8029 8030 8031 8032 8033 8034 8035 8036 8037 8038 8039 8040 8041 8042 8043 8044 8045 8046 8047 8048 8049 8050 8051 8052 8053 8054 8055 8056 8057 8058 8059 8060 8061 8062 8063 8064 8065 8066 8067 8068 8069 8070 8071 8072 8073 8074 8075 8076 8077 8078 8079 8080 8081 8082 8083 8084 8085 8086 8087 8088 8089 8090 8091 8092 8093 8094 8095 8096 8097 8098 8099 8100 8101 8102 8103 8104 8105 8106 8107 8108 8109 8110 8111 8112 8113 8114 8115 8116 8117 8118 8119 8120 8121 8122 8123 8124 8125 8126 8127 8128 8129 8130 8131 8132 8133 8134 8135 8136 8137 8138 8139 8140 8141 8142 8143 8144 8145 8146 8147 8148 8149 8150 8151 8152 8153 8154 8155 8156 8157 8158 8159 8160 8161 8162 8163 8164 8165 8166 8167 8168 8169 8170 8171 8172 8173 8174 8175 8176 8177 8178 8179 8180 8181 8182 8183 8184 8185 8186 8187 8188 8189 8190 8191 8192 8193 8194 8195 8196 8197 8198 8199 8200 8201 8202 8203 8204 8205 8206 8207 8208 8209 8210 8211 8212 8213 8214 8215 8216 8217 8218 8219 8220 8221 8222 8223 8224 8225 8226 8227 8228 8229 8230 8231 8232 8233 8234 8235 8236 8237 8238 8239 8240 8241 8242 8243 8244 8245 8246 8247 8248 8249 8250 8251 8252 8253 8254 8255 8256 8257 8258 8259 8260 8261 8262 8263 8264 8265 8266 8267 8268 8269 8270 8271 8272 8273 8274 8275 8276 8277 8278 8279 8280 8281 8282 8283 8284 8285 8286 8287 8288 8289 8290 8291 8292 8293 8294 8295 8296 8297 8298 8299 8300 8301 8302 8303 8304 8305 8306 8307 8308 8309 8310 8311 8312 8313 8314 8315 8316 8317 8318 8319 8320 8321 8322 8323 8324 8325 8326 8327 8328 8329 8330 8331 8332 8333 8334 8335 8336 8337 8338 8339 8340 8341 8342 8343 8344 8345 8346 8347 8348 8349 8350 8351 8352 8353 8354 8355 8356 8357 8358 8359 8360 8361 8362 8363 8364 8365 8366 8367 8368 8369 8370 8371 8372 8373 8374 8375 8376 8377 8378 8379 8380 8381 8382 8383 8384 8385 8386 8387 8388 8389 8390 8391 8392 8393 8394 8395 8396 8397 8398 8399 8400 8401 8402 8403 8404 8405 8406 8407 8408 8409 8410 8411 8412 8413 8414 8415 8416 8417 8418 8419 8420 8421 8422 8423 8424 8425 8426 8427 8428 8429 8430 8431 8432 8433 8434 8435 8436 8437 8438 8439 8440 8441 8442 8443 8444 8445 8446 8447 8448 8449 8450 8451 8452 8453 8454 8455 8456 8457 8458 8459 8460 8461 8462 8463 8464 8465 8466 8467 8468 8469 8470 8471 8472 8473 8474 8475 8476 8477 8478 8479 8480 8481 8482 8483 8484 8485 8486 8487 8488 8489 8490 8491 8492 8493 8494 8495 8496 8497 8498 8499 8500 8501 8502 8503 8504 8505 8506 8507 8508 8509 8510 8511 8512 8513 8514 8515 8516 8517 8518 8519 8520 8521 8522 8523 8524 8525 8526 8527 8528 8529 8530 8531 8532 8533 8534 8535 8536 8537 8538 8539 8540 8541 8542 8543 8544 8545 8546 8547 8548 8549 8550 8551 8552 8553 8554 8555 8556 8557 8558 8559 8560 8561 8562 8563 8564 8565 8566 8567 8568 8569 8570 8571 8572 8573 8574 8575 8576 8577 8578 8579 8580 8581 8582 8583 8584 8585 8586 8587 8588 8589 8590 8591 8592 8593 8594 8595 8596 8597 8598 8599 8600 8601 8602 8603 8604 8605 8606 8607 8608 8609 8610 8611 8612 8613 8614 8615 8616 8617 8618 8619 8620 8621 8622 8623 8624 8625 8626 8627 8628 8629 8630 8631 8632 8633 8634 8635 8636 8637 8638 8639 8640 8641 8642 8643 8644 8645 8646 8647 8648 8649 8650 8651 8652 8653 8654 8655 8656 8657 8658 8659 8660 8661 8662 8663 8664 8665 8666 8667 8668 8669 8670 8671 8672 8673 8674 8675 8676 8677 8678 8679 8680 8681 8682 8683 8684 8685 8686 8687 8688 8689 8690 8691 8692 8693 8694 8695 8696 8697 8698 8699 8700 8701 8702 8703 8704 8705 8706 8707 8708 8709 8710 8711 8712 8713 8714 8715 8716 8717 8718 8719 8720 8721 8722 8723 8724 8725 8726 8727 8728 8729 8730 8731 8732 8733 8734 8735 8736 8737 8738 8739 8740 8741 8742 8743 8744 8745 8746 8747 8748 8749 8750 8751 8752 8753 8754 8755 8756 8757 8758 8759 8760 8761 8762 8763 8764 8765 8766 8767 8768 8769 8770 8771 8772 8773 8774 8775 8776 8777 8778 8779 8780 8781 8782 8783 8784 8785 8786 8787 8788 8789 8790 8791 8792 8793 8794 8795 8796 8797 8798 8799 8800 8801 8802 8803 8804 8805 8806 8807 8808 8809 8810 8811 8812 8813 8814 8815 8816 8817 8818 8819 8820 8821 8822 8823 8824 8825 8826 8827 8828 8829 8830 8831 8832 8833 8834 8835 8836 8837 8838 8839 8840 8841 8842 8843 8844 8845 8846 8847 8848 8849 8850 8851 8852 8853 8854 8855 8856 8857 8858 8859 8860 8861 8862 8863 8864 8865 8866 8867 8868 8869 8870 8871 8872 8873 8874 8875 8876 8877 8878 8879 8880 8881 8882 8883 8884 8885 8886 8887 8888 8889 8890 8891 8892 8893 8894 8895 8896 8897 8898 8899 8900 8901 8902 8903 8904 8905 8906 8907 8908 8909 8910 8911 8912 8913 8914 8915 8916 8917 8918 8919 8920 8921 8922 8923 8924 8925 8926 8927 8928 8929 8930 8931 8932 8933 8934 8935 8936 8937 8938 8939 8940 8941 8942 8943 8944 8945 8946 8947 8948 8949 8950 8951 8952 8953 8954 8955 8956 8957 8958 8959 8960 8961 8962 8963 8964 8965 8966 8967 8968 8969 8970 8971 8972 8973 8974 8975 8976 8977 8978 8979 8980 8981 8982 8983 8984 8985 8986 8987 8988 8989 8990 8991 8992 8993 8994 8995 8996 8997 8998 8999 9000 9001 9002 9003 9004 9005 9006 9007 9008 9009 9010 9011 9012 9013 9014 9015 9016 9017 9018 9019 9020 9021 9022 9023 9024 9025 9026 9027 9028 9029 9030 9031 9032 9033 9034 9035 9036 9037 9038 9039 9040 9041 9042 9043 9044 9045 9046 9047 9048 9049 9050 9051 9052 9053 9054 9055 9056 9057 9058 9059 9060 9061 9062 9063 9064 9065 9066 9067 9068 9069 9070 9071 9072 9073 9074 9075 9076 9077 9078 9079 9080 9081 9082 9083 9084 9085 9086 9087 9088 9089 9090 9091 9092 9093 9094 9095 9096 9097 9098 9099 9100 9101 9102 9103 9104 9105 9106 9107 9108 9109 9110 9111 9112 9113 9114 9115 9116 9117 9118 9119 9120 9121 9122 9123 9124 9125 9126 9127 9128 9129 9130 9131 9132 9133 9134 9135 9136 9137 9138 9139 9140 9141 9142 9143 9144 9145 9146 9147 9148 9149 9150 9151 9152 9153 9154 9155 9156 9157 9158 9159 9160 9161 9162 9163 9164 9165 9166 9167 9168 9169 9170 9171 9172 9173 9174 9175 9176 9177 9178 9179 9180 9181 9182 9183 9184 9185 9186 9187 9188 9189 9190 9191 9192 9193 9194 9195 9196 9197 9198 9199 9200 9201 9202 9203 9204 9205 9206 9207 9208 9209 9210 9211 9212 9213 9214 9215 9216 9217 9218 9219 9220 9221 9222 9223 9224 9225 9226 9227 9228 9229 9230 9231 9232 9233 9234 9235 9236 9237 9238 9239 9240 9241 9242 9243 9244 9245 9246 9247 9248 9249 9250 9251 9252 9253 9254 9255 9256 9257 9258 9259 9260 9261 9262 9263 9264 9265 9266 9267 9268 9269 9270 9271 9272 9273 9274 9275 9276 9277 9278 9279 9280 9281 9282 9283 9284 9285 9286 9287 9288 9289 9290 9291 9292 9293 9294 9295 9296 9297 9298 9299 9300 9301 9302 9303 9304 9305 9306 9307 9308 9309 9310 9311 9312 9313 9314 9315 9316 9317 9318 9319 9320 9321 9322 9323 9324 9325 9326 9327 9328 9329 9330 9331 9332 9333 9334 9335 9336 9337 9338 9339 9340 9341 9342 9343 9344 9345 9346 9347 9348 9349 9350 9351 9352 9353 9354 9355 9356 9357 9358 9359 9360 9361 9362 9363 9364 9365 9366 9367 9368 9369 9370 9371 9372 9373 9374 9375 9376 9377 9378 9379 9380 9381 9382 9383 9384 9385 9386 9387 9388 9389 9390 9391 9392 9393 9394 9395 9396 9397 9398 9399 9400 9401 9402 9403 9404 9405 9406 9407 9408 9409 9410 9411 9412 9413 9414 9415 9416 9417 9418 9419 9420 9421 9422 9423 9424 9425 9426 9427 9428 9429 9430 9431 9432 9433 9434 9435 9436 9437 9438 9439 9440 9441 9442 9443 9444 9445 9446 9447 9448 9449 9450 9451 9452 9453 9454 9455 9456 9457 9458 9459 9460 9461 9462 9463 9464 9465 9466 9467 9468 9469 9470 9471 9472 9473 9474 9475 9476 9477 9478 9479 9480 9481 9482 9483 9484 9485 9486 9487 9488 9489 9490 9491 9492 9493 9494 9495 9496 9497 9498 9499 9500 9501 9502 9503 9504 9505 9506 9507 9508 9509 9510 9511 9512 9513 9514 9515 9516 9517 9518 9519 9520 9521 9522 9523 9524 9525 9526 9527 9528 9529 9530 9531 9532 9533 9534 9535 9536 9537 9538 9539 9540 9541 9542 9543 9544 9545 9546 9547 9548 9549 9550 9551 9552 9553 9554 9555 9556 9557 9558 9559 9560 9561 9562 9563 9564 9565 9566 9567 9568 9569 9570 9571 9572 9573 9574 9575 9576 9577 9578 9579 9580 9581 9582 9583 9584 9585 9586 9587 9588 9589 9590 9591 9592 9593 9594 9595 9596 9597 9598 9599 9600 9601 9602 9603 9604 9605 9606 9607 9608 9609 9610 9611 9612 9613 9614 9615 9616 9617 9618 9619 9620 9621 9622 9623 9624 9625 9626 9627 9628 9629 9630 9631 9632 9633 9634 9635 9636 9637 9638 9639 9640 9641 9642 9643 9644 9645 9646 9647 9648 9649 9650 9651 9652 9653 9654 9655 9656 9657 9658 9659 9660 9661 9662 9663 9664 9665 9666 9667 9668 9669 9670 9671 9672 9673 9674 9675 9676 9677 9678 9679 9680 9681 9682 9683 9684 9685 9686 9687 9688 9689 9690 9691 9692 9693 9694 9695 9696 9697 9698 9699 9700 9701 9702 9703 9704 9705 9706 9707 9708 9709 9710 9711 9712 9713 9714 9715 9716 9717 9718 9719 9720 9721 9722 9723 9724 9725 9726 9727 9728 9729 9730 9731 9732 9733 9734 9735 9736 9737 9738 9739 9740 9741 9742 9743 9744 9745 9746 9747 9748 9749 9750 9751 9752 9753 9754 9755 9756 9757 9758 9759 9760 9761 9762 9763 9764 9765 9766 9767 9768 9769 9770 9771 9772 9773 9774 9775 9776 9777 9778 9779 9780 9781 9782 9783 9784 9785 9786 9787 9788 9789 9790 9791 9792 9793 9794 9795 9796 9797 9798 9799 9800 9801 9802 9803 9804 9805 9806 9807 9808 9809 9810 9811 9812 9813 9814 9815 9816 9817 9818 9819 9820 9821 9822 9823 9824 9825 9826 9827 9828 9829 9830 9831 9832 9833 9834 9835 9836 9837 9838 9839 9840 9841 9842 9843 9844 9845 9846 9847 9848 9849 9850 9851 9852 9853 9854 9855 9856 9857 9858 9859 9860 9861 9862 9863 9864 9865 9866 9867 9868 9869 9870 9871 9872 9873 9874 9875 9876 9877 9878 9879 9880 9881 9882 9883 9884 9885 9886 9887 9888 9889 9890 9891 9892 9893 9894 9895 9896 9897 9898 9899 9900 9901 9902 9903 9904 9905 9906 9907 9908 9909 9910 9911 9912 9913 9914 9915 9916 9917 9918 9919 9920 9921 9922 9923 9924 9925 9926 9927 9928 9929 9930 9931 9932 9933 9934 9935 9936 9937 9938 9939 9940 9941 9942 9943 9944 9945 9946 9947 9948 9949 9950 9951 9952 9953 9954 9955 9956 9957 9958 9959 9960 9961 9962 9963 9964 9965 9966 9967 9968 9969 9970 9971 9972 9973 9974 9975 9976 9977 9978 9979 9980 9981 9982 9983 9984 9985 9986 9987 9988 9989 9990 9991 9992 9993 9994 9995 9996 9997 9998 9999 10000 10001 10002 10003 10004 10005 10006 10007 10008 10009 10010 10011 10012 10013 10014 10015 10016 10017 10018 10019 10020 10021 10022 10023 10024 10025 10026 10027 10028 10029 10030 10031 10032 10033 10034 10035 10036 10037 10038 10039 10040 10041 10042 10043 10044 10045 10046 10047 10048 10049 10050 10051 10052 10053 10054 10055 10056 10057 10058 10059 10060 10061 10062 10063 10064 10065 10066 10067 10068 10069 10070 10071 10072 10073 10074 10075 10076 10077 10078 10079 10080 10081 10082 10083 10084 10085 10086 10087 10088 10089 10090 10091 10092 10093 10094 10095 10096 10097 10098 10099 10100 10101 10102 10103 10104 10105 10106 10107 10108 10109 10110 10111 10112 10113 10114 10115 10116 10117 10118 10119 10120 10121 10122 10123 10124 10125 10126 10127 10128 10129 10130 10131 10132 10133 10134 10135 10136 10137 10138 10139 10140 10141 10142 10143 10144 10145 10146 10147 10148 10149 10150 10151 10152 10153 10154 10155 10156 10157 10158 10159 10160 10161 10162 10163 10164 10165 10166 10167 10168 10169 10170 10171 10172 10173 10174 10175 10176 10177 10178 10179 10180 10181 10182 10183 10184 10185 10186 10187 10188 10189 10190 10191 10192 10193 10194 10195 10196 10197 10198 10199 10200 10201 10202 10203 10204 10205 10206 10207 10208 10209 10210 10211 10212 10213 10214 10215 10216 10217 10218 10219 10220 10221 10222 10223 10224 10225 10226 10227 10228 10229 10230 10231 10232 10233 10234 10235 10236 10237 10238 10239 10240 10241 10242 10243 10244 10245 10246 10247 10248 10249 10250 10251 10252 10253 10254 10255 10256 10257 10258 10259 10260 10261 10262 10263 10264 10265 10266 10267 10268 10269 10270 10271 10272 10273 10274 10275 10276 10277 10278 10279 10280 10281 10282 10283 10284 10285 10286 10287 10288 10289 10290 10291 10292 10293 10294 10295 10296 10297 10298 10299 10300 10301 10302 10303 10304 10305 10306 10307 10308 10309 10310 10311 10312 10313 10314 10315 10316 10317 10318 10319 10320 10321 10322 10323 10324 10325 10326 10327 10328 10329 10330 10331 10332 10333 10334 10335 10336 10337 10338 10339 10340 10341 10342 10343 10344 10345 10346 10347 10348 10349 10350 10351 10352 10353 10354 10355 10356 10357 10358 10359 10360 10361 10362 10363 10364 10365 10366 10367 10368 10369 10370 10371 10372 10373 10374 10375 10376 10377 10378 10379 10380 10381 10382 10383 10384 10385 10386 10387 10388 10389 10390 10391 10392 10393 10394 10395 10396 10397 10398 10399 10400 10401 10402 10403 10404 10405 10406 10407 10408 10409 10410 10411 10412 10413 10414 10415 10416 10417 10418 10419 10420 10421 10422 10423 10424 10425 10426 10427 10428 10429 10430 10431 10432 10433 10434 10435 10436 10437 10438 10439 10440 10441 10442 10443 10444 10445 10446 10447 10448 10449 10450 10451 10452 10453 10454 10455 10456 10457 10458 10459 10460 10461 10462 10463 10464 10465 10466 10467 10468 10469 10470 10471 10472 10473 10474 10475 10476 10477 10478 10479 10480 10481 10482 10483 10484 10485 10486 10487 10488 10489 10490 10491 10492 10493 10494 10495 10496 10497 10498 10499 10500 10501 10502 10503 10504 10505 10506 10507 10508 10509 10510 10511 10512 10513 10514 10515 10516 10517 10518 10519 10520 10521 10522 10523 10524 10525 10526 10527 10528 10529 10530 10531 10532 10533 10534 10535 10536 10537 10538 10539 10540 10541 10542 10543 10544 10545 10546 10547 10548 10549 10550 10551 10552 10553 10554 10555 10556 10557 10558 10559 10560 10561 10562 10563 10564 10565 10566 10567 10568 10569 10570 10571 10572 10573 10574 10575 10576 10577 10578 10579 10580 10581 10582 10583 10584 10585 10586 10587 10588 10589 10590 10591 10592 10593 10594 10595 10596 10597 10598 10599 10600 10601 10602 10603 10604 10605 10606 10607 10608 10609 10610 10611 10612 10613 10614 10615 10616 10617 10618 10619 10620 10621 10622 10623 10624 10625 10626 10627 10628 10629 10630 10631 10632 10633 10634 10635 10636 10637 10638 10639 10640 10641 10642 10643 10644 10645 10646 10647 10648 10649 10650 10651 10652 10653 10654 10655 10656 10657 10658 10659 10660 10661 10662 10663 10664 10665 10666 10667 10668 10669 10670 10671 10672 10673 10674 10675 10676 10677 10678 10679 10680 10681 10682 10683 10684 10685 10686 10687 10688 10689 10690 10691 10692 10693 10694 10695 10696 10697 10698 10699 10700 10701 10702 10703 10704 10705 10706 10707 10708 10709 10710 10711 10712 10713 10714 10715 10716 10717 10718 10719 10720 10721 10722 10723 10724 10725 10726 10727 10728 10729 10730 10731 10732 10733 10734 10735 10736 10737 10738 10739 10740 10741 10742 10743 10744 10745 10746 10747 10748 10749 10750 10751 10752 10753 10754 10755 10756 10757 10758 10759 10760 10761 10762 10763 10764 10765 10766 10767 10768 10769 10770 10771 10772 10773 10774 10775 10776 10777 10778 10779 10780 10781 10782 10783 10784 10785 10786 10787 10788 10789 10790 10791 10792 10793 10794 10795 10796 10797 10798 10799 10800 10801 10802 10803 10804 10805 10806 10807 10808 10809 10810 10811 10812 10813 10814 10815 10816 10817 10818 10819 10820 10821 10822 10823 10824 10825 10826 10827 10828 10829 10830 10831 10832 10833 10834 10835 10836 10837 10838 10839 10840 10841 10842 10843 10844 10845 10846 10847 10848 10849 10850 10851 10852 10853 10854 10855 10856 10857 10858 10859 10860 10861 10862 10863 10864 10865 10866 10867 10868 10869 10870 10871 10872 10873 10874 10875 10876 10877 10878 10879 10880 10881 10882 10883 10884 10885 10886 10887 10888 10889 10890 10891 10892 10893 10894 10895 10896 10897 10898 10899 10900 10901 10902 10903 10904 10905 10906 10907 10908 10909 10910 10911 10912 10913 10914 10915 10916 10917 10918 10919 10920 10921 10922 10923 10924 10925 10926 10927 10928 10929 10930 10931 10932 10933 10934 10935 10936 10937 10938 10939 10940 10941 10942 10943 10944 10945 10946 10947 10948 10949 10950 10951 10952 10953 10954 10955 10956 10957 10958 10959 10960 10961 10962 10963 10964 10965 10966 10967 10968 10969 10970 10971 10972 10973 10974 10975 10976 10977 10978 10979 10980 10981 10982 10983 10984 10985 10986 10987 10988 10989 10990 10991 10992 10993 10994 10995 10996 10997 10998 10999 11000 11001 11002 11003 11004 11005 11006 11007 11008 11009 11010 11011 11012 11013 11014 11015 11016 11017 11018 11019 11020 11021 11022 11023 11024 11025 11026 11027 11028 11029 11030 11031 11032 11033 11034 11035 11036 11037 11038 11039 11040 11041 11042 11043 11044 11045 11046 11047 11048 11049 11050 11051 11052 11053 11054 11055 11056 11057 11058 11059 11060 11061 11062 11063 11064 11065 11066 11067 11068 11069 11070 11071 11072 11073 11074 11075 11076 11077 11078 11079 11080 11081 11082 11083 11084 11085 11086 11087 11088 11089 11090 11091 11092 11093 11094 11095 11096 11097 11098 11099 11100 11101 11102 11103 11104 11105 11106 11107 11108 11109 11110 11111 11112 11113 11114 11115 11116 11117 11118 11119 11120 11121 11122 11123 11124 11125 11126 11127 11128 11129 11130 11131 11132 11133 11134 11135 11136 11137 11138 11139 11140 11141 11142 11143 11144 11145 11146 11147 11148 11149 11150 11151 11152 11153 11154 11155 11156 11157 11158 11159 11160 11161 11162 11163 11164 11165 11166 11167 11168 11169 11170 11171 11172 11173 11174 11175 11176 11177 11178 11179 11180 11181 11182 11183 11184 11185 11186 11187 11188 11189 11190 11191 11192 11193 11194 11195 11196 11197 11198 11199 11200 11201 11202 11203 11204 11205 11206 11207 11208 11209 11210 11211 11212 11213 11214 11215 11216 11217 11218 11219 11220 11221 11222 11223 11224 11225 11226 11227 11228 11229 11230 11231 11232 11233 11234 11235 11236 11237 11238 11239 11240 11241 11242 11243 11244 11245 11246 11247 11248 11249 11250 11251 11252 11253 11254 11255 11256 11257 11258 11259 11260 11261 11262 11263 11264 11265 11266 11267 11268 11269 11270 11271 11272 11273 11274 11275 11276 11277 11278 11279 11280 11281 11282 11283 11284 11285 11286 11287 11288 11289 11290 11291 11292 11293 11294 11295 11296 11297 11298 11299 11300 11301 11302 11303 11304 11305 11306 11307 11308 11309 11310 11311 11312 11313 11314 11315 11316 11317 11318 11319 11320 11321 11322 11323 11324 11325 11326 11327 11328 11329 11330 11331 11332 11333 11334 11335 11336 11337 11338 11339 11340 11341 11342 11343 11344 11345 11346 11347 11348 11349 11350 11351 11352 11353 11354 11355 11356 11357 11358 11359 11360 11361 11362 11363 11364 11365 11366 11367 11368 11369 11370 11371 11372 11373 11374 11375 11376 11377 11378 11379 11380 11381 11382 11383 11384 11385 11386 11387 11388 11389 11390 11391 11392 11393 11394 11395 11396 11397 11398 11399 11400 11401 11402 11403 11404 11405 11406 11407 11408 11409 11410 11411 11412 11413 11414 11415 11416 11417 11418 11419 11420 11421 11422 11423 11424 11425 11426 11427 11428 11429 11430 11431 11432 11433 11434 11435 11436 11437 11438 11439 11440 11441 11442 11443 11444 11445 11446 11447 11448 11449 11450 11451 11452 11453 11454 11455 11456 11457 11458 11459 11460 11461 11462 11463 11464 11465 11466 11467 11468 11469 11470 11471 11472 11473 11474 11475 11476 11477 11478 11479 11480 11481 11482 11483 11484 11485 11486 11487 11488 11489 11490 11491 11492 11493 11494 11495 11496 11497 11498 11499 11500 11501 11502 11503 11504 11505 11506 11507 11508 11509 11510 11511 11512 11513 11514 11515 11516 11517 11518 11519 11520 11521 11522 11523 11524 11525 11526 11527 11528 11529 11530 11531 11532 11533 11534 11535 11536 11537 11538 11539 11540 11541 11542 11543 11544 11545 11546 11547 11548 11549 11550 11551 11552 11553 11554 11555 11556 11557 11558 11559 11560 11561 11562 11563 11564 11565 11566 11567 11568 11569 11570 11571 11572 11573 11574 11575 11576 11577 11578 11579 11580 11581 11582 11583 11584 11585 11586 11587 11588 11589 11590 11591 11592 11593 11594 11595 11596 11597 11598 11599 11600 11601 11602 11603 11604 11605 11606 11607 11608 11609 11610 11611 11612 11613 11614 11615 11616 11617 11618 11619 11620 11621 11622 11623 11624 11625 11626 11627 11628 11629 11630 11631 11632 11633 11634 11635 11636 11637 11638 11639 11640 11641 11642 11643 11644 11645 11646 11647 11648 11649 11650 11651 11652 11653 11654 11655 11656 11657 11658 11659 11660 11661 11662 11663 11664 11665 11666 11667 11668 11669 11670 11671 11672 11673 11674 11675 11676 11677 11678 11679 11680 11681 11682 11683 11684 11685 11686 11687 11688 11689 11690 11691 11692 11693 11694 11695 11696 11697 11698 11699 11700 11701 11702 11703 11704 11705 11706 11707 11708 11709 11710 11711 11712 11713 11714 11715 11716 11717 11718 11719 11720 11721 11722 11723 11724 11725 11726 11727 11728 11729 11730 11731 11732 11733 11734 11735 11736 11737 11738 11739 11740 11741 11742 11743 11744 11745 11746 11747 11748 11749 11750 11751 11752 11753 11754 11755 11756 11757 11758 11759 11760 11761 11762 11763 11764 11765 11766 11767 11768 11769 11770 11771 11772 11773 11774 11775 11776 11777 11778 11779 11780 11781 11782 11783 11784 11785 11786 11787 11788 11789 11790 11791 11792 11793 11794 11795 11796 11797 11798 11799 11800 11801 11802 11803 11804 11805 11806 11807 11808 11809 11810 11811 11812 11813 11814 11815 11816 11817 11818 11819 11820 11821 11822 11823 11824 11825 11826 11827 11828 11829 11830 11831 11832 11833 11834 11835 11836 11837 11838 11839 11840 11841 11842 11843 11844 11845 11846 11847 11848 11849 11850 11851 11852 11853 11854 11855 11856 11857 11858 11859 11860 11861 11862 11863 11864 11865 11866 11867 11868 11869 11870 11871 11872 11873 11874 11875 11876 11877 11878 11879 11880 11881 11882 11883 11884 11885 11886 11887 11888 11889 11890 11891 11892 11893 11894 11895 11896 11897 11898 11899 11900 11901 11902 11903 11904 11905 11906 11907 11908 11909 11910 11911 11912 11913 11914 11915 11916 11917 11918 11919 11920 11921 11922 11923 11924 11925 11926 11927 11928 11929 11930 11931 11932 11933 11934 11935 11936 11937 11938 11939 11940 11941 11942 11943 11944 11945 11946 11947 11948 11949 11950 11951 11952 11953 11954 11955 11956 11957 11958 11959 11960 11961 11962 11963 11964 11965 11966 11967 11968 11969 11970 11971 11972 11973 11974 11975 11976 11977 11978 11979 11980 11981 11982 11983 11984 11985 11986 11987 11988 11989 11990 11991 11992 11993 11994 11995 11996 11997 11998 11999 12000 12001 12002 12003 12004 12005 12006 12007 12008 12009 12010 12011 12012 12013 12014 12015 12016 12017 12018 12019 12020 12021 12022 12023 12024 12025 12026 12027 12028 12029 12030 12031 12032 12033 12034 12035 12036 12037 12038 12039 12040 12041 12042 12043 12044 12045 12046 12047 12048 12049 12050 12051 12052 12053 12054 12055 12056 12057 12058 12059 12060 12061 12062 12063 12064 12065 12066 12067 12068 12069 12070 12071 12072 12073 12074 12075 12076 12077 12078 12079 12080 12081 12082 12083 12084 12085 12086 12087 12088 12089 12090 12091 12092 12093 12094 12095 12096 12097 12098 12099 12100 12101 12102 12103 12104 12105 12106 12107 12108 12109 12110 12111 12112 12113 12114 12115 12116 12117 12118 12119 12120 12121 12122 12123 12124 12125 12126 12127 12128 12129 12130 12131 12132 12133 12134 12135 12136 12137 12138 12139 12140 12141 12142 12143 12144 12145 12146 12147 12148 12149 12150 12151 12152 12153 12154 12155 12156 12157 12158 12159 12160 12161 12162 12163 12164 12165 12166 12167 12168 12169 12170 12171 12172 12173 12174 12175 12176 12177 12178 12179 12180 12181 12182 12183 12184 12185 12186 12187 12188 12189 12190 12191 12192 12193 12194 12195 12196 12197 12198 12199 12200 12201 12202 12203 12204 12205 12206 12207 12208 12209 12210 12211 12212 12213 12214 12215 12216 12217 12218 12219 12220 12221 12222 12223 12224 12225 12226 12227 12228 12229 12230 12231 12232 12233 12234 12235 12236 12237 12238 12239 12240 12241 12242 12243 12244 12245 12246 12247 12248 12249 12250 12251 12252 12253 12254 12255 12256 12257 12258 12259 12260 12261 12262 12263 12264 12265 12266 12267 12268 12269 12270 12271 12272 12273 12274 12275 12276 12277 12278 12279 12280 12281 12282 12283 12284 12285 12286 12287 12288 12289 12290 12291 12292 12293 12294 12295 12296 12297 12298 12299 12300 12301 12302 12303 12304 12305 12306 12307 12308 12309 12310 12311 12312 12313 12314 12315 12316 12317 12318 12319 12320 12321 12322 12323 12324 12325 12326 12327 12328 12329 12330 12331 12332 12333 12334 12335 12336 12337 12338 12339 12340 12341 12342 12343 12344 12345 12346 12347 12348 12349 12350 12351 12352 12353 12354 12355 12356 12357 12358 12359 12360 12361 12362 12363 12364 12365 12366 12367 12368 12369 12370 12371 12372 12373 12374 12375 12376 12377 12378 12379 12380 12381 12382 12383 12384 12385 12386 12387 12388 12389 12390 12391 12392 12393 12394 12395 12396 12397 12398 12399 12400 12401 12402 12403 12404 12405 12406 12407 12408 12409 12410 12411 12412 12413 12414 12415 12416 12417 12418 12419 12420 12421 12422 12423 12424 12425 12426 12427 12428 12429 12430 12431 12432 12433 12434 12435 12436 12437 12438 12439 12440 12441 12442 12443 12444 12445 12446 12447 12448 12449 12450 12451 12452 12453 12454 12455 12456 12457 12458 12459 12460 12461 12462 12463 12464 12465 12466 12467 12468 12469 12470 12471 12472 12473 12474 12475 12476 12477 12478 12479 12480 12481 12482 12483 12484 12485 12486 12487 12488 12489 12490 12491 12492 12493 12494 12495 12496 12497 12498 12499 12500 12501 12502 12503 12504 12505 12506 12507 12508 12509 12510 12511 12512 12513 12514 12515 12516 12517 12518 12519 12520 12521 12522 12523 12524 12525 12526 12527 12528 12529 12530 12531 12532 12533 12534 12535 12536 12537 12538 12539 12540 12541 12542 12543 12544 12545 12546 12547 12548 12549 12550 12551 12552 12553 12554 12555 12556 12557 12558 12559 12560 12561 12562 12563 12564 12565 12566 12567 12568 12569 12570 12571 12572 12573 12574 12575 12576 12577 12578 12579 12580 12581 12582 12583 12584 12585 12586 12587 12588 12589 12590 12591 12592 12593 12594 12595 12596 12597 12598 12599 12600 12601 12602 12603 12604 12605 12606 12607 12608 12609 12610 12611 12612 12613 12614 12615 12616 12617 12618 12619 12620 12621 12622 12623 12624 12625 12626 12627 12628 12629 12630 12631 12632 12633 12634 12635 12636 12637 12638 12639 12640 12641 12642 12643 12644 12645 12646 12647 12648 12649 12650 12651 12652 12653 12654 12655 12656 12657 12658 12659 12660 12661 12662 12663 12664 12665 12666 12667 12668 12669 12670 12671 12672 12673 12674 12675 12676 12677 12678 12679 12680 12681 12682 12683 12684 12685 12686 12687 12688 12689 12690 12691 12692 12693 12694 12695 12696 12697 12698 12699 12700 12701 12702 12703 12704 12705 12706 12707 12708 12709 12710 12711 12712 12713 12714 12715 12716 12717 12718 12719 12720 12721 12722 12723 12724 12725 12726 12727 12728 12729 12730 12731 12732 12733 12734 12735 12736 12737 12738 12739 12740 12741 12742 12743 12744 12745 12746 12747 12748 12749 12750 12751 12752 12753 12754 12755 12756 12757 12758 12759 12760 12761 12762 12763 12764 12765 12766 12767 12768 12769 12770 12771 12772 12773 12774 12775 12776 12777 12778 12779 12780 12781 12782 12783 12784 12785 12786 12787 12788 12789 12790 12791 12792 12793 12794 12795 12796 12797 12798 12799 12800 12801 12802 12803 12804 12805 12806 12807 12808 12809 12810 12811 12812 12813 12814 12815 12816 12817 12818 12819 12820 12821 12822 12823 12824 12825 12826 12827 12828 12829 12830 12831 12832 12833 12834 12835 12836 12837 12838 12839 12840 12841 12842 12843 12844 12845 12846 12847 12848 12849 12850 12851 12852 12853 12854 12855 12856 12857 12858 12859 12860 12861 12862 12863 12864 12865 12866 12867 12868 12869 12870 12871 12872 12873 12874 12875 12876 12877 12878 12879 12880 12881 12882 12883 12884 12885 12886 12887 12888 12889 12890 12891 12892 12893 12894 12895 12896 12897 12898 12899 12900 12901 12902 12903 12904 12905 12906 12907 12908 12909 12910 12911 12912 12913 12914 12915 12916 12917 12918 12919 12920 12921 12922 12923 12924 12925 12926 12927 12928 12929 12930 12931 12932 12933 12934 12935 12936 12937 12938 12939 12940 12941 12942 12943 12944 12945 12946 12947 12948 12949 12950 12951 12952 12953 12954 12955 12956 12957 12958 12959 12960 12961 12962 12963 12964 12965 12966 12967 12968 12969 12970 12971 12972 12973 12974 12975 12976 12977 12978 12979 12980 12981 12982 12983 12984 12985 12986 12987 12988 12989 12990 12991 12992 12993 12994 12995 12996 12997 12998 12999 13000 13001 13002 13003 13004 13005 13006 13007 13008 13009 13010 13011 13012 13013 13014 13015 13016 13017 13018 13019 13020 13021 13022 13023 13024 13025 13026 13027 13028 13029 13030 13031 13032 13033 13034 13035 13036 13037 13038 13039 13040 13041 13042 13043 13044 13045 13046 13047 13048 13049 13050 13051 13052 13053 13054 13055 13056 13057 13058 13059 13060 13061 13062 13063 13064 13065 13066 13067 13068 13069 13070 13071 13072 13073 13074 13075 13076 13077 13078 13079 13080 13081 13082 13083 13084 13085 13086 13087 13088 13089 13090 13091 13092 13093 13094 13095 13096 13097 13098 13099 13100 13101 13102 13103 13104 13105 13106 13107 13108 13109 13110 13111 13112 13113 13114 13115 13116 13117 13118 13119 13120 13121 13122 13123 13124 13125 13126 13127 13128 13129 13130 13131 13132 13133 13134 13135 13136 13137 13138 13139 13140 13141 13142 13143 13144 13145 13146 13147 13148 13149 13150 13151 13152 13153 13154 13155 13156 13157 13158 13159 13160 13161 13162 13163 13164 13165 13166 13167 13168 13169 13170 13171 13172 13173 13174 13175 13176 13177 13178 13179 13180 13181 13182 13183 13184 13185 13186 13187 13188 13189 13190 13191 13192 13193 13194 13195 13196 13197 13198 13199 13200 13201 13202 13203 13204 13205 13206 13207 13208 13209 13210 13211 13212 13213 13214 13215 13216 13217 13218 13219 13220 13221 13222 13223 13224 13225 13226 13227 13228 13229 13230 13231 13232 13233 13234 13235 13236 13237 13238 13239 13240 13241 13242 13243 13244 13245 13246 13247 13248 13249 13250 13251 13252 13253 13254 13255 13256 13257 13258 13259 13260 13261 13262 13263 13264 13265 13266 13267 13268 13269 13270 13271 13272 13273 13274 13275 13276 13277 13278 13279 13280 13281 13282 13283 13284 13285 13286 13287 13288 13289 13290 13291 13292 13293 13294 13295 13296 13297 13298 13299 13300 13301 13302 13303 13304 13305 13306 13307 13308 13309 13310 13311 13312 13313 13314 13315 13316 13317 13318 13319 13320 13321 13322 13323 13324 13325 13326 13327 13328 13329 13330 13331 13332 13333 13334 13335 13336 13337 13338 13339 13340 13341 13342 13343 13344 13345 13346 13347 13348 13349 13350 13351 13352 13353 13354 13355 13356 13357 13358 13359 13360 13361 13362 13363 13364 13365 13366 13367 13368 13369 13370 13371 13372 13373 13374 13375 13376 13377 13378 13379 13380 13381 13382 13383 13384 13385 13386 13387 13388 13389 13390 13391 13392 13393 13394 13395 13396 13397 13398 13399 13400 13401 13402 13403 13404 13405 13406 13407 13408 13409 13410 13411 13412 13413 13414 13415 13416 13417 13418 13419 13420 13421 13422 13423 13424 13425 13426 13427 13428 13429 13430 13431 13432 13433 13434 13435 13436 13437 13438 13439 13440 13441 13442 13443 13444 13445 13446 13447 13448 13449 13450 13451 13452 13453 13454 13455 13456 13457 13458 13459 13460 13461 13462 13463 13464 13465 13466 13467 13468 13469 13470 13471 13472 13473 13474 13475 13476 13477 13478 13479 13480 13481 13482 13483 13484 13485 13486 13487 13488 13489 13490 13491 13492 13493 13494 13495 13496 13497 13498 13499 13500 13501 13502 13503 13504 13505 13506 13507 13508 13509 13510 13511 13512 13513 13514 13515 13516 13517 13518 13519 13520 13521 13522 13523 13524 13525 13526 13527 13528 13529 13530 13531 13532 13533 13534 13535 13536 13537 13538 13539 13540 13541 13542 13543 13544 13545 13546 13547 13548 13549 13550 13551 13552 13553 13554 13555 13556 13557 13558 13559 13560 13561 13562 13563 13564 13565 13566 13567 13568 13569 13570 13571 13572 13573 13574 13575 13576 13577 13578 13579 13580 13581 13582 13583 13584 13585 13586 13587 13588 13589 13590 13591 13592 13593 13594 13595 13596 13597 13598 13599 13600 13601 13602 13603 13604 13605 13606 13607 13608 13609 13610 13611 13612 13613 13614 13615 13616 13617 13618 13619 13620 13621 13622 13623 13624 13625 13626 13627 13628 13629 13630 13631 13632 13633 13634 13635 13636 13637 13638 13639 13640 13641 13642 13643 13644 13645 13646 13647 13648 13649 13650 13651 13652 13653 13654 13655 13656 13657 13658 13659 13660 13661 13662 13663 13664 13665 13666 13667 13668 13669 13670 13671 13672 13673 13674 13675 13676 13677 13678 13679 13680 13681 13682 13683 13684 13685 13686 13687 13688 13689 13690 13691 13692 13693 13694 13695 13696 13697 13698 13699 13700 13701 13702 13703 13704 13705 13706 13707 13708 13709 13710 13711 13712 13713 13714 13715 13716 13717 13718 13719 13720 13721 13722 13723 13724 13725 13726 13727 13728 13729 13730 13731 13732 13733 13734 13735 13736 13737 13738 13739 13740 13741 13742 13743 13744 13745 13746 13747 13748 13749 13750 13751 13752 13753 13754 13755 13756 13757 13758 13759 13760 13761 13762 13763 13764 13765 13766 13767 13768 13769 13770 13771 13772 13773 13774 13775 13776 13777 13778 13779 13780 13781 13782 13783 13784 13785 13786 13787 13788 13789 13790 13791 13792 13793 13794 13795 13796 13797 13798 13799 13800 13801 13802 13803 13804 13805 13806 13807 13808 13809 13810 13811 13812 13813 13814 13815 13816 13817 13818 13819 13820 13821 13822 13823 13824 13825 13826 13827 13828 13829 13830 13831 13832 13833 13834 13835 13836 13837 13838 13839 13840 13841 13842 13843 13844 13845 13846 13847 13848 13849 13850 13851 13852 13853 13854 13855 13856 13857 13858 13859 13860 13861 13862 13863 13864 13865 13866 13867 13868 13869 13870 13871 13872 13873 13874 13875 13876 13877 13878 13879 13880 13881 13882 13883 13884 13885 13886 13887 13888 13889 13890 13891 13892 13893 13894 13895 13896 13897 13898 13899 13900 13901 13902 13903 13904 13905 13906 13907 13908 13909 13910 13911 13912 13913 13914 13915 13916 13917 13918 13919 13920 13921 13922 13923 13924 13925 13926 13927 13928 13929 13930 13931 13932 13933 13934 13935 13936 13937 13938 13939 13940 13941 13942 13943 13944 13945 13946 13947 13948 13949 13950 13951 13952 13953 13954 13955 13956 13957 13958 13959 13960 13961 13962 13963 13964 13965 13966 13967 13968 13969 13970 13971 13972 13973 13974 13975 13976 13977 13978 13979 13980 13981 13982 13983 13984 13985 13986 13987 13988 13989 13990 13991 13992 13993 13994 13995 13996 13997 13998 13999 14000 14001 14002 14003 14004 14005 14006 14007 14008 14009 14010 14011 14012 14013 14014 14015 14016 14017 14018 14019 14020 14021 14022 14023 14024 14025 14026 14027 14028 14029 14030 14031 14032 14033 14034 14035 14036 14037 14038 14039 14040 14041 14042 14043 14044 14045 14046 14047 14048 14049 14050 14051 14052 14053 14054 14055 14056 14057 14058 14059 14060 14061 14062 14063 14064 14065 14066 14067 14068 14069 14070 14071 14072 14073 14074 14075 14076 14077 14078 14079 14080 14081 14082 14083 14084 14085 14086 14087 14088 14089 14090 14091 14092 14093 14094 14095 14096 14097 14098 14099 14100 14101 14102 14103 14104 14105 14106 14107 14108 14109 14110 14111 14112 14113 14114 14115 14116 14117 14118 14119 14120 14121 14122 14123 14124 14125 14126 14127 14128 14129 14130 14131 14132 14133 14134 14135 14136 14137 14138 14139 14140 14141 14142 14143 14144 14145 14146 14147 14148 14149 14150 14151 14152 14153 14154 14155 14156 14157 14158 14159 14160 14161 14162 14163 14164 14165 14166 14167 14168 14169 14170 14171 14172 14173 14174 14175 14176 14177 14178 14179 14180 14181 14182 14183 14184 14185 14186 14187 14188 14189 14190 14191 14192 14193 14194 14195 14196 14197 14198 14199 14200 14201 14202 14203 14204 14205 14206 14207 14208 14209 14210 14211 14212 14213 14214 14215 14216 14217 14218 14219 14220 14221 14222 14223 14224 14225 14226 14227 14228 14229 14230 14231 14232 14233 14234 14235 14236 14237 14238 14239 14240 14241 14242 14243 14244 14245 14246 14247 14248 14249 14250 14251 14252 14253 14254 14255 14256 14257 14258 14259 14260 14261 14262 14263 14264 14265 14266 14267 14268 14269 14270 14271 14272 14273 14274 14275 14276 14277 14278 14279 14280 14281 14282 14283 14284 14285 14286 14287 14288 14289 14290 14291 14292 14293 14294 14295 14296 14297 14298 14299 14300 14301 14302 14303 14304 14305 14306 14307 14308 14309 14310 14311 14312 14313 14314 14315 14316 14317 14318 14319 14320 14321 14322 14323 14324 14325 14326 14327 14328 14329 14330 14331 14332 14333 14334 14335 14336 14337 14338 14339 14340 14341 14342 14343 14344 14345 14346 14347 14348 14349 14350 14351 14352 14353 14354 14355 14356 14357 14358 14359 14360 14361 14362 14363 14364 14365 14366 14367 14368 14369 14370 14371 14372 14373 14374 14375 14376 14377 14378 14379 14380 14381 14382 14383 14384 14385 14386 14387 14388 14389 14390 14391 14392 14393 14394 14395 14396 14397 14398 14399 14400 14401 14402 14403 14404 14405 14406 14407 14408 14409 14410 14411 14412 14413 14414 14415 14416 14417 14418 14419 14420 14421 14422 14423 14424 14425 14426 14427 14428 14429 14430 14431 14432 14433 14434 14435 14436 14437 14438 14439 14440 14441 14442 14443 14444 14445 14446 14447 14448 14449 14450 14451 14452 14453 14454 14455 14456 14457 14458 14459 14460 14461 14462 14463 14464 14465 14466 14467 14468 14469 14470 14471 14472 14473 14474 14475 14476 14477 14478 14479 14480 14481 14482 14483 14484 14485 14486 14487 14488 14489 14490 14491 14492 14493 14494 14495 14496 14497 14498 14499 14500 14501 14502 14503 14504 14505 14506 14507 14508 14509 14510 14511 14512 14513 14514 14515 14516 14517 14518 14519 14520 14521 14522 14523 14524 14525 14526 14527 14528 14529 14530 14531 14532 14533 14534 14535 14536 14537 14538 14539 14540 14541 14542 14543 14544 14545 14546 14547 14548 14549 14550 14551 14552 14553 14554 14555 14556 14557 14558 14559 14560 14561 14562 14563 14564 14565 14566 14567 14568 14569 14570 14571 14572 14573 14574 14575 14576 14577 14578 14579 14580 14581 14582 14583 14584 14585 14586 14587 14588 14589 14590 14591 14592 14593 14594 14595 14596 14597 14598 14599 14600 14601 14602 14603 14604 14605 14606 14607 14608 14609 14610 14611 14612 14613 14614 14615 14616 14617 14618 14619 14620 14621 14622 14623 14624 14625 14626 14627 14628 14629 14630 14631 14632 14633 14634 14635 14636 14637 14638 14639 14640 14641 14642 14643 14644 14645 14646 14647 14648 14649 14650 14651 14652 14653 14654 14655 14656 14657 14658 14659 14660 14661 14662 14663 14664 14665 14666 14667 14668 14669 14670 14671 14672 14673 14674 14675 14676 14677 14678 14679 14680 14681 14682 14683 14684 14685 14686 14687 14688 14689 14690 14691 14692 14693 14694 14695 14696 14697 14698 14699 14700 14701 14702 14703 14704 14705 14706 14707 14708 14709 14710 14711 14712 14713 14714 14715 14716 14717 14718 14719 14720 14721 14722 14723 14724 14725 14726 14727 14728 14729 14730 14731 14732 14733 14734 14735 14736 14737 14738 14739 14740 14741 14742 14743 14744 14745 14746 14747 14748 14749 14750 14751 14752 14753 14754 14755 14756 14757 14758 14759 14760 14761 14762 14763 14764 14765 14766 14767 14768 14769 14770 14771 14772 14773 14774 14775 14776 14777 14778 14779 14780 14781 14782 14783 14784 14785 14786 14787 14788 14789 14790 14791 14792 14793 14794 14795 14796 14797 14798 14799 14800 14801 14802 14803 14804 14805 14806 14807 14808 14809 14810 14811 14812 14813 14814 14815 14816 14817 14818 14819 14820 14821 14822 14823 14824 14825 14826 14827 14828 14829 14830 14831 14832 14833 14834 14835 14836 14837 14838 14839 14840 14841 14842 14843 14844 14845 14846 14847 14848 14849 14850 14851 14852 14853 14854 14855 14856 14857 14858 14859 14860 14861 14862 14863 14864 14865 14866 14867 14868 14869 14870 14871 14872 14873 14874 14875 14876 14877 14878 14879 14880 14881 14882 14883 14884 14885 14886 14887 14888 14889 14890 14891 14892 14893 14894 14895 14896 14897 14898 14899 14900 14901 14902 14903 14904 14905 14906 14907 14908 14909 14910 14911 14912 14913 14914 14915 14916 14917 14918 14919 14920 14921 14922 14923 14924 14925 14926 14927 14928 14929 14930 14931 14932 14933 14934 14935 14936 14937 14938 14939 14940 14941 14942 14943 14944 14945 14946 14947 14948 14949 14950 14951 14952 14953 14954 14955 14956 14957 14958 14959 14960 14961 14962 14963 14964 14965 14966 14967 14968 14969 14970 14971 14972 14973 14974 14975 14976 14977 14978 14979 14980 14981 14982 14983 14984 14985 14986 14987 14988 14989 14990 14991 14992 14993 14994 14995 14996 14997 14998 14999 15000 15001 15002 15003 15004 15005 15006 15007 15008 15009 15010 15011 15012 15013 15014 15015 15016 15017 15018 15019 15020 15021 15022 15023 15024 15025 15026 15027 15028 15029 15030 15031 15032 15033 15034 15035 15036 15037 15038 15039 15040 15041 15042 15043 15044 15045 15046 15047 15048 15049 15050 15051 15052 15053 15054 15055 15056 15057 15058 15059 15060 15061 15062 15063 15064 15065 15066 15067 15068 15069 15070 15071 15072 15073 15074 15075 15076 15077 15078 15079 15080 15081 15082 15083 15084 15085 15086 15087 15088 15089 15090 15091 15092 15093 15094 15095 15096 15097 15098 15099 15100 15101 15102 15103 15104 15105 15106 15107 15108 15109 15110 15111 15112 15113 15114 15115 15116 15117 15118 15119 15120 15121 15122 15123 15124 15125 15126 15127 15128 15129 15130 15131 15132 15133 15134 15135 15136 15137 15138 15139 15140 15141 15142 15143 15144 15145 15146 15147 15148 15149 15150 15151 15152 15153 15154 15155 15156 15157 15158 15159 15160 15161 15162 15163 15164 15165 15166 15167 15168 15169 15170 15171 15172 15173 15174 15175 15176 15177 15178 15179 15180 15181 15182 15183 15184 15185 15186 15187 15188 15189 15190 15191 15192 15193 15194 15195 15196 15197 15198 15199 15200 15201 15202 15203 15204 15205 15206 15207 15208 15209 15210 15211 15212 15213 15214 15215 15216 15217 15218 15219 15220 15221 15222 15223 15224 15225 15226 15227 15228 15229 15230 15231 15232 15233 15234 15235 15236 15237 15238 15239 15240 15241 15242 15243 15244 15245 15246 15247 15248 15249 15250 15251 15252 15253 15254 15255 15256 15257 15258 15259 15260 15261 15262 15263 15264 15265 15266 15267 15268 15269 15270 15271 15272 15273 15274 15275 15276 15277 15278 15279 15280 15281 15282 15283 15284 15285 15286 15287 15288 15289 15290 15291 15292 15293 15294 15295 15296 15297 15298 15299 15300 15301 15302 15303 15304 15305 15306 15307 15308 15309 15310 15311 15312 15313 15314 15315 15316 15317 15318 15319 15320 15321 15322 15323 15324 15325 15326 15327 15328 15329 15330 15331 15332 15333 15334 15335 15336 15337 15338 15339 15340 15341 15342 15343 15344 15345 15346 15347 15348 15349 15350 15351 15352 15353 15354 15355 15356 15357 15358 15359 15360 15361 15362 15363 15364 15365 15366 15367 15368 15369 15370 15371 15372 15373 15374 15375 15376 15377 15378 15379 15380 15381 15382 15383 15384 15385 15386 15387 15388 15389 15390 15391 15392 15393 15394 15395 15396 15397 15398 15399 15400 15401 15402 15403 15404 15405 15406 15407 15408 15409 15410 15411 15412 15413 15414 15415 15416 15417 15418 15419 15420 15421 15422 15423 15424 15425 15426 15427 15428 15429 15430 15431 15432 15433 15434 15435 15436 15437 15438 15439 15440 15441 15442 15443 15444 15445 15446 15447 15448 15449 15450 15451 15452 15453 15454 15455 15456 15457 15458 15459 15460 15461 15462 15463 15464 15465 15466 15467 15468 15469 15470 15471 15472 15473 15474 15475 15476 15477 15478 15479 15480 15481 15482 15483 15484 15485 15486 15487 15488 15489 15490 15491 15492 15493 15494 15495 15496 15497 15498 15499 15500 15501 15502 15503 15504 15505 15506 15507 15508 15509 15510 15511 15512 15513 15514 15515 15516 15517 15518 15519 15520 15521 15522 15523 15524 15525 15526 15527 15528 15529 15530 15531 15532 15533 15534 15535 15536 15537 15538 15539 15540 15541 15542 15543 15544 15545 15546 15547 15548 15549 15550 15551 15552 15553 15554 15555 15556 15557 15558 15559 15560 15561 15562 15563 15564 15565 15566 15567 15568 15569 15570 15571 15572 15573 15574 15575 15576 15577 15578 15579 15580 15581 15582 15583 15584 15585 15586 15587 15588 15589 15590 15591 15592 15593 15594 15595 15596 15597 15598 15599 15600 15601 15602 15603 15604 15605 15606 15607 15608 15609 15610 15611 15612 15613 15614 15615 15616 15617 15618 15619 15620 15621 15622 15623 15624 15625 15626 15627 15628 15629 15630 15631 15632 15633 15634 15635 15636 15637 15638 15639 15640 15641 15642 15643 15644 15645 15646 15647 15648 15649 15650 15651 15652 15653 15654 15655 15656 15657 15658 15659 15660 15661 15662 15663 15664 15665 15666 15667 15668 15669 15670 15671 15672 15673 15674 15675 15676 15677 15678 15679 15680 15681 15682 15683 15684 15685 15686 15687 15688 15689 15690 15691 15692 15693 15694 15695 15696 15697 15698 15699 15700 15701 15702 15703 15704 15705 15706 15707 15708 15709 15710 15711 15712 15713 15714 15715 15716 15717 15718 15719 15720 15721 15722 15723 15724 15725 15726 15727 15728 15729 15730 15731 15732 15733 15734 15735 15736 15737 15738 15739 15740 15741 15742 15743 15744 15745 15746 15747 15748 15749 15750 15751 15752 15753 15754 15755 15756 15757 15758 15759 15760 15761 15762 15763 15764 15765 15766 15767 15768 15769 15770 15771 15772 15773 15774 15775 15776 15777 15778 15779 15780 15781 15782 15783 15784 15785 15786 15787 15788 15789 15790 15791 15792 15793 15794 15795 15796 15797 15798 15799 15800 15801 15802 15803 15804 15805 15806 15807 15808 15809 15810 15811 15812 15813 15814 15815 15816 15817 15818 15819 15820 15821 15822 15823 15824 15825 15826 15827 15828 15829 15830 15831 15832 15833 15834 15835 15836 15837 15838 15839 15840 15841 15842 15843 15844 15845 15846 15847 15848 15849 15850 15851 15852 15853 15854 15855 15856 15857 15858 15859 15860 15861 15862 15863 15864 15865 15866 15867 15868 15869 15870 15871 15872 15873 15874 15875 15876 15877 15878 15879 15880 15881 15882 15883 15884 15885 15886 15887 15888 15889 15890 15891 15892 15893 15894 15895 15896 15897 15898 15899 15900 15901 15902 15903 15904 15905 15906 15907 15908 15909 15910 15911 15912 15913 15914 15915 15916 15917 15918 15919 15920 15921 15922 15923 15924 15925 15926 15927 15928 15929 15930 15931 15932 15933 15934 15935 15936 15937 15938 15939 15940 15941 15942 15943 15944 15945 15946 15947 15948 15949 15950 15951 15952 15953 15954 15955 15956 15957 15958 15959 15960 15961 15962 15963 15964 15965 15966 15967 15968 15969 15970 15971 15972 15973 15974 15975 15976 15977 15978 15979 15980 15981 15982 15983 15984 15985 15986 15987 15988 15989 15990 15991 15992 15993 15994 15995 15996 15997 15998 15999 16000 16001 16002 16003 16004 16005 16006 16007 16008 16009 16010 16011 16012 16013 16014 16015 16016 16017 16018 16019 16020 16021 16022 16023 16024 16025 16026 16027 16028 16029 16030 16031 16032 16033 16034 16035 16036 16037 16038 16039 16040 16041 16042 16043 16044 16045 16046 16047 16048 16049 16050 16051 16052 16053 16054 16055 16056 16057 16058 16059 16060 16061 16062 16063 16064 16065 16066 16067 16068 16069 16070 16071 16072 16073 16074 16075 16076 16077 16078 16079 16080 16081 16082 16083 16084 16085 16086 16087 16088 16089 16090 16091 16092 16093 16094 16095 16096 16097 16098 16099 16100 16101 16102 16103 16104 16105 16106 16107 16108 16109 16110 16111 16112 16113 16114 16115 16116 16117 16118 16119 16120 16121 16122 16123 16124 16125 16126 16127 16128 16129 16130 16131 16132 16133 16134 16135 16136 16137 16138 16139 16140 16141 16142 16143 16144 16145 16146 16147 16148 16149 16150 16151 16152 16153 16154 16155 16156 16157 16158 16159 16160 16161 16162 16163 16164 16165 16166 16167 16168 16169 16170 16171 16172 16173 16174 16175 16176 16177 16178 16179 16180 16181 16182 16183 16184 16185 16186 16187 16188 16189 16190 16191 16192 16193 16194 16195 16196 16197 16198 16199 16200 16201 16202 16203 16204 16205 16206 16207 16208 16209 16210 16211 16212 16213 16214 16215 16216 16217 16218 16219 16220 16221 16222 16223 16224 16225 16226 16227 16228 16229 16230 16231 16232 16233 16234 16235 16236 16237 16238 16239 16240 16241 16242 16243 16244 16245 16246 16247 16248 16249 16250 16251 16252 16253 16254 16255 16256 16257 16258 16259 16260 16261 16262 16263 16264 16265 16266 16267 16268 16269 16270 16271 16272 16273 16274 16275 16276 16277 16278 16279 16280 16281 16282 16283 16284 16285 16286 16287 16288 16289 16290 16291 16292 16293 16294 16295 16296 16297 16298 16299 16300 16301 16302 16303 16304 16305 16306 16307 16308 16309 16310 16311 16312 16313 16314 16315 16316 16317 16318 16319 16320 16321 16322 16323 16324 16325 16326 16327 16328 16329 16330 16331 16332 16333 16334 16335 16336 16337 16338 16339 16340 16341 16342 16343 16344 16345 16346 16347 16348 16349 16350 16351 16352 16353 16354 16355 16356 16357 16358 16359 16360 16361 16362 16363 16364 16365 16366 16367 16368 16369 16370 16371 16372 16373 16374 16375 16376 16377 16378 16379 16380 16381 16382 16383 16384 16385 16386 16387 16388 16389 16390 16391 16392 16393 16394 16395 16396 16397 16398 16399 16400 16401 16402 16403 16404 16405 16406 16407 16408 16409 16410 16411 16412 16413 16414 16415 16416 16417 16418 16419 16420 16421 16422 16423 16424 16425 16426 16427 16428 16429 16430 16431 16432 16433 16434 16435 16436 16437 16438 16439 16440 16441 16442 16443 16444 16445 16446 16447 16448 16449 16450 16451 16452 16453 16454 16455 16456 16457 16458 16459 16460 16461 16462 16463 16464 16465 16466 16467 16468 16469 16470 16471 16472 16473 16474 16475 16476 16477 16478 16479 16480 16481 16482 16483 16484 16485 16486 16487 16488 16489 16490 16491 16492 16493 16494 16495 16496 16497 16498 16499 16500 16501 16502 16503 16504 16505 16506 16507 16508 16509 16510 16511 16512 16513 16514 16515 16516 16517 16518 16519 16520 16521 16522 16523 16524 16525 16526 16527 16528 16529 16530 16531 16532 16533 16534 16535 16536 16537 16538 16539 16540 16541 16542 16543 16544 16545 16546 16547 16548 16549 16550 16551 16552 16553 16554 16555 16556 16557 16558 16559 16560 16561 16562 16563 16564 16565 16566 16567 16568 16569 16570 16571 16572 16573 16574 16575 16576 16577 16578 16579 16580 16581 16582 16583 16584 16585 16586 16587 16588 16589 16590 16591 16592 16593 16594 16595 16596 16597 16598 16599 16600 16601 16602 16603 16604 16605 16606 16607 16608 16609 16610 16611 16612 16613 16614 16615 16616 16617 16618 16619 16620 16621 16622 16623 16624 16625 16626 16627 16628 16629 16630 16631 16632 16633 16634 16635 16636 16637 16638 16639 16640 16641 16642 16643 16644 16645 16646 16647 16648 16649 16650 16651 16652 16653 16654 16655 16656 16657 16658 16659 16660 16661 16662 16663 16664 16665 16666 16667 16668 16669 16670 16671 16672 16673 16674 16675 16676 16677 16678 16679 16680 16681 16682 16683 16684 16685 16686 16687 16688 16689 16690 16691 16692 16693 16694 16695 16696 16697 16698 16699 16700 16701 16702 16703 16704 16705 16706 16707 16708 16709 16710 16711 16712 16713 16714 16715 16716 16717 16718 16719 16720 16721 16722 16723 16724 16725 16726 16727 16728 16729 16730 16731 16732 16733 16734 16735 16736 16737 16738 16739 16740 16741 16742 16743 16744 16745 16746 16747 16748 16749 16750 16751 16752 16753 16754 16755 16756 16757 16758 16759 16760 16761 16762 16763 16764 16765 16766 16767 16768 16769 16770 16771 16772 16773 16774 16775 16776 16777 16778 16779 16780 16781 16782 16783 16784 16785 16786 16787 16788 16789 16790 16791 16792 16793 16794 16795 16796 16797 16798 16799 16800 16801 16802 16803 16804 16805 16806 16807 16808 16809 16810 16811 16812 16813 16814 16815 16816 16817 16818 16819 16820 16821 16822 16823 16824 16825 16826 16827 16828 16829 16830 16831 16832 16833 16834 16835 16836 16837 16838 16839 16840 16841 16842 16843 16844 16845 16846 16847 16848 16849 16850 16851 16852 16853 16854 16855 16856 16857 16858 16859 16860 16861 16862 16863 16864 16865 16866 16867 16868 16869 16870 16871 16872 16873 16874 16875 16876 16877 16878 16879 16880 16881 16882 16883 16884 16885 16886 16887 16888 16889 16890 16891 16892 16893 16894 16895 16896 16897 16898 16899 16900 16901 16902 16903 16904 16905 16906 16907 16908 16909 16910 16911 16912 16913 16914 16915 16916 16917 16918 16919 16920 16921 16922 16923 16924 16925 16926 16927 16928 16929 16930 16931 16932 16933 16934 16935 16936 16937 16938 16939 16940 16941 16942 16943 16944 16945 16946 16947 16948 16949 16950 16951 16952 16953 16954 16955 16956 16957 16958 16959 16960 16961 16962 16963 16964 16965 16966 16967 16968 16969 16970 16971 16972 16973 16974 16975 16976 16977 16978 16979 16980 16981 16982 16983 16984 16985 16986 16987 16988 16989 16990 16991 16992 16993 16994 16995 16996 16997 16998 16999 17000 17001 17002 17003 17004 17005 17006 17007 17008 17009 17010 17011 17012 17013 17014 17015 17016 17017 17018 17019 17020 17021 17022 17023 17024 17025 17026 17027 17028 17029 17030 17031 17032 17033 17034 17035 17036 17037 17038 17039 17040 17041 17042 17043 17044 17045 17046 17047 17048 17049 17050 17051 17052 17053 17054 17055 17056 17057 17058 17059 17060 17061 17062 17063 17064 17065 17066 17067 17068 17069 17070 17071 17072 17073 17074 17075 17076 17077 17078 17079 17080 17081 17082 17083 17084 17085 17086 17087 17088 17089 17090 17091 17092 17093 17094 17095 17096 17097 17098 17099 17100 17101 17102 17103 17104 17105 17106 17107 17108 17109 17110 17111 17112 17113 17114 17115 17116 17117 17118 17119 17120 17121 17122 17123 17124 17125 17126 17127 17128 17129 17130 17131 17132 17133 17134 17135 17136 17137 17138 17139 17140 17141 17142 17143 17144 17145 17146 17147 17148 17149 17150 17151 17152 17153 17154 17155 17156 17157 17158 17159 17160 17161 17162 17163 17164 17165 17166 17167 17168 17169 17170 17171 17172 17173 17174 17175 17176 17177 17178 17179 17180 17181 17182 17183 17184 17185 17186 17187 17188 17189 17190 17191 17192 17193 17194 17195 17196 17197 17198 17199 17200 17201 17202 17203 17204 17205 17206 17207 17208 17209 17210 17211 17212 17213 17214 17215 17216 17217 17218 17219 17220 17221 17222 17223 17224 17225 17226 17227 17228 17229 17230 17231 17232 17233 17234 17235 17236 17237 17238 17239 17240 17241 17242 17243 17244 17245 17246 17247 17248 17249 17250 17251 17252 17253 17254 17255 17256 17257 17258 17259 17260 17261 17262 17263 17264 17265 17266 17267 17268 17269 17270 17271 17272 17273 17274 17275 17276 17277 17278 17279 17280 17281 17282 17283 17284 17285 17286 17287 17288 17289 17290 17291 17292 17293 17294 17295 17296 17297 17298 17299 17300 17301 17302 17303 17304 17305 17306 17307 17308 17309 17310 17311 17312 17313 17314 17315 17316 17317 17318 17319 17320 17321 17322 17323 17324 17325 17326 17327 17328 17329 17330 17331 17332 17333 17334 17335 17336 17337 17338 17339 17340 17341 17342 17343 17344 17345 17346 17347 17348 17349 17350 17351 17352 17353 17354 17355 17356 17357 17358 17359 17360 17361 17362 17363 17364 17365 17366 17367 17368 17369 17370 17371 17372 17373 17374 17375 17376 17377 17378 17379 17380 17381 17382 17383 17384 17385 17386 17387 17388 17389 17390 17391 17392 17393 17394 17395 17396 17397 17398 17399 17400 17401 17402 17403 17404 17405 17406 17407 17408 17409 17410 17411 17412 17413 17414 17415 17416 17417 17418 17419 17420 17421 17422 17423 17424 17425 17426 17427 17428 17429 17430 17431 17432 17433 17434 17435 17436 17437 17438 17439 17440 17441 17442 17443 17444 17445 17446 17447 17448 17449 17450 17451 17452 17453 17454 17455 17456 17457 17458 17459 17460 17461 17462 17463 17464 17465 17466 17467 17468 17469 17470 17471 17472 17473 17474 17475 17476 17477 17478 17479 17480 17481 17482 17483 17484 17485 17486 17487 17488 17489 17490 17491 17492 17493 17494 17495 17496 17497 17498 17499 17500 17501 17502 17503 17504 17505 17506 17507 17508 17509 17510 17511 17512 17513 17514 17515 17516 17517 17518 17519 17520 17521 17522 17523 17524 17525 17526 17527 17528 17529 17530 17531 17532 17533 17534 17535 17536 17537 17538 17539 17540 17541 17542 17543 17544 17545 17546 17547 17548 17549 17550 17551 17552 17553 17554 17555 17556 17557 17558 17559 17560 17561 17562 17563 17564 17565 17566 17567 17568 17569 17570 17571 17572 17573 17574 17575 17576 17577 17578 17579 17580 17581 17582 17583 17584 17585 17586 17587 17588 17589 17590 17591 17592 17593 17594 17595 17596 17597 17598 17599 17600 17601 17602 17603 17604 17605 17606 17607 17608 17609 17610 17611 17612 17613 17614 17615 17616 17617 17618 17619 17620 17621 17622 17623 17624 17625 17626 17627 17628 17629 17630 17631 17632 17633 17634 17635 17636 17637 17638 17639 17640 17641 17642 17643 17644 17645 17646 17647 17648 17649 17650 17651 17652 17653 17654 17655 17656 17657 17658 17659 17660 17661 17662 17663 17664 17665 17666 17667 17668 17669 17670 17671 17672 17673 17674 17675 17676 17677 17678 17679 17680 17681 17682 17683 17684 17685 17686 17687 17688 17689 17690 17691 17692 17693 17694 17695 17696 17697 17698 17699 17700 17701 17702 17703 17704 17705 17706 17707 17708 17709 17710 17711 17712 17713 17714 17715 17716 17717 17718 17719 17720 17721 17722 17723 17724 17725 17726 17727 17728 17729 17730 17731 17732 17733 17734 17735 17736 17737 17738 17739 17740 17741 17742 17743 17744 17745 17746 17747 17748 17749 17750 17751 17752 17753 17754 17755 17756 17757 17758 17759 17760 17761 17762 17763 17764 17765 17766 17767 17768 17769 17770 17771 17772 17773 17774 17775 17776 17777 17778 17779 17780 17781 17782 17783 17784 17785 17786 17787 17788 17789 17790 17791 17792 17793 17794 17795 17796 17797 17798 17799 17800 17801 17802 17803 17804 17805 17806 17807 17808 17809 17810 17811 17812 17813 17814 17815 17816 17817 17818 17819 17820 17821 17822 17823 17824 17825 17826 17827 17828 17829 17830 17831 17832 17833 17834 17835 17836 17837 17838 17839 17840 17841 17842 17843 17844 17845 17846 17847 17848 17849 17850 17851 17852 17853 17854 17855 17856 17857 17858 17859 17860 17861 17862 17863 17864 17865 17866 17867 17868 17869 17870 17871 17872 17873 17874 17875 17876 17877 17878 17879 17880 17881 17882 17883 17884 17885 17886 17887 17888 17889 17890 17891 17892 17893 17894 17895 17896 17897 17898 17899 17900 17901 17902 17903 17904 17905 17906 17907 17908 17909 17910 17911 17912 17913 17914 17915 17916 17917 17918 17919 17920 17921 17922 17923 17924 17925 17926 17927 17928 17929 17930 17931 17932 17933 17934 17935 17936 17937 17938 17939 17940 17941 17942 17943 17944 17945 17946 17947 17948 17949 17950 17951 17952 17953 17954 17955 17956 17957 17958 17959 17960 17961 17962 17963 17964 17965 17966 17967 17968 17969 17970 17971 17972 17973 17974 17975 17976 17977 17978 17979 17980 17981 17982 17983 17984 17985 17986 17987 17988 17989 17990 17991 17992 17993 17994 17995 17996 17997 17998 17999 18000 18001 18002 18003 18004 18005 18006 18007 18008 18009 18010 18011 18012 18013 18014 18015 18016 18017 18018 18019 18020 18021 18022 18023 18024 18025 18026 18027 18028 18029 18030 18031 18032 18033 18034 18035 18036 18037 18038 18039 18040 18041 18042 18043 18044 18045 18046 18047 18048 18049 18050 18051 18052 18053 18054 18055 18056 18057 18058 18059 18060 18061 18062 18063 18064 18065 18066 18067 18068 18069 18070 18071 18072 18073 18074 18075 18076 18077 18078 18079 18080 18081 18082 18083 18084 18085 18086 18087 18088 18089 18090 18091 18092 18093 18094 18095 18096 18097 18098 18099 18100 18101 18102 18103 18104 18105 18106 18107 18108 18109 18110 18111 18112 18113 18114 18115 18116 18117 18118 18119 18120 18121 18122 18123 18124 18125 18126 18127 18128 18129 18130 18131 18132 18133 18134 18135 18136 18137 18138 18139 18140 18141 18142 18143 18144 18145 18146 18147 18148 18149 18150 18151 18152 18153 18154 18155 18156 18157 18158 18159 18160 18161 18162 18163 18164 18165 18166 18167 18168 18169 18170 18171 18172 18173 18174 18175 18176 18177 18178 18179 18180 18181 18182 18183 18184 18185 18186 18187 18188 18189 18190 18191 18192 18193 18194 18195 18196 18197 18198 18199 18200 18201 18202 18203 18204 18205 18206 18207 18208 18209 18210 18211 18212 18213 18214 18215 18216 18217 18218 18219 18220 18221 18222 18223 18224 18225 18226 18227 18228 18229 18230 18231 18232 18233 18234 18235 18236 18237 18238 18239 18240 18241 18242 18243 18244 18245 18246 18247 18248 18249 18250 18251 18252 18253 18254 18255 18256 18257 18258 18259 18260 18261 18262 18263 18264 18265 18266 18267 18268 18269 18270 18271 18272 18273 18274 18275 18276 18277 18278 18279 18280 18281 18282 18283 18284 18285 18286 18287 18288 18289 18290 18291 18292 18293 18294 18295 18296 18297 18298 18299 18300 18301 18302 18303 18304 18305 18306 18307 18308 18309 18310 18311 18312 18313 18314 18315 18316 18317 18318 18319 18320 18321 18322 18323 18324 18325 18326 18327 18328 18329 18330 18331 18332 18333 18334 18335 18336 18337 18338 18339 18340 18341 18342 18343 18344 18345 18346 18347 18348 18349 18350 18351 18352 18353 18354 18355 18356 18357 18358 18359 18360 18361 18362 18363 18364 18365 18366 18367 18368 18369 18370 18371 18372 18373 18374 18375 18376 18377 18378 18379 18380 18381 18382 18383 18384 18385 18386 18387 18388 18389 18390 18391 18392 18393 18394 18395 18396 18397 18398 18399 18400 18401 18402 18403 18404 18405 18406 18407 18408 18409 18410 18411 18412 18413 18414 18415 18416 18417 18418 18419 18420 18421 18422 18423 18424 18425 18426 18427 18428 18429 18430 18431 18432 18433 18434 18435 18436 18437 18438 18439 18440 18441 18442 18443 18444 18445 18446 18447 18448 18449 18450 18451 18452 18453 18454 18455 18456 18457 18458 18459 18460 18461 18462 18463 18464 18465 18466 18467 18468 18469 18470 18471 18472 18473 18474 18475 18476 18477 18478 18479 18480 18481 18482 18483 18484 18485 18486 18487 18488 18489 18490 18491 18492 18493 18494 18495 18496 18497 18498 18499 18500 18501 18502 18503 18504 18505 18506 18507 18508 18509 18510 18511 18512 18513 18514 18515 18516 18517 18518 18519 18520 18521 18522 18523 18524 18525 18526 18527 18528 18529 18530 18531 18532 18533 18534 18535 18536 18537 18538 18539 18540 18541 18542 18543 18544 18545 18546 18547 18548 18549 18550 18551 18552 18553 18554 18555 18556 18557 18558 18559 18560 18561 18562 18563 18564 18565 18566 18567 18568 18569 18570 18571 18572 18573 18574 18575 18576 18577 18578 18579 18580 18581 18582 18583 18584 18585 18586 18587 18588 18589 18590 18591 18592 18593 18594 18595 18596 18597 18598 18599 18600 18601 18602 18603 18604 18605 18606 18607 18608 18609 18610 18611 18612 18613 18614 18615 18616 18617 18618 18619 18620 18621 18622 18623 18624 18625 18626 18627 18628 18629 18630 18631 18632 18633 18634 18635 18636 18637 18638 18639 18640 18641 18642 18643 18644 18645 18646 18647 18648 18649 18650 18651 18652 18653 18654 18655 18656 18657 18658 18659 18660 18661 18662 18663 18664 18665 18666 18667 18668 18669 18670 18671 18672 18673 18674 18675 18676 18677 18678 18679 18680 18681 18682 18683 18684 18685 18686 18687 18688 18689 18690 18691 18692 18693 18694 18695 18696 18697 18698 18699 18700 18701 18702 18703 18704 18705 18706 18707 18708 18709 18710 18711 18712 18713 18714 18715 18716 18717 18718 18719 18720 18721 18722 18723 18724 18725 18726 18727 18728 18729 18730 18731 18732 18733 18734 18735 18736 18737 18738 18739 18740 18741 18742 18743 18744 18745 18746 18747 18748 18749 18750 18751 18752 18753 18754 18755 18756 18757 18758 18759 18760 18761 18762 18763 18764 18765 18766 18767 18768 18769 18770 18771 18772 18773 18774 18775 18776 18777 18778 18779 18780 18781 18782 18783 18784 18785 18786 18787 18788 18789 18790 18791 18792 18793 18794 18795 18796 18797 18798 18799 18800 18801 18802 18803 18804 18805 18806 18807 18808 18809 18810 18811 18812 18813 18814 18815 18816 18817 18818 18819 18820 18821 18822 18823 18824 18825 18826 18827 18828 18829 18830 18831 18832 18833 18834 18835 18836 18837 18838 18839 18840 18841 18842 18843 18844 18845 18846 18847 18848 18849 18850 18851 18852 18853 18854 18855 18856 18857 18858 18859 18860 18861 18862 18863 18864 18865 18866 18867 18868 18869 18870 18871 18872 18873 18874 18875 18876 18877 18878 18879 18880 18881 18882 18883 18884 18885 18886 18887 18888 18889 18890 18891 18892 18893 18894 18895 18896 18897 18898 18899 18900 18901 18902 18903 18904 18905 18906 18907 18908 18909 18910 18911 18912 18913 18914 18915 18916 18917 18918 18919 18920 18921 18922 18923 18924 18925 18926 18927 18928 18929 18930 18931 18932 18933 18934 18935 18936 18937 18938 18939 18940 18941 18942 18943 18944 18945 18946 18947 18948 18949 18950 18951 18952 18953 18954 18955 18956 18957 18958 18959 18960 18961 18962 18963 18964 18965 18966 18967 18968 18969 18970 18971 18972 18973 18974 18975 18976 18977 18978 18979 18980 18981 18982 18983 18984 18985 18986 18987 18988 18989 18990 18991 18992 18993 18994 18995 18996 18997 18998 18999 19000 19001 19002 19003 19004 19005 19006 19007 19008 19009 19010 19011 19012 19013 19014 19015 19016 19017 19018 19019 19020 19021 19022 19023 19024 19025 19026 19027 19028 19029 19030 19031 19032 19033 19034 19035 19036 19037 19038 19039 19040 19041 19042 19043 19044 19045 19046 19047 19048 19049 19050 19051 19052 19053 19054 19055 19056 19057 19058 19059 19060 19061 19062 19063 19064 19065 19066 19067 19068 19069 19070 19071 19072 19073 19074 19075 19076 19077 19078 19079 19080 19081 19082 19083 19084 19085 19086 19087 19088 19089 19090 19091 19092 19093 19094 19095 19096 19097 19098 19099 19100 19101 19102 19103 19104 19105 19106 19107 19108 19109 19110 19111 19112 19113 19114 19115 19116 19117 19118 19119 19120 19121 19122 19123 19124 19125 19126 19127 19128 19129 19130 19131 19132 19133 19134 19135 19136 19137 19138 19139 19140 19141 19142 19143 19144 19145 19146 19147 19148 19149 19150 19151 19152 19153 19154 19155 19156 19157 19158 19159 19160 19161 19162 19163 19164 19165 19166 19167 19168 19169 19170 19171 19172 19173 19174 19175 19176 19177 19178 19179 19180 19181 19182 19183 19184 19185 19186 19187 19188 19189 19190 19191 19192 19193 19194 19195 19196 19197 19198 19199 19200 19201 19202 19203 19204 19205 19206 19207 19208 19209 19210 19211 19212 19213 19214 19215 19216 19217 19218 19219 19220 19221 19222 19223 19224 19225 19226 19227 19228 19229 19230 19231 19232 19233 19234 19235 19236 19237 19238 19239 19240 19241 19242 19243 19244 19245 19246 19247 19248 19249 19250 19251 19252 19253 19254 19255 19256 19257 19258 19259 19260 19261 19262 19263 19264 19265 19266 19267 19268 19269 19270 19271 19272 19273 19274 19275 19276 19277 19278 19279 19280 19281 19282 19283 19284 19285 19286 19287 19288 19289 19290 19291 19292 19293 19294 19295 19296 19297 19298 19299 19300 19301 19302 19303 19304 19305 19306 19307 19308 19309 19310 19311 19312 19313 19314 19315 19316 19317 19318 19319 19320 19321 19322 19323 19324 19325 19326 19327 19328 19329 19330 19331 19332 19333 19334 19335 19336 19337 19338 19339 19340 19341 19342 19343 19344 19345 19346 19347 19348 19349 19350 19351 19352 19353 19354 19355 19356 19357 19358 19359 19360 19361 19362 19363 19364 19365 19366 19367 19368 19369 19370 19371 19372 19373 19374 19375 19376 19377 19378 19379 19380 19381 19382 19383 19384 19385 19386 19387 19388 19389 19390 19391 19392 19393 19394 19395 19396 19397 19398 19399 19400 19401 19402 19403 19404 19405 19406 19407 19408 19409 19410 19411 19412 19413 19414 19415 19416 19417 19418 19419 19420 19421 19422 19423 19424 19425 19426 19427 19428 19429 19430 19431 19432 19433 19434 19435 19436 19437 19438 19439 19440 19441 19442 19443 19444 19445 19446 19447 19448 19449 19450 19451 19452 19453 19454 19455 19456 19457 19458 19459 19460 19461 19462 19463 19464 19465 19466 19467 19468 19469 19470 19471 19472 19473 19474 19475 19476 19477 19478 19479 19480 19481 19482 19483 19484 19485 19486 19487 19488 19489 19490 19491 19492 19493 19494 19495 19496 19497 19498 19499 19500 19501 19502 19503 19504 19505 19506 19507 19508 19509 19510 19511 19512 19513 19514 19515 19516 19517 19518 19519 19520 19521 19522 19523 19524 19525 19526 19527 19528 19529 19530 19531 19532 19533 19534 19535 19536 19537 19538 19539 19540 19541 19542 19543 19544 19545 19546 19547 19548 19549 19550 19551 19552 19553 19554 19555 19556 19557 19558 19559 19560 19561 19562 19563 19564 19565 19566 19567 19568 19569 19570 19571 19572 19573 19574 19575 19576 19577 19578 19579 19580 19581 19582 19583 19584 19585 19586 19587 19588 19589 19590 19591 19592 19593 19594 19595 19596 19597 19598 19599 19600 19601 19602 19603 19604 19605 19606 19607 19608 19609 19610 19611 19612 19613 19614 19615 19616 19617 19618 19619 19620 19621 19622 19623 19624 19625 19626 19627 19628 19629 19630 19631 19632 19633 19634 19635 19636 19637 19638 19639 19640 19641 19642 19643 19644 19645 19646 19647 19648 19649 19650 19651 19652 19653 19654 19655 19656 19657 19658 19659 19660 19661 19662 19663 19664 19665 19666 19667 19668 19669 19670 19671 19672 19673 19674 19675 19676 19677 19678 19679 19680 19681 19682 19683 19684 19685 19686 19687 19688 19689 19690 19691 19692 19693 19694 19695 19696 19697 19698 19699 19700 19701 19702 19703 19704 19705 19706 19707 19708 19709 19710 19711 19712 19713 19714 19715 19716 19717 19718 19719 19720 19721 19722 19723 19724 19725 19726 19727 19728 19729 19730 19731 19732 19733 19734 19735 19736 19737 19738 19739 19740 19741 19742 19743 19744 19745 19746 19747 19748 19749 19750 19751 19752 19753 19754 19755 19756 19757 19758 19759 19760 19761 19762 19763 19764 19765 19766 19767 19768 19769 19770 19771 19772 19773 19774 19775 19776 19777 19778 19779 19780 19781 19782 19783 19784 19785 19786 19787 19788 19789 19790 19791 19792 19793 19794 19795 19796 19797 19798 19799 19800 19801 19802 19803 19804 19805 19806 19807 19808 19809 19810 19811 19812 19813 19814 19815 19816 19817 19818 19819 19820 19821 19822 19823 19824 19825 19826 19827 19828 19829 19830 19831 19832 19833 19834 19835 19836 19837 19838 19839 19840 19841 19842 19843 19844 19845 19846 19847 19848 19849 19850 19851 19852 19853 19854 19855 19856 19857 19858 19859 19860 19861 19862 19863 19864 19865 19866 19867 19868 19869 19870 19871 19872 19873 19874 19875 19876 19877 19878 19879 19880 19881 19882 19883 19884 19885 19886 19887 19888 19889 19890 19891 19892 19893 19894 19895 19896 19897 19898 19899 19900 19901 19902 19903 19904 19905 19906 19907 19908 19909 19910 19911 19912 19913 19914 19915 19916 19917 19918 19919 19920 19921 19922 19923 19924 19925 19926 19927 19928 19929 19930 19931 19932 19933 19934 19935 19936 19937 19938 19939 19940 19941 19942 19943 19944 19945 19946 19947 19948 19949 19950 19951 19952 19953 19954 19955 19956 19957 19958 19959 19960 19961 19962 19963 19964 19965 19966 19967 19968 19969 19970 19971 19972 19973 19974 19975 19976 19977 19978 19979 19980 19981 19982 19983 19984 19985 19986 19987 19988 19989 19990 19991 19992 19993 19994 19995 19996 19997 19998 19999 20000 20001 20002 20003 20004 20005 20006 20007 20008 20009 20010 20011 20012 20013 20014 20015 20016 20017 20018 20019 20020 20021 20022 20023 20024 20025 20026 20027 20028 20029 20030 20031 20032 20033 20034 20035 20036 20037 20038 20039 20040 20041 20042 20043 20044 20045 20046 20047 20048 20049 20050 20051 20052 20053 20054 20055 20056 20057 20058 20059 20060 20061 20062 20063 20064 20065 20066 20067 20068 20069 20070 20071 20072 20073 20074 20075 20076 20077 20078 20079 20080 20081 20082 20083 20084 20085 20086 20087 20088 20089 20090 20091 20092 20093 20094 20095 20096 20097 20098 20099 20100 20101 20102 20103 20104 20105 20106 20107 20108 20109 20110 20111 20112 20113 20114 20115 20116 20117 20118 20119 20120 20121 20122 20123 20124 20125 20126 20127 20128 20129 20130 20131 20132 20133 20134 20135 20136 20137 20138 20139 20140 20141 20142 20143 20144 20145 20146 20147 20148 20149 20150 20151 20152 20153 20154 20155 20156 20157 20158 20159 20160 20161 20162 20163 20164 20165 20166 20167 20168 20169 20170 20171 20172 20173 20174 20175 20176 20177 20178 20179 20180 20181 20182 20183 20184 20185 20186 20187 20188 20189 20190 20191 20192 20193 20194 20195 20196 20197 20198 20199 20200 20201 20202 20203 20204 20205 20206 20207 20208 20209 20210 20211 20212 20213 20214 20215 20216 20217 20218 20219 20220 20221 20222 20223 20224 20225 20226 20227 20228 20229 20230 20231 20232 20233 20234 20235 20236 20237 20238 20239 20240 20241 20242 20243 20244 20245 20246 20247 20248 20249 20250 20251 20252 20253 20254 20255 20256 20257 20258 20259 20260 20261 20262 20263 20264 20265 20266 20267 20268 20269 20270 20271 20272 20273 20274 20275 20276 20277 20278 20279 20280 20281 20282 20283 20284 20285 20286 20287 20288 20289 20290 20291 20292 20293 20294 20295 20296 20297 20298 20299 20300 20301 20302 20303 20304 20305 20306 20307 20308 20309 20310 20311 20312 20313 20314 20315 20316 20317 20318 20319 20320 20321 20322 20323 20324 20325 20326 20327 20328 20329 20330 20331 20332 20333 20334 20335 20336 20337 20338 20339 20340 20341 20342 20343 20344 20345 20346 20347 20348 20349 20350 20351 20352 20353 20354 20355 20356 20357 20358 20359 20360 20361 20362 20363 20364 20365 20366 20367 20368 20369 20370 20371 20372 20373 20374 20375 20376 20377 20378 20379 20380 20381 20382 20383 20384 20385 20386 20387 20388 20389 20390 20391 20392 20393 20394 20395 20396 20397 20398 20399 20400 20401 20402 20403 20404 20405 20406 20407 20408 20409 20410 20411 20412 20413 20414 20415 20416 20417 20418 20419 20420 20421 20422 20423 20424 20425 20426 20427 20428 20429 20430 20431 20432 20433 20434 20435 20436 20437 20438 20439 20440 20441 20442 20443 20444 20445 20446 20447 20448 20449 20450 20451 20452 20453 20454 20455 20456 20457 20458 20459 20460 20461 20462 20463 20464 20465 20466 20467 20468 20469 20470 20471 20472 20473 20474 20475 20476 20477 20478 20479 20480 20481 20482 20483 20484 20485 20486 20487 20488 20489 20490 20491 20492 20493 20494 20495 20496 20497 20498 20499 20500 20501 20502 20503 20504 20505 20506 20507 20508 20509 20510 20511 20512 20513 20514 20515 20516 20517 20518 20519 20520 20521 20522 20523 20524 20525 20526 20527 20528 20529 20530 20531 20532 20533 20534 20535 20536 20537 20538 20539 20540 20541 20542 20543 20544 20545 20546 20547 20548 20549 20550 20551 20552 20553 20554 20555 20556 20557 20558 20559 20560 20561 20562 20563 20564 20565 20566 20567 20568 20569 20570 20571 20572 20573 20574 20575 20576 20577 20578 20579 20580 20581 20582 20583 20584 20585 20586 20587 20588 20589 20590 20591 20592 20593 20594 20595 20596 20597 20598 20599 20600 20601 20602 20603 20604 20605 20606 20607 20608 20609 20610 20611 20612 20613 20614 20615 20616 20617 20618 20619 20620 20621 20622 20623 20624 20625 20626 20627 20628 20629 20630 20631 20632 20633 20634 20635 20636 20637 20638 20639 20640 20641 20642 20643 20644 20645 20646 20647 20648 20649 20650 20651 20652 20653 20654 20655 20656 20657 20658 20659 20660 20661 20662 20663 20664 20665 20666 20667 20668 20669 20670 20671 20672 20673 20674 20675 20676 20677 20678 20679 20680 20681 20682 20683 20684 20685 20686 20687 20688 20689 20690 20691 20692 20693 20694 20695 20696 20697 20698 20699 20700 20701 20702 20703 20704 20705 20706 20707 20708 20709 20710 20711 20712 20713 20714 20715 20716 20717 20718 20719 20720 20721 20722 20723 20724 20725 20726 20727 20728 20729 20730 20731 20732 20733 20734 20735 20736 20737 20738 20739 20740 20741 20742 20743 20744 20745 20746 20747 20748 20749 20750 20751 20752 20753 20754 20755 20756 20757 20758 20759 20760 20761 20762 20763 20764 20765 20766 20767 20768 20769 20770 20771 20772 20773 20774 20775 20776 20777 20778 20779 20780 20781 20782 20783 20784 20785 20786 20787 20788 20789 20790 20791 20792 20793 20794 20795 20796 20797 20798 20799 20800 20801 20802 20803 20804 20805 20806 20807 20808 20809 20810 20811 20812 20813 20814 20815 20816 20817 20818 20819 20820 20821 20822 20823 20824 20825 20826 20827 20828 20829 20830 20831 20832 20833 20834 20835 20836 20837 20838 20839 20840 20841 20842 20843 20844 20845 20846 20847 20848 20849 20850 20851 20852 20853 20854 20855 20856 20857 20858 20859 20860 20861 20862 20863 20864 20865 20866 20867 20868 20869 20870 20871 20872 20873 20874 20875 20876 20877 20878 20879 20880 20881 20882 20883 20884 20885 20886 20887 20888 20889 20890 20891 20892 20893 20894 20895 20896 20897 20898 20899 20900 20901 20902 20903 20904 20905 20906 20907 20908 20909 20910 20911 20912 20913 20914 20915 20916 20917 20918 20919 20920 20921 20922 20923 20924 20925 20926 20927 20928 20929 20930 20931 20932 20933 20934 20935 20936 20937 20938 20939 20940 20941 20942 20943 20944 20945 20946 20947 20948 20949 20950 20951 20952 20953 20954 20955 20956 20957 20958 20959 20960 20961 20962 20963 20964 20965 20966 20967 20968 20969 20970 20971 20972 20973 20974 20975 20976 20977 20978 20979 20980 20981 20982 20983 20984 20985 20986 20987 20988 20989 20990 20991 20992 20993 20994 20995 20996 20997 20998 20999 21000 21001 21002 21003 21004 21005 21006 21007 21008 21009 21010 21011 21012 21013 21014 21015 21016 21017 21018 21019 21020 21021 21022 21023 21024 21025 21026 21027 21028 21029 21030 21031 21032 21033 21034 21035 21036 21037 21038 21039 21040 21041 21042 21043 21044 21045 21046 21047 21048 21049 21050 21051 21052 21053 21054 21055 21056 21057 21058 21059 21060 21061 21062 21063 21064 21065 21066 21067 21068 21069 21070 21071 21072 21073 21074 21075 21076 21077 21078 21079 21080 21081 21082 21083 21084 21085 21086 21087 21088 21089 21090 21091 21092 21093 21094 21095 21096 21097 21098 21099 21100 21101 21102 21103 21104 21105 21106 21107 21108 21109 21110 21111 21112 21113 21114 21115 21116 21117 21118 21119 21120 21121 21122 21123 21124 21125 21126 21127 21128 21129 21130 21131 21132 21133 21134 21135 21136 21137 21138 21139 21140 21141 21142 21143 21144 21145 21146 21147 21148 21149 21150 21151 21152 21153 21154 21155 21156 21157 21158 21159 21160 21161 21162 21163 21164 21165 21166 21167 21168 21169 21170 21171 21172 21173 21174 21175 21176 21177 21178 21179 21180 21181 21182 21183 21184 21185 21186 21187 21188 21189 21190 21191 21192 21193 21194 21195 21196 21197 21198 21199 21200 21201 21202 21203 21204 21205 21206 21207 21208 21209 21210 21211 21212 21213 21214 21215 21216 21217 21218 21219 21220 21221 21222 21223 21224 21225 21226 21227 21228 21229 21230 21231 21232 21233 21234 21235 21236 21237 21238 21239 21240 21241 21242 21243 21244 21245 21246 21247 21248 21249 21250 21251 21252 21253 21254 21255 21256 21257 21258 21259 21260 21261 21262 21263 21264 21265 21266 21267 21268 21269 21270 21271 21272 21273 21274 21275 21276 21277 21278 21279 21280 21281 21282 21283 21284 21285 21286 21287 21288 21289 21290 21291 21292 21293 21294 21295 21296 21297 21298 21299 21300 21301 21302 21303 21304 21305 21306 21307 21308 21309 21310 21311 21312 21313 21314 21315 21316 21317 21318 21319 21320 21321 21322 21323 21324 21325 21326 21327 21328 21329 21330 21331 21332 21333 21334 21335 21336 21337 21338 21339 21340 21341 21342 21343 21344 21345 21346 21347 21348 21349 21350 21351 21352 21353 21354 21355 21356 21357 21358 21359 21360 21361 21362 21363 21364 21365 21366 21367 21368 21369 21370 21371 21372 21373 21374 21375 21376 21377 21378 21379 21380 21381 21382 21383 21384 21385 21386 21387 21388 21389 21390 21391 21392 21393 21394 21395 21396 21397 21398 21399 21400 21401 21402 21403 21404 21405 21406 21407 21408 21409 21410 21411 21412 21413 21414 21415 21416 21417 21418 21419 21420 21421 21422 21423 21424 21425 21426 21427 21428 21429 21430 21431 21432 21433 21434 21435 21436 21437 21438 21439 21440 21441 21442 21443 21444 21445 21446 21447 21448 21449 21450 21451 21452 21453 21454 21455 21456 21457 21458 21459 21460 21461 21462 21463 21464 21465 21466 21467 21468 21469 21470 21471 21472 21473 21474 21475 21476 21477 21478 21479 21480 21481 21482 21483 21484 21485 21486 21487 21488 21489 21490 21491 21492 21493 21494 21495 21496 21497 21498 21499 21500 21501 21502 21503 21504 21505 21506 21507 21508 21509 21510 21511 21512 21513 21514 21515 21516 21517 21518 21519 21520 21521 21522 21523 21524 21525 21526 21527 21528 21529 21530 21531 21532 21533 21534 21535 21536 21537 21538 21539 21540 21541 21542 21543 21544 21545 21546 21547 21548 21549 21550 21551 21552 21553 21554 21555 21556 21557 21558 21559 21560 21561 21562 21563 21564 21565 21566 21567 21568 21569 21570 21571 21572 21573 21574 21575 21576 21577 21578 21579 21580 21581 21582 21583 21584 21585 21586 21587 21588 21589 21590 21591 21592 21593 21594 21595 21596 21597 21598 21599 21600 21601 21602 21603 21604 21605 21606 21607 21608 21609 21610 21611 21612 21613 21614 21615 21616 21617 21618 21619 21620 21621 21622 21623 21624 21625 21626 21627 21628 21629 21630 21631 21632 21633 21634 21635 21636 21637 21638 21639 21640 21641 21642 21643 21644 21645 21646 21647 21648 21649 21650 21651 21652 21653 21654 21655 21656 21657 21658 21659 21660 21661 21662 21663 21664 21665 21666 21667 21668 21669 21670 21671 21672 21673 21674 21675 21676 21677 21678 21679 21680 21681 21682 21683 21684 21685 21686 21687 21688 21689 21690 21691 21692 21693 21694 21695 21696 21697 21698 21699 21700 21701 21702 21703 21704 21705 21706 21707 21708 21709 21710 21711 21712 21713 21714 21715 21716 21717 21718 21719 21720 21721 21722 21723 21724 21725 21726 21727 21728 21729 21730 21731 21732 21733 21734 21735 21736 21737 21738 21739 21740 21741 21742 21743 21744 21745 21746 21747 21748 21749 21750 21751 21752 21753 21754 21755 21756 21757 21758 21759 21760 21761 21762 21763 21764 21765 21766 21767 21768 21769 21770 21771 21772 21773 21774 21775 21776 21777 21778 21779 21780 21781 21782 21783 21784 21785 21786 21787 21788 21789 21790 21791 21792 21793 21794 21795 21796 21797 21798 21799 21800 21801 21802 21803 21804 21805 21806 21807 21808 21809 21810 21811 21812 21813 21814 21815 21816 21817 21818 21819 21820 21821 21822 21823 21824 21825 21826 21827 21828 21829 21830 21831 21832 21833 21834 21835 21836 21837 21838 21839 21840 21841 21842 21843 21844 21845 21846 21847 21848 21849 21850 21851 21852 21853 21854 21855 21856 21857 21858 21859 21860 21861 21862 21863 21864 21865 21866 21867 21868 21869 21870 21871 21872 21873 21874 21875 21876 21877 21878 21879 21880 21881 21882 21883 21884 21885 21886 21887 21888 21889 21890 21891 21892 21893 21894 21895 21896 21897 21898 21899 21900 21901 21902 21903 21904 21905 21906 21907 21908 21909 21910 21911 21912 21913 21914 21915 21916 21917 21918 21919 21920 21921 21922 21923 21924 21925 21926 21927 21928 21929 21930 21931 21932 21933 21934 21935 21936 21937 21938 21939 21940 21941 21942 21943 21944 21945 21946 21947 21948 21949 21950 21951 21952 21953 21954 21955 21956 21957 21958 21959 21960 21961 21962 21963 21964 21965 21966 21967 21968 21969 21970 21971 21972 21973 21974 21975 21976 21977 21978 21979 21980 21981 21982 21983 21984 21985 21986 21987 21988 21989 21990 21991 21992 21993 21994 21995 21996 21997 21998 21999 22000 22001 22002 22003 22004 22005 22006 22007 22008 22009 22010 22011 22012 22013 22014 22015 22016 22017 22018 22019 22020 22021 22022 22023 22024 22025 22026 22027 22028 22029 22030 22031 22032 22033 22034 22035 22036 22037 22038 22039 22040 22041 22042 22043 22044 22045 22046 22047 22048 22049 22050 22051 22052 22053 22054 22055 22056 22057 22058 22059 22060 22061 22062 22063 22064 22065 22066 22067 22068 22069 22070 22071 22072 22073 22074 22075 22076 22077 22078 22079 22080 22081 22082 22083 22084 22085 22086 22087 22088 22089 22090 22091 22092 22093 22094 22095 22096 22097 22098 22099 22100 22101 22102 22103 22104 22105 22106 22107 22108 22109 22110 22111 22112 22113 22114 22115 22116 22117 22118 22119 22120 22121 22122 22123 22124 22125 22126 22127 22128 22129 22130 22131 22132 22133 22134 22135 22136 22137 22138 22139 22140 22141 22142 22143 22144 22145 22146 22147 22148 22149 22150 22151 22152 22153 22154 22155 22156 22157 22158 22159 22160 22161 22162 22163 22164 22165 22166 22167 22168 22169 22170 22171 22172 22173 22174 22175 22176 22177 22178 22179 22180 22181 22182 22183 22184 22185 22186 22187 22188 22189 22190 22191 22192 22193 22194 22195 22196 22197 22198 22199 22200 22201 22202 22203 22204 22205 22206 22207 22208 22209 22210 22211 22212 22213 22214 22215 22216 22217 22218 22219 22220 22221 22222 22223 22224 22225 22226 22227 22228 22229 22230 22231 22232 22233 22234 22235 22236 22237 22238 22239 22240 22241 22242 22243 22244 22245 22246 22247 22248 22249 22250 22251 22252 22253 22254 22255 22256 22257 22258 22259 22260 22261 22262 22263 22264 22265 22266 22267 22268 22269 22270 22271 22272 22273 22274 22275 22276 22277 22278 22279 22280 22281 22282 22283 22284 22285 22286 22287 22288 22289 22290 22291 22292 22293 22294 22295 22296 22297 22298 22299 22300 22301 22302 22303 22304 22305 22306 22307 22308 22309 22310 22311 22312 22313 22314 22315 22316 22317 22318 22319 22320 22321 22322 22323 22324 22325 22326 22327 22328 22329 22330 22331 22332 22333 22334 22335 22336 22337 22338 22339 22340 22341 22342 22343 22344 22345 22346 22347 22348 22349 22350 22351 22352 22353 22354 22355 22356 22357 22358 22359 22360 22361 22362 22363 22364 22365 22366 22367 22368 22369 22370 22371 22372 22373 22374 22375 22376 22377 22378 22379 22380 22381 22382 22383 22384 22385 22386 22387 22388 22389 22390 22391 22392 22393 22394 22395 22396 22397 22398 22399 22400 22401 22402 22403 22404 22405 22406 22407 22408 22409 22410 22411 22412 22413 22414 22415 22416 22417 22418 22419 22420 22421 22422 22423 22424 22425 22426 22427 22428 22429 22430 22431 22432 22433 22434 22435 22436 22437 22438 22439 22440 22441 22442 22443 22444 22445 22446 22447 22448 22449 22450 22451 22452 22453 22454 22455 22456 22457 22458 22459 22460 22461 22462 22463 22464 22465 22466 22467 22468 22469 22470 22471 22472 22473 22474 22475 22476 22477 22478 22479 22480 22481 22482 22483 22484 22485 22486 22487 22488 22489 22490 22491 22492 22493 22494 22495 22496 22497 22498 22499 22500 22501 22502 22503 22504 22505 22506 22507 22508 22509 22510 22511 22512 22513 22514 22515 22516 22517 22518 22519 22520 22521 22522 22523 22524 22525 22526 22527 22528 22529 22530 22531 22532 22533 22534 22535 22536 22537 22538 22539 22540 22541 22542 22543 22544 22545 22546 22547 22548 22549 22550 22551 22552 22553 22554 22555 22556 22557 22558 22559 22560 22561 22562 22563 22564 22565 22566 22567 22568 22569 22570 22571 22572 22573 22574 22575 22576 22577 22578 22579 22580 22581 22582 22583 22584 22585 22586 22587 22588 22589 22590 22591 22592 22593 22594 22595 22596 22597 22598 22599 22600 22601 22602 22603 22604 22605 22606 22607 22608 22609 22610 22611 22612 22613 22614 22615 22616 22617 22618 22619 22620 22621 22622 22623 22624 22625 22626 22627 22628 22629 22630 22631 22632 22633 22634 22635 22636 22637 22638 22639 22640 22641 22642 22643 22644 22645 22646 22647 22648 22649 22650 22651 22652 22653 22654 22655 22656 22657 22658 22659 22660 22661 22662 22663 22664 22665 22666 22667 22668 22669 22670 22671 22672 22673 22674 22675 22676 22677 22678 22679 22680 22681 22682 22683 22684 22685 22686 22687 22688 22689 22690 22691 22692 22693 22694 22695 22696 22697 22698 22699 22700 22701 22702 22703 22704 22705 22706 22707 22708 22709 22710 22711 22712 22713 22714 22715 22716 22717 22718 22719 22720 22721 22722 22723 22724 22725 22726 22727 22728 22729 22730 22731 22732 22733 22734 22735 22736 22737 22738 22739 22740 22741 22742 22743 22744 22745 22746 22747 22748 22749 22750 22751 22752 22753 22754 22755 22756 22757 22758 22759 22760 22761 22762 22763 22764 22765 22766 22767 22768 22769 22770 22771 22772 22773 22774 22775 22776 22777 22778 22779 22780 22781 22782 22783 22784 22785 22786 22787 22788 22789 22790 22791 22792 22793 22794 22795 22796 22797 22798 22799 22800 22801 22802 22803 22804 22805 22806 22807 22808 22809 22810 22811 22812 22813 22814 22815 22816 22817 22818 22819 22820 22821 22822 22823 22824 22825 22826 22827 22828 22829 22830 22831 22832 22833 22834 22835 22836 22837 22838 22839 22840 22841 22842 22843 22844 22845 22846 22847 22848 22849 22850 22851 22852 22853 22854 22855 22856 22857 22858 22859 22860 22861 22862 22863 22864 22865 22866 22867 22868 22869 22870 22871 22872 22873 22874 22875 22876 22877 22878 22879 22880 22881 22882 22883 22884 22885 22886 22887 22888 22889 22890 22891 22892 22893 22894 22895 22896 22897 22898 22899 22900 22901 22902 22903 22904 22905 22906 22907 22908 22909 22910 22911 22912 22913 22914 22915 22916 22917 22918 22919 22920 22921 22922 22923 22924 22925 22926 22927 22928 22929 22930 22931 22932 22933 22934 22935 22936 22937 22938 22939 22940 22941 22942 22943 22944 22945 22946 22947 22948 22949 22950 22951 22952 22953 22954 22955 22956 22957 22958 22959 22960 22961 22962 22963 22964 22965 22966 22967 22968 22969 22970 22971 22972 22973 22974 22975 22976 22977 22978 22979 22980 22981 22982 22983 22984 22985 22986 22987 22988 22989 22990 22991 22992 22993 22994 22995 22996 22997 22998 22999 23000 23001 23002 23003 23004 23005 23006 23007 23008 23009 23010 23011 23012 23013 23014 23015 23016 23017 23018 23019 23020 23021 23022 23023 23024 23025 23026 23027 23028 23029 23030 23031 23032 23033 23034 23035 23036 23037 23038 23039 23040 23041 23042 23043 23044 23045 23046 23047 23048 23049 23050 23051 23052 23053 23054 23055 23056 23057 23058 23059 23060 23061 23062 23063 23064 23065 23066 23067 23068 23069 23070 23071 23072 23073 23074 23075 23076 23077 23078 23079 23080 23081 23082 23083 23084 23085 23086 23087 23088 23089 23090 23091 23092 23093 23094 23095 23096 23097 23098 23099 23100 23101 23102 23103 23104 23105 23106 23107 23108 23109 23110 23111 23112 23113 23114 23115 23116 23117 23118 23119 23120 23121 23122 23123 23124 23125 23126 23127 23128 23129 23130 23131 23132 23133 23134 23135 23136 23137 23138 23139 23140 23141 23142 23143 23144 23145 23146 23147 23148 23149 23150 23151 23152 23153 23154 23155 23156 23157 23158 23159 23160 23161 23162 23163 23164 23165 23166 23167 23168 23169 23170 23171 23172 23173 23174 23175 23176 23177 23178 23179 23180 23181 23182 23183 23184 23185 23186 23187 23188 23189 23190 23191 23192 23193 23194 23195 23196 23197 23198 23199 23200 23201 23202 23203 23204 23205 23206 23207 23208 23209 23210 23211 23212 23213 23214 23215 23216 23217 23218 23219 23220 23221 23222 23223 23224 23225 23226 23227 23228 23229 23230 23231 23232 23233 23234 23235 23236 23237 23238 23239 23240 23241 23242 23243 23244 23245 23246 23247 23248 23249 23250 23251 23252 23253 23254 23255 23256 23257 23258 23259 23260 23261 23262 23263 23264 23265 23266 23267 23268 23269 23270 23271 23272 23273 23274 23275 23276 23277 23278 23279 23280 23281 23282 23283 23284 23285 23286 23287 23288 23289 23290 23291 23292 23293 23294 23295 23296 23297 23298 23299 23300 23301 23302 23303 23304 23305 23306 23307 23308 23309 23310 23311 23312 23313 23314 23315 23316 23317 23318 23319 23320 23321 23322 23323 23324 23325 23326 23327 23328 23329 23330 23331 23332 23333 23334 23335 23336 23337 23338 23339 23340 23341 23342 23343 23344 23345 23346 23347 23348 23349 23350 23351 23352 23353 23354 23355 23356 23357 23358 23359 23360 23361 23362 23363 23364 23365 23366 23367 23368 23369 23370 23371 23372 23373 23374 23375 23376 23377 23378 23379 23380 23381 23382 23383 23384 23385 23386 23387 23388 23389 23390 23391 23392 23393 23394 23395 23396 23397 23398 23399 23400 23401 23402 23403 23404 23405 23406 23407 23408 23409 23410 23411 23412 23413 23414 23415 23416 23417 23418 23419 23420 23421 23422 23423 23424 23425 23426 23427 23428 23429 23430 23431 23432 23433 23434 23435 23436 23437 23438 23439 23440 23441 23442 23443 23444 23445 23446 23447 23448 23449 23450 23451 23452 23453 23454 23455 23456 23457 23458 23459 23460 23461 23462 23463 23464 23465 23466 23467 23468 23469 23470 23471 23472 23473 23474 23475 23476 23477 23478 23479 23480 23481 23482 23483 23484 23485 23486 23487 23488 23489 23490 23491 23492 23493 23494 23495 23496 23497 23498 23499 23500 23501 23502 23503 23504 23505 23506 23507 23508 23509 23510 23511 23512 23513 23514 23515 23516 23517 23518 23519 23520 23521 23522 23523 23524 23525 23526 23527 23528 23529 23530 23531 23532 23533 23534 23535 23536 23537 23538 23539 23540 23541 23542 23543 23544 23545 23546 23547 23548 23549 23550 23551 23552 23553 23554 23555 23556 23557 23558 23559 23560 23561 23562 23563 23564 23565 23566 23567 23568 23569 23570 23571 23572 23573 23574 23575 23576 23577 23578 23579 23580 23581 23582 23583 23584 23585 23586 23587 23588 23589 23590 23591 23592 23593 23594 23595 23596 23597 23598 23599 23600 23601 23602 23603 23604 23605 23606 23607 23608 23609 23610 23611 23612 23613 23614 23615 23616 23617 23618 23619 23620 23621 23622 23623 23624 23625 23626 23627 23628 23629 23630 23631 23632 23633 23634 23635 23636 23637 23638 23639 23640 23641 23642 23643 23644 23645 23646 23647 23648 23649 23650 23651 23652 23653 23654 23655 23656 23657 23658 23659 23660 23661 23662 23663 23664 23665 23666 23667 23668 23669 23670 23671 23672 23673 23674 23675 23676 23677 23678 23679 23680 23681 23682 23683 23684 23685 23686 23687 23688 23689 23690 23691 23692 23693 23694 23695 23696 23697 23698 23699 23700 23701 23702 23703 23704 23705 23706 23707 23708 23709 23710 23711 23712 23713 23714 23715 23716 23717 23718 23719 23720 23721 23722 23723 23724 23725 23726 23727 23728 23729 23730 23731 23732 23733 23734 23735 23736 23737 23738 23739 23740 23741 23742 23743 23744 23745 23746 23747 23748 23749 23750 23751 23752 23753 23754 23755 23756 23757 23758 23759 23760 23761 23762 23763 23764 23765 23766 23767 23768 23769 23770 23771 23772 23773 23774 23775 23776 23777 23778 23779 23780 23781 23782 23783 23784 23785 23786 23787 23788 23789 23790 23791 23792 23793 23794 23795 23796 23797 23798 23799 23800 23801 23802 23803 23804 23805 23806 23807 23808 23809 23810 23811 23812 23813 23814 23815 23816 23817 23818 23819 23820 23821 23822 23823 23824 23825 23826 23827 23828 23829 23830 23831 23832 23833 23834 23835 23836 23837 23838 23839 23840 23841 23842 23843 23844 23845 23846 23847 23848 23849 23850 23851 23852 23853 23854 23855 23856 23857 23858 23859 23860 23861 23862 23863 23864 23865 23866 23867 23868 23869 23870 23871 23872 23873 23874 23875 23876 23877 23878 23879 23880 23881 23882 23883 23884 23885 23886 23887 23888 23889 23890 23891 23892 23893 23894 23895 23896 23897 23898 23899 23900 23901 23902 23903 23904 23905 23906 23907 23908 23909 23910 23911 23912 23913 23914 23915 23916 23917 23918 23919 23920 23921 23922 23923 23924 23925 23926 23927 23928 23929 23930 23931 23932 23933 23934 23935 23936 23937 23938 23939 23940 23941 23942 23943 23944 23945 23946 23947 23948 23949 23950 23951 23952 23953 23954 23955 23956 23957 23958 23959 23960 23961 23962 23963 23964 23965 23966 23967 23968 23969 23970 23971 23972 23973 23974 23975 23976 23977 23978 23979 23980 23981 23982 23983 23984 23985 23986 23987 23988 23989 23990 23991 23992 23993 23994 23995 23996 23997 23998 23999 24000 24001 24002 24003 24004 24005 24006 24007 24008 24009 24010 24011 24012 24013 24014 24015 24016 24017 24018 24019 24020 24021 24022 24023 24024 24025 24026 24027 24028 24029 24030 24031 24032 24033 24034 24035 24036 24037 24038 24039 24040 24041 24042 24043 24044 24045 24046 24047 24048 24049 24050 24051 24052 24053 24054 24055 24056 24057 24058 24059 24060 24061 24062 24063 24064 24065 24066 24067 24068 24069 24070 24071 24072 24073 24074 24075 24076 24077 24078 24079 24080 24081 24082 24083 24084 24085 24086 24087 24088 24089 24090 24091 24092 24093 24094 24095 24096 24097 24098 24099 24100 24101 24102 24103 24104 24105 24106 24107 24108 24109 24110 24111 24112 24113 24114 24115 24116 24117 24118 24119 24120 24121 24122 24123 24124 24125 24126 24127 24128 24129 24130 24131 24132 24133 24134 24135 24136 24137 24138 24139 24140 24141 24142 24143 24144 24145 24146 24147 24148 24149 24150 24151 24152 24153 24154 24155 24156 24157 24158 24159 24160 24161 24162 24163 24164 24165 24166 24167 24168 24169 24170 24171 24172 24173 24174 24175 24176 24177 24178 24179 24180 24181 24182 24183 24184 24185 24186 24187 24188 24189 24190 24191 24192 24193 24194 24195 24196 24197 24198 24199 24200 24201 24202 24203 24204 24205 24206 24207 24208 24209 24210 24211 24212 24213 24214 24215 24216 24217 24218 24219 24220 24221 24222 24223 24224 24225 24226 24227 24228 24229 24230 24231 24232 24233 24234 24235 24236 24237 24238 24239 24240 24241 24242 24243 24244 24245 24246 24247 24248 24249 24250 24251 24252 24253 24254 24255 24256 24257 24258 24259 24260 24261 24262 24263 24264 24265 24266 24267 24268 24269 24270 24271 24272 24273 24274 24275 24276 24277 24278 24279 24280 24281 24282 24283 24284 24285 24286 24287 24288 24289 24290 24291 24292 24293 24294 24295 24296 24297 24298 24299 24300 24301 24302 24303 24304 24305 24306 24307 24308 24309 24310 24311 24312 24313 24314 24315 24316 24317 24318 24319 24320 24321 24322 24323 24324 24325 24326 24327 24328 24329 24330 24331 24332 24333 24334 24335 24336 24337 24338 24339 24340 24341 24342 24343 24344 24345 24346 24347 24348 24349 24350 24351 24352 24353 24354 24355 24356 24357 24358 24359 24360 24361 24362 24363 24364 24365 24366 24367 24368 24369 24370 24371 24372 24373 24374 24375 24376 24377 24378 24379 24380 24381 24382 24383 24384 24385 24386 24387 24388 24389 24390 24391 24392 24393 24394 24395 24396 24397 24398 24399 24400 24401 24402 24403 24404 24405 24406 24407 24408 24409 24410 24411 24412 24413 24414 24415 24416 24417 24418 24419 24420 24421 24422 24423 24424 24425 24426 24427 24428 24429 24430 24431 24432 24433 24434 24435 24436 24437 24438 24439 24440 24441 24442 24443 24444 24445 24446 24447 24448 24449 24450 24451 24452 24453 24454 24455 24456 24457 24458 24459 24460 24461 24462 24463 24464 24465 24466 24467 24468 24469 24470 24471 24472 24473 24474 24475 24476 24477 24478 24479 24480 24481 24482 24483 24484 24485 24486 24487 24488 24489 24490 24491 24492 24493 24494 24495 24496 24497 24498 24499 24500 24501 24502 24503 24504 24505 24506 24507 24508 24509 24510 24511 24512 24513 24514 24515 24516 24517 24518 24519 24520 24521 24522 24523 24524 24525 24526 24527 24528 24529 24530 24531 24532 24533 24534 24535 24536 24537 24538 24539 24540 24541 24542 24543 24544 24545 24546 24547 24548 24549 24550 24551 24552 24553 24554 24555 24556 24557 24558 24559 24560 24561 24562 24563 24564 24565 24566 24567 24568 24569 24570 24571 24572 24573 24574 24575 24576 24577 24578 24579 24580 24581 24582 24583 24584 24585 24586 24587 24588 24589 24590 24591 24592 24593 24594 24595 24596 24597 24598 24599 24600 24601 24602 24603 24604 24605 24606 24607 24608 24609 24610 24611 24612 24613 24614 24615 24616 24617 24618 24619 24620 24621 24622 24623 24624 24625 24626 24627 24628 24629 24630 24631 24632 24633 24634 24635 24636 24637 24638 24639 24640 24641 24642 24643 24644 24645 24646 24647 24648 24649 24650 24651 24652 24653 24654 24655 24656 24657 24658 24659 24660 24661 24662 24663 24664 24665 24666 24667 24668 24669 24670 24671 24672 24673 24674 24675 24676 24677 24678 24679 24680 24681 24682 24683 24684 24685 24686 24687 24688 24689 24690 24691 24692 24693 24694 24695 24696 24697 24698 24699 24700 24701 24702 24703 24704 24705 24706 24707 24708 24709 24710 24711 24712 24713 24714 24715 24716 24717 24718 24719 24720 24721 24722 24723 24724 24725 24726 24727 24728 24729 24730 24731 24732 24733 24734 24735 24736 24737 24738 24739 24740 24741 24742 24743 24744 24745 24746 24747 24748 24749 24750 24751 24752 24753 24754 24755 24756 24757 24758 24759 24760 24761 24762 24763 24764 24765 24766 24767 24768 24769 24770 24771 24772 24773 24774 24775 24776 24777 24778 24779 24780 24781 24782 24783 24784 24785 24786 24787 24788 24789 24790 24791 24792 24793 24794 24795 24796 24797 24798 24799 24800 24801 24802 24803 24804 24805 24806 24807 24808 24809 24810 24811 24812 24813 24814 24815 24816 24817 24818 24819 24820 24821 24822 24823 24824 24825 24826 24827 24828 24829 24830 24831 24832 24833 24834 24835 24836 24837 24838 24839 24840 24841 24842 24843 24844 24845 24846 24847 24848 24849 24850 24851 24852 24853 24854 24855 24856 24857 24858 24859 24860 24861 24862 24863 24864 24865 24866 24867 24868 24869 24870 24871 24872 24873 24874 24875 24876 24877 24878 24879 24880 24881 24882 24883 24884 24885 24886 24887 24888 24889 24890 24891 24892 24893 24894 24895 24896 24897 24898 24899 24900 24901 24902 24903 24904 24905 24906 24907 24908 24909 24910 24911 24912 24913 24914 24915 24916 24917 24918 24919 24920 24921 24922 24923 24924 24925 24926 24927 24928 24929 24930 24931 24932 24933 24934 24935 24936 24937 24938 24939 24940 24941 24942 24943 24944 24945 24946 24947 24948 24949 24950 24951 24952 24953 24954 24955 24956 24957 24958 24959 24960 24961 24962 24963 24964 24965 24966 24967 24968 24969 24970 24971 24972 24973 24974 24975 24976 24977 24978 24979 24980 24981 24982 24983 24984 24985 24986 24987 24988 24989 24990 24991 24992 24993 24994 24995 24996 24997 24998 24999 25000 25001 25002 25003 25004 25005 25006 25007 25008 25009 25010 25011 25012 25013 25014 25015 25016 25017 25018 25019 25020 25021 25022 25023 25024 25025 25026 25027 25028 25029 25030 25031 25032 25033 25034 25035 25036 25037 25038 25039 25040 25041 25042 25043 25044 25045 25046 25047 25048 25049 25050 25051 25052 25053 25054 25055 25056 25057 25058 25059 25060 25061 25062 25063 25064 25065 25066 25067 25068 25069 25070 25071 25072 25073 25074 25075 25076 25077 25078 25079 25080 25081 25082 25083 25084 25085 25086 25087 25088 25089 25090 25091 25092 25093 25094 25095 25096 25097 25098 25099 25100 25101 25102 25103 25104 25105 25106 25107 25108 25109 25110 25111 25112 25113 25114 25115 25116 25117 25118 25119 25120 25121 25122 25123 25124 25125 25126 25127 25128 25129 25130 25131 25132 25133 25134 25135 25136 25137 25138 25139 25140 25141 25142 25143 25144 25145 25146 25147 25148 25149 25150 25151 25152 25153 25154 25155 25156 25157 25158 25159 25160 25161 25162 25163 25164 25165 25166 25167 25168 25169 25170 25171 25172 25173 25174 25175 25176 25177 25178 25179 25180 25181 25182 25183 25184 25185 25186 25187 25188 25189 25190 25191 25192 25193 25194 25195 25196 25197 25198 25199 25200 25201 25202 25203 25204 25205 25206 25207 25208 25209 25210 25211 25212 25213 25214 25215 25216 25217 25218 25219 25220 25221 25222 25223 25224 25225 25226 25227 25228 25229 25230 25231 25232 25233 25234 25235 25236 25237 25238 25239 25240 25241 25242 25243 25244 25245 25246 25247 25248 25249 25250 25251 25252 25253 25254 25255 25256 25257 25258 25259 25260 25261 25262 25263 25264 25265 25266 25267 25268 25269 25270 25271 25272 25273 25274 25275 25276 25277 25278 25279 25280 25281 25282 25283 25284 25285 25286 25287 25288 25289 25290 25291 25292 25293 25294 25295 25296 25297 25298 25299 25300 25301 25302 25303 25304 25305 25306 25307 25308 25309 25310 25311 25312 25313 25314 25315 25316 25317 25318 25319 25320 25321 25322 25323 25324 25325 25326 25327 25328 25329 25330 25331 25332 25333 25334 25335 25336 25337 25338 25339 25340 25341 25342 25343 25344 25345 25346 25347 25348 25349 25350 25351 25352 25353 25354 25355 25356 25357 25358 25359 25360 25361 25362 25363 25364 25365 25366 25367 25368 25369 25370 25371 25372 25373 25374 25375 25376 25377 25378 25379 25380 25381 25382 25383 25384 25385 25386 25387 25388 25389 25390 25391 25392 25393 25394 25395 25396 25397 25398 25399 25400 25401 25402 25403 25404 25405 25406 25407 25408 25409 25410 25411 25412 25413 25414 25415 25416 25417 25418 25419 25420 25421 25422 25423 25424 25425 25426 25427 25428 25429 25430 25431 25432 25433 25434 25435 25436 25437 25438 25439 25440 25441 25442 25443 25444 25445 25446 25447 25448 25449 25450 25451 25452 25453 25454 25455 25456 25457 25458 25459 25460 25461 25462 25463 25464 25465 25466 25467 25468 25469 25470 25471 25472 25473 25474 25475 25476 25477 25478 25479 25480 25481 25482 25483 25484 25485 25486 25487 25488 25489 25490 25491 25492 25493 25494 25495 25496 25497 25498 25499 25500 25501 25502 25503 25504 25505 25506 25507 25508 25509 25510 25511 25512 25513 25514 25515 25516 25517 25518 25519 25520 25521 25522 25523 25524 25525 25526 25527 25528 25529 25530 25531 25532 25533 25534 25535 25536 25537 25538 25539 25540 25541 25542 25543 25544 25545 25546 25547 25548 25549 25550 25551 25552 25553 25554 25555 25556 25557 25558 25559 25560 25561 25562 25563 25564 25565 25566 25567 25568 25569 25570 25571 25572 25573 25574 25575 25576 25577 25578 25579 25580 25581 25582 25583 25584 25585 25586 25587 25588 25589 25590 25591 25592 25593 25594 25595 25596 25597 25598 25599 25600 25601 25602 25603 25604 25605 25606 25607 25608 25609 25610 25611 25612 25613 25614 25615 25616 25617 25618 25619 25620 25621 25622 25623 25624 25625 25626 25627 25628 25629 25630 25631 25632 25633 25634 25635 25636 25637 25638 25639 25640 25641 25642 25643 25644 25645 25646 25647 25648 25649 25650 25651 25652 25653 25654 25655 25656 25657 25658 25659 25660 25661 25662 25663 25664 25665 25666 25667 25668 25669 25670 25671 25672 25673 25674 25675 25676 25677 25678 25679 25680 25681 25682 25683 25684 25685 25686 25687 25688 25689 25690 25691 25692 25693 25694 25695 25696 25697 25698 25699 25700 25701 25702 25703 25704 25705 25706 25707 25708 25709 25710 25711 25712 25713 25714 25715 25716 25717 25718 25719 25720 25721 25722 25723 25724 25725 25726 25727 25728 25729 25730 25731 25732 25733 25734 25735 25736 25737 25738 25739 25740 25741 25742 25743 25744 25745 25746 25747 25748 25749 25750 25751 25752 25753 25754 25755 25756 25757 25758 25759 25760 25761 25762 25763 25764 25765 25766 25767 25768 25769 25770 25771 25772 25773 25774 25775 25776 25777 25778 25779 25780 25781 25782 25783 25784 25785 25786 25787 25788 25789 25790 25791 25792 25793 25794 25795 25796 25797 25798 25799 25800 25801 25802 25803 25804 25805 25806 25807 25808 25809 25810 25811 25812 25813 25814 25815 25816 25817 25818 25819 25820 25821 25822 25823 25824 25825 25826 25827 25828 25829 25830 25831 25832 25833 25834 25835 25836 25837 25838 25839 25840 25841 25842 25843 25844 25845 25846 25847 25848 25849 25850 25851 25852 25853 25854 25855 25856 25857 25858 25859 25860 25861 25862 25863 25864 25865 25866 25867 25868 25869 25870 25871 25872 25873 25874 25875 25876 25877 25878 25879 25880 25881 25882 25883 25884 25885 25886 25887 25888 25889 25890 25891 25892 25893 25894 25895 25896 25897 25898 25899 25900 25901 25902 25903 25904 25905 25906 25907 25908 25909 25910 25911 25912 25913 25914 25915 25916 25917 25918 25919 25920 25921 25922 25923 25924 25925 25926 25927 25928 25929 25930 25931 25932 25933 25934 25935 25936 25937 25938 25939 25940 25941 25942 25943 25944 25945 25946 25947 25948 25949 25950 25951 25952 25953 25954 25955 25956 25957 25958 25959 25960 25961 25962 25963 25964 25965 25966 25967 25968 25969 25970 25971 25972 25973 25974 25975 25976 25977 25978 25979 25980 25981 25982 25983 25984 25985 25986 25987 25988 25989 25990 25991 25992 25993 25994 25995 25996 25997 25998 25999 26000 26001 26002 26003 26004 26005 26006 26007 26008 26009 26010 26011 26012 26013 26014 26015 26016 26017 26018 26019 26020 26021 26022 26023 26024 26025 26026 26027 26028 26029 26030 26031 26032 26033 26034 26035 26036 26037 26038 26039 26040 26041 26042 26043 26044 26045 26046 26047 26048 26049 26050 26051 26052 26053 26054 26055 26056 26057 26058 26059 26060 26061 26062 26063 26064 26065 26066 26067 26068 26069 26070 26071 26072 26073 26074 26075 26076 26077 26078 26079 26080 26081 26082 26083 26084 26085 26086 26087 26088 26089 26090 26091 26092 26093 26094 26095 26096 26097 26098 26099 26100 26101 26102 26103 26104 26105 26106 26107 26108 26109 26110 26111 26112 26113 26114 26115 26116 26117 26118 26119 26120 26121 26122 26123 26124 26125 26126 26127 26128 26129 26130 26131 26132 26133 26134 26135 26136 26137 26138 26139 26140 26141 26142 26143 26144 26145 26146 26147 26148 26149 26150 26151 26152 26153 26154 26155 26156 26157 26158 26159 26160 26161 26162 26163 26164 26165 26166 26167 26168 26169 26170 26171 26172 26173 26174 26175 26176 26177 26178 26179 26180 26181 26182 26183 26184 26185 26186 26187 26188 26189 26190 26191 26192 26193 26194 26195 26196 26197 26198 26199 26200 26201 26202 26203 26204 26205 26206 26207 26208 26209 26210 26211 26212 26213 26214 26215 26216 26217 26218 26219 26220 26221 26222 26223 26224 26225 26226 26227 26228 26229 26230 26231 26232 26233 26234 26235 26236 26237 26238 26239 26240 26241 26242 26243 26244 26245 26246 26247 26248 26249 26250 26251 26252 26253 26254 26255 26256 26257 26258 26259 26260 26261 26262 26263 26264 26265 26266 26267 26268 26269 26270 26271 26272 26273 26274 26275 26276 26277 26278 26279 26280 26281 26282 26283 26284 26285 26286 26287 26288 26289 26290 26291 26292 26293 26294 26295 26296 26297 26298 26299 26300 26301 26302 26303 26304 26305 26306 26307 26308 26309 26310 26311 26312 26313 26314 26315 26316 26317 26318 26319 26320 26321 26322 26323 26324 26325 26326 26327 26328 26329 26330 26331 26332 26333 26334 26335 26336 26337 26338 26339 26340 26341 26342 26343 26344 26345 26346 26347 26348 26349 26350 26351 26352 26353 26354 26355 26356 26357 26358 26359 26360 26361 26362 26363 26364 26365 26366 26367 26368 26369 26370 26371 26372 26373 26374 26375 26376 26377 26378 26379 26380 26381 26382 26383 26384 26385 26386 26387 26388 26389 26390 26391 26392 26393 26394 26395 26396 26397 26398 26399 26400 26401 26402 26403 26404 26405 26406 26407 26408 26409 26410 26411 26412 26413 26414 26415 26416 26417 26418 26419 26420 26421 26422 26423 26424 26425 26426 26427 26428 26429 26430 26431 26432 26433 26434 26435 26436 26437 26438 26439 26440 26441 26442 26443 26444 26445 26446 26447 26448 26449 26450 26451 26452 26453 26454 26455 26456 26457 26458 26459 26460 26461 26462 26463 26464 26465 26466 26467 26468 26469 26470 26471 26472 26473 26474 26475 26476 26477 26478 26479 26480 26481 26482 26483 26484 26485 26486 26487 26488 26489 26490 26491 26492 26493 26494 26495 26496 26497 26498 26499 26500 26501 26502 26503 26504 26505 26506 26507 26508 26509 26510 26511 26512 26513 26514 26515 26516 26517 26518 26519 26520 26521 26522 26523 26524 26525 26526 26527 26528 26529 26530 26531 26532 26533 26534 26535 26536 26537 26538 26539 26540 26541 26542 26543 26544 26545 26546 26547 26548 26549 26550 26551 26552 26553 26554 26555 26556 26557 26558 26559 26560 26561 26562 26563 26564 26565 26566 26567 26568 26569 26570 26571 26572 26573 26574 26575 26576 26577 26578 26579 26580 26581 26582 26583 26584 26585 26586 26587 26588 26589 26590 26591 26592 26593 26594 26595 26596 26597 26598 26599 26600 26601 26602 26603 26604 26605 26606 26607 26608 26609 26610 26611 26612 26613 26614 26615 26616 26617 26618 26619 26620 26621 26622 26623 26624 26625 26626 26627 26628 26629 26630 26631 26632 26633 26634 26635 26636 26637 26638 26639 26640 26641 26642 26643 26644 26645 26646 26647 26648 26649 26650 26651 26652 26653 26654 26655 26656 26657 26658 26659 26660 26661 26662 26663 26664 26665 26666 26667 26668 26669 26670 26671 26672 26673 26674 26675 26676 26677 26678 26679 26680 26681 26682 26683 26684 26685 26686 26687 26688 26689 26690 26691 26692 26693 26694 26695 26696 26697 26698 26699 26700 26701 26702 26703 26704 26705 26706 26707 26708 26709 26710 26711 26712 26713 26714 26715 26716 26717 26718 26719 26720 26721 26722 26723 26724 26725 26726 26727 26728 26729 26730 26731 26732 26733 26734 26735 26736 26737 26738 26739 26740 26741 26742 26743 26744 26745 26746 26747 26748 26749 26750 26751 26752 26753 26754 26755 26756 26757 26758 26759 26760 26761 26762 26763 26764 26765 26766 26767 26768 26769 26770 26771 26772 26773 26774 26775 26776 26777 26778 26779 26780 26781 26782 26783 26784 26785 26786 26787 26788 26789 26790 26791 26792 26793 26794 26795 26796 26797 26798 26799 26800 26801 26802 26803 26804 26805 26806 26807 26808 26809 26810 26811 26812 26813 26814 26815 26816 26817 26818 26819 26820 26821 26822 26823 26824 26825 26826 26827 26828 26829 26830 26831 26832 26833 26834 26835 26836 26837 26838 26839 26840 26841 26842 26843 26844 26845 26846 26847 26848 26849 26850 26851 26852 26853 26854 26855 26856 26857 26858 26859 26860 26861 26862 26863 26864 26865 26866 26867 26868 26869 26870 26871 26872 26873 26874 26875 26876 26877 26878 26879 26880 26881 26882 26883 26884 26885 26886 26887 26888 26889 26890 26891 26892 26893 26894 26895 26896 26897 26898 26899 26900 26901 26902 26903 26904 26905 26906 26907 26908 26909 26910 26911 26912 26913 26914 26915 26916 26917 26918 26919 26920 26921 26922 26923 26924 26925 26926 26927 26928 26929 26930 26931 26932 26933 26934 26935 26936 26937 26938 26939 26940 26941 26942 26943 26944 26945 26946 26947 26948 26949 26950 26951 26952 26953 26954 26955 26956 26957 26958 26959 26960 26961 26962 26963 26964 26965 26966 26967 26968 26969 26970 26971 26972 26973 26974 26975 26976 26977 26978 26979 26980 26981 26982 26983 26984 26985 26986 26987 26988 26989 26990 26991 26992 26993 26994 26995 26996 26997 26998 26999 27000 27001 27002 27003 27004 27005 27006 27007 27008 27009 27010 27011 27012 27013 27014 27015 27016 27017 27018 27019 27020 27021 27022 27023 27024 27025 27026 27027 27028 27029 27030 27031 27032 27033 27034 27035 27036 27037 27038 27039 27040 27041 27042 27043 27044 27045 27046 27047 27048 27049 27050 27051 27052 27053 27054 27055 27056 27057 27058 27059 27060 27061 27062 27063 27064 27065 27066 27067 27068 27069 27070 27071 27072 27073 27074 27075 27076 27077 27078 27079 27080 27081 27082 27083 27084 27085 27086 27087 27088 27089 27090 27091 27092 27093 27094 27095 27096 27097 27098 27099 27100 27101 27102 27103 27104 27105 27106 27107 27108 27109 27110 27111 27112 27113 27114 27115 27116 27117 27118 27119 27120 27121 27122 27123 27124 27125 27126 27127 27128 27129 27130 27131 27132 27133 27134 27135 27136 27137 27138 27139 27140 27141 27142 27143 27144 27145 27146 27147 27148 27149 27150 27151 27152 27153 27154 27155 27156 27157 27158 27159 27160 27161 27162 27163 27164 27165 27166 27167 27168 27169 27170 27171 27172 27173 27174 27175 27176 27177 27178 27179 27180 27181 27182 27183 27184 27185 27186 27187 27188 27189 27190 27191 27192 27193 27194 27195 27196 27197 27198 27199 27200 27201 27202 27203 27204 27205 27206 27207 27208 27209 27210 27211 27212 27213 27214 27215 27216 27217 27218 27219 27220 27221 27222 27223 27224 27225 27226 27227 27228 27229 27230 27231 27232 27233 27234 27235 27236 27237 27238 27239 27240 27241 27242 27243 27244 27245 27246 27247 27248 27249 27250 27251 27252 27253 27254 27255 27256 27257 27258 27259 27260 27261 27262 27263 27264 27265 27266 27267 27268 27269 27270 27271 27272 27273 27274 27275 27276 27277 27278 27279 27280 27281 27282 27283 27284 27285 27286 27287 27288 27289 27290 27291 27292 27293 27294 27295 27296 27297 27298 27299 27300 27301 27302 27303 27304 27305 27306 27307 27308 27309 27310 27311 27312 27313 27314 27315 27316 27317 27318 27319 27320 27321 27322 27323 27324 27325 27326 27327 27328 27329 27330 27331 27332 27333 27334 27335 27336 27337 27338 27339 27340 27341 27342 27343 27344 27345 27346 27347 27348 27349 27350 27351 27352 27353 27354 27355 27356 27357 27358 27359 27360 27361 27362 27363 27364 27365 27366 27367 27368 27369 27370 27371 27372 27373 27374 27375 27376 27377 27378 27379 27380 27381 27382 27383 27384 27385 27386 27387 27388 27389 27390 27391 27392 27393 27394 27395 27396 27397 27398 27399 27400 27401 27402 27403 27404 27405 27406 27407 27408 27409 27410 27411 27412 27413 27414 27415 27416 27417 27418 27419 27420 27421 27422 27423 27424 27425 27426 27427 27428 27429 27430 27431 27432 27433 27434 27435 27436 27437 27438 27439 27440 27441 27442 27443 27444 27445 27446 27447 27448 27449 27450 27451 27452 27453 27454 27455 27456 27457 27458 27459 27460 27461 27462 27463 27464 27465 27466 27467 27468 27469 27470 27471 27472 27473 27474 27475 27476 27477 27478 27479 27480 27481 27482 27483 27484 27485 27486 27487 27488 27489 27490 27491 27492 27493 27494 27495 27496 27497 27498 27499 27500 27501 27502 27503 27504 27505 27506 27507 27508 27509 27510 27511 27512 27513 27514 27515 27516 27517 27518 27519 27520 27521 27522 27523 27524 27525 27526 27527 27528 27529 27530 27531 27532 27533 27534 27535 27536 27537 27538 27539 27540 27541 27542 27543 27544 27545 27546 27547 27548 27549 27550 27551 27552 27553 27554 27555 27556 27557 27558 27559 27560 27561 27562 27563 27564 27565 27566 27567 27568 27569 27570 27571 27572 27573 27574 27575 27576 27577 27578 27579 27580 27581 27582 27583 27584 27585 27586 27587 27588 27589 27590 27591 27592 27593 27594 27595 27596 27597 27598 27599 27600 27601 27602 27603 27604 27605 27606 27607 27608 27609 27610 27611 27612 27613 27614 27615 27616 27617 27618 27619 27620 27621 27622 27623 27624 27625 27626 27627 27628 27629 27630 27631 27632 27633 27634 27635 27636 27637 27638 27639 27640 27641 27642 27643 27644 27645 27646 27647 27648 27649 27650 27651 27652 27653 27654 27655 27656 27657 27658 27659 27660 27661 27662 27663 27664 27665 27666 27667 27668 27669 27670 27671 27672 27673 27674 27675 27676 27677 27678 27679 27680 27681 27682 27683 27684 27685 27686 27687 27688 27689 27690 27691 27692 27693 27694 27695 27696 27697 27698 27699 27700 27701 27702 27703 27704 27705 27706 27707 27708 27709 27710 27711 27712 27713 27714 27715 27716 27717 27718 27719 27720 27721 27722 27723 27724 27725 27726 27727 27728 27729 27730 27731 27732 27733 27734 27735 27736 27737 27738 27739 27740 27741 27742 27743 27744 27745 27746 27747 27748 27749 27750 27751 27752 27753 27754 27755 27756 27757 27758 27759 27760 27761 27762 27763 27764 27765 27766 27767 27768 27769 27770 27771 27772 27773 27774 27775 27776 27777 27778 27779 27780 27781 27782 27783 27784 27785 27786 27787 27788 27789 27790 27791 27792 27793 27794 27795 27796 27797 27798 27799 27800 27801 27802 27803 27804 27805 27806 27807 27808 27809 27810 27811 27812 27813 27814 27815 27816 27817 27818 27819 27820 27821 27822 27823 27824 27825 27826 27827 27828 27829 27830 27831 27832 27833 27834 27835 27836 27837 27838 27839 27840 27841 27842 27843 27844 27845 27846 27847 27848 27849 27850 27851 27852 27853 27854 27855 27856 27857 27858 27859 27860 27861 27862 27863 27864 27865 27866 27867 27868 27869 27870 27871 27872 27873 27874 27875 27876 27877 27878 27879 27880 27881 27882 27883 27884 27885 27886 27887 27888 27889 27890 27891 27892 27893 27894 27895 27896 27897 27898 27899 27900 27901 27902 27903 27904 27905 27906 27907 27908 27909 27910 27911 27912 27913 27914 27915 27916 27917 27918 27919 27920 27921 27922 27923 27924 27925 27926 27927 27928 27929 27930 27931 27932 27933 27934 27935 27936 27937 27938 27939 27940 27941 27942 27943 27944 27945 27946 27947 27948 27949 27950 27951 27952 27953 27954 27955 27956 27957 27958 27959 27960 27961 27962 27963 27964 27965 27966 27967 27968 27969 27970 27971 27972 27973 27974 27975 27976 27977 27978 27979 27980 27981 27982 27983 27984 27985 27986 27987 27988 27989 27990 27991 27992 27993 27994 27995 27996 27997 27998 27999 28000 28001 28002 28003 28004 28005 28006 28007 28008 28009 28010 28011 28012 28013 28014 28015 28016 28017 28018 28019 28020 28021 28022 28023 28024 28025 28026 28027 28028 28029 28030 28031 28032 28033 28034 28035 28036 28037 28038 28039 28040 28041 28042 28043 28044 28045 28046 28047 28048 28049 28050 28051 28052 28053 28054 28055 28056 28057 28058 28059 28060 28061 28062 28063 28064 28065 28066 28067 28068 28069 28070 28071 28072 28073 28074 28075 28076 28077 28078 28079 28080 28081 28082 28083 28084 28085 28086 28087 28088 28089 28090 28091 28092 28093 28094 28095 28096 28097 28098 28099 28100 28101 28102 28103 28104 28105 28106 28107 28108 28109 28110 28111 28112 28113 28114 28115 28116 28117 28118 28119 28120 28121 28122 28123 28124 28125 28126 28127 28128 28129 28130 28131 28132 28133 28134 28135 28136 28137 28138 28139 28140 28141 28142 28143 28144 28145 28146 28147 28148 28149 28150 28151 28152 28153 28154 28155 28156 28157 28158 28159 28160 28161 28162 28163 28164 28165 28166 28167 28168 28169 28170 28171 28172 28173 28174 28175 28176 28177 28178 28179 28180 28181 28182 28183 28184 28185 28186 28187 28188 28189 28190 28191 28192 28193 28194 28195 28196 28197 28198 28199 28200 28201 28202 28203 28204 28205 28206 28207 28208 28209 28210 28211 28212 28213 28214 28215 28216 28217 28218 28219 28220 28221 28222 28223 28224 28225 28226 28227 28228 28229 28230 28231 28232 28233 28234 28235 28236 28237 28238 28239 28240 28241 28242 28243 28244 28245 28246 28247 28248 28249 28250 28251 28252 28253 28254 28255 28256 28257 28258 28259 28260 28261 28262 28263 28264 28265 28266 28267 28268 28269 28270 28271 28272 28273 28274 28275 28276 28277 28278 28279 28280 28281 28282 28283 28284 28285 28286 28287 28288 28289 28290 28291 28292 28293 28294 28295 28296 28297 28298 28299 28300 28301 28302 28303 28304 28305 28306 28307 28308 28309 28310 28311 28312 28313 28314 28315 28316 28317 28318 28319 28320 28321 28322 28323 28324 28325 28326 28327 28328 28329 28330 28331 28332 28333 28334 28335 28336 28337 28338 28339 28340 28341 28342 28343 28344 28345 28346 28347 28348 28349 28350 28351 28352 28353 28354 28355 28356 28357 28358 28359 28360 28361 28362 28363 28364 28365 28366 28367 28368 28369 28370 28371 28372 28373 28374 28375 28376 28377 28378 28379 28380 28381 28382 28383 28384 28385 28386 28387 28388 28389 28390 28391 28392 28393 28394 28395 28396 28397 28398 28399 28400 28401 28402 28403 28404 28405 28406 28407 28408 28409 28410 28411 28412 28413 28414 28415 28416 28417 28418 28419 28420 28421 28422 28423 28424 28425 28426 28427 28428 28429 28430 28431 28432 28433 28434 28435 28436 28437 28438 28439 28440 28441 28442 28443 28444 28445 28446 28447 28448 28449 28450 28451 28452 28453 28454 28455 28456 28457 28458 28459 28460 28461 28462 28463 28464 28465 28466 28467 28468 28469 28470 28471 28472 28473 28474 28475 28476 28477 28478 28479 28480 28481 28482 28483 28484 28485 28486 28487 28488 28489 28490 28491 28492 28493 28494 28495 28496 28497 28498 28499 28500 28501 28502 28503 28504 28505 28506 28507 28508 28509 28510 28511 28512 28513 28514 28515 28516 28517 28518 28519 28520 28521 28522 28523 28524 28525 28526 28527 28528 28529 28530 28531 28532 28533 28534 28535 28536 28537 28538 28539 28540 28541 28542 28543 28544 28545 28546 28547 28548 28549 28550 28551 28552 28553 28554 28555 28556 28557 28558 28559 28560 28561 28562 28563 28564 28565 28566 28567 28568 28569 28570 28571 28572 28573 28574 28575 28576 28577 28578 28579 28580 28581 28582 28583 28584 28585 28586 28587 28588 28589 28590 28591 28592 28593 28594 28595 28596 28597 28598 28599 28600 28601 28602 28603 28604 28605 28606 28607 28608 28609 28610 28611 28612 28613 28614 28615 28616 28617 28618 28619 28620 28621 28622 28623 28624 28625 28626 28627 28628 28629 28630 28631 28632 28633 28634 28635 28636 28637 28638 28639 28640 28641 28642 28643 28644 28645 28646 28647 28648 28649 28650 28651 28652 28653 28654 28655 28656 28657 28658 28659 28660 28661 28662 28663 28664 28665 28666 28667 28668 28669 28670 28671 28672 28673 28674 28675 28676 28677 28678 28679 28680 28681 28682 28683 28684 28685 28686 28687 28688 28689 28690 28691 28692 28693 28694 28695 28696 28697 28698 28699 28700 28701 28702 28703 28704 28705 28706 28707 28708 28709 28710 28711 28712 28713 28714 28715 28716 28717 28718 28719 28720 28721 28722 28723 28724 28725 28726 28727 28728 28729 28730 28731 28732 28733 28734 28735 28736 28737 28738 28739 28740 28741 28742 28743 28744 28745 28746 28747 28748 28749 28750 28751 28752 28753 28754 28755 28756 28757 28758 28759 28760 28761 28762 28763 28764 28765 28766 28767 28768 28769 28770 28771 28772 28773 28774 28775 28776 28777 28778 28779 28780 28781 28782 28783 28784 28785 28786 28787 28788 28789 28790 28791 28792 28793 28794 28795 28796 28797 28798 28799 28800 28801 28802 28803 28804 28805 28806 28807 28808 28809 28810 28811 28812 28813 28814 28815 28816 28817 28818 28819 28820 28821 28822 28823 28824 28825 28826 28827 28828 28829 28830 28831 28832 28833 28834 28835 28836 28837 28838 28839 28840 28841 28842 28843 28844 28845 28846 28847 28848 28849 28850 28851 28852 28853 28854 28855 28856 28857 28858 28859 28860 28861 28862 28863 28864 28865 28866 28867 28868 28869 28870 28871 28872 28873 28874 28875 28876 28877 28878 28879 28880 28881 28882 28883 28884 28885 28886 28887 28888 28889 28890 28891 28892 28893 28894 28895 28896 28897 28898 28899 28900 28901 28902 28903 28904 28905 28906 28907 28908 28909 28910 28911 28912 28913 28914 28915 28916 28917 28918 28919 28920 28921 28922 28923 28924 28925 28926 28927 28928 28929 28930 28931 28932 28933 28934 28935 28936 28937 28938 28939 28940 28941 28942 28943 28944 28945 28946 28947 28948 28949 28950 28951 28952 28953 28954 28955 28956 28957 28958 28959 28960 28961 28962 28963 28964 28965 28966 28967 28968 28969 28970 28971 28972 28973 28974 28975 28976 28977 28978 28979 28980 28981 28982 28983 28984 28985 28986 28987 28988 28989 28990 28991 28992 28993 28994 28995 28996 28997 28998 28999 29000 29001 29002 29003 29004 29005 29006 29007 29008 29009 29010 29011 29012 29013 29014 29015 29016 29017 29018 29019 29020 29021 29022 29023 29024 29025 29026 29027 29028 29029 29030 29031 29032 29033 29034 29035 29036 29037 29038 29039 29040 29041 29042 29043 29044 29045 29046 29047 29048 29049 29050 29051 29052 29053 29054 29055 29056 29057 29058 29059 29060 29061 29062 29063 29064 29065 29066 29067 29068 29069 29070 29071 29072 29073 29074 29075 29076 29077 29078 29079 29080 29081 29082 29083 29084 29085 29086 29087 29088 29089 29090 29091 29092 29093 29094 29095 29096 29097 29098 29099 29100 29101 29102 29103 29104 29105 29106 29107 29108 29109 29110 29111 29112 29113 29114 29115 29116 29117 29118 29119 29120 29121 29122 29123 29124 29125 29126 29127 29128 29129 29130 29131 29132 29133 29134 29135 29136 29137 29138 29139 29140 29141 29142 29143 29144 29145 29146 29147 29148 29149 29150 29151 29152 29153 29154 29155 29156 29157 29158 29159 29160 29161 29162 29163 29164 29165 29166 29167 29168 29169 29170 29171 29172 29173 29174 29175 29176 29177 29178 29179 29180 29181 29182 29183 29184 29185 29186 29187 29188 29189 29190 29191 29192 29193 29194 29195 29196 29197 29198 29199 29200 29201 29202 29203 29204 29205 29206 29207 29208 29209 29210 29211 29212 29213 29214 29215 29216 29217 29218 29219 29220 29221 29222 29223 29224 29225 29226 29227 29228 29229 29230 29231 29232 29233 29234 29235 29236 29237 29238 29239 29240 29241 29242 29243 29244 29245 29246 29247 29248 29249 29250 29251 29252 29253 29254 29255 29256 29257 29258 29259 29260 29261 29262 29263 29264 29265 29266 29267 29268 29269 29270 29271 29272 29273 29274 29275 29276 29277 29278 29279 29280 29281 29282 29283 29284 29285 29286 29287 29288 29289 29290 29291 29292 29293 29294 29295 29296 29297 29298 29299 29300 29301 29302 29303 29304 29305 29306 29307 29308 29309 29310 29311 29312 29313 29314 29315 29316 29317 29318 29319 29320 29321 29322 29323 29324 29325 29326 29327 29328 29329 29330 29331 29332 29333 29334 29335 29336 29337 29338 29339 29340 29341 29342 29343 29344 29345 29346 29347 29348 29349 29350 29351 29352 29353 29354 29355 29356 29357 29358 29359 29360 29361 29362 29363 29364 29365 29366 29367 29368 29369 29370 29371 29372 29373 29374 29375 29376 29377 29378 29379 29380 29381 29382 29383 29384 29385 29386 29387 29388 29389 29390 29391 29392 29393 29394 29395 29396 29397 29398 29399 29400 29401 29402 29403 29404 29405 29406 29407 29408 29409 29410 29411 29412 29413 29414 29415 29416 29417 29418 29419 29420 29421 29422 29423 29424 29425 29426 29427 29428 29429 29430 29431 29432 29433 29434 29435 29436 29437 29438 29439 29440 29441 29442 29443 29444 29445 29446 29447 29448 29449 29450 29451 29452 29453 29454 29455 29456 29457 29458 29459 29460 29461 29462 29463 29464 29465 29466 29467 29468 29469 29470 29471 29472 29473 29474 29475 29476 29477 29478 29479 29480 29481 29482 29483 29484 29485 29486 29487 29488 29489 29490 29491 29492 29493 29494 29495 29496 29497 29498 29499 29500 29501 29502 29503 29504 29505 29506 29507 29508 29509 29510 29511 29512 29513 29514 29515 29516 29517 29518 29519 29520 29521 29522 29523 29524 29525 29526 29527 29528 29529 29530 29531 29532 29533 29534 29535 29536 29537 29538 29539 29540 29541 29542 29543 29544 29545 29546 29547 29548 29549 29550 29551 29552 29553 29554 29555 29556 29557 29558 29559 29560 29561 29562 29563 29564 29565 29566 29567 29568 29569 29570 29571 29572 29573 29574 29575 29576 29577 29578 29579 29580 29581 29582 29583 29584 29585 29586 29587 29588 29589 29590 29591 29592 29593 29594 29595 29596 29597 29598 29599 29600 29601 29602 29603 29604 29605 29606 29607 29608 29609 29610 29611 29612 29613 29614 29615 29616 29617 29618 29619 29620 29621 29622 29623 29624 29625 29626 29627 29628 29629 29630 29631 29632 29633 29634 29635 29636 29637 29638 29639 29640 29641 29642 29643 29644 29645 29646 29647 29648 29649 29650 29651 29652 29653 29654 29655 29656 29657 29658 29659 29660 29661 29662 29663 29664 29665 29666 29667 29668 29669 29670 29671 29672 29673 29674 29675 29676 29677 29678 29679 29680 29681 29682 29683 29684 29685 29686 29687 29688 29689 29690 29691 29692 29693 29694 29695 29696 29697 29698 29699 29700 29701 29702 29703 29704 29705 29706 29707 29708 29709 29710 29711 29712 29713 29714 29715 29716 29717 29718 29719 29720 29721 29722 29723 29724 29725 29726 29727 29728 29729 29730 29731 29732 29733 29734 29735 29736 29737 29738 29739 29740 29741 29742 29743 29744 29745 29746 29747 29748 29749 29750 29751 29752 29753 29754 29755 29756 29757 29758 29759 29760 29761 29762 29763 29764 29765 29766 29767 29768 29769 29770 29771 29772 29773 29774 29775 29776 29777 29778 29779 29780 29781 29782 29783 29784 29785 29786 29787 29788 29789 29790 29791 29792 29793 29794 29795 29796 29797 29798 29799 29800 29801 29802 29803 29804 29805 29806 29807 29808 29809 29810 29811 29812 29813 29814 29815 29816 29817 29818 29819 29820 29821 29822 29823 29824 29825 29826 29827 29828 29829 29830 29831 29832 29833 29834 29835 29836 29837 29838 29839 29840 29841 29842 29843 29844 29845 29846 29847 29848 29849 29850 29851 29852 29853 29854 29855 29856 29857 29858 29859 29860 29861 29862 29863 29864 29865 29866 29867 29868 29869 29870 29871 29872 29873 29874 29875 29876 29877 29878 29879 29880 29881 29882 29883 29884 29885 29886 29887 29888 29889 29890 29891 29892 29893 29894 29895 29896 29897 29898 29899 29900 29901 29902 29903 29904 29905 29906 29907 29908 29909 29910 29911 29912 29913 29914 29915 29916 29917 29918 29919 29920 29921 29922 29923 29924 29925 29926 29927 29928 29929 29930 29931 29932 29933 29934 29935 29936 29937 29938 29939 29940 29941 29942 29943 29944 29945 29946 29947 29948 29949 29950 29951 29952 29953 29954 29955 29956 29957 29958 29959 29960 29961 29962 29963 29964 29965 29966 29967 29968 29969 29970 29971 29972 29973 29974 29975 29976 29977 29978 29979 29980 29981 29982 29983 29984 29985 29986 29987 29988 29989 29990 29991 29992 29993 29994 29995 29996 29997 29998 29999 30000 30001 30002 30003 30004 30005 30006 30007 30008 30009 30010 30011 30012 30013 30014 30015 30016 30017 30018 30019 30020 30021 30022 30023 30024 30025 30026 30027 30028 30029 30030 30031 30032 30033 30034 30035 30036 30037 30038 30039 30040 30041 30042 30043 30044 30045 30046 30047 30048 30049 30050 30051 30052 30053 30054 30055 30056 30057 30058 30059 30060 30061 30062 30063 30064 30065 30066 30067 30068 30069 30070 30071 30072 30073 30074 30075 30076 30077 30078 30079 30080 30081 30082 30083 30084 30085 30086 30087 30088 30089 30090 30091 30092 30093 30094 30095 30096 30097 30098 30099 30100 30101 30102 30103 30104 30105 30106 30107 30108 30109 30110 30111 30112 30113 30114 30115 30116 30117 30118 30119 30120 30121 30122 30123 30124 30125 30126 30127 30128 30129 30130 30131 30132 30133 30134 30135 30136 30137 30138 30139 30140 30141 30142 30143 30144 30145 30146 30147 30148 30149 30150 30151 30152 30153 30154 30155 30156 30157 30158 30159 30160 30161 30162 30163 30164 30165 30166 30167 30168 30169 30170 30171 30172 30173 30174 30175 30176 30177 30178 30179 30180 30181 30182 30183 30184 30185 30186 30187 30188 30189 30190 30191 30192 30193 30194 30195 30196 30197 30198 30199 30200 30201 30202 30203 30204 30205 30206 30207 30208 30209 30210 30211 30212 30213 30214 30215 30216 30217 30218 30219 30220 30221 30222 30223 30224 30225 30226 30227 30228 30229 30230 30231 30232 30233 30234 30235 30236 30237 30238 30239 30240 30241 30242 30243 30244 30245 30246 
</DataArray>
<DataArray type="UInt32" Name="offsets" format="ascii">
3 5 8 11 13 16 19 22 25 28 31 34 37 40 43 46 49 52 55 57 60 63 66 69 72 75 78 80 83 86 89 91 94 97 100 103 106 108 111 114 117 120 123 126 129 132 135 138 140 143 145 148 151 154 157 159 161 164 167 170 173 176 178 181 184 187 190 192 194 197 200 203 206 209 211 214 217 220 223 226 228 231 234 237 240 243 246 249 252 255 257 260 263 266 269 272 275 278 281 284 287 290 293 296 298 301 304 307 309 312 315 318 321 324 327 330 333 336 339 342 345 348 350 353 355 358 361 364 367 369 372 374 377 380 383 385 388 391 394 397 400 403 406 409 412 415 418 420 423 426 429 432 435 438 441 444 447 449 452 455 458 461 464 467 470 473 475 477 480 483 485 487 490 493 496 499 502 505 508 511 514 517 520 523 526 529 531 534 537 539 542 544 547 550 553 556 558 561 563 566 568 571 574 577 579 582 585 588 591 594 596 599 602 605 608 610 613 616 619 622 625 628 631 634 637 640 643 646 648 651 654 657 660 663 666 669 672 674 677 680 683 686 689 692 695 698 701 704 707 710 713 715 718 721 724 727 730 733 736 739 741 744 747 750 753 756 758 761 764 767 770 773 775 778 781 784 787 790 792 795 798 801 803 806 809 811 813 816 819 822 825 828 831 834 836 839 842 845 848 850 853 856 858 861 864 867 870 872 875 878 881 884 887 890 893 896 899 901 904 907 910 912 915 918 921 923 926 928 930 933 936 939 942 945 948 951 954 957 960 963 966 969 972 975 978 980 983 986 989 992 995 998 1001 1004 1007 1010 1013 1016 1019 1022 1025 1028 1031 1034 1037 1040 1043 1046 1049 1051 1054 1057 1060 1063 1066 1069 1072 1075 1078 1081 1084 1087 1090 1093 1096 1099 1102 1105 1108 1111 1114 1117 1120 1122 1125 1128 1130 1133 1136 1139 1142 1145 1148 1151 1154 1157 1160 1163 1165 1168 1171 1173 1176 1179 1181 1184 1187 1190 1193 1196 1199 1202 1204 1207 1209 1212 1215 1218 1220 1223 1226 1229 1232 1235 1238 1241 1244 1246 1248 1251 1254 1257 1259 1262 1265 1268 1271 1274 1277 1280 1283 1285 1288 1291 1294 1297 1300 1303 1306 1309 1312 1314 1317 1320 1323 1326 1328 1330 1333 1336 1339 1342 1345 1348 1351 1354 1357 1360 1363 1366 1369 1371 1374 1377 1380 1383 1386 1389 1392 1395 1398 1400 1403 1406 1409 1411 1414 1417 1420 1423 1426 1429 1432 1435 1438 1441 1444 1447 1450 1453 1455 1458 1461 1464 1467 1470 1473 1476 1479 1482 1484 1487 1490 1493 1495 1498 1501 1504 1506 1509 1512 1515 1517 1520 1523 1526 1529 1532 1535 1538 1540 1543 1546 1549 1551 1554 1557 1560 1563 1565 1568 1571 1574 1577 1580 1583 1585 1588 1591 1594 1597 1600 1602 1605 1608 1610 1613 1616 1618 1621 1623 1626 1629 1632 1635 1638 1641 1644 1647 1650 1653 1656 1659 1662 1664 1667 1670 1673 1676 1679 1682 1685 1688 1691 1694 1697 1700 1703 1706 1709 1712 1715 1718 1721 1724 1727 1730 1733 1736 1739 1742 1745 1748 1751 1754 1757 1760 1763 1765 1768 1771 1773 1776 1779 1782 1785 1788 1791 1794 1797 1800 1803 1806 1809 1812 1814 1817 1820 1822 1825 1828 1831 1834 1837 1840 1843 1846 1849 1852 1855 1858 1860 1863 1866 1869 1872 1875 1878 1881 1884 1887 1890 1893 1895 1898 1901 1904 1907 1910 1912 1915 1918 1921 1924 1927 1930 1932 1935 1938 1941 1944 1946 1949 1952 1955 1957 1960 1963 1966 1968 1971 1974 1977 1980 1983 1986 1989 1992 1995 1998 2001 2004 2007 2010 2013 2016 2019 2022 2025 2028 2031 2034 2037 2040 2042 2045 2048 2051 2054 2057 2060 2063 2066 2069 2072 2075 2078 2081 2083 2086 2089 2092 2095 2098 2101 2103 2106 2109 2112 2115 2117 2120 2123 2126 2129 2132 2135 2138 2141 2143 2146 2148 2151 2154 2157 2160 2163 2166 2168 2170 2173 2176 2179 2181 2184 2187 2190 2193 2196 2199 2202 2205 2208 2211 2214 2216 2219 2222 2225 2228 2231 2233 2236 2239 2242 2244 2247 2250 2252 2255 2258 2261 2263 2266 2269 2271 2274 2277 2279 2282 2285 2287 2290 2293 2296 2299 2302 2305 2308 2311 2314 2317 2320 2323 2326 2329 2332 2335 2338 2341 2344 2347 2350 2353 2356 2359 2362 2365 2368 2371 2374 2377 2379 2382 2385 2388 2391 2394 2397 2399 2401 2404 2407 2410 2412 2415 2418 2420 2423 2426 2429 2432 2435 2438 2441 2443 2446 2449 2452 2454 2457 2459 2462 2465 2468 2471 2473 2476 2479 2482 2485 2488 2490 2493 2495 2498 2501 2504 2507 2510 2513 2516 2518 2521 2524 2527 2530 2533 2536 2539 2542 2545 2548 2551 2554 2557 2560 2563 2565 2568 2571 2574 2576 2579 2582 2584 2587 2590 2593 2596 2598 2600 2602 2605 2608 2611 2614 2616 2618 2621 2624 2627 2630 2633 2636 2639 2642 2644 2647 2650 2653 2656 2659 2662 2665 2667 2670 2673 2675 2678 2681 2684 2687 2690 2693 2696 2698 2700 2703 2706 2709 2711 2713 2715 2718 2720 2722 2725 2728 2731 2733 2736 2739 2742 2745 2748 2751 2753 2756 2759 2762 2765 2767 2770 2772 2775 2778 2781 2784 2787 2789 2792 2795 2798 2801 2803 2806 2808 2810 2813 2816 2819 2821 2824 2826 2829 2832 2835 2838 2840 2843 2846 2849 2852 2855 2857 2860 2863 2866 2868 2871 2874 2877 2879 2882 2885 2887 2890 2893 2896 2899 2902 2904 2907 2910 2913 2916 2919 2922 2925 2928 2931 2934 2937 2940 2943 2946 2949 2952 2954 2957 2960 2963 2966 2969 2971 2974 2977 2979 2981 2984 2987 2990 2993 2996 2999 3002 3005 3007 3010 3013 3016 3019 3022 3025 3027 3030 3033 3036 3039 3041 3044 3047 3049 3052 3055 3057 3060 3063 3066 3069 3072 3074 3076 3079 3082 3085 3088 3091 3094 3097 3100 3103 3106 3109 3112 3115 3118 3121 3124 3127 3130 3132 3135 3138 3141 3144 3147 3150 3153 3156 3159 3161 3163 3166 3169 3172 3175 3178 3181 3183 3185 3188 3191 3194 3196 3198 3201 3203 3206 3209 3212 3215 3218 3221 3224 3227 3230 3233 3236 3239 3242 3245 3248 3251 3254 3257 3260 3263 3266 3268 3271 3274 3277 3279 3282 3285 3287 3290 3293 3296 3299 3302 3305 3308 3311 3314 3317 3320 3323 3326 3329 3332 3335 3338 3340 3343 3346 3349 3352 3355 3358 3360 3363 3366 3369 3372 3375 3378 3381 3384 3387 3389 3392 3394 3397 3400 3403 3405 3408 3410 3413 3416 3419 3422 3425 3428 3431 3434 3437 3440 3443 3446 3449 3452 3455 3458 3460 3463 3466 3469 3472 3475 3478 3480 3483 3486 3489 3491 3494 3497 3500 3503 3506 3509 3512 3515 3518 3521 3523 3526 3529 3532 3535 3538 3541 3544 3547 3550 3553 3556 3559 3562 3565 3568 3571 3573 3576 3578 3581 3584 3587 3590 3593 3596 3599 3602 3605 3608 3611 3614 3617 3619 3621 3624 3627 3630 3633 3636 3639 3642 3645 3647 3649 3652 3654 3657 3660 3663 3666 3669 3671 3674 3677 3680 3683 3686 3689 3692 3695 3698 3701 3704 3707 3709 3712 3715 3717 3720 3723 3726 3728 3731 3734 3736 3739 3742 3744 3747 3750 3753 3756 3759 3762 3765 3768 3771 3774 3777 3780 3783 3786 3789 3791 3794 3797 3800 3803 3806 3809 3811 3814 3817 3820 3823 3826 3829 3832 3835 3838 3841 3844 3847 3850 3853 3856 3859 3862 3864 3867 3870 3873 3876 3878 3881 3884 3886 3889 3892 3895 3898 3901 3903 3906 3909 3912 3915 3917 3920 3923 3926 3929 3932 3935 3937 3940 3943 3946 3948 3951 3954 3956 3959 3962 3965 3968 3970 3973 3976 3979 3982 3984 3986 3989 3992 3995 3998 4001 4004 4007 4010 4012 4015 4018 4021 4024 4026 4029 4032 4035 4037 4040 4042 4045 4048 4050 4053 4055 4058 4060 4063 4066 4069 4072 4074 4077 4080 4083 4086 4089 4092 4094 4097 4100 4103 4106 4109 4112 4115 4118 4121 4124 4127 4130 4133 4136 4138 4141 4144 4147 4150 4153 4156 4158 4161 4164 4166 4169 4171 4174 4176 4179 4182 4185 4188 4190 4193 4195 4198 4200 4203 4206 4209 4212 4214 4217 4220 4223 4226 4229 4232 4235 4238 4241 4244 4247 4250 4253 4256 4259 4262 4265 4267 4270 4273 4275 4278 4281 4284 4287 4290 4293 4296 4298 4301 4304 4307 4309 4311 4314 4316 4319 4322 4325 4328 4331 4334 4337 4339 4342 4345 4348 4351 4353 4356 4359 4362 4365 4368 4371 4374 4377 4380 4382 4384 4387 4390 4392 4395 4398 4400 4403 4406 4409 4411 4414 4416 4419 4421 4423 4426 4428 4431 4433 4436 4438 4441 4443 4446 4449 4452 4454 4457 4460 4463 4466 4468 4471 4474 4477 4480 4483 4486 4489 4492 4495 4498 4501 4503 4506 4509 4512 4515 4518 4520 4523 4526 4529 4532 4535 4538 4541 4544 4547 4550 4553 4556 4559 4562 4565 4568 4571 4574 4577 4580 4582 4584 4587 4590 4593 4596 4599 4602 4605 4608 4611 4613 4616 4619 4621 4623 4626 4629 4632 4634 4636 4638 4641 4644 4647 4650 4653 4656 4658 4661 4664 4667 4670 4673 4675 4678 4681 4684 4687 4689 4692 4695 4698 4701 4704 4707 4710 4713 4716 4719 4722 4725 4728 4731 4734 4737 4740 4742 4745 4748 4751 4754 4757 4760 4763 4765 4768 4771 4774 4777 4780 4783 4786 4789 4792 4795 4798 4801 4804 4807 4810 4812 4815 4818 4821 4823 4826 4829 4832 4835 4838 4841 4844 4847 4850 4853 4856 4859 4862 4865 4868 4871 4874 4877 4880 4883 4886 4889 4892 4894 4897 4900 4902 4905 4907 4910 4913 4915 4918 4920 4923 4926 4929 4932 4935 4938 4941 4944 4947 4950 4953 4956 4959 4962 4965 4968 4971 4974 4977 4980 4982 4985 4988 4991 4994 4997 5000 5003 5006 5009 5012 5014 5017 5020 5023 5026 5028 5031 5034 5037 5040 5043 5046 5049 5052 5055 5058 5061 5064 5067 5070 5073 5076 5079 5082 5085 5088 5091 5094 5097 5100 5103 5106 5109 5112 5115 5118 5121 5124 5127 5130 5133 5136 5139 5142 5144 5147 5150 5152 5155 5158 5161 5164 5167 5170 5173 5176 5179 5181 5184 5187 5190 5193 5196 5198 5201 5204 5207 5210 5213 5216 5219 5222 5225 5228 5231 5234 5237 5240 5243 5246 5249 5252 5255 5258 5261 5264 5267 5270 5273 5275 5278 5281 5284 5287 5290 5293 5296 5299 5301 5304 5307 5310 5313 5316 5319 5322 5325 5328 5331 5334 5336 5339 5342 5345 5348 5351 5354 5357 5360 5363 5366 5369 5372 5375 5378 5380 5383 5386 5389 5392 5395 5397 5399 5402 5405 5408 5411 5414 5417 5420 5423 5426 5429 5432 5435 5438 5441 5444 5447 5450 5453 5456 5459 5462 5465 5467 5470 5473 5476 5479 5482 5484 5487 5490 5493 5495 5498 5501 5504 5506 5509 5511 5513 5516 5519 5521 5524 5526 5529 5532 5535 5537 5540 5542 5545 5548 5551 5554 5557 5559 5562 5565 5568 5570 5573 5576 5578 5580 5583 5586 5589 5592 5595 5598 5600 5603 5606 5609 5612 5615 5618 5621 5624 5627 5630 5633 5636 5639 5642 5645 5648 5651 5654 5657 5660 5663 5666 5669 5671 5674 5677 5680 5683 5686 5689 5691 5694 5697 5700 5703 5706 5709 5712 5715 5718 5721 5723 5726 5729 5732 5735 5738 5741 5743 5746 5749 5752 5755 5758 5761 5764 5767 5770 5773 5776 5779 5782 5785 5788 5791 5794 5797 5800 5803 5806 5808 5811 5814 5817 5820 5823 5825 5828 5831 5834 5837 5840 5842 5844 5847 5849 5852 5855 5858 5861 5863 5866 5869 5872 5875 5877 5880 5883 5886 5889 5892 5895 5898 5901 5904 5907 5910 5913 5916 5919 5921 5924 5927 5930 5933 5936 5938 5941 5944 5947 5949 5951 5954 5956 5959 5962 5964 5967 5969 5972 5975 5977 5980 5983 5986 5989 5992 5995 5998 6001 6004 6007 6010 6013 6016 6019 6022 6024 6027 6030 6033 6036 6039 6042 6045 6048 6050 6053 6056 6059 6062 6064 6066 6069 6072 6075 6078 6081 6084 6087 6090 6093 6096 6099 6101 6103 6106 6109 6112 6115 6118 6120 6123 6125 6128 6131 6134 6136 6139 6142 6145 6148 6151 6154 6157 6160 6163 6166 6169 6172 6175 6178 6181 6184 6187 6190 6193 6195 6198 6201 6204 6206 6209 6212 6215 6218 6221 6224 6227 6230 6233 6236 6239 6241 6244 6247 6250 6252 6255 6258 6261 6264 6267 6269 6272 6275 6277 6280 6283 6286 6289 6292 6295 6298 6301 6304 6307 6309 6312 6315 6317 6320 6322 6325 6328 6331 6333 6336 6339 6342 6345 6348 6351 6354 6357 6359 6362 6365 6368 6371 6374 6377 6380 6383 6386 6389 6391 6394 6397 6400 6403 6406 6409 6412 6415 6418 6421 6424 6427 6430 6433 6436 6439 6442 6445 6448 6451 6454 6457 6460 6462 6465 6468 6471 6473 6476 6479 6482 6485 6488 6491 6494 6496 6499 6502 6505 6507 6510 6513 6516 6519 6522 6524 6527 6530 6533 6536 6539 6542 6545 6547 6550 6553 6556 6559 6561 6564 6567 6569 6572 6575 6577 6580 6583 6586 6589 6592 6595 6598 6601 6603 6606 6609 6612 6615 6618 6621 6624 6627 6630 6632 6635 6638 6641 6644 6646 6649 6652 6655 6658 6661 6664 6667 6670 6673 6676 6679 6682 6685 6688 6691 6694 6696 6699 6701 6704 6707 6710 6713 6716 6719 6722 6725 6727 6730 6733 6736 6739 6742 6745 6748 6751 6754 6757 6760 6763 6766 6769 6772 6775 6778 6781 6784 6787 6790 6793 6796 6798 6801 6804 6807 6810 6813 6816 6818 6821 6824 6827 6830 6832 6835 6838 6841 6843 6845 6848 6850 6853 6856 6858 6861 6864 6867 6870 6872 6875 6878 6881 6883 6886 6889 6892 6894 6897 6900 6902 6905 6908 6911 6914 6917 6920 6923 6925 6927 6930 6933 6936 6939 6942 6944 6947 6949 6952 6955 6958 6961 6964 6967 6970 6973 6976 6979 6982 6985 6988 6991 6994 6997 7000 7003 7005 7008 7011 7014 7016 7019 7022 7025 7028 7031 7034 7037 7040 7043 7046 7048 7051 7054 7057 7060 7063 7066 7069 7072 7075 7078 7081 7084 7086 7089 7092 7094 7097 7100 7103 7106 7109 7112 7115 7118 7121 7124 7127 7130 7133 7136 7139 7142 7145 7148 7151 7154 7156 7159 7161 7164 7167 7170 7173 7175 7178 7181 7184 7187 7190 7193 7196 7198 7201 7204 7206 7209 7212 7215 7218 7221 7224 7227 7230 7233 7236 7239 7242 7245 7247 7250 7253 7256 7258 7261 7264 7267 7270 7273 7276 7279 7282 7285 7288 7291 7294 7297 7300 7303 7306 7309 7312 7315 7318 7321 7324 7327 7330 7333 7336 7339 7342 7345 7348 7351 7354 7357 7360 7363 7366 7369 7372 7375 7378 7381 7384 7387 7390 7393 7396 7399 7402 7405 7408 7411 7414 7417 7420 7423 7426 7429 7432 7435 7438 7441 7444 7447 7450 7453 7456 7459 7462 7465 7468 7471 7474 7477 7480 7483 7486 7489 7492 7495 7498 7501 7504 7507 7510 7512 7515 7518 7521 7524 7527 7530 7533 7536 7539 7542 7545 7548 7551 7554 7557 7560 7563 7566 7569 7572 7575 7578 7581 7584 7587 7590 7593 7595 7598 7601 7604 7607 7609 7612 7614 7617 7619 7622 7625 7628 7630 7633 7636 7639 7642 7644 7647 7650 7652 7655 7658 7661 7664 7667 7670 7673 7676 7679 7682 7685 7688 7691 7694 7697 7700 7703 7706 7708 7710 7713 7715 7718 7721 7724 7726 7729 7732 7735 7738 7741 7744 7747 7750 7753 7756 7759 7761 7764 7767 7770 7773 7776 7779 7782 7784 7787 7790 7793 7796 7799 7802 7805 7808 7811 7814 7817 7820 7823 7825 7828 7831 7834 7837 7840 7843 7846 7848 7851 7854 7857 7860 7863 7866 7869 7872 7875 7878 7881 7883 7886 7889 7892 7895 7898 7901 7903 7906 7909 7912 7915 7918 7921 7924 7927 7930 7933 7935 7938 7940 7943 7946 7949 7952 7955 7958 7961 7964 7966 7969 7972 7975 7978 7981 7983 7985 7988 7991 7993 7996 7999 8002 8004 8007 8009 8012 8015 8018 8021 8024 8027 8030 8033 8036 8038 8041 8044 8046 8049 8052 8054 8056 8059 8062 8064 8066 8069 8072 8075 8077 8080 8082 8085 8088 8091 8094 8097 8099 8102 8105 8108 8111 8114 8116 8118 8121 8124 8127 8129 8132 8135 8137 8140 8143 8146 8149 8151 8154 8157 8160 8163 8166 8169 8171 8174 8177 8179 8182 8185 8188 8191 8194 8197 8200 8203 8206 8209 8212 8215 8218 8221 8224 8227 8230 8233 8235 8238 8240 8243 8246 8249 8252 8255 8258 8261 8264 8267 8270 8273 8276 8279 8282 8285 8288 8291 8294 8297 8300 8303 8306 8308 8311 8314 8317 8320 8323 8325 8328 8331 8334 8337 8340 8343 8346 8349 8352 8354 8357 8360 8363 8366 8368 8371 8374 8377 8379 8382 8385 8387 8390 8393 8395 8398 8401 8404 8406 8409 8411 8414 8417 8420 8423 8425 8428 8431 8434 8437 8440 8443 8446 8449 8452 8455 8458 8461 8464 8467 8470 8473 8476 8479 8482 8485 8488 8491 8494 8497 8500 8502 8504 8507 8510 8513 8516 8518 8521 8524 8527 8529 8532 8535 8538 8541 8543 8546 8548 8551 8554 8557 8560 8563 8566 8569 8572 8575 8578 8581 8584 8587 8590 8592 8595 8598 8600 8603 8605 8608 8611 8613 8616 8619 8622 8625 8628 8631 8634 8637 8640 8643 8646 8649 8652 8655 8658 8661 8664 8667 8670 8673 8676 8679 8682 8685 8688 8691 8694 8697 8699 8702 8705 8708 8710 8713 8716 8719 8721 8724 8727 8730 8733 8736 8739 8742 8745 8748 8751 8754 8757 8760 8763 8766 8769 8771 8774 8777 8780 8783 8786 8788 8791 8794 8797 8799 8802 8805 8808 8811 8814 8817 8820 8823 8826 8829 8832 8835 8838 8841 8844 8847 8850 8853 8856 8859 8862 8865 8868 8871 8874 8877 8880 8883 8886 8889 8892 8895 8898 8901 8904 8907 8910 8913 8916 8919 8921 8924 8927 8929 8932 8935 8938 8940 8943 8946 8949 8952 8955 8958 8961 8963 8966 8969 8972 8975 8977 8980 8982 8985 8988 8991 8994 8997 9000 9003 9006 9008 9011 9014 9017 9020 9023 9026 9028 9031 9034 9037 9040 9043 9046 9049 9052 9055 9057 9060 9063 9066 9069 9072 9075 9078 9081 9084 9087 9089 9092 9095 9098 9101 9104 9107 9110 9113 9116 9118 9121 9124 9127 9130 9133 9135 9138 9141 9143 9146 9149 9152 9155 9158 9161 9164 9167 9170 9173 9176 9179 9181 9183 9186 9189 9192 9195 9198 9201 9204 9207 9209 9212 9215 9218 9221 9224 9227 9230 9233 9236 9239 9242 9245 9248 9251 9254 9257 9260 9263 9266 9269 9272 9275 9278 9281 9284 9287 9290 9293 9296 9299 9302 9305 9308 9311 9314 9317 9320 9323 9326 9329 9332 9335 9338 9341 9344 9347 9350 9353 9356 9359 9362 9365 9368 9371 9374 9376 9379 9381 9384 9386 9389 9391 9394 9397 9400 9403 9406 9408 9411 9414 9417 9420 9423 9426 9428 9431 9434 9436 9439 9442 9444 9447 9450 9453 9456 9459 9461 9464 9467 9470 9473 9475 9478 9481 9484 9487 9490 9493 9496 9499 9501 9504 9507 9510 9513 9516 9519 9522 9525 9528 9531 9533 9536 9539 9542 9545 9547 9550 9553 9556 9559 9561 9564 9567 9570 9573 9576 9579 9582 9585 9588 9591 9593 9596 9599 9602 9605 9608 9611 9614 9617 9619 9621 9624 9627 9630 9633 9636 9639 9642 9645 9648 9651 9654 9657 9660 9663 9666 9669 9672 9675 9678 9681 9684 9687 9690 9693 9696 9698 9701 9704 9707 9710 9712 9715 9718 9721 9723 9726 9729 9732 9735 9738 9741 9744 9747 9750 9753 9756 9759 9762 9765 9768 9771 9774 9777 9780 9783 9786 9789 9792 9795 9798 9801 9804 9807 9810 9813 9816 9819 9822 9825 9828 9831 9834 9837 9840 9843 9845 9847 9850 9853 9856 9859 9862 9865 9868 9871 9874 9877 9880 9883 9886 9889 9891 9894 9897 9900 9903 9906 9909 9912 9915 9918 9921 9924 9927 9930 9933 9936 9939 9942 9945 9948 9951 9953 9956 9959 9961 9964 9966 9969 9971 9973 9976 9979 9982 9985 9988 9991 9994 9997 9999 10002 10004 10007 10010 10013 10016 10019 10022 10025 10028 10031 10034 10037 10040 10042 10045 10048 10051 10053 10056 10059 10062 10065 10068 10071 10074 10077 10080 10082 10085 10088 10091 10093 10096 10099 10102 10104 10107 10110 10112 10115 10118 10121 10124 10127 10130 10132 10135 10138 10141 10144 10147 10150 10153 10156 10158 10161 10164 10167 10170 10173 10176 10178 10181 10184 10187 10190 10193 10196 10198 10201 10204 10207 10210 10213 10215 10218 10221 10224 10227 10230 10232 10235 10238 10241 10244 10247 10250 10253 10256 10259 10262 10264 10267 10270 10273 10276 10279 10281 10284 10287 10290 10293 10296 10299 10301 10304 10306 10309 10311 10313 10316 10319 10322 10325 10328 10331 10333 10336 10339 10342 10345 10348 10351 10354 10357 10360 10363 10366 10369 10372 10375 10378 10381 10384 10387 10390 10393 10396 10399 10401 10404 10406 10409 10412 10415 10418 10420 10423 10426 10428 10431 10434 10437 10440 10443 10446 10449 10451 10454 10457 10460 10462 10465 10468 10471 10474 10477 10479 10482 10485 10488 10491 10494 10497 10499 10502 10505 10508 10511 10514 10517 10520 10523 10526 10529 10532 10535 10538 10541 10544 10546 10549 10552 10555 10558 10561 10564 10567 10570 10573 10576 10579 10582 10585 10588 10591 10594 10597 10600 10603 10606 10609 10612 10615 10618 10621 10624 10627 10630 10633 10636 10639 10642 10645 10648 10651 10654 10657 10660 10663 10666 10669 10672 10675 10678 10681 10684 10687 10690 10693 10696 10699 10702 10705 10708 10711 10714 10717 10720 10723 10726 10729 10732 10735 10738 10741 10744 10747 10750 10753 10756 10759 10762 10765 10768 10771 10774 10777 10780 10783 10786 10789 10792 10795 10798 10801 10804 10807 10810 10813 10816 10819 10822 10825 10828 10831 10834 10837 10839 10842 10844 10847 10850 10853 10856 10859 10862 10865 10867 10870 10872 10875 10878 10880 10882 10884 10887 10890 10893 10896 10899 10902 10905 10908 10911 10914 10917 10919 10922 10925 10928 10931 10934 10936 10939 10942 10945 10948 10951 10954 10957 10960 10963 10966 10969 10971 10974 10977 10980 10983 10986 10988 10991 10994 10996 10999 11002 11005 11008 11011 11014 11017 11020 11023 11026 11028 11031 11034 11036 11038 11041 11044 11047 11050 11053 11055 11058 11061 11064 11067 11070 11073 11076 11078 11081 11084 11087 11090 11093 11096 11099 11102 11104 11107 11110 11112 11115 11118 11121 11124 11127 11129 11132 11135 11138 11141 11144 11147 11150 11153 11156 11159 11162 11165 11168 11171 11174 11177 11180 11183 11186 11189 11192 11195 11198 11201 11204 11207 11210 11213 11215 11218 11221 11224 11227 11230 11233 11235 11238 11240 11243 11246 11249 11252 11254 11257 11260 11263 11266 11269 11272 11275 11278 11281 11284 11287 11290 11293 11296 11299 11302 11305 11308 11311 11314 11317 11319 11322 11325 11327 11330 11333 11336 11338 11341 11344 11347 11350 11353 11356 11359 11362 11365 11368 11371 11373 11376 11379 11382 11385 11388 11391 11394 11397 11399 11402 11405 11408 11411 11414 11417 11420 11423 11426 11429 11431 11434 11437 11440 11443 11446 11449 11451 11454 11457 11460 11463 11466 11469 11472 11475 11477 11480 11483 11486 11489 11492 11495 11498 11501 11504 11507 11510 11513 11516 11519 11522 11525 11528 11531 11534 11537 11540 11542 11545 11548 11551 11554 11556 11559 11562 11565 11568 11571 11573 11575 11578 11580 11583 11585 11587 11590 11592 11595 11597 11600 11603 11605 11608 11610 11613 11615 11618 11621 11623 11626 11629 11631 11634 11636 11639 11642 11645 11648 11651 11654 11657 11660 11663 11666 11669 11671 11674 11677 11679 11681 11684 11687 11690 11693 11696 11699 11702 11704 11707 11709 11712 11715 11718 11721 11723 11725 11727 11730 11733 11736 11738 11741 11744 11747 11750 11753 11755 11758 11761 11763 11766 11769 11772 11775 11778 11781 11784 11787 11790 11793 11796 11799 11801 11804 11806 11809 11812 11814 11816 11818 11820 11823 11826 11829 11832 11834 11837 11840 11843 11846 11849 11852 11855 11858 11861 11864 11867 11870 11873 11876 11878 11881 11883 11885 11888 11891 11893 11896 11899 11902 11905 11908 11910 11912 11915 11918 11921 11924 11926 11929 11932 11935 11938 11941 11944 11947 11949 11952 11955 11958 11961 11964 11966 11969 11972 11975 11978 11981 11984 11987 11990 11992 11995 11998 12001 12004 12007 12009 12011 12014 12016 12019 12022 12025 12028 12031 12033 12036 12038 12040 12043 12046 12049 12051 12054 12057 12060 12063 12065 12067 12070 12073 12075 12078 12081 12083 12086 12088 12091 12093 12096 12099 12101 12104 12107 12109 12111 12114 12116 12119 12122 12125 12128 12131 12133 12136 12139 12142 12145 12148 12150 12153 12156 12159 12161 12164 12167 12170 12172 12174 12177 12179 12182 12184 12186 12189 12191 12194 12197 12200 12202 12205 12208 12211 12214 12217 12219 12222 12225 12228 12230 12232 12235 12238 12241 12244 12247 12250 12252 12255 12258 12260 12262 12265 12268 12271 12274 12277 12279 12282 12284 12286 12289 12291 12294 12296 12299 12301 12304 12306 12308 12311 12313 12316 12318 12320 12323 12326 12328 12330 12333 12336 12339 12342 12344 12346 12348 12351 12354 12357 12360 12363 12366 12369 12372 12375 12378 12381 12384 12387 12390 12393 12396 12399 12402 12405 12408 12411 12414 12417 12420 12423 12425 12428 12431 12434 12437 12440 12443 12446 12448 12451 12454 12457 12460 12462 12465 12468 12471 12473 12476 12479 12482 12485 12487 12490 12493 12496 12499 12501 12504 12507 12510 12513 12516 12519 12521 12524 12527 12530 12532 12534 12536 12539 12541 12544 12547 12549 12552 12554 12557 12560 12562 12565 12567 12570 12573 12576 12578 12580 12583 12586 12589 12591 12594 12597 12600 12603 12606 12608 12611 12613 12615 12618 12621 12623 12626 12629 12632 12635 12637 12640 12643 12646 12649 12652 12654 12657 12660 12663 12666 12669 12672 12675 12678 12681 12684 12687 12689 12691 12694 12697 12699 12702 12705 12707 12710 12713 12716 12719 12722 12725 12728 12730 12733 12736 12739 12742 12745 12748 12750 12753 12756 12759 12762 12764 12766 12769 12772 12775 12778 12781 12783 12786 12789 12792 12795 12798 12801 12804 12806 12809 12812 12815 12818 12821 12824 12827 12830 12833 12836 12839 12842 12845 12848 12851 12854 12857 12860 12863 12866 12869 12872 12875 12878 12881 12884 12887 12890 12893 12896 12899 12902 12905 12908 12911 12914 12917 12919 12922 12925 12928 12931 12934 12937 12940 12943 12946 12949 12952 12955 12958 12960 12963 12966 12969 12972 12975 12977 12980 12983 12985 12988 12991 12994 12997 13000 13003 13006 13008 13011 13013 13016 13019 13022 13024 13027 13030 13033 13036 13039 13042 13045 13048 13051 13054 13057 13060 13063 13066 13069 13072 13075 13077 13080 13083 13086 13088 13091 13094 13097 13100 13103 13106 13109 13112 13115 13118 13121 13124 13127 13130 13133 13136 13139 13142 13145 13148 13151 13153 13156 13159 13162 13165 13167 13170 13173 13176 13179 13182 13185 13188 13190 13193 13196 13199 13202 13205 13208 13211 13214 13217 13220 13223 13226 13229 13232 13235 13238 13241 13244 13247 13250 13253 13256 13259 13262 13265 13268 13271 13274 13277 13280 13283 13286 13289 13292 13295 13298 13301 13304 13306 13309 13312 13315 13318 13321 13324 13326 13329 13332 13335 13338 13341 13344 13347 13350 13353 13356 13358 13361 13364 13367 13369 13372 13375 13377 13379 13382 13385 13388 13391 13394 13397 13400 13403 13406 13409 13412 13415 13418 13421 13424 13427 13430 13433 13436 13439 13442 13445 13448 13451 13454 13457 13460 13463 13466 13469 13472 13475 13478 13480 13483 13486 13489 13492 13495 13498 13500 13503 13505 13508 13511 13514 13517 13519 13521 13523 13525 13528 13531 13533 13535 13538 13541 13543 13546 13549 13552 13555 13558 13560 13563 13566 13569 13572 13575 13578 13580 13583 13586 13589 13592 13595 13598 13601 13604 13606 13609 13611 13613 13615 13618 13621 13623 13626 13629 13632 13635 13637 13640 13643 13645 13648 13651 13654 13657 13660 13663 13666 13669 13671 13674 13677 13680 13683 13685 13688 13691 13694 13697 13700 13703 13706 13709 13712 13715 13717 13719 13721 13724 13727 13730 13733 13735 13738 13741 13744 13746 13749 13752 13754 13756 13759 13762 13765 13768 13771 13774 13777 13780 13783 13786 13789 13792 13795 13798 13801 13804 13807 13810 13813 13815 13818 13821 13823 13826 13829 13832 13835 13838 13841 13844 13847 13850 13853 13856 13858 13861 13864 13867 13870 13873 13876 13879 13882 13885 13888 13891 13894 13897 13900 13903 13906 13909 13912 13915 13918 13920 13923 13926 13928 13931 13934 13937 13940 13943 13946 13949 13952 13955 13958 13961 13964 13966 13968 13971 13973 13976 13978 13981 13984 13987 13990 13993 13996 13998 14001 14003 14006 14008 14011 14014 14016 14019 14022 14025 14027 14030 14032 14035 14038 14041 14044 14047 14050 14053 14056 14059 14062 14064 14067 14070 14073 14076 14079 14081 14084 14087 14089 14092 14095 14098 14101 14103 14105 14108 14111 14114 14116 14119 14121 14124 14127 14130 14133 14136 14139 14142 14145 14148 14150 14153 14156 14159 14162 14165 14168 14170 14173 14176 14179 14182 14185 14188 14191 14194 14197 14200 14203 14206 14209 14212 14215 14218 14221 14224 14226 14229 14232 14235 14238 14240 14243 14246 14249 14252 14255 14258 14260 14262 14265 14268 14271 14274 14277 14280 14282 14285 14288 14291 14294 14297 14300 14302 14305 14308 14310 14313 14316 14319 14322 14324 14327 14330 14333 14335 14338 14341 14344 14346 14349 14352 14354 14357 14359 14362 14364 14367 14370 14373 14376 14379 14381 14384 14387 14389 14392 14394 14397 14400 14403 14405 14408 14410 14413 14416 14419 14422 14425 14428 14431 14434 14437 14440 14443 14446 14449 14452 14455 14458 14461 14464 14467 14470 14472 14475 14478 14481 14484 14487 14490 14492 14495 14498 14501 14504 14507 14510 14513 14515 14518 14521 14524 14527 14530 14533 14536 14539 14542 14545 14547 14550 14553 14556 14558 14561 14564 14566 14569 14572 14575 14578 14581 14583 14586 14589 14591 14594 14597 14600 14603 14605 14607 14610 14613 14615 14618 14621 14624 14626 14629 14632 14634 14636 14639 14642 14645 14647 14650 14653 14656 14659 14662 14665 14668 14671 14674 14677 14679 14682 14685 14688 14691 14694 14697 14700 14703 14706 14709 14711 14714 14717 14720 14723 14726 14729 14731 14734 14737 14739 14742 14744 14747 14750 14752 14755 14758 14761 14763 14766 14769 14771 14774 14777 14780 14783 14785 14788 14791 14794 14797 14800 14803 14806 14809 14812 14815 14818 14821 14824 14827 14830 14833 14836 14839 14842 14845 14848 14851 14854 14857 14860 14862 14864 14867 14870 14873 14876 14878 14881 14884 14887 14890 14892 14894 14896 14899 14902 14904 14907 14910 14912 14915 14918 14921 14924 14927 14929 14932 14935 14938 14941 14944 14947 14950 14953 14956 14958 14961 14964 14967 14970 14973 14976 14979 14982 14984 14987 14990 14993 14996 14999 15002 15004 15007 15010 15013 15016 15019 15022 15025 15028 15031 15034 15037 15040 15043 15046 15049 15052 15055 15058 15061 15064 15067 15069 15072 15075 15078 15081 15083 15086 15089 15092 15095 15098 15101 15104 15107 15110 15113 15116 15119 15121 15124 15126 15129 15131 15134 15137 15140 15143 15146 15148 15151 15153 15156 15158 15161 15164 15167 15170 15172 15175 15177 15180 15183 15186 15189 15191 15194 15196 15199 15202 15205 15207 15210 15213 15216 15219 15221 15224 15227 15229 15232 15235 15237 15240 15243 15246 15249 15252 15255 15257 15259 15262 15265 15268 15270 15272 15275 15278 15281 15284 15287 15290 15293 15296 15299 15302 15305 15308 15310 15313 15316 15318 15321 15324 15326 15328 15331 15334 15336 15339 15341 15344 15346 15348 15351 15354 15356 15359 15362 15364 15367 15370 15373 15375 15378 15381 15383 15386 15388 15391 15394 15397 15400 15403 15405 15408 15411 15414 15417 15420 15423 15425 15428 15430 15433 15436 15439 15442 15444 15447 15450 15453 15456 15458 15461 15464 15467 15469 15472 15475 15478 15481 15484 15487 15490 15493 15495 15498 15501 15503 15506 15509 15512 15514 15517 15520 15523 15526 15529 15532 15535 15538 15541 15544 15547 15549 15552 15555 15558 15561 15564 15567 15570 15573 15576 15579 15582 15585 15588 15590 15593 15596 15599 15602 15605 15608 15611 15614 15617 15620 15623 15626 15629 15632 15635 15638 15640 15643 15645 15648 15651 15654 15656 15659 15662 15665 15667 15670 15672 15675 15678 15681 15684 15686 15689 15692 15695 15697 15700 15703 15706 15709 15712 15715 15717 15720 15723 15726 15728 15731 15734 15737 15740 15743 15746 15749 15752 15755 15758 15761 15764 15767 15770 15773 15776 15779 15782 15785 15787 15790 15793 15795 15798 15801 15804 15807 15810 15813 15816 15818 15821 15824 15827 15830 15832 15835 15838 15840 15843 15846 15848 15851 15854 15856 15858 15861 15863 15866 15869 15872 15875 15877 15880 15882 15885 15888 15890 15893 15896 15899 15902 15905 15908 15911 15914 15917 15920 15923 15926 15929 15932 15935 15938 15941 15944 15947 15949 15952 15955 15958 15960 15963 15966 15969 15972 15974 15976 15979 15982 15985 15987 15990 15993 15995 15998 16000 16003 16005 16007 16010 16013 16016 16018 16021 16024 16027 16030 16033 16036 16039 16042 16044 16046 16048 16051 16054 16057 16060 16062 16064 16067 16070 16073 16075 16078 16080 16083 16086 16088 16091 16094 16097 16099 16102 16105 16108 16111 16113 16116 16119 16122 16125 16128 16131 16134 16137 16140 16143 16145 16148 16151 16154 16156 16158 16161 16164 16167 16170 16173 16175 16178 16181 16183 16186 16188 16191 16193 16195 16198 16201 16204 16207 16210 16213 16215 16218 16221 16224 16227 16230 16233 16236 16239 16242 16245 16247 16250 16253 16256 16259 16262 16265 16268 16271 16274 16277 16280 16283 16286 16289 16292 16295 16298 16301 16304 16307 16310 16313 16316 16319 16322 16325 16328 16331 16334 16336 16339 16342 16345 16348 16350 16353 16356 16359 16362 16364 16367 16370 16373 16376 16379 16382 16385 16387 16390 16392 16395 16397 16400 16403 16405 16408 16411 16413 16416 16419 16422 16425 16428 16431 16433 16436 16439 16442 16444 16447 16450 16453 16456 16458 16461 16464 16466 16469 16472 16475 16478 16480 16483 16486 16488 16491 16494 16496 16499 16502 16505 16508 16511 16513 16516 16519 16522 16525 16528 16531 16534 16537 16540 16542 16545 16548 16551 16554 16557 16560 16563 16566 16569 16572 16575 16578 16581 16584 16587 16590 16592 16595 16597 16600 16603 16605 16608 16611 16614 16617 16619 16622 16624 16627 16630 16633 16636 16638 16641 16644 16647 16649 16652 16654 16656 16659 16662 16665 16668 16671 16674 16676 16679 16682 16684 16686 16689 16692 16695 16698 16701 16704 16707 16710 16713 16715 16718 16721 16724 16727 16730 16732 16735 16738 16740 16743 16746 16749 16751 16754 16757 16760 16763 16766 16769 16771 16774 16777 16780 16783 16785 16788 16791 16794 16797 16800 16802 16805 16808 16811 16814 16817 16820 16823 16825 16828 16831 16834 16837 16840 16843 16846 16849 16852 16855 16858 16861 16864 16867 16870 16873 16876 16879 16882 16885 16888 16891 16894 16897 16899 16902 16905 16908 16911 16914 16917 16920 16923 16926 16929 16932 16935 16937 16940 16943 16946 16948 16951 16954 16957 16960 16963 16966 16969 16972 16974 16977 16979 16982 16985 16988 16991 16993 16996 16999 17002 17005 17007 17010 17013 17016 17019 17022 17025 17028 17031 17034 17036 17039 17041 17043 17046 17049 17051 17054 17057 17060 17063 17066 17069 17072 17075 17078 17081 17084 17087 17090 17093 17096 17098 17101 17104 17107 17110 17113 17116 17119 17122 17125 17128 17130 17133 17136 17139 17142 17144 17147 17150 17153 17156 17159 17162 17165 17168 17171 17174 17177 17180 17183 17186 17189 17192 17195 17198 17201 17204 17207 17210 17213 17216 17219 17222 17224 17227 17230 17233 17236 17239 17242 17245 17248 17251 17254 17257 17260 17263 17266 17269 17272 17275 17277 17280 17283 17286 17289 17291 17294 17297 17300 17303 17306 17309 17312 17315 17318 17321 17323 17325 17328 17331 17334 17337 17340 17343 17346 17349 17352 17355 17358 17361 17364 17366 17369 17372 17375 17378 17381 17384 17387 17389 17392 17395 17398 17401 17404 17407 17410 17412 17415 17418 17421 17424 17426 17428 17431 17433 17436 17439 17442 17444 17447 17450 17453 17456 17459 17462 17465 17468 17471 17474 17477 17480 17483 17486 17489 17492 17495 17497 17500 17503 17506 17509 17511 17514 17517 17520 17523 17526 17529 17532 17534 17537 17540 17543 17546 17549 17552 17554 17557 17560 17563 17566 17569 17572 17575 17578 17581 17584 17587 17590 17593 17596 17599 17602 17605 17607 17610 17613 17616 17619 17622 17625 17627 17630 17633 17636 17639 17642 17645 17648 17651 17654 17656 17659 17662 17665 17668 17670 17673 17676 17679 17682 17685 17688 17691 17694 17697 17700 17702 17705 17708 17711 17713 17716 17719 17722 17725 17728 17731 17733 17736 17739 17741 17744 17746 17749 17752 17755 17758 17761 17764 17766 17769 17772 17775 17777 17780 17782 17785 17788 17791 17794 17796 17799 17802 17805 17808 17811 17814 17816 17819 17822 17824 17827 17830 17833 17836 17838 17841 17844 17847 17850 17852 17854 17857 17860 17862 17865 17868 17870 17872 17875 17878 17881 17884 17887 17890 17893 17896 17899 17902 17905 17908 17910 17913 17916 17919 17922 17925 17928 17931 17933 17936 17938 17941 17944 17946 17949 17951 17953 17956 17959 17962 17965 17967 17970 17973 17976 17979 17981 17984 17987 17990 17993 17996 17999 18002 18005 18008 18011 18014 18017 18020 18023 18026 18029 18032 18035 18038 18041 18043 18046 18049 18052 18055 18058 18060 18063 18066 18069 18072 18075 18078 18081 18084 18087 18090 18093 18096 18099 18102 18105 18108 18111 18114 18116 18119 18122 18124 18127 18129 18132 18135 18137 18140 18143 18146 18149 18152 18155 18158 18161 18164 18167 18170 18173 18176 18179 18182 18185 18188 18191 18194 18197 18200 18203 18205 18208 18211 18214 18217 18220 18222 18225 18228 18231 18234 18236 18239 18242 18245 18248 18250 18253 18256 18259 18262 18265 18268 18271 18274 18277 18280 18283 18286 18289 18292 18295 18297 18300 18303 18306 18309 18311 18314 18317 18320 18322 18325 18328 18331 18334 18337 18340 18343 18345 18348 18351 18354 18357 18360 18363 18366 18369 18372 18375 18378 18381 18384 18387 18390 18393 18396 18399 18402 18405 18408 18411 18414 18417 18420 18423 18425 18428 18431 18434 18437 18440 18443 18445 18448 18451 18454 18457 18459 18462 18465 18467 18470 18473 18475 18478 18481 18484 18487 18490 18493 18496 18499 18501 18504 18507 18510 18513 18516 18519 18521 18524 18527 18530 18533 18536 18539 18542 18544 18547 18550 18553 18556 18559 18562 18565 18568 18571 18574 18577 18580 18583 18586 18589 18592 18595 18597 18600 18603 18606 18608 18611 18614 18617 18620 18622 18625 18628 18631 18634 18637 18640 18643 18646 18649 18652 18654 18657 18660 18663 18665 18668 18671 18673 18676 18679 18682 18685 18688 18691 18694 18697 18699 18702 18705 18708 18710 18713 18716 18718 18721 18724 18727 18730 18733 18736 18739 18742 18745 18748 18751 18754 18757 18760 18763 18765 18768 18771 18774 18777 18779 18782 18784 18787 18790 18793 18796 18798 18800 18803 18806 18809 18812 18815 18818 18820 18823 18826 18829 18832 18835 18838 18840 18843 18845 18848 18851 18853 18856 18859 18862 18864 18867 18870 18872 18875 18878 18881 18883 18886 18889 18891 18894 18897 18900 18903 18905 18908 18911 18914 18917 18920 18923 18926 18929 18932 18935 18938 18941 18944 18947 18950 18953 18956 18959 18962 18965 18968 18971 18974 18977 18979 18982 18985 18988 18991 18994 18997 19000 19003 19006 19009 19012 19015 19018 19021 19024 19027 19030 19033 19036 19039 19041 19044 19047 19049 19052 19055 19058 19061 19064 19067 19070 19072 19075 19078 19081 19084 19087 19090 19093 19095 19098 19101 19104 19107 19110 19113 19116 19119 19122 19125 19128 19131 19134 19136 19139 19142 19144 19147 19150 19153 19156 19159 19162 19165 19168 19171 19174 19177 19179 19182 19185 19188 19191 19194 19197 19200 19202 19205 19208 19211 19214 19217 19220 19223 19225 19228 19231 19234 19237 19240 19243 19246 19249 19252 19255 19258 19260 19263 19266 19269 19271 19274 19277 19280 19283 19286 19289 19291 19294 19297 19299 19302 19304 19306 19309 19312 19314 19317 19320 19323 19325 19328 19331 19334 19337 19339 19342 19345 19348 19351 19354 19357 19360 19363 19366 19368 19371 19374 19377 19380 19383 19386 19389 19391 19394 19397 19400 19402 19405 19407 19410 19413 19416 19419 19422 19424 19427 19430 19432 19435 19438 19441 19444 19447 19450 19453 19456 19459 19462 19465 19468 19470 19472 19475 19478 19481 19483 19486 19489 19491 19493 19496 19499 19502 19504 19507 19510 19512 19514 19517 19520 19523 19526 19529 19532 19535 19538 19540 19542 19545 19548 19550 19553 19556 19559 19562 19565 19568 19571 19574 19577 19580 19583 19585 19588 19591 19593 19595 19598 19601 19603 19606 19609 19612 19615 19618 19621 19624 19627 19630 19633 19636 19639 19641 19644 19647 19650 19653 19656 19659 19662 19664 19667 19670 19673 19676 19678 19680 19683 19686 19689 19692 19694 19697 19700 19703 19706 19709 19712 19715 19717 19719 19722 19725 19728 19731 19734 19736 19739 19742 19745 19747 19750 19753 19756 19759 19762 19765 19768 19771 19773 19776 19779 19781 19784 19787 19790 19793 19796 19799 19802 19805 19808 19811 19814 19817 19820 19823 19825 19828 19831 19834 19836 19839 19842 19845 19848 19851 19854 19857 19860 19863 19866 19869 19872 19875 19877 19880 19883 19886 19889 19892 19895 19898 19901 19904 19907 19910 19913 19916 19918 19921 19923 19925 19927 19930 19933 19935 19938 19941 19944 19946 19949 19952 19955 19958 19961 19964 19967 19970 19972 19975 19978 19981 19984 19987 19990 19993 19996 19999 20002 20004 20006 20009 20011 20013 20016 20019 20022 20025 20027 20030 20032 20035 20038 20041 20044 20047 20050 20053 20056 20059 20062 20065 20068 20071 20074 20077 20080 20083 20086 20089 20092 20095 20098 20101 20104 20107 20110 20113 20116 20119 20122 20125 20128 20130 20133 20135 20138 20141 20144 20147 20150 20152 20155 20158 20161 20164 20166 20169 20172 20175 20178 20181 20184 20187 20189 20191 20194 20197 20200 20203 20206 20209 20212 20214 20217 20219 20221 20224 20227 20230 20233 20236 20239 20242 20245 20248 20251 20254 20257 20260 20263 20266 20269 20272 20275 20278 20281 20284 20287 20289 20292 20295 20298 20300 20303 20306 20309 20311 20314 20317 20320 20322 20325 20328 20331 20334 20336 20339 20342 20345 20348 20350 20353 20356 20359 20362 20365 20367 20370 20373 20376 20379 20382 20384 20387 20390 20393 20396 20398 20400 20403 20406 20409 20411 20414 20417 20420 20422 20425 20428 20430 20433 20436 20439 20442 20445 20448 20450 20453 20456 20459 20461 20463 20466 20469 20472 20475 20478 20481 20484 20487 20490 20493 20495 20498 20501 20504 20506 20509 20512 20514 20517 20520 20523 20526 20529 20531 20534 20537 20540 20543 20545 20548 20551 20554 20557 20560 20563 20566 20569 20572 20575 20578 20581 20584 20587 20590 20592 20595 20598 20601 20603 20606 20609 20612 20615 20618 20621 20623 20626 20629 20631 20634 20636 20639 20642 20645 20648 20650 20653 20655 20658 20661 20664 20666 20668 20671 20674 20676 20679 20682 20685 20688 20691 20693 20696 20699 20701 20704 20707 20710 20713 20716 20719 20722 20725 20728 20731 20733 20736 20738 20740 20743 20746 20749 20752 20755 20758 20761 20764 20767 20770 20773 20776 20779 20782 20785 20788 20791 20794 20797 20800 20803 20806 20809 20812 20814 20817 20820 20823 20826 20829 20832 20834 20837 20840 20843 20846 20849 20852 20854 20856 20859 20861 20864 20867 20869 20872 20874 20877 20879 20882 20884 20887 20890 20893 20895 20898 20900 20903 20906 20909 20912 20914 20917 20920 20922 20925 20927 20930 20933 20936 20938 20941 20944 20947 20950 20953 20956 20959 20962 20964 20967 20970 20972 20975 20978 20980 20983 20986 20989 20992 20995 20998 21001 21004 21007 21010 21013 21016 21019 21022 21025 21028 21030 21033 21036 21039 21042 21045 21048 21051 21054 21057 21059 21062 21065 21068 21071 21074 21077 21080 21083 21086 21089 21092 21095 21098 21101 21103 21106 21109 21112 21115 21118 21121 21124 21127 21130 21133 21136 21139 21142 21145 21148 21151 21154 21157 21160 21163 21166 21169 21172 21175 21177 21180 21182 21185 21188 21191 21194 21197 21200 21203 21205 21208 21211 21214 21217 21219 21222 21225 21228 21231 21234 21237 21239 21242 21245 21247 21249 21252 21255 21257 21260 21263 21266 21269 21272 21275 21278 21281 21284 21287 21290 21293 21296 21299 21302 21305 21308 21310 21313 21316 21319 21322 21325 21328 21331 21333 21336 21339 21341 21344 21346 21348 21351 21354 21357 21360 21363 21366 21369 21372 21375 21377 21380 21383 21386 21389 21392 21394 21397 21400 21403 21406 21409 21412 21415 21418 21421 21424 21427 21430 21433 21435 21438 21441 21444 21447 21450 21453 21455 21458 21461 21463 21466 21469 21472 21475 21478 21480 21483 21486 21489 21492 21495 21498 21501 21504 21507 21510 21512 21515 21518 21521 21523 21526 21529 21532 21534 21537 21540 21543 21546 21549 21552 21555 21558 21561 21564 21567 21570 21573 21576 21579 21582 21584 21587 21589 21592 21595 21598 21600 21603 21606 21609 21612 21615 21618 21621 21624 21627 21630 21633 21636 21638 21641 21644 21646 21649 21652 21655 21657 21660 21663 21666 21669 21672 21675 21678 21681 21684 21687 21689 21692 21695 21698 21700 21702 21705 21708 21711 21714 21716 21718 21721 21724 21727 21730 21733 21736 21739 21742 21744 21747 21750 21753 21756 21759 21762 21765 21768 21771 21774 21777 21780 21783 21786 21789 21792 21795 21797 21800 21803 21806 21809 21812 21815 21818 21821 21824 21827 21830 21832 21835 21838 21841 21843 21845 21848 21851 21854 21857 21860 21863 21866 21868 21871 21874 21877 21880 21883 21885 21888 21891 21894 21897 21900 21903 21906 21909 21912 21915 21918 21921 21924 21927 21930 21933 21936 21939 21942 21945 21948 21951 21954 21957 21960 21963 21966 21969 21972 21975 21978 21981 21984 21987 21990 21993 21995 21998 22001 22004 22007 22010 22012 22015 22018 22021 22023 22026 22029 22032 22035 22038 22041 22044 22046 22048 22050 22053 22056 22058 22060 22063 22066 22068 22070 22072 22075 22078 22081 22084 22087 22090 22093 22096 22099 22102 22105 22108 22111 22114 22117 22120 22123 22125 22128 22131 22134 22137 22140 22143 22146 22148 22151 22154 22157 22160 22163 22166 22169 22172 22175 22178 22180 22182 22184 22186 22188 22191 22193 22196 22199 22202 22205 22208 22210 22213 22216 22219 22222 22225 22228 22231 22234 22237 22240 22243 22246 22249 22252 22255 22258 22261 22264 22266 22269 22272 22274 22277 22280 22283 22286 22289 22292 22295 22297 22300 22303 22306 22309 22312 22315 22318 22321 22324 22326 22329 22332 22334 22337 22340 22343 22346 22349 22352 22355 22358 22361 22364 22367 22370 22373 22376 22379 22382 22385 22387 22390 22393 22396 22399 22401 22404 22407 22410 22413 22416 22419 22422 22425 22428 22431 22434 22436 22439 22442 22445 22448 22451 22454 22457 22459 22462 22465 22467 22469 22472 22475 22477 22480 22483 22486 22489 22491 22493 22496 22499 22502 22505 22508 22511 22514 22516 22518 22521 22523 22526 22529 22532 22535 22537 22540 22543 22545 22548 22551 22553 22555 22558 22560 22562 22565 22568 22571 22573 22576 22578 22581 22584 22587 22590 22593 22596 22599 22602 22605 22608 22611 22614 22617 22619 22622 22624 22627 22630 22633 22635 22638 22640 22643 22646 22649 22651 22654 22657 22660 22662 22665 22668 22671 22674 22677 22680 22683 22686 22689 22692 22695 22698 22701 22704 22707 22710 22712 22715 22718 22721 22724 22726 22729 22732 22735 22737 22740 22743 22746 22748 22751 22753 22756 22759 22762 22765 22767 22770 22773 22776 22779 22782 22785 22788 22791 22794 22797 22799 22802 22804 22806 22809 22812 22815 22818 22820 22823 22825 22827 22830 22833 22836 22839 22842 22845 22847 22850 22853 22855 22857 22859 22862 22865 22868 22870 22873 22875 22878 22881 22884 22887 22890 22893 22896 22898 22901 22904 22907 22909 22912 22915 22918 22921 22924 22927 22929 22932 22935 22937 22940 22943 22946 22949 22952 22955 22958 22961 22964 22966 22969 22971 22974 22976 22978 22980 22983 22986 22989 22991 22994 22997 23000 23003 23006 23009 23012 23015 23018 23021 23023 23026 23029 23032 23035 23038 23041 23044 23047 23050 23052 23055 23058 23061 23064 23067 23070 23073 23076 23079 23082 23085 23087 23090 23093 23096 23099 23102 23105 23108 23110 23113 23116 23118 23121 23124 23126 23129 23131 23134 23137 23140 23142 23145 23148 23151 23154 23157 23160 23163 23166 23169 23172 23175 23178 23181 23184 23187 23190 23193 23196 23199 23202 23205 23208 23211 23214 23217 23219 23222 23225 23228 23231 23234 23236 23239 23242 23244 23247 23250 23253 23256 23259 23262 23265 23268 23271 23274 23277 23280 23282 23285 23287 23290 23292 23295 23298 23301 23304 23307 23310 23313 23316 23319 23322 23325 23328 23331 23334 23337 23340 23343 23346 23349 23352 23355 23358 23361 23364 23366 23369 23372 23375 23378 23381 23384 23387 23390 23393 23396 23399 23402 23405 23408 23411 23414 23416 23419 23422 23424 23426 23429 23432 23435 23438 23441 23444 23447 23450 23452 23455 23457 23460 23463 23466 23468 23471 23474 23477 23480 23483 23485 23488 23491 23494 23496 23498 23501 23504 23506 23509 23512 23515 23518 23521 23524 23527 23530 23533 23536 23539 23542 23545 23548 23551 23554 23557 23560 23563 23566 23569 23572 23575 23578 23581 23584 23587 23590 23593 23596 23599 23602 23605 23608 23610 23613 23616 23619 23622 23624 23626 23629 23632 23635 23638 23641 23644 23647 23650 23653 23655 23658 23661 23664 23667 23670 23673 23676 23679 23682 23685 23688 23691 23693 23696 23699 23702 23704 23706 23709 23712 23715 23718 23720 23723 23726 23729 23732 23735 23738 23741 23743 23746 23749 23751 23754 23757 23760 23762 23764 23767 23770 23773 23776 23778 23780 23783 23786 23789 23792 23794 23797 23799 23802 23805 23808 23810 23813 23815 23818 23821 23823 23825 23828 23831 23834 23837 23840 23843 23846 23849 23852 23855 23858 23861 23864 23867 23870 23873 23876 23879 23882 23885 23888 23891 23894 23897 23900 23903 23906 23909 23912 23914 23917 23920 23923 23926 23929 23932 23935 23938 23941 23943 23946 23949 23952 23955 23958 23961 23964 23967 23970 23972 23975 23978 23981 23984 23987 23990 23993 23996 23998 24001 24004 24007 24010 24012 24015 24018 24021 24024 24027 24030 24032 24034 24036 24039 24042 24045 24047 24050 24053 24056 24058 24061 24064 24067 24070 24072 24075 24078 24081 24083 24086 24089 24091 24094 24097 24100 24103 24106 24109 24112 24115 24118 24121 24123 24126 24129 24132 24135 24138 24141 24143 24146 24148 24151 24154 24157 24160 24162 24165 24168 24171 24174 24177 24179 24182 24185 24188 24191 24194 24196 24199 24202 24205 24208 24210 24213 24216 24219 24222 24225 24228 24231 24233 24236 24239 24242 24245 24248 24251 24254 24257 24260 24263 24266 24269 24272 24275 24278 24281 24284 24287 24290 24293 24296 24299 24301 24304 24307 24310 24312 24315 24318 24321 24324 24327 24330 24332 24335 24338 24341 24344 24346 24349 24352 24355 24358 24360 24363 24366 24368 24371 24374 24377 24380 24383 24386 24389 24392 24395 24398 24401 24404 24407 24410 24413 24416 24419 24422 24425 24428 24431 24434 24436 24439 24442 24445 24447 24450 24453 24455 24458 24460 24463 24466 24469 24472 24475 24478 24481 24483 24486 24489 24491 24494 24497 24500 24503 24506 24509 24512 24515 24518 24521 24524 24527 24530 24533 24535 24538 24541 24544 24547 24550 24553 24556 24558 24561 24563 24566 24569 24572 24575 24578 24581 24584 24587 24590 24592 24595 24598 24601 24603 24606 24608 24610 24613 24616 24618 24621 24624 24627 24630 24633 24636 24639 24641 24644 24647 24650 24653 24656 24659 24662 24665 24668 24671 24674 24677 24680 24683 24686 24689 24692 24694 24697 24700 24703 24706 24709 24711 24713 24716 24718 24721 24724 24727 24730 24733 24736 24739 24742 24745 24747 24750 24753 24755 24758 24761 24764 24767 24770 24772 24775 24777 24780 24783 24785 24788 24790 24793 24796 24799 24801 24804 24807 24809 24812 24815 24818 24820 24823 24826 24829 24832 24834 24836 24839 24842 24845 24848 24850 24853 24855 24857 24860 24863 24866 24869 24872 24875 24877 24880 24883 24886 24889 24892 24894 24896 24899 24902 24905 24908 24910 24913 24916 24919 24922 24924 24927 24930 24933 24936 24939 24942 24945 24948 24951 24954 24957 24960 24963 24966 24969 24971 24974 24977 24980 24983 24986 24989 24991 24994 24996 24999 25002 25005 25008 25011 25014 25016 25019 25022 25025 25028 25031 25033 25036 25039 25042 25045 25048 25051 25054 25057 25060 25063 25066 25068 25071 25074 25077 25080 25083 25086 25089 25091 25094 25096 25099 25102 25105 25108 25111 25114 25117 25120 25122 25125 25128 25131 25134 25137 25140 25143 25146 25149 25152 25155 25157 25160 25163 25166 25168 25171 25174 25176 25179 25182 25185 25188 25191 25194 25197 25200 25203 25206 25209 25211 25214 25217 25220 25223 25225 25228 25231 25234 25237 25240 25243 25245 25248 25251 25254 25257 25260 25263 25266 25269 25272 25275 25278 25281 25284 25287 25290 25293 25296 25298 25301 25304 25307 25310 25313 25316 25319 25322 25325 25328 25331 25334 25337 25340 25343 25346 25349 25352 25355 25358 25360 25363 25366 25368 25371 25374 25377 25379 25382 25385 25388 25391 25394 25397 25400 25403 25406 25409 25412 25415 25418 25421 25424 25427 25430 25433 25435 25438 25441 25444 25447 25450 25453 25456 25458 25461 25464 25467 25470 25473 25476 25479 25482 25485 25488 25491 25494 25497 25500 25503 25506 25509 25512 25515 25518 25521 25524 25527 25530 25533 25536 25539 25542 25545 25548 25551 25554 25557 25560 25563 25566 25569 25572 25575 25578 25581 25584 25587 25590 25593 25596 25599 25602 25605 25608 25611 25614 25617 25620 25623 25626 25629 25632 25635 25638 25641 25644 25647 25650 25653 25656 25659 25662 25664 25667 25670 25673 25676 25679 25682 25685 25687 25690 25693 25696 25699 25702 25704 25707 25710 25713 25716 25719 25722 25725 25728 25731 25734 25737 25740 25743 25745 25748 25750 25753 25755 25758 25761 25764 25767 25770 25773 25776 25778 25781 25784 25786 25789 25792 25795 25798 25800 25803 25806 25809 25812 25814 25817 25820 25823 25826 25829 25832 25834 25837 25840 25843 25846 25848 25851 25854 25857 25860 25863 25866 25869 25871 25874 25877 25879 25882 25885 25888 25891 25894 25897 25900 25903 25906 25909 25912 25915 25918 25920 25923 25926 25929 25932 25935 25937 25940 25943 25946 25949 25952 25955 25958 25961 25964 25967 25969 25972 25975 25977 25980 25983 25986 25989 25992 25994 25997 25999 26002 26005 26008 26011 26013 26016 26019 26021 26024 26027 26030 26033 26036 26039 26042 26045 26048 26051 26054 26057 26060 26063 26066 26069 26072 26075 26078 26081 26083 26086 26089 26092 26095 26097 26099 26102 26105 26108 26110 26113 26116 26119 26122 26125 26128 26131 26134 26137 26140 26143 26146 26149 26152 26155 26158 26160 26163 26166 26169 26172 26175 26178 26180 26183 26186 26189 26192 26195 26198 26200 26203 26206 26209 26212 26215 26217 26220 26223 26226 26229 26232 26235 26238 26241 26244 26247 26250 26253 26256 26259 26261 26264 26267 26270 26273 26276 26279 26282 26285 26288 26291 26294 26297 26300 26303 26306 26309 26312 26315 26317 26320 26322 26325 26328 26331 26334 26337 26339 26342 26345 26347 26350 26352 26355 26358 26361 26364 26366 26368 26371 26374 26377 26379 26382 26385 26388 26390 26392 26394 26397 26400 26402 26405 26408 26411 26414 26416 26419 26422 26424 26427 26430 26432 26435 26437 26439 26442 26445 26448 26451 26453 26456 26459 26462 26465 26468 26471 26474 26477 26480 26483 26486 26489 26492 26495 26498 26501 26504 26507 26510 26513 26516 26519 26522 26525 26528 26531 26534 26537 26540 26543 26545 26548 26550 26553 26556 26559 26562 26565 26568 26571 26574 26577 26580 26583 26586 26589 26592 26595 26598 26601 26604 26607 26610 26612 26615 26618 26621 26624 26627 26630 26633 26636 26639 26642 26645 26648 26651 26654 26657 26660 26663 26666 26669 26672 26675 26678 26680 26682 26685 26688 26690 26693 26696 26699 26702 26705 26708 26711 26714 26717 26720 26723 26726 26729 26732 26735 26738 26741 26744 26747 26749 26752 26754 26757 26760 26763 26765 26768 26771 26773 26776 26779 26781 26783 26785 26788 26791 26794 26797 26800 26803 26806 26809 26812 26815 26818 26821 26824 26827 26830 26833 26836 26838 26841 26844 26847 26850 26853 26856 26859 26862 26865 26868 26871 26874 26877 26880 26883 26885 26887 26890 26893 26896 26899 26902 26905 26908 26911 26914 26917 26920 26923 26926 26929 26932 26935 26938 26941 26944 26947 26950 26953 26956 26959 26962 26965 26968 26971 26974 26977 26980 26982 26985 26988 26991 26994 26997 27000 27003 27006 27009 27012 27015 27018 27021 27024 27027 27030 27033 27036 27039 27042 27045 27048 27051 27054 27057 27060 27063 27066 27069 27072 27075 27078 27081 27084 27086 27089 27091 27094 27097 27099 27102 27105 27108 27110 27112 27115 27117 27119 27122 27125 27128 27130 27133 27136 27139 27142 27145 27148 27151 27154 27157 27160 27163 27166 27169 27172 27175 27178 27181 27184 27187 27190 27193 27196 27199 27202 27205 27208 27211 27214 27217 27220 27223 27226 27229 27232 27235 27238 27241 27244 27247 27250 27253 27256 27259 27262 27265 27268 27271 27274 27277 27280 27283 27286 27289 27292 27295 27298 27301 27304 27307 27310 27313 27316 27319 27322 27325 27328 27331 27334 27337 27340 27343 27346 27349 27352 27355 27358 27361 27364 27367 27370 27373 27376 27379 27382 27385 27388 27390 27392 27395 27398 27401 27404 27407 27410 27413 27416 27419 27422 27425 27427 27430 27433 27436 27439 27442 27444 27447 27449 27452 27455 27458 27461 27464 27467 27470 27472 27475 27478 27481 27484 27487 27490 27492 27495 27498 27501 27504 27507 27510 27513 27516 27519 27522 27525 27528 27531 27534 27537 27540 27542 27545 27548 27551 27553 27556 27559 27562 27565 27568 27571 27574 27577 27580 27583 27585 27588 27591 27594 27597 27600 27603 27605 27608 27611 27614 27617 27620 27623 27626 27629 27632 27635 27638 27641 27643 27646 27649 27652 27654 27657 27660 27663 27666 27669 27672 27675 27678 27681 27684 27686 27689 27692 27695 27698 27701 27704 27707 27710 27713 27716 27719 27721 27724 27727 27730 27732 27735 27737 27740 27743 27745 27747 27750 27752 27754 27757 27760 27763 27766 27769 27771 27774 27777 27780 27783 27786 27789 27792 27795 27798 27801 27804 27807 27810 27813 27816 27819 27822 27825 27828 27831 27834 27837 27840 27843 27846 27849 27852 27855 27858 27861 27864 27867 27870 27873 27876 27879 27882 27885 27888 27891 27894 27897 27900 27903 27906 27909 27912 27915 27917 27920 27923 27925 27928 27930 27933 27936 27939 27942 27945 27947 27950 27953 27956 27959 27962 27965 27967 27970 27973 27976 27979 27982 27984 27987 27990 27993 27996 27999 28002 28004 28007 28010 28013 28016 28019 28022 28025 28028 28030 28033 28036 28039 28042 28045 28048 28050 28053 28056 28059 28062 28065 28068 28071 28074 28076 28079 28082 28085 28088 28090 28093 28095 28098 28101 28103 28106 28109 28112 28115 28118 28121 28124 28127 28130 28132 28135 28137 28140 28143 28146 28149 28151 28154 28157 28160 28163 28166 28169 28172 28175 28178 28181 28184 28187 28190 28193 28196 28199 28202 28205 28208 28210 28213 28216 28219 28221 28224 28227 28229 28232 28234 28237 28240 28243 28246 28248 28251 28254 28257 28260 28263 28266 28268 28271 28273 28276 28279 28281 28284 28286 28289 28292 28295 28298 28301 28304 28307 28310 28313 28316 28319 28322 28324 28327 28329 28332 28335 28337 28340 28342 28345 28348 28351 28353 28356 28359 28361 28364 28367 28369 28372 28375 28378 28380 28383 28386 28389 28391 28394 28397 28399 28401 28404 28406 28409 28411 28414 28417 28419 28422 28425 28428 28431 28433 28436 28438 28440 28443 28446 28449 28452 28455 28458 28461 28464 28467 28470 28473 28476 28479 28481 28484 28487 28490 28493 28496 28499 28502 28504 28507 28510 28513 28515 28518 28521 28524 28527 28530 28533 28536 28539 28542 28545 28547 28549 28552 28555 28557 28560 28562 28565 28568 28571 28574 28577 28579 28582 28584 28587 28590 28593 28596 28599 28602 28604 28606 28609 28612 28615 28618 28621 28624 28626 28629 28632 28635 28638 28641 28644 28647 28650 28653 28656 28659 28662 28665 28668 28671 28674 28676 28679 28681 28684 28687 28690 28693 28695 28698 28701 28703 28706 28708 28710 28713 28716 28718 28721 28724 28727 28730 28733 28735 28737 28740 28743 28746 28749 28751 28754 28757 28760 28763 28765 28768 28771 28774 28777 28779 28781 28784 28787 28790 28792 28795 28798 28800 28803 28806 28809 28812 28815 28818 28821 28823 28826 28829 28832 28834 28836 28839 28842 28845 28848 28851 28854 28857 28860 28863 28866 28869 28872 28875 28878 28881 28884 28886 28889 28892 28895 28898 28901 28904 28907 28910 28912 28915 28918 28920 28923 28926 28929 28931 28934 28937 28940 28942 28945 28948 28951 28954 28957 28959 28962 28965 28967 28970 28972 28975 28978 28981 28984 28987 28989 28992 28995 28998 29001 29004 29007 29010 29013 29016 29019 29022 29025 29028 29031 29034 29037 29040 29043 29046 29049 29052 29055 29058 29061 29064 29067 29070 29073 29076 29079 29082 29085 29088 29091 29094 29097 29100 29103 29106 29109 29112 29115 29117 29120 29123 29126 29129 29132 29135 29138 29141 29144 29147 29150 29153 29156 29159 29162 29165 29168 29171 29174 29176 29178 29181 29184 29187 29190 29192 29195 29197 29199 29202 29205 29208 29211 29214 29217 29220 29223 29226 29229 29232 29235 29237 29240 29243 29245 29248 29251 29253 29256 29259 29262 29265 29267 29270 29273 29276 29279 29281 29283 29286 29289 29292 29295 29298 29301 29304 29307 29310 29313 29316 29319 29322 29325 29328 29331 29334 29337 29340 29343 29346 29349 29351 29353 29356 29358 29361 29364 29367 29370 29373 29376 29378 29381 29384 29387 29389 29392 29395 29397 29400 29402 29404 29407 29410 29412 29415 29418 29420 29422 29425 29428 29431 29434 29437 29440 29443 29446 29449 29452 29454 29457 29460 29463 29466 29469 29472 29475 29478 29480 29483 29486 29489 29492 29495 29498 29501 29504 29506 29509 29512 29515 29518 29521 29524 29527 29530 29533 29535 29538 29541 29544 29547 29550 29553 29555 29558 29560 29563 29566 29569 29572 29574 29577 29580 29583 29586 29589 29592 29595 29597 29599 29602 29605 29608 29610 29613 29615 29617 29620 29623 29626 29629 29632 29634 29636 29639 29642 29645 29648 29651 29654 29657 29659 29661 29664 29667 29670 29673 29676 29679 29682 29685 29688 29691 29694 29697 29700 29703 29706 29709 29712 29715 29718 29721 29724 29727 29730 29733 29736 29739 29741 29744 29747 29750 29753 29756 29759 29762 29765 29768 29771 29774 29777 29780 29783 29785 29788 29791 29794 29797 29800 29803 29806 29809 29812 29815 29818 29821 29824 29827 29830 29833 29836 29839 29842 29845 29848 29851 29854 29857 29859 29862 29864 29867 29869 29872 29875 29878 29881 29884 29887 29890 29893 29896 29898 29900 29903 29906 29909 29912 29915 29917 29920 29923 29926 29929 29932 29935 29938 29940 29943 29946 29948 29951 29954 29956 29959 29962 29964 29966 29969 29971 29974 29976 29979 29982 29985 29988 29991 29994 29997 30000 30003 30006 30009 30012 30015 30018 30021 30024 30026 30029 30031 30034 30037 30040 30042 30045 30048 30051 30054 30057 30060 30063 30066 30069 30072 30075 30078 30081 30084 30087 30090 30093 30096 30099 30102 30105 30108 30111 30114 30117 30120 30122 30125 30128 30131 30134 30137 30139 30142 30145 30148 30151 30154 30156 30159 30162 30164 30167 30170 30173 30176 30179 30182 30185 30188 30190 30192 30194 30197 30199 30202 30205 30208 30210 30213 30215 30218 30221 30224 30227 30230 30233 30236 30239 30242 30244 30247 
</DataArray>
<DataArray type="UInt32" Name="types" format="ascii">
5 3 5 5 3 5 5 5 5 5 5 5 5 5 5 5 5 5 5 3 5 5 5 5 5 5 5 3 5 5 5 3 5 5 5 5 5 3 5 5 5 5 5 5 5 5 5 5 3 5 3 5 5 5 5 3 3 5 5 5 5 5 3 5 5 5 5 3 3 5 5 5 5 5 3 5 5 5 5 5 3 5 5 5 5 5 5 5 5 5 3 5 5 5 5 5 5 5 5 5 5 5 5 5 3 5 5 5 3 5 5 5 5 5 5 5 5 5 5 5 5 5 3 5 3 5 5 5 5 3 5 3 5 5 5 3 5 5 5 5 5 5 5 5 5 5 5 3 5 5 5 5 5 5 5 5 5 3 5 5 5 5 5 5 5 5 3 3 5 5 3 3 5 5 5 5 5 5 5 5 5 5 5 5 5 5 3 5 5 3 5 3 5 5 5 5 3 5 3 5 3 5 5 5 3 5 5 5 5 5 3 5 5 5 5 3 5 5 5 5 5 5 5 5 5 5 5 5 3 5 5 5 5 5 5 5 5 3 5 5 5 5 5 5 5 5 5 5 5 5 5 3 5 5 5 5 5 5 5 5 3 5 5 5 5 5 3 5 5 5 5 5 3 5 5 5 5 5 3 5 5 5 3 5 5 3 3 5 5 5 5 5 5 5 3 5 5 5 5 3 5 5 3 5 5 5 5 3 5 5 5 5 5 5 5 5 5 3 5 5 5 3 5 5 5 3 5 3 3 5 5 5 5 5 5 5 5 5 5 5 5 5 5 5 5 3 5 5 5 5 5 5 5 5 5 5 5 5 5 5 5 5 5 5 5 5 5 5 5 3 5 5 5 5 5 5 5 5 5 5 5 5 5 5 5 5 5 5 5 5 5 5 5 3 5 5 3 5 5 5 5 5 5 5 5 5 5 5 3 5 5 3 5 5 3 5 5 5 5 5 5 5 3 5 3 5 5 5 3 5 5 5 5 5 5 5 5 3 3 5 5 5 3 5 5 5 5 5 5 5 5 3 5 5 5 5 5 5 5 5 5 3 5 5 5 5 3 3 5 5 5 5 5 5 5 5 5 5 5 5 5 3 5 5 5 5 5 5 5 5 5 3 5 5 5 3 5 5 5 5 5 5 5 5 5 5 5 5 5 5 3 5 5 5 5 5 5 5 5 5 3 5 5 5 3 5 5 5 3 5 5 5 3 5 5 5 5 5 5 5 3 5 5 5 3 5 5 5 5 3 5 5 5 5 5 5 3 5 5 5 5 5 3 5 5 3 5 5 3 5 3 5 5 5 5 5 5 5 5 5 5 5 5 5 3 5 5 5 5 5 5 5 5 5 5 5 5 5 5 5 5 5 5 5 5 5 5 5 5 5 5 5 5 5 5 5 5 5 3 5 5 3 5 5 5 5 5 5 5 5 5 5 5 5 5 3 5 5 3 5 5 5 5 5 5 5 5 5 5 5 5 3 5 5 5 5 5 5 5 5 5 5 5 3 5 5 5 5 5 3 5 5 5 5 5 5 3 5 5 5 5 3 5 5 5 3 5 5 5 3 5 5 5 5 5 5 5 5 5 5 5 5 5 5 5 5 5 5 5 5 5 5 5 5 3 5 5 5 5 5 5 5 5 5 5 5 5 5 3 5 5 5 5 5 5 3 5 5 5 5 3 5 5 5 5 5 5 5 5 3 5 3 5 5 5 5 5 5 3 3 5 5 5 3 5 5 5 5 5 5 5 5 5 5 5 3 5 5 5 5 5 3 5 5 5 3 5 5 3 5 5 5 3 5 5 3 5 5 3 5 5 3 5 5 5 5 5 5 5 5 5 5 5 5 5 5 5 5 5 5 5 5 5 5 5 5 5 5 5 5 5 5 3 5 5 5 5 5 5 3 3 5 5 5 3 5 5 3 5 5 5 5 5 5 5 3 5 5 5 3 5 3 5 5 5 5 3 5 5 5 5 5 3 5 3 5 5 5 5 5 5 5 3 5 5 5 5 5 5 5 5 5 5 5 5 5 5 5 3 5 5 5 3 5 5 3 5 5 5 5 3 3 3 5 5 5 5 3 3 5 5 5 5 5 5 5 5 3 5 5 5 5 5 5 5 3 5 5 3 5 5 5 5 5 5 5 3 3 5 5 5 3 3 3 5 3 3 5 5 5 3 5 5 5 5 5 5 3 5 5 5 5 3 5 3 5 5 5 5 5 3 5 5 5 5 3 5 3 3 5 5 5 3 5 3 5 5 5 5 3 5 5 5 5 5 3 5 5 5 3 5 5 5 3 5 5 3 5 5 5 5 5 3 5 5 5 5 5 5 5 5 5 5 5 5 5 5 5 5 3 5 5 5 5 5 3 5 5 3 3 5 5 5 5 5 5 5 5 3 5 5 5 5 5 5 3 5 5 5 5 3 5 5 3 5 5 3 5 5 5 5 5 3 3 5 5 5 5 5 5 5 5 5 5 5 5 5 5 5 5 5 5 3 5 5 5 5 5 5 5 5 5 3 3 5 5 5 5 5 5 3 3 5 5 5 3 3 5 3 5 5 5 5 5 5 5 5 5 5 5 5 5 5 5 5 5 5 5 5 5 3 5 5 5 3 5 5 3 5 5 5 5 5 5 5 5 5 5 5 5 5 5 5 5 5 3 5 5 5 5 5 5 3 5 5 5 5 5 5 5 5 5 3 5 3 5 5 5 3 5 3 5 5 5 5 5 5 5 5 5 5 5 5 5 5 5 5 3 5 5 5 5 5 5 3 5 5 5 3 5 5 5 5 5 5 5 5 5 5 3 5 5 5 5 5 5 5 5 5 5 5 5 5 5 5 5 3 5 3 5 5 5 5 5 5 5 5 5 5 5 5 5 3 3 5 5 5 5 5 5 5 5 3 3 5 3 5 5 5 5 5 3 5 5 5 5 5 5 5 5 5 5 5 5 3 5 5 3 5 5 5 3 5 5 3 5 5 3 5 5 5 5 5 5 5 5 5 5 5 5 5 5 5 3 5 5 5 5 5 5 3 5 5 5 5 5 5 5 5 5 5 5 5 5 5 5 5 5 3 5 5 5 5 3 5 5 3 5 5 5 5 5 3 5 5 5 5 3 5 5 5 5 5 5 3 5 5 5 3 5 5 3 5 5 5 5 3 5 5 5 5 3 3 5 5 5 5 5 5 5 5 3 5 5 5 5 3 5 5 5 3 5 3 5 5 3 5 3 5 3 5 5 5 5 3 5 5 5 5 5 5 3 5 5 5 5 5 5 5 5 5 5 5 5 5 5 3 5 5 5 5 5 5 3 5 5 3 5 3 5 3 5 5 5 5 3 5 3 5 3 5 5 5 5 3 5 5 5 5 5 5 5 5 5 5 5 5 5 5 5 5 5 3 5 5 3 5 5 5 5 5 5 5 3 5 5 5 3 3 5 3 5 5 5 5 5 5 5 3 5 5 5 5 3 5 5 5 5 5 5 5 5 5 3 3 5 5 3 5 5 3 5 5 5 3 5 3 5 3 3 5 3 5 3 5 3 5 3 5 5 5 3 5 5 5 5 3 5 5 5 5 5 5 5 5 5 5 5 3 5 5 5 5 5 3 5 5 5 5 5 5 5 5 5 5 5 5 5 5 5 5 5 5 5 5 3 3 5 5 5 5 5 5 5 5 5 3 5 5 3 3 5 5 5 3 3 3 5 5 5 5 5 5 3 5 5 5 5 5 3 5 5 5 5 3 5 5 5 5 5 5 5 5 5 5 5 5 5 5 5 5 5 3 5 5 5 5 5 5 5 3 5 5 5 5 5 5 5 5 5 5 5 5 5 5 5 3 5 5 5 3 5 5 5 5 5 5 5 5 5 5 5 5 5 5 5 5 5 5 5 5 5 5 5 3 5 5 3 5 3 5 5 3 5 3 5 5 5 5 5 5 5 5 5 5 5 5 5 5 5 5 5 5 5 5 3 5 5 5 5 5 5 5 5 5 5 3 5 5 5 5 3 5 5 5 5 5 5 5 5 5 5 5 5 5 5 5 5 5 5 5 5 5 5 5 5 5 5 5 5 5 5 5 5 5 5 5 5 5 5 3 5 5 3 5 5 5 5 5 5 5 5 5 3 5 5 5 5 5 3 5 5 5 5 5 5 5 5 5 5 5 5 5 5 5 5 5 5 5 5 5 5 5 5 5 3 5 5 5 5 5 5 5 5 3 5 5 5 5 5 5 5 5 5 5 5 3 5 5 5 5 5 5 5 5 5 5 5 5 5 5 3 5 5 5 5 5 3 3 5 5 5 5 5 5 5 5 5 5 5 5 5 5 5 5 5 5 5 5 5 5 3 5 5 5 5 5 3 5 5 5 3 5 5 5 3 5 3 3 5 5 3 5 3 5 5 5 3 5 3 5 5 5 5 5 3 5 5 5 3 5 5 3 3 5 5 5 5 5 5 3 5 5 5 5 5 5 5 5 5 5 5 5 5 5 5 5 5 5 5 5 5 5 5 3 5 5 5 5 5 5 3 5 5 5 5 5 5 5 5 5 5 3 5 5 5 5 5 5 3 5 5 5 5 5 5 5 5 5 5 5 5 5 5 5 5 5 5 5 5 5 3 5 5 5 5 5 3 5 5 5 5 5 3 3 5 3 5 5 5 5 3 5 5 5 5 3 5 5 5 5 5 5 5 5 5 5 5 5 5 5 3 5 5 5 5 5 3 5 5 5 3 3 5 3 5 5 3 5 3 5 5 3 5 5 5 5 5 5 5 5 5 5 5 5 5 5 5 3 5 5 5 5 5 5 5 5 3 5 5 5 5 3 3 5 5 5 5 5 5 5 5 5 5 5 3 3 5 5 5 5 5 3 5 3 5 5 5 3 5 5 5 5 5 5 5 5 5 5 5 5 5 5 5 5 5 5 5 3 5 5 5 3 5 5 5 5 5 5 5 5 5 5 5 3 5 5 5 3 5 5 5 5 5 3 5 5 3 5 5 5 5 5 5 5 5 5 5 3 5 5 3 5 3 5 5 5 3 5 5 5 5 5 5 5 5 3 5 5 5 5 5 5 5 5 5 5 3 5 5 5 5 5 5 5 5 5 5 5 5 5 5 5 5 5 5 5 5 5 5 5 3 5 5 5 3 5 5 5 5 5 5 5 3 5 5 5 3 5 5 5 5 5 3 5 5 5 5 5 5 5 3 5 5 5 5 3 5 5 3 5 5 3 5 5 5 5 5 5 5 5 3 5 5 5 5 5 5 5 5 5 3 5 5 5 5 3 5 5 5 5 5 5 5 5 5 5 5 5 5 5 5 5 3 5 3 5 5 5 5 5 5 5 5 3 5 5 5 5 5 5 5 5 5 5 5 5 5 5 5 5 5 5 5 5 5 5 5 3 5 5 5 5 5 5 3 5 5 5 5 3 5 5 5 3 3 5 3 5 5 3 5 5 5 5 3 5 5 5 3 5 5 5 3 5 5 3 5 5 5 5 5 5 5 3 3 5 5 5 5 5 3 5 3 5 5 5 5 5 5 5 5 5 5 5 5 5 5 5 5 5 5 3 5 5 5 3 5 5 5 5 5 5 5 5 5 5 3 5 5 5 5 5 5 5 5 5 5 5 5 3 5 5 3 5 5 5 5 5 5 5 5 5 5 5 5 5 5 5 5 5 5 5 5 3 5 3 5 5 5 5 3 5 5 5 5 5 5 5 3 5 5 3 5 5 5 5 5 5 5 5 5 5 5 5 5 3 5 5 5 3 5 5 5 5 5 5 5 5 5 5 5 5 5 5 5 5 5 5 5 5 5 5 5 5 5 5 5 5 5 5 5 5 5 5 5 5 5 5 5 5 5 5 5 5 5 5 5 5 5 5 5 5 5 5 5 5 5 5 5 5 5 5 5 5 5 5 5 5 5 5 5 5 5 5 5 5 5 5 5 5 5 5 5 5 3 5 5 5 5 5 5 5 5 5 5 5 5 5 5 5 5 5 5 5 5 5 5 5 5 5 5 5 3 5 5 5 5 3 5 3 5 3 5 5 5 3 5 5 5 5 3 5 5 3 5 5 5 5 5 5 5 5 5 5 5 5 5 5 5 5 5 5 3 3 5 3 5 5 5 3 5 5 5 5 5 5 5 5 5 5 5 3 5 5 5 5 5 5 5 3 5 5 5 5 5 5 5 5 5 5 5 5 5 3 5 5 5 5 5 5 5 3 5 5 5 5 5 5 5 5 5 5 5 3 5 5 5 5 5 5 3 5 5 5 5 5 5 5 5 5 5 3 5 3 5 5 5 5 5 5 5 5 3 5 5 5 5 5 3 3 5 5 3 5 5 5 3 5 3 5 5 5 5 5 5 5 5 5 3 5 5 3 5 5 3 3 5 5 3 3 5 5 5 3 5 3 5 5 5 5 5 3 5 5 5 5 5 3 3 5 5 5 3 5 5 3 5 5 5 5 3 5 5 5 5 5 5 3 5 5 3 5 5 5 5 5 5 5 5 5 5 5 5 5 5 5 5 5 5 3 5 3 5 5 5 5 5 5 5 5 5 5 5 5 5 5 5 5 5 5 5 5 5 5 3 5 5 5 5 5 3 5 5 5 5 5 5 5 5 5 3 5 5 5 5 3 5 5 5 3 5 5 3 5 5 3 5 5 5 3 5 3 5 5 5 5 3 5 5 5 5 5 5 5 5 5 5 5 5 5 5 5 5 5 5 5 5 5 5 5 5 5 3 3 5 5 5 5 3 5 5 5 3 5 5 5 5 3 5 3 5 5 5 5 5 5 5 5 5 5 5 5 5 5 3 5 5 3 5 3 5 5 3 5 5 5 5 5 5 5 5 5 5 5 5 5 5 5 5 5 5 5 5 5 5 5 5 5 5 5 5 3 5 5 5 3 5 5 5 3 5 5 5 5 5 5 5 5 5 5 5 5 5 5 5 5 3 5 5 5 5 5 3 5 5 5 3 5 5 5 5 5 5 5 5 5 5 5 5 5 5 5 5 5 5 5 5 5 5 5 5 5 5 5 5 5 5 5 5 5 5 5 5 5 5 5 5 3 5 5 3 5 5 5 3 5 5 5 5 5 5 5 3 5 5 5 5 3 5 3 5 5 5 5 5 5 5 5 3 5 5 5 5 5 5 3 5 5 5 5 5 5 5 5 5 3 5 5 5 5 5 5 5 5 5 5 3 5 5 5 5 5 5 5 5 5 3 5 5 5 5 5 3 5 5 3 5 5 5 5 5 5 5 5 5 5 5 5 3 3 5 5 5 5 5 5 5 5 3 5 5 5 5 5 5 5 5 5 5 5 5 5 5 5 5 5 5 5 5 5 5 5 5 5 5 5 5 5 5 5 5 5 5 5 5 5 5 5 5 5 5 5 5 5 5 5 5 5 5 5 5 5 5 5 3 5 3 5 3 5 3 5 5 5 5 5 3 5 5 5 5 5 5 3 5 5 3 5 5 3 5 5 5 5 5 3 5 5 5 5 3 5 5 5 5 5 5 5 5 3 5 5 5 5 5 5 5 5 5 5 3 5 5 5 5 3 5 5 5 5 3 5 5 5 5 5 5 5 5 5 5 3 5 5 5 5 5 5 5 5 3 3 5 5 5 5 5 5 5 5 5 5 5 5 5 5 5 5 5 5 5 5 5 5 5 5 5 3 5 5 5 5 3 5 5 5 3 5 5 5 5 5 5 5 5 5 5 5 5 5 5 5 5 5 5 5 5 5 5 5 5 5 5 5 5 5 5 5 5 5 5 5 5 5 5 5 5 3 3 5 5 5 5 5 5 5 5 5 5 5 5 5 5 3 5 5 5 5 5 5 5 5 5 5 5 5 5 5 5 5 5 5 5 5 3 5 5 3 5 3 5 3 3 5 5 5 5 5 5 5 5 3 5 3 5 5 5 5 5 5 5 5 5 5 5 5 3 5 5 5 3 5 5 5 5 5 5 5 5 5 3 5 5 5 3 5 5 5 3 5 5 3 5 5 5 5 5 5 3 5 5 5 5 5 5 5 5 3 5 5 5 5 5 5 3 5 5 5 5 5 5 3 5 5 5 5 5 3 5 5 5 5 5 3 5 5 5 5 5 5 5 5 5 5 3 5 5 5 5 5 3 5 5 5 5 5 5 3 5 3 5 3 3 5 5 5 5 5 5 3 5 5 5 5 5 5 5 5 5 5 5 5 5 5 5 5 5 5 5 5 5 5 3 5 3 5 5 5 5 3 5 5 3 5 5 5 5 5 5 5 3 5 5 5 3 5 5 5 5 5 3 5 5 5 5 5 5 3 5 5 5 5 5 5 5 5 5 5 5 5 5 5 5 3 5 5 5 5 5 5 5 5 5 5 5 5 5 5 5 5 5 5 5 5 5 5 5 5 5 5 5 5 5 5 5 5 5 5 5 5 5 5 5 5 5 5 5 5 5 5 5 5 5 5 5 5 5 5 5 5 5 5 5 5 5 5 5 5 5 5 5 5 5 5 5 5 5 5 5 5 5 5 5 5 5 5 5 5 5 5 5 5 5 5 5 5 5 5 5 5 5 3 5 3 5 5 5 5 5 5 5 3 5 3 5 5 3 3 3 5 5 5 5 5 5 5 5 5 5 5 3 5 5 5 5 5 3 5 5 5 5 5 5 5 5 5 5 5 3 5 5 5 5 5 3 5 5 3 5 5 5 5 5 5 5 5 5 5 3 5 5 3 3 5 5 5 5 5 3 5 5 5 5 5 5 5 3 5 5 5 5 5 5 5 5 3 5 5 3 5 5 5 5 5 3 5 5 5 5 5 5 5 5 5 5 5 5 5 5 5 5 5 5 5 5 5 5 5 5 5 5 5 5 3 5 5 5 5 5 5 3 5 3 5 5 5 5 3 5 5 5 5 5 5 5 5 5 5 5 5 5 5 5 5 5 5 5 5 5 3 5 5 3 5 5 5 3 5 5 5 5 5 5 5 5 5 5 5 3 5 5 5 5 5 5 5 5 3 5 5 5 5 5 5 5 5 5 5 3 5 5 5 5 5 5 3 5 5 5 5 5 5 5 5 3 5 5 5 5 5 5 5 5 5 5 5 5 5 5 5 5 5 5 5 5 5 3 5 5 5 5 3 5 5 5 5 5 3 3 5 3 5 3 3 5 3 5 3 5 5 3 5 3 5 3 5 5 3 5 5 3 5 3 5 5 5 5 5 5 5 5 5 5 5 3 5 5 3 3 5 5 5 5 5 5 5 3 5 3 5 5 5 5 3 3 3 5 5 5 3 5 5 5 5 5 3 5 5 3 5 5 5 5 5 5 5 5 5 5 5 5 3 5 3 5 5 3 3 3 3 5 5 5 5 3 5 5 5 5 5 5 5 5 5 5 5 5 5 5 3 5 3 3 5 5 3 5 5 5 5 5 3 3 5 5 5 5 3 5 5 5 5 5 5 5 3 5 5 5 5 5 3 5 5 5 5 5 5 5 5 3 5 5 5 5 5 3 3 5 3 5 5 5 5 5 3 5 3 3 5 5 5 3 5 5 5 5 3 3 5 5 3 5 5 3 5 3 5 3 5 5 3 5 5 3 3 5 3 5 5 5 5 5 3 5 5 5 5 5 3 5 5 5 3 5 5 5 3 3 5 3 5 3 3 5 3 5 5 5 3 5 5 5 5 5 3 5 5 5 3 3 5 5 5 5 5 5 3 5 5 3 3 5 5 5 5 5 3 5 3 3 5 3 5 3 5 3 5 3 3 5 3 5 3 3 5 5 3 3 5 5 5 5 3 3 3 5 5 5 5 5 5 5 5 5 5 5 5 5 5 5 5 5 5 5 5 5 5 5 5 5 3 5 5 5 5 5 5 5 3 5 5 5 5 3 5 5 5 3 5 5 5 5 3 5 5 5 5 3 5 5 5 5 5 5 3 5 5 5 3 3 3 5 3 5 5 3 5 3 5 5 3 5 3 5 5 5 3 3 5 5 5 3 5 5 5 5 5 3 5 3 3 5 5 3 5 5 5 5 3 5 5 5 5 5 3 5 5 5 5 5 5 5 5 5 5 5 3 3 5 5 3 5 5 3 5 5 5 5 5 5 5 3 5 5 5 5 5 5 3 5 5 5 5 3 3 5 5 5 5 5 3 5 5 5 5 5 5 5 3 5 5 5 5 5 5 5 5 5 5 5 5 5 5 5 5 5 5 5 5 5 5 5 5 5 5 5 5 5 5 5 5 5 5 5 5 5 3 5 5 5 5 5 5 5 5 5 5 5 5 5 3 5 5 5 5 5 3 5 5 3 5 5 5 5 5 5 5 3 5 3 5 5 5 3 5 5 5 5 5 5 5 5 5 5 5 5 5 5 5 5 5 3 5 5 5 3 5 5 5 5 5 5 5 5 5 5 5 5 5 5 5 5 5 5 5 5 5 3 5 5 5 5 3 5 5 5 5 5 5 5 3 5 5 5 5 5 5 5 5 5 5 5 5 5 5 5 5 5 5 5 5 5 5 5 5 5 5 5 5 5 5 5 5 5 5 5 5 5 5 3 5 5 5 5 5 5 3 5 5 5 5 5 5 5 5 5 5 3 5 5 5 3 5 5 3 3 5 5 5 5 5 5 5 5 5 5 5 5 5 5 5 5 5 5 5 5 5 5 5 5 5 5 5 5 5 5 5 5 5 3 5 5 5 5 5 5 3 5 3 5 5 5 5 3 3 3 3 5 5 3 3 5 5 3 5 5 5 5 5 3 5 5 5 5 5 5 3 5 5 5 5 5 5 5 5 3 5 3 3 3 5 5 3 5 5 5 5 3 5 5 3 5 5 5 5 5 5 5 5 3 5 5 5 5 3 5 5 5 5 5 5 5 5 5 5 3 3 3 5 5 5 5 3 5 5 5 3 5 5 3 3 5 5 5 5 5 5 5 5 5 5 5 5 5 5 5 5 5 5 5 3 5 5 3 5 5 5 5 5 5 5 5 5 5 5 3 5 5 5 5 5 5 5 5 5 5 5 5 5 5 5 5 5 5 5 5 3 5 5 3 5 5 5 5 5 5 5 5 5 5 5 5 3 3 5 3 5 3 5 5 5 5 5 5 3 5 3 5 3 5 5 3 5 5 5 3 5 3 5 5 5 5 5 5 5 5 5 5 3 5 5 5 5 5 3 5 5 3 5 5 5 5 3 3 5 5 5 3 5 3 5 5 5 5 5 5 5 5 5 3 5 5 5 5 5 5 3 5 5 5 5 5 5 5 5 5 5 5 5 5 5 5 5 5 5 3 5 5 5 5 3 5 5 5 5 5 5 3 3 5 5 5 5 5 5 3 5 5 5 5 5 5 3 5 5 3 5 5 5 5 3 5 5 5 3 5 5 5 3 5 5 3 5 3 5 3 5 5 5 5 5 3 5 5 3 5 3 5 5 5 3 5 3 5 5 5 5 5 5 5 5 5 5 5 5 5 5 5 5 5 5 5 5 3 5 5 5 5 5 5 3 5 5 5 5 5 5 5 3 5 5 5 5 5 5 5 5 5 5 3 5 5 5 3 5 5 3 5 5 5 5 5 3 5 5 3 5 5 5 5 3 3 5 5 3 5 5 5 3 5 5 3 3 5 5 5 3 5 5 5 5 5 5 5 5 5 5 3 5 5 5 5 5 5 5 5 5 5 3 5 5 5 5 5 5 3 5 5 3 5 3 5 5 3 5 5 5 3 5 5 3 5 5 5 5 3 5 5 5 5 5 5 5 5 5 5 5 5 5 5 5 5 5 5 5 5 5 5 5 5 5 3 3 5 5 5 5 3 5 5 5 5 3 3 3 5 5 3 5 5 3 5 5 5 5 5 3 5 5 5 5 5 5 5 5 5 3 5 5 5 5 5 5 5 5 3 5 5 5 5 5 5 3 5 5 5 5 5 5 5 5 5 5 5 5 5 5 5 5 5 5 5 5 5 3 5 5 5 5 3 5 5 5 5 5 5 5 5 5 5 5 5 3 5 3 5 3 5 5 5 5 5 3 5 3 5 3 5 5 5 5 3 5 3 5 5 5 5 3 5 3 5 5 5 3 5 5 5 5 3 5 5 3 5 5 3 5 5 5 5 5 5 3 3 5 5 5 3 3 5 5 5 5 5 5 5 5 5 5 5 5 3 5 5 3 5 5 3 3 5 5 3 5 3 5 3 3 5 5 3 5 5 3 5 5 5 3 5 5 3 5 3 5 5 5 5 5 3 5 5 5 5 5 5 3 5 3 5 5 5 5 3 5 5 5 5 3 5 5 5 3 5 5 5 5 5 5 5 5 3 5 5 3 5 5 5 3 5 5 5 5 5 5 5 5 5 5 5 3 5 5 5 5 5 5 5 5 5 5 5 5 5 3 5 5 5 5 5 5 5 5 5 5 5 5 5 5 5 5 3 5 3 5 5 5 3 5 5 5 3 5 3 5 5 5 5 3 5 5 5 3 5 5 5 5 5 5 3 5 5 5 3 5 5 5 5 5 5 5 5 5 5 5 5 5 5 5 5 5 5 5 3 5 5 3 5 5 5 5 5 5 5 3 5 5 5 5 3 5 5 3 5 5 3 5 5 3 3 5 3 5 5 5 5 3 5 3 5 5 3 5 5 5 5 5 5 5 5 5 5 5 5 5 5 5 5 5 5 5 3 5 5 5 3 5 5 5 5 3 3 5 5 5 3 5 5 3 5 3 5 3 3 5 5 5 3 5 5 5 5 5 5 5 5 3 3 3 5 5 5 5 3 3 5 5 5 3 5 3 5 5 3 5 5 5 3 5 5 5 5 3 5 5 5 5 5 5 5 5 5 5 3 5 5 5 3 3 5 5 5 5 5 3 5 5 3 5 3 5 3 3 5 5 5 5 5 5 3 5 5 5 5 5 5 5 5 5 5 3 5 5 5 5 5 5 5 5 5 5 5 5 5 5 5 5 5 5 5 5 5 5 5 5 5 5 5 5 5 3 5 5 5 5 3 5 5 5 5 3 5 5 5 5 5 5 5 3 5 3 5 3 5 5 3 5 5 3 5 5 5 5 5 5 3 5 5 5 3 5 5 5 5 3 5 5 3 5 5 5 5 3 5 5 3 5 5 3 5 5 5 5 5 3 5 5 5 5 5 5 5 5 5 3 5 5 5 5 5 5 5 5 5 5 5 5 5 5 5 5 3 5 3 5 5 3 5 5 5 5 3 5 3 5 5 5 5 3 5 5 5 3 5 3 3 5 5 5 5 5 5 3 5 5 3 3 5 5 5 5 5 5 5 5 5 3 5 5 5 5 5 3 5 5 3 5 5 5 3 5 5 5 5 5 5 3 5 5 5 5 3 5 5 5 5 5 3 5 5 5 5 5 5 5 3 5 5 5 5 5 5 5 5 5 5 5 5 5 5 5 5 5 5 5 5 5 5 5 5 3 5 5 5 5 5 5 5 5 5 5 5 5 3 5 5 5 3 5 5 5 5 5 5 5 5 3 5 3 5 5 5 5 3 5 5 5 5 3 5 5 5 5 5 5 5 5 5 3 5 3 3 5 5 3 5 5 5 5 5 5 5 5 5 5 5 5 5 5 5 3 5 5 5 5 5 5 5 5 5 5 3 5 5 5 5 3 5 5 5 5 5 5 5 5 5 5 5 5 5 5 5 5 5 5 5 5 5 5 5 5 5 5 3 5 5 5 5 5 5 5 5 5 5 5 5 5 5 5 5 5 3 5 5 5 5 3 5 5 5 5 5 5 5 5 5 5 3 3 5 5 5 5 5 5 5 5 5 5 5 5 5 3 5 5 5 5 5 5 5 3 5 5 5 5 5 5 5 3 5 5 5 5 3 3 5 3 5 5 5 3 5 5 5 5 5 5 5 5 5 5 5 5 5 5 5 5 5 3 5 5 5 5 3 5 5 5 5 5 5 5 3 5 5 5 5 5 5 3 5 5 5 5 5 5 5 5 5 5 5 5 5 5 5 5 5 3 5 5 5 5 5 5 3 5 5 5 5 5 5 5 5 5 3 5 5 5 5 3 5 5 5 5 5 5 5 5 5 5 3 5 5 5 3 5 5 5 5 5 5 3 5 5 3 5 3 5 5 5 5 5 5 3 5 5 5 3 5 3 5 5 5 5 3 5 5 5 5 5 5 3 5 5 3 5 5 5 5 3 5 5 5 5 3 3 5 5 3 5 5 3 3 5 5 5 5 5 5 5 5 5 5 5 5 3 5 5 5 5 5 5 5 3 5 3 5 5 3 5 3 3 5 5 5 5 3 5 5 5 5 3 5 5 5 5 5 5 5 5 5 5 5 5 5 5 5 5 5 5 5 5 3 5 5 5 5 5 3 5 5 5 5 5 5 5 5 5 5 5 5 5 5 5 5 5 5 3 5 5 3 5 3 5 5 3 5 5 5 5 5 5 5 5 5 5 5 5 5 5 5 5 5 5 5 5 5 5 3 5 5 5 5 5 3 5 5 5 5 3 5 5 5 5 3 5 5 5 5 5 5 5 5 5 5 5 5 5 5 5 3 5 5 5 5 3 5 5 5 3 5 5 5 5 5 5 5 3 5 5 5 5 5 5 5 5 5 5 5 5 5 5 5 5 5 5 5 5 5 5 5 5 5 5 3 5 5 5 5 5 5 3 5 5 5 5 3 5 5 3 5 5 3 5 5 5 5 5 5 5 5 3 5 5 5 5 5 5 3 5 5 5 5 5 5 5 3 5 5 5 5 5 5 5 5 5 5 5 5 5 5 5 5 5 3 5 5 5 3 5 5 5 5 3 5 5 5 5 5 5 5 5 5 5 3 5 5 5 3 5 5 3 5 5 5 5 5 5 5 5 3 5 5 5 3 5 5 3 5 5 5 5 5 5 5 5 5 5 5 5 5 5 5 3 5 5 5 5 3 5 3 5 5 5 5 3 3 5 5 5 5 5 5 3 5 5 5 5 5 5 3 5 3 5 5 3 5 5 5 3 5 5 3 5 5 5 3 5 5 3 5 5 5 5 3 5 5 5 5 5 5 5 5 5 5 5 5 5 5 5 5 5 5 5 5 5 5 5 5 3 5 5 5 5 5 5 5 5 5 5 5 5 5 5 5 5 5 5 5 5 3 5 5 3 5 5 5 5 5 5 5 3 5 5 5 5 5 5 5 3 5 5 5 5 5 5 5 5 5 5 5 5 5 3 5 5 3 5 5 5 5 5 5 5 5 5 5 5 3 5 5 5 5 5 5 5 3 5 5 5 5 5 5 5 3 5 5 5 5 5 5 5 5 5 5 5 3 5 5 5 3 5 5 5 5 5 5 3 5 5 3 5 3 3 5 5 3 5 5 5 3 5 5 5 5 3 5 5 5 5 5 5 5 5 5 3 5 5 5 5 5 5 5 3 5 5 5 3 5 3 5 5 5 5 5 3 5 5 3 5 5 5 5 5 5 5 5 5 5 5 5 3 3 5 5 5 3 5 5 3 3 5 5 5 3 5 5 3 3 5 5 5 5 5 5 5 5 3 3 5 5 3 5 5 5 5 5 5 5 5 5 5 5 3 5 5 3 3 5 5 3 5 5 5 5 5 5 5 5 5 5 5 5 3 5 5 5 5 5 5 5 3 5 5 5 5 3 3 5 5 5 5 3 5 5 5 5 5 5 5 3 3 5 5 5 5 5 3 5 5 5 3 5 5 5 5 5 5 5 5 3 5 5 3 5 5 5 5 5 5 5 5 5 5 5 5 5 5 3 5 5 5 3 5 5 5 5 5 5 5 5 5 5 5 5 5 3 5 5 5 5 5 5 5 5 5 5 5 5 5 3 5 3 3 3 5 5 3 5 5 5 3 5 5 5 5 5 5 5 5 3 5 5 5 5 5 5 5 5 5 5 3 3 5 3 3 5 5 5 5 3 5 3 5 5 5 5 5 5 5 5 5 5 5 5 5 5 5 5 5 5 5 5 5 5 5 5 5 5 5 5 5 5 5 5 3 5 3 5 5 5 5 5 3 5 5 5 5 3 5 5 5 5 5 5 5 3 3 5 5 5 5 5 5 5 3 5 3 3 5 5 5 5 5 5 5 5 5 5 5 5 5 5 5 5 5 5 5 5 5 5 3 5 5 5 3 5 5 5 3 5 5 5 3 5 5 5 5 3 5 5 5 5 3 5 5 5 5 5 3 5 5 5 5 5 3 5 5 5 5 3 3 5 5 5 3 5 5 5 3 5 5 3 5 5 5 5 5 5 3 5 5 5 3 3 5 5 5 5 5 5 5 5 5 5 3 5 5 5 3 5 5 3 5 5 5 5 5 3 5 5 5 5 3 5 5 5 5 5 5 5 5 5 5 5 5 5 5 5 3 5 5 5 3 5 5 5 5 5 5 3 5 5 3 5 3 5 5 5 5 3 5 3 5 5 5 3 3 5 5 3 5 5 5 5 5 3 5 5 3 5 5 5 5 5 5 5 5 5 5 3 5 3 3 5 5 5 5 5 5 5 5 5 5 5 5 5 5 5 5 5 5 5 5 5 5 5 5 3 5 5 5 5 5 5 3 5 5 5 5 5 5 3 3 5 3 5 5 3 5 3 5 3 5 3 5 5 5 3 5 3 5 5 5 5 3 5 5 3 5 3 5 5 5 3 5 5 5 5 5 5 5 5 3 5 5 3 5 5 3 5 5 5 5 5 5 5 5 5 5 5 5 5 5 5 5 3 5 5 5 5 5 5 5 5 5 3 5 5 5 5 5 5 5 5 5 5 5 5 5 5 3 5 5 5 5 5 5 5 5 5 5 5 5 5 5 5 5 5 5 5 5 5 5 5 5 3 5 3 5 5 5 5 5 5 5 3 5 5 5 5 3 5 5 5 5 5 5 3 5 5 3 3 5 5 3 5 5 5 5 5 5 5 5 5 5 5 5 5 5 5 5 5 3 5 5 5 5 5 5 5 3 5 5 3 5 3 3 5 5 5 5 5 5 5 5 5 3 5 5 5 5 5 3 5 5 5 5 5 5 5 5 5 5 5 5 5 3 5 5 5 5 5 5 3 5 5 3 5 5 5 5 5 3 5 5 5 5 5 5 5 5 5 5 3 5 5 5 3 5 5 5 3 5 5 5 5 5 5 5 5 5 5 5 5 5 5 5 5 3 5 3 5 5 5 3 5 5 5 5 5 5 5 5 5 5 5 5 3 5 5 3 5 5 5 3 5 5 5 5 5 5 5 5 5 5 3 5 5 5 3 3 5 5 5 5 3 3 5 5 5 5 5 5 5 5 3 5 5 5 5 5 5 5 5 5 5 5 5 5 5 5 5 5 3 5 5 5 5 5 5 5 5 5 5 5 3 5 5 5 3 3 5 5 5 5 5 5 5 3 5 5 5 5 5 3 5 5 5 5 5 5 5 5 5 5 5 5 5 5 5 5 5 5 5 5 5 5 5 5 5 5 5 5 5 5 5 5 5 5 5 5 3 5 5 5 5 5 3 5 5 5 3 5 5 5 5 5 5 5 3 3 3 5 5 3 3 5 5 3 3 3 5 5 5 5 5 5 5 5 5 5 5 5 5 5 5 5 5 3 5 5 5 5 5 5 5 3 5 5 5 5 5 5 5 5 5 5 3 3 3 3 3 5 3 5 5 5 5 5 3 5 5 5 5 5 5 5 5 5 5 5 5 5 5 5 5 5 5 3 5 5 3 5 5 5 5 5 5 5 3 5 5 5 5 5 5 5 5 5 3 5 5 3 5 5 5 5 5 5 5 5 5 5 5 5 5 5 5 5 5 3 5 5 5 5 3 5 5 5 5 5 5 5 5 5 5 5 3 5 5 5 5 5 5 5 3 5 5 3 3 5 5 3 5 5 5 5 3 3 5 5 5 5 5 5 5 3 3 5 3 5 5 5 5 3 5 5 3 5 5 3 3 5 3 3 5 5 5 3 5 3 5 5 5 5 5 5 5 5 5 5 5 5 5 3 5 3 5 5 5 3 5 3 5 5 5 3 5 5 5 3 5 5 5 5 5 5 5 5 5 5 5 5 5 5 5 5 3 5 5 5 5 3 5 5 5 3 5 5 5 3 5 3 5 5 5 5 3 5 5 5 5 5 5 5 5 5 5 3 5 3 3 5 5 5 5 3 5 3 3 5 5 5 5 5 5 3 5 5 3 3 3 5 5 5 3 5 3 5 5 5 5 5 5 5 3 5 5 5 3 5 5 5 5 5 5 3 5 5 3 5 5 5 5 5 5 5 5 5 3 5 3 5 3 3 3 5 5 5 3 5 5 5 5 5 5 5 5 5 5 3 5 5 5 5 5 5 5 5 5 3 5 5 5 5 5 5 5 5 5 5 5 3 5 5 5 5 5 5 5 3 5 5 3 5 5 3 5 3 5 5 5 3 5 5 5 5 5 5 5 5 5 5 5 5 5 5 5 5 5 5 5 5 5 5 5 5 5 3 5 5 5 5 5 3 5 5 3 5 5 5 5 5 5 5 5 5 5 5 5 3 5 3 5 3 5 5 5 5 5 5 5 5 5 5 5 5 5 5 5 5 5 5 5 5 5 5 5 5 3 5 5 5 5 5 5 5 5 5 5 5 5 5 5 5 5 3 5 5 3 3 5 5 5 5 5 5 5 5 3 5 3 5 5 5 3 5 5 5 5 5 3 5 5 5 3 3 5 5 3 5 5 5 5 5 5 5 5 5 5 5 5 5 5 5 5 5 5 5 5 5 5 5 5 5 5 5 5 5 5 5 5 5 5 3 5 5 5 5 3 3 5 5 5 5 5 5 5 5 5 3 5 5 5 5 5 5 5 5 5 5 5 5 3 5 5 5 3 3 5 5 5 5 3 5 5 5 5 5 5 5 3 5 5 3 5 5 5 3 3 5 5 5 5 3 3 5 5 5 5 3 5 3 5 5 5 3 5 3 5 5 3 3 5 5 5 5 5 5 5 5 5 5 5 5 5 5 5 5 5 5 5 5 5 5 5 5 5 5 5 5 5 3 5 5 5 5 5 5 5 5 5 3 5 5 5 5 5 5 5 5 5 3 5 5 5 5 5 5 5 5 3 5 5 5 5 3 5 5 5 5 5 5 3 3 3 5 5 5 3 5 5 5 3 5 5 5 5 3 5 5 5 3 5 5 3 5 5 5 5 5 5 5 5 5 5 3 5 5 5 5 5 5 3 5 3 5 5 5 5 3 5 5 5 5 5 3 5 5 5 5 5 3 5 5 5 5 3 5 5 5 5 5 5 5 3 5 5 5 5 5 5 5 5 5 5 5 5 5 5 5 5 5 5 5 5 5 5 3 5 5 5 3 5 5 5 5 5 5 3 5 5 5 5 3 5 5 5 5 3 5 5 3 5 5 5 5 5 5 5 5 5 5 5 5 5 5 5 5 5 5 5 5 5 5 3 5 5 5 3 5 5 3 5 3 5 5 5 5 5 5 5 3 5 5 3 5 5 5 5 5 5 5 5 5 5 5 5 5 5 3 5 5 5 5 5 5 5 3 5 3 5 5 5 5 5 5 5 5 5 3 5 5 5 3 5 3 3 5 5 3 5 5 5 5 5 5 5 3 5 5 5 5 5 5 5 5 5 5 5 5 5 5 5 5 5 3 5 5 5 5 5 3 3 5 3 5 5 5 5 5 5 5 5 5 3 5 5 3 5 5 5 5 5 3 5 3 5 5 3 5 3 5 5 5 3 5 5 3 5 5 5 3 5 5 5 5 3 3 5 5 5 5 3 5 3 3 5 5 5 5 5 5 3 5 5 5 5 5 3 3 5 5 5 5 3 5 5 5 5 3 5 5 5 5 5 5 5 5 5 5 5 5 5 5 5 3 5 5 5 5 5 5 3 5 3 5 5 5 5 5 5 3 5 5 5 5 5 3 5 5 5 5 5 5 5 5 5 5 5 3 5 5 5 5 5 5 5 3 5 3 5 5 5 5 5 5 5 5 3 5 5 5 5 5 5 5 5 5 5 5 3 5 5 5 3 5 5 3 5 5 5 5 5 5 5 5 5 5 5 3 5 5 5 5 3 5 5 5 5 5 5 3 5 5 5 5 5 5 5 5 5 5 5 5 5 5 5 5 5 3 5 5 5 5 5 5 5 5 5 5 5 5 5 5 5 5 5 5 5 5 3 5 5 3 5 5 5 3 5 5 5 5 5 5 5 5 5 5 5 5 5 5 5 5 5 5 3 5 5 5 5 5 5 5 3 5 5 5 5 5 5 5 5 5 5 5 5 5 5 5 5 5 5 5 5 5 5 5 5 5 5 5 5 5 5 5 5 5 5 5 5 5 5 5 5 5 5 5 5 5 5 5 5 5 5 5 5 5 5 5 5 5 5 5 5 5 5 5 5 5 5 5 5 3 5 5 5 5 5 5 5 3 5 5 5 5 5 3 5 5 5 5 5 5 5 5 5 5 5 5 5 3 5 3 5 3 5 5 5 5 5 5 5 3 5 5 3 5 5 5 5 3 5 5 5 5 3 5 5 5 5 5 5 3 5 5 5 5 3 5 5 5 5 5 5 5 3 5 5 3 5 5 5 5 5 5 5 5 5 5 5 5 5 3 5 5 5 5 5 3 5 5 5 5 5 5 5 5 5 5 3 5 5 3 5 5 5 5 5 3 5 3 5 5 5 5 3 5 5 3 5 5 5 5 5 5 5 5 5 5 5 5 5 5 5 5 5 5 5 5 3 5 5 5 5 3 3 5 5 5 3 5 5 5 5 5 5 5 5 5 5 5 5 5 5 5 5 3 5 5 5 5 5 5 3 5 5 5 5 5 5 3 5 5 5 5 5 3 5 5 5 5 5 5 5 5 5 5 5 5 5 5 3 5 5 5 5 5 5 5 5 5 5 5 5 5 5 5 5 5 5 3 5 3 5 5 5 5 5 3 5 5 3 5 3 5 5 5 5 3 3 5 5 5 3 5 5 5 3 3 3 5 5 3 5 5 5 5 3 5 5 3 5 5 3 5 3 3 5 5 5 5 3 5 5 5 5 5 5 5 5 5 5 5 5 5 5 5 5 5 5 5 5 5 5 5 5 5 5 5 5 5 5 3 5 3 5 5 5 5 5 5 5 5 5 5 5 5 5 5 5 5 5 5 5 5 3 5 5 5 5 5 5 5 5 5 5 5 5 5 5 5 5 5 5 5 5 5 5 3 3 5 5 3 5 5 5 5 5 5 5 5 5 5 5 5 5 5 5 5 5 5 5 3 5 3 5 5 5 3 5 5 3 5 5 3 3 3 5 5 5 5 5 5 5 5 5 5 5 5 5 5 5 5 5 3 5 5 5 5 5 5 5 5 5 5 5 5 5 5 5 3 3 5 5 5 5 5 5 5 5 5 5 5 5 5 5 5 5 5 5 5 5 5 5 5 5 5 5 5 5 5 5 5 3 5 5 5 5 5 5 5 5 5 5 5 5 5 5 5 5 5 5 5 5 5 5 5 5 5 5 5 5 5 5 5 5 5 5 3 5 3 5 5 3 5 5 5 3 3 5 3 3 5 5 5 3 5 5 5 5 5 5 5 5 5 5 5 5 5 5 5 5 5 5 5 5 5 5 5 5 5 5 5 5 5 5 5 5 5 5 5 5 5 5 5 5 5 5 5 5 5 5 5 5 5 5 5 5 5 5 5 5 5 5 5 5 5 5 5 5 5 5 5 5 5 5 5 5 5 5 5 5 5 5 5 5 5 5 5 5 5 5 3 3 5 5 5 5 5 5 5 5 5 5 5 3 5 5 5 5 5 3 5 3 5 5 5 5 5 5 5 3 5 5 5 5 5 5 3 5 5 5 5 5 5 5 5 5 5 5 5 5 5 5 5 3 5 5 5 3 5 5 5 5 5 5 5 5 5 5 3 5 5 5 5 5 5 3 5 5 5 5 5 5 5 5 5 5 5 5 3 5 5 5 3 5 5 5 5 5 5 5 5 5 5 3 5 5 5 5 5 5 5 5 5 5 5 3 5 5 5 3 5 3 5 5 3 3 5 3 3 5 5 5 5 5 3 5 5 5 5 5 5 5 5 5 5 5 5 5 5 5 5 5 5 5 5 5 5 5 5 5 5 5 5 5 5 5 5 5 5 5 5 5 5 5 5 5 5 5 5 5 5 5 5 3 5 5 3 5 3 5 5 5 5 5 3 5 5 5 5 5 5 3 5 5 5 5 5 3 5 5 5 5 5 5 3 5 5 5 5 5 5 5 5 3 5 5 5 5 5 5 3 5 5 5 5 5 5 5 5 3 5 5 5 5 3 5 3 5 5 3 5 5 5 5 5 5 5 5 5 3 5 3 5 5 5 5 3 5 5 5 5 5 5 5 5 5 5 5 5 5 5 5 5 5 5 5 3 5 5 5 3 5 5 3 5 3 5 5 5 5 3 5 5 5 5 5 5 3 5 3 5 5 3 5 3 5 5 5 5 5 5 5 5 5 5 5 5 3 5 3 5 5 3 5 3 5 5 5 3 5 5 3 5 5 3 5 5 5 3 5 5 5 3 5 5 3 3 5 3 5 3 5 5 3 5 5 5 5 3 5 3 3 5 5 5 5 5 5 5 5 5 5 5 5 5 3 5 5 5 5 5 5 5 3 5 5 5 3 5 5 5 5 5 5 5 5 5 5 3 3 5 5 3 5 3 5 5 5 5 5 3 5 3 5 5 5 5 5 5 3 3 5 5 5 5 5 5 3 5 5 5 5 5 5 5 5 5 5 5 5 5 5 5 5 3 5 3 5 5 5 5 3 5 5 3 5 3 3 5 5 3 5 5 5 5 5 3 3 5 5 5 5 3 5 5 5 5 3 5 5 5 5 3 3 5 5 5 3 5 5 3 5 5 5 5 5 5 5 3 5 5 5 3 3 5 5 5 5 5 5 5 5 5 5 5 5 5 5 5 5 3 5 5 5 5 5 5 5 5 3 5 5 3 5 5 5 3 5 5 5 3 5 5 5 5 5 3 5 5 3 5 3 5 5 5 5 5 3 5 5 5 5 5 5 5 5 5 5 5 5 5 5 5 5 5 5 5 5 5 5 5 5 5 5 5 5 5 5 5 5 5 5 5 5 5 5 5 5 5 5 3 5 5 5 5 5 5 5 5 5 5 5 5 5 5 5 5 5 5 5 3 3 5 5 5 5 3 5 3 3 5 5 5 5 5 5 5 5 5 5 5 5 3 5 5 3 5 5 3 5 5 5 5 3 5 5 5 5 3 3 5 5 5 5 5 5 5 5 5 5 5 5 5 5 5 5 5 5 5 5 5 5 3 3 5 3 5 5 5 5 5 5 3 5 5 5 3 5 5 3 5 3 3 5 5 3 5 5 3 3 5 5 5 5 5 5 5 5 5 5 3 5 5 5 5 5 5 5 5 3 5 5 5 5 5 5 5 5 3 5 5 5 5 5 5 5 5 5 3 5 5 5 5 5 5 3 5 3 5 5 5 5 3 5 5 5 5 5 5 5 3 3 5 5 5 3 5 3 3 5 5 5 5 5 3 3 5 5 5 5 5 5 5 3 3 5 5 5 5 5 5 5 5 5 5 5 5 5 5 5 5 5 5 5 5 5 5 5 5 5 5 3 5 5 5 5 5 5 5 5 5 5 5 5 5 5 3 5 5 5 5 5 5 5 5 5 5 5 5 5 5 5 5 5 5 5 5 5 5 5 5 3 5 3 5 3 5 5 5 5 5 5 5 5 5 3 3 5 5 5 5 5 3 5 5 5 5 5 5 5 3 5 5 3 5 5 3 5 5 3 3 5 3 5 3 5 5 5 5 5 5 5 5 5 5 5 5 5 5 5 5 3 5 3 5 5 5 3 5 5 5 5 5 5 5 5 5 5 5 5 5 5 5 5 5 5 5 5 5 5 5 5 5 5 3 5 5 5 5 5 3 5 5 5 5 5 3 5 5 3 5 5 5 5 5 5 5 5 3 3 3 5 3 5 5 5 3 5 3 5 5 5 5 5 5 5 5 5 3 5 
</DataArray>
</Cells>
<PointData Scalars="" Vectors="displacement," Tensors="">
<DataArray type="Float64" Name="displacement" NumberOfComponents="3" format="ascii">
-0.024997645730891083 -0.024999709899400101 0 -0.024849352799344211 -0.024125030509920105 0 -0.024998796555539375 -0.022050123408967517 0 -0.023719356940546114 -0.024999566179418665 0 -0.02417277834450644 -0.024233447529984124 0 -0.024997645730891083 -0.024999709899400101 0 -0.023723742703540773 -0.024998481679790005 0 -0.024849352799344211 -0.024125030509920105 0 -0.024849352799344211 -0.024125030509920105 0 -0.024694662960408776 -0.023244994671621701 0 -0.024998796555539375 -0.022050123408967517 0 -0.02417277834450644 -0.024233447529984124 0 -0.024579499009018482 -0.023427285794460174 0 -0.024694662960408776 -0.023244994671621701 0 -0.024998796555539375 -0.022050123408967517 0 -0.024978063430872725 -0.022292419966723917 0 -0.023616200231285297 -0.024017272884413927 0 -0.024860571975011982 -0.02349043168253806 0 -0.023155962991713699 -0.025089611688158008 0 -0.023616200231285297 -0.024017272884413927 0 -0.024860571975011982 -0.02349043168253806 0 -0.023830870701614354 -0.023957052885249408 0 -0.024694662960408776 -0.023244994671621701 0 -0.024860571975011982 -0.02349043168253806 0 -0.023830870701614354 -0.023957052885249408 0 -0.024694662960408776 -0.023244994671621701 0 -0.024860571975011982 -0.02349043168253806 0 -0.024978063430872725 -0.022292419966723917 0 -0.02344993706200359 -0.024435509574180773 0 -0.024694662960408776 -0.023244994671621701 0 -0.023830870701614354 -0.023957052885249408 0 -0.023616200231285297 -0.024017272884413927 0 -0.023830870701614354 -0.023957052885249408 0 -0.023052589081445553 -0.024143755411428731 0 -0.023830870701614354 -0.023957052885249408 0 -0.022572582860548137 -0.024608653004770328 0 -0.023052589081445553 -0.024143755411428731 0 -0.023830870701614354 -0.023957052885249408 0 -0.023190741471503563 -0.024719237001979484 0 -0.022572582860548137 -0.024608653004770328 0 -0.02344993706200359 -0.024435509574180773 0 -0.023830870701614354 -0.023957052885249408 0 -0.023190741471503563 -0.024719237001979484 0 -0.023717879574189766 -0.024999484376633945 0 -0.02344993706200359 -0.024435509574180773 0 -0.023190741471503563 -0.024719237001979484 0 -0.023717879574189766 -0.024999484376633945 0 -0.023190741471503563 -0.024719237001979484 0 -0.022396954518301967 -0.024999108115333943 0 -0.023190741471503563 -0.024719237001979484 0 -0.022396954518301967 -0.024999108115333943 0 -0.022572582860548137 -0.024608653004770328 0 -0.022396954518301967 -0.024999108115333943 0 -0.021077418491664363 -0.024999132824526021 0 -0.022572582860548137 -0.024608653004770328 0 -0.021074130402779192 -0.024999678747613108 0 -0.021830118402237388 -0.024533037162937522 0 -0.021070801606787554 -0.024999938132903386 0 -0.020614723467002549 -0.024999950694472063 0 -0.021211620235855912 -0.024808413890660304 0 -0.020614723467002549 -0.024999950694472063 0 -0.021211620235855912 -0.024808413890660304 0 -0.021466881759901978 -0.024849659223307393 0 -0.021077418491664363 -0.024999132824526021 0 -0.022515370699956953 -0.024275470763438705 0 -0.022572582860548137 -0.024608653004770328 0 -0.022515370699956953 -0.024275470763438705 0 -0.022572582860548137 -0.024608653004770328 0 -0.023052589081445553 -0.024143755411428731 0 -0.019253868921593097 -0.024999943330078534 0 -0.019625152405440705 -0.025948313397048794 0 -0.018772708094671648 -0.025859977427608968 0 -0.019253868921593097 -0.024999943330078534 0 -0.018772708094671648 -0.025859977427608968 0 -0.018371050202545945 -0.025435300292134519 0 -0.020610992393491293 -0.024999994332378917 0 -0.019253868921593097 -0.024999943330078534 0 -0.019625152405440705 -0.025948313397048794 0 -0.020611166405240862 -0.025000015841830425 0 -0.020546700604898865 -0.025362439828566175 0 -0.021211620235855912 -0.024808413890660304 0 -0.021466881759901978 -0.024849659223307393 0 -0.021646541518431803 -0.02465697597966587 0 -0.019625152405440705 -0.025948313397048794 0 -0.018772708094671648 -0.025859977427608968 0 -0.018717782997505119 -0.026709210805564786 0 -0.021466881759901978 -0.024849659223307393 0 -0.021588370894035255 -0.024657565196083378 0 -0.021646541518431803 -0.02465697597966587 0 -0.020546700604898865 -0.025362439828566175 0 -0.020124355321878666 -0.025689196725908525 0 -0.021211620235855912 -0.024808413890660304 0 -0.021646541518431803 -0.02465697597966587 0 -0.021993792905375856 -0.024633350607053715 0 -0.021646541518431803 -0.02465697597966587 0 -0.021993792905375856 -0.024633350607053715 0 -0.021621679078432474 -0.024817013963640069 0 -0.021588370894035255 -0.024657565196083378 0 -0.021621679078432474 -0.024817013963640069 0 -0.021462704355868053 -0.024865798608255947 0 -0.021588370894035255 -0.024657565196083378 0 -0.021646541518431803 -0.02465697597966587 0 -0.021621679078432474 -0.024817013963640069 0 -0.022515370699956953 -0.024275470763438705 0 -0.023052589081445553 -0.024143755411428731 0 -0.022742923174259209 -0.024387069805891108 0 -0.021830118402237388 -0.024533037162937522 0 -0.021966974603098741 -0.024694801592474298 0 -0.022515370699956953 -0.024275470763438705 0 -0.021993792905375856 -0.024633350607053715 0 -0.022742923174259209 -0.024387069805891108 0 -0.021993792905375856 -0.024633350607053715 0 -0.022742923174259209 -0.024387069805891108 0 -0.022355397397868116 -0.024908132534800714 0 -0.023616200231285297 -0.024017272884413927 0 -0.023052589081445553 -0.024143755411428731 0 -0.022742923174259209 -0.024387069805891108 0 -0.023616200231285297 -0.024017272884413927 0 -0.022742923174259209 -0.024387069805891108 0 -0.023155962991713699 -0.025089611688158008 0 -0.022742923174259209 -0.024387069805891108 0 -0.023155962991713699 -0.025089611688158008 0 -0.022355397397868116 -0.024908132534800714 0 -0.021993792905375856 -0.024633350607053715 0 -0.022355397397868116 -0.024908132534800714 0 -0.021895573897501533 -0.024989980005041781 0 -0.023155962991713699 -0.025089611688158008 0 -0.022355397397868116 -0.024908132534800714 0 -0.022239305621646496 -0.02537315489964696 0 -0.022355397397868116 -0.024908132534800714 0 -0.022239305621646496 -0.02537315489964696 0 -0.021895573897501533 -0.024989980005041781 0 -0.026922245035490528 -0.022231661281622701 0 -0.028001800672322961 -0.021531547747467999 0 -0.02668442037821888 -0.021507294442540285 0 -0.027641761517733322 -0.020910348322428229 0 -0.027181187966213136 -0.02062771689276556 0 -0.026854736592358586 -0.021040006838174665 0 -0.025445842972526046 -0.023288169440506459 0 -0.027287100745465694 -0.021020968531243918 0 -0.027181187966213136 -0.02062771689276556 0 -0.026588062284357818 -0.020510780626169844 0 -0.026854736592358586 -0.021040006838174665 0 -0.024941827431825912 -0.023670257310773626 0 -0.025445842972526046 -0.023288169440506459 0 -0.021621679078432474 -0.024817013963640069 0 -0.021679485932119085 -0.025038265781216994 0 -0.021895573897501533 -0.024989980005041781 0 -0.021621679078432474 -0.024817013963640069 0 -0.021679485932119085 -0.025038265781216994 0 -0.02153480736483979 -0.025010621937550569 0 -0.021621679078432474 -0.024817013963640069 0 -0.02153480736483979 -0.025010621937550569 0 -0.021462704355868053 -0.024865798608255947 0 -0.021993792905375856 -0.024633350607053715 0 -0.021621679078432474 -0.024817013963640069 0 -0.021895573897501533 -0.024989980005041781 0 -0.025445842972526046 -0.023288169440506459 0 -0.021764506345107043 -0.025134761903746944 0 -0.025445842972526046 -0.023288169440506459 0 -0.025124382498596508 -0.021030363449473833 0 -0.022239305621646496 -0.02537315489964696 0 -0.021895573897501533 -0.024989980005041781 0 -0.021801404118538099 -0.025228066418376726 0 -0.023729158149619428 -0.024926142657936908 0 -0.022596895027947626 -0.024966615401505639 0 -0.022507336384021151 -0.02560613791052779 0 -0.021679485932119085 -0.025038265781216994 0 -0.021895573897501533 -0.024989980005041781 0 -0.021801404118538099 -0.025228066418376726 0 -0.022027569979367469 -0.025259015543025429 0 -0.022507336384021151 -0.02560613791052779 0 -0.021461232479047649 -0.025279721192487524 0 -0.022596895027947626 -0.024966615401505639 0 -0.022027569979367469 -0.025259015543025429 0 -0.021620743880348677 -0.02511895492307354 0 -0.021764506345107043 -0.025134761903746944 0 -0.021853790750425095 -0.025110660043650566 0 -0.021679485932119085 -0.025038265781216994 0 -0.021801404118538099 -0.025228066418376726 0 -0.021620743880348677 -0.02511895492307354 0 -0.022596895027947626 -0.024966615401505639 0 -0.022027569979367469 -0.025259015543025429 0 -0.022507336384021151 -0.02560613791052779 0 -0.022027569979367469 -0.025259015543025429 0 -0.021620743880348677 -0.02511895492307354 0 -0.021461232479047649 -0.025279721192487524 0 -0.021679485932119085 -0.025038265781216994 0 -0.021620743880348677 -0.02511895492307354 0 -0.02153480736483979 -0.025010621937550569 0 -0.025124382498596508 -0.021030363449473833 0 -0.025386566239062425 -0.019062486932046506 0 -0.025124382498596508 -0.021030363449473833 0 -0.023230988845271024 -0.022260951450958064 0 -0.025600436076356738 -0.019213304835198484 0 -0.025412860384464664 -0.019560575258489997 0 -0.025040274465030161 -0.019511440400096721 0 -0.025421597427513921 -0.019290975204165669 0 -0.024967313991832728 -0.019157637453324425 0 -0.025040274465030161 -0.019511440400096721 0 -0.027641761517733322 -0.020910348322428229 0 -0.028073249944575794 -0.020610343380241241 0 -0.027623096417171172 -0.020466260579647122 0 -0.025600436076356738 -0.019213304835198484 0 -0.025767922228943644 -0.019654680010936822 0 -0.026061035646614432 -0.019371121517275814 0 -0.025600436076356738 -0.019213304835198484 0 -0.025767922228943644 -0.019654680010936822 0 -0.025412860384464664 -0.019560575258489997 0 -0.025124382498596508 -0.021030363449473833 0 -0.027112374801968205 -0.019906234110532328 0 -0.025767922228943644 -0.019654680010936822 0 -0.025412860384464664 -0.019560575258489997 0 -0.0252200797407264 -0.019837874611636341 0 -0.025767922228943644 -0.019654680010936822 0 -0.0252200797407264 -0.019837874611636341 0 -0.025542532215882364 -0.020085831488789143 0 -0.025412860384464664 -0.019560575258489997 0 -0.0252200797407264 -0.019837874611636341 0 -0.025040274465030161 -0.019511440400096721 0 -0.027181187966213136 -0.02062771689276556 0 -0.027044124735106114 -0.020198964399699041 0 -0.027623096417171172 -0.020466260579647122 0 -0.027181187966213136 -0.02062771689276556 0 -0.027044124735106114 -0.020198964399699041 0 -0.026588062284357818 -0.020510780626169844 0 -0.026586143309791654 -0.019868492493023186 0 -0.027112374801968205 -0.019906234110532328 0 -0.026317373785370631 -0.019575957876029049 0 -0.026061035646614432 -0.019371121517275814 0 -0.026175512551874752 -0.019613320066109906 0 -0.027641761517733322 -0.020910348322428229 0 -0.027181187966213136 -0.02062771689276556 0 -0.027623096417171172 -0.020466260579647122 0 -0.025767922228943644 -0.019654680010936822 0 -0.026061035646614432 -0.019371121517275814 0 -0.026175512551874752 -0.019613320066109906 0 -0.025767922228943644 -0.019654680010936822 0 -0.026175512551874752 -0.019613320066109906 0 -0.026187888606950649 -0.019853674053467833 0 -0.026175512551874752 -0.019613320066109906 0 -0.026328482821377019 -0.019613973441371772 0 -0.026187888606950649 -0.019853674053467833 0 -0.026317373785370631 -0.019575957876029049 0 -0.026175512551874752 -0.019613320066109906 0 -0.026328482821377019 -0.019613973441371772 0 -0.026317373785370631 -0.019575957876029049 0 -0.026328482821377019 -0.019613973441371772 0 -0.026250169086388553 -0.019790179072266597 0 -0.026328482821377019 -0.019613973441371772 0 -0.026250169086388553 -0.019790179072266597 0 -0.026322447104750818 -0.019392768552985891 0 -0.027044124735106114 -0.020198964399699041 0 -0.026250169086388553 -0.019790179072266597 0 -0.026588062284357818 -0.020510780626169844 0 -0.026586143309791654 -0.019868492493023186 0 -0.026285868936242338 -0.019796488705834381 0 -0.026250169086388553 -0.019790179072266597 0 -0.026588062284357818 -0.020510780626169844 0 -0.02558163922115456 -0.021248244867905056 0 -0.026250169086388553 -0.019790179072266597 0 -0.025504176847159225 -0.020006621863403153 0 -0.02558163922115456 -0.021248244867905056 0 -0.026250169086388553 -0.019790179072266597 0 -0.025504176847159225 -0.020006621863403153 0 -0.02572118224224804 -0.018919546378635573 0 -0.024999235124816666 -0.019881501694751818 0 -0.025504176847159225 -0.020006621863403153 0 -0.024999982217108457 -0.018292348251586227 0 -0.025504176847159225 -0.020006621863403153 0 -0.024999982217108457 -0.018292348251586227 0 -0.02572118224224804 -0.018919546378635573 0 -0.024999235124816666 -0.019881501694751818 0 -0.025504176847159225 -0.020006621863403153 0 -0.025128061614451313 -0.021149261469031583 0 -0.024998796555539375 -0.022050123408967517 0 -0.024999235124816666 -0.019881501694751818 0 -0.025128061614451313 -0.021149261469031583 0 -0.025504176847159225 -0.020006621863403153 0 -0.025128061614451313 -0.021149261469031583 0 -0.02558163922115456 -0.021248244867905056 0 -0.025128061614451313 -0.021149261469031583 0 -0.024978063430872725 -0.022292419966723917 0 -0.02558163922115456 -0.021248244867905056 0 -0.024998796555539375 -0.022050123408967517 0 -0.025128061614451313 -0.021149261469031583 0 -0.024978063430872725 -0.022292419966723917 0 -0.024860571975011982 -0.02349043168253806 0 -0.024978063430872725 -0.022292419966723917 0 -0.025921717122385564 -0.021954172471211054 0 -0.024978063430872725 -0.022292419966723917 0 -0.025921717122385564 -0.021954172471211054 0 -0.02558163922115456 -0.021248244867905056 0 -0.024860571975011982 -0.02349043168253806 0 -0.026922245035490528 -0.022231661281622701 0 -0.025921717122385564 -0.021954172471211054 0 -0.024890207891207477 -0.023531575704194892 0 -0.024941827431825912 -0.023670257310773626 0 -0.026922245035490528 -0.022231661281622701 0 -0.025921717122385564 -0.021954172471211054 0 -0.02668442037821888 -0.021507294442540285 0 -0.025921717122385564 -0.021954172471211054 0 -0.02668442037821888 -0.021507294442540285 0 -0.02558163922115456 -0.021248244867905056 0 -0.026588062284357818 -0.020510780626169844 0 -0.026854736592358586 -0.021040006838174665 0 -0.02558163922115456 -0.021248244867905056 0 -0.027287100745465694 -0.021020968531243918 0 -0.025394109314332305 -0.021314764938501454 0 -0.013259112056327512 -0.026591934156066113 0 -0.012703985639509497 -0.026971677510309416 0 -0.012123047458002989 -0.026589595975962898 0 -0.013259112056327512 -0.026591934156066113 0 -0.013511561272582977 -0.026987969302330227 0 -0.012703985639509497 -0.026971677510309416 0 -0.013259112056327512 -0.026591934156066113 0 -0.014024593680347164 -0.02667381878667497 0 -0.013511561272582977 -0.026987969302330227 0 -0.013259112056327512 -0.026591934156066113 0 -0.01335633536449298 -0.025766794272802401 0 -0.013975052579999633 -0.026123192545467095 0 -0.013259112056327512 -0.026591934156066113 0 -0.012440004028581439 -0.02604991406424341 0 -0.012123047458002989 -0.026589595975962898 0 -0.013259112056327512 -0.026591934156066113 0 -0.01335633536449298 -0.025766794272802401 0 -0.012440004028581439 -0.02604991406424341 0 -0.01335633536449298 -0.025766794272802401 0 -0.012457588412585414 -0.024999898550212573 0 -0.012440004028581439 -0.02604991406424341 0 -0.013820060103601492 -0.024999842114687042 0 -0.01335633536449298 -0.025766794272802401 0 -0.012457588412585414 -0.024999898550212573 0 -0.013820060103601492 -0.024999842114687042 0 -0.01335633536449298 -0.025766794272802401 0 -0.014303097537471625 -0.025552610159651129 0 -0.014303097537471625 -0.025552610159651129 0 -0.014824717131626608 -0.025758597019470773 0 -0.013975052579999633 -0.026123192545467095 0 -0.01335633536449298 -0.025766794272802401 0 -0.014303097537471625 -0.025552610159651129 0 -0.013975052579999633 -0.026123192545467095 0 -0.013820060103601492 -0.024999842114687042 0 -0.014303097537471625 -0.025552610159651129 0 -0.015181591866594001 -0.024999995685915526 0 -0.014303097537471625 -0.025552610159651129 0 -0.015181591866594001 -0.024999995685915526 0 -0.014824717131626608 -0.025758597019470773 0 -0.015182572422941649 -0.025000141061138507 0 -0.015132120852466133 -0.025834886702817739 0 -0.014824717131626608 -0.025758597019470773 0 -0.013975052579999633 -0.026123192545467095 0 -0.014668653068791162 -0.026355311646238312 0 -0.015132120852466133 -0.025834886702817739 0 -0.015171102990185977 -0.026686463319250901 0 -0.013975052579999633 -0.026123192545467095 0 -0.014024593680347164 -0.02667381878667497 0 -0.014668653068791162 -0.026355311646238312 0 -0.013259112056327512 -0.026591934156066113 0 -0.013975052579999633 -0.026123192545467095 0 -0.014024593680347164 -0.02667381878667497 0 -0.014024593680347164 -0.02667381878667497 0 -0.014587920609535805 -0.026869915216361909 0 -0.014668653068791162 -0.026355311646238312 0 -0.014024593680347164 -0.02667381878667497 0 -0.014587920609535805 -0.026869915216361909 0 -0.013936131569466334 -0.027060328702026848 0 -0.015324682684312549 -0.027200299720473591 0 -0.015171102990185977 -0.026686463319250901 0 -0.015896033113219486 -0.027939733352046078 0 -0.016538267422866341 -0.027075016884001171 0 -0.015669888427465514 -0.026978020077102809 0 -0.015324682684312549 -0.027200299720473591 0 -0.016952641438507932 -0.0268769506161286 0 -0.017165092791395296 -0.026679484796263322 0 -0.017788092316523865 -0.026697846611231799 0 -0.017337165555352332 -0.027363684456167978 0 -0.016790369568556167 -0.027236311235466305 0 -0.017165092791395296 -0.026679484796263322 0 -0.017337165555352332 -0.027363684456167978 0 -0.017165092791395296 -0.026679484796263322 0 -0.017542478490742319 -0.026053945190536675 0 -0.017788092316523865 -0.026697846611231799 0 -0.016952641438507932 -0.0268769506161286 0 -0.017368155267121023 -0.026108371094473479 0 -0.016538267422866341 -0.027075016884001171 0 -0.015669888427465514 -0.026978020077102809 0 -0.016415553868160696 -0.026123106612839085 0 -0.01542874998307335 -0.025997899179433986 0 -0.015669888427465514 -0.026978020077102809 0 -0.016415553868160696 -0.026123106612839085 0 -0.015182721771122093 -0.024999991068975009 0 -0.01542874998307335 -0.025997899179433986 0 -0.016539714185201428 -0.024999995311165719 0 -0.01542874998307335 -0.025997899179433986 0 -0.016539714185201428 -0.024999995311165719 0 -0.016415553868160696 -0.026123106612839085 0 -0.016539714185201428 -0.024999995311165719 0 -0.017133073400297742 -0.025456418400536807 0 -0.016415553868160696 -0.026123106612839085 0 -0.016538267422866341 -0.027075016884001171 0 -0.016415553868160696 -0.026123106612839085 0 -0.017199567318860708 -0.026198114334999963 0 -0.017133073400297742 -0.025456418400536807 0 -0.016415553868160696 -0.026123106612839085 0 -0.017199567318860708 -0.026198114334999963 0 -0.017542478490742319 -0.026053945190536675 0 -0.018072807052710735 -0.025936258464713521 0 -0.017892995019191855 -0.025296597387249199 0 -0.017542478490742319 -0.026053945190536675 0 -0.018072807052710735 -0.025936258464713521 0 -0.017788092316523865 -0.026697846611231799 0 -0.016539714185201428 -0.024999995311165719 0 -0.017133073400297742 -0.025456418400536807 0 -0.017897037634238968 -0.024999989738837596 0 -0.017133073400297742 -0.025456418400536807 0 -0.017199567318860708 -0.026198114334999963 0 -0.017892995019191855 -0.025296597387249199 0 -0.017368155267121023 -0.026108371094473479 0 -0.017872465852388081 -0.025352773908895104 0 -0.017133073400297742 -0.025456418400536807 0 -0.017892995019191855 -0.025296597387249199 0 -0.017897037634238968 -0.024999989738837596 0 -0.019253868921593097 -0.024999943330078534 0 -0.017897037634238968 -0.024999989738837596 0 -0.018371050202545945 -0.025435300292134519 0 -0.017892995019191855 -0.025296597387249199 0 -0.017897037634238968 -0.024999989738837596 0 -0.018371050202545945 -0.025435300292134519 0 -0.018072807052710735 -0.025936258464713521 0 -0.017892995019191855 -0.025296597387249199 0 -0.018371050202545945 -0.025435300292134519 0 -0.018772708094671648 -0.025859977427608968 0 -0.018717782997505119 -0.026709210805564786 0 -0.018072807052710735 -0.025936258464713521 0 -0.018772708094671648 -0.025859977427608968 0 -0.018072807052710735 -0.025936258464713521 0 -0.018371050202545945 -0.025435300292134519 0 -0.018717782997505119 -0.026709210805564786 0 -0.018072807052710735 -0.025936258464713521 0 -0.017788092316523865 -0.026697846611231799 0 -0.017788092316523865 -0.026697846611231799 0 -0.018012876821587209 -0.027318257775123103 0 -0.017337165555352332 -0.027363684456167978 0 -0.018717782997505119 -0.026709210805564786 0 -0.017788092316523865 -0.026697846611231799 0 -0.018012876821587209 -0.027318257775123103 0 -0.020124355321878666 -0.025689196725908525 0 -0.019832184803445421 -0.026105692882626989 0 -0.021588370894035255 -0.024657565196083378 0 -0.021462704355868053 -0.024865798608255947 0 -0.021300410068071634 -0.024821223311939623 0 -0.021337188685291334 -0.024966218898775691 0 -0.021462704355868053 -0.024865798608255947 0 -0.021369815839450936 -0.025053022825386163 0 -0.02153480736483979 -0.025010621937550569 0 -0.021462704355868053 -0.024865798608255947 0 -0.021369815839450936 -0.025053022825386163 0 -0.021337188685291334 -0.024966218898775691 0 -0.021462704355868053 -0.024865798608255947 0 -0.021300410068071634 -0.024821223311939623 0 -0.021337188685291334 -0.024966218898775691 0 -0.021261595419164028 -0.024900055958941066 0 -0.021184592417002424 -0.025136332250956458 0 -0.021337188685291334 -0.024966218898775691 0 -0.021261595419164028 -0.024900055958941066 0 -0.021300410068071634 -0.024821223311939623 0 -0.021261595419164028 -0.024900055958941066 0 -0.021300410068071634 -0.024821223311939623 0 -0.020812405968754343 -0.025273920388546783 0 -0.018012876821587209 -0.027318257775123103 0 -0.017418314037051328 -0.027891435680505845 0 -0.017337165555352332 -0.027363684456167978 0 -0.019832184803445421 -0.026105692882626989 0 -0.017975864324754388 -0.026113352524415805 0 -0.021008925505338189 -0.025750748914622441 0 -0.021707606399936387 -0.023030626295052946 0 -0.021337188685291334 -0.024966218898775691 0 -0.021184592417002424 -0.025136332250956458 0 -0.021369815839450936 -0.025053022825386163 0 -0.021261595419164028 -0.024900055958941066 0 -0.021088694135342104 -0.025339496084127978 0 -0.020812405968754343 -0.025273920388546783 0 -0.021707606399936387 -0.023030626295052946 0 -0.017975864324754388 -0.026113352524415805 0 -0.021707606399936387 -0.023030626295052946 0 -0.023230988845271024 -0.022260951450958064 0 -0.021184592417002424 -0.025136332250956458 0 -0.021369815839450936 -0.025053022825386163 0 -0.021423365775667357 -0.025125081722246114 0 -0.021184592417002424 -0.025136332250956458 0 -0.021423365775667357 -0.025125081722246114 0 -0.021461232479047649 -0.025279721192487524 0 -0.024409114714801075 -0.019036690842038802 0 -0.024967313991832728 -0.019157637453324425 0 -0.024653710049209299 -0.019416568038154971 0 -0.021620743880348677 -0.02511895492307354 0 -0.02153480736483979 -0.025010621937550569 0 -0.021423365775667357 -0.025125081722246114 0 -0.02153480736483979 -0.025010621937550569 0 -0.021369815839450936 -0.025053022825386163 0 -0.021423365775667357 -0.025125081722246114 0 -0.021620743880348677 -0.02511895492307354 0 -0.021423365775667357 -0.025125081722246114 0 -0.021461232479047649 -0.025279721192487524 0 -0.024967313991832728 -0.019157637453324425 0 -0.025040274465030161 -0.019511440400096721 0 -0.024653710049209299 -0.019416568038154971 0 -0.0252200797407264 -0.019837874611636341 0 -0.024614339701619237 -0.019794441694190253 0 -0.024780594000537812 -0.020202727137361671 0 -0.025040274465030161 -0.019511440400096721 0 -0.024614339701619237 -0.019794441694190253 0 -0.024653710049209299 -0.019416568038154971 0 -0.0252200797407264 -0.019837874611636341 0 -0.025040274465030161 -0.019511440400096721 0 -0.024614339701619237 -0.019794441694190253 0 -0.024614339701619237 -0.019794441694190253 0 -0.024653710049209299 -0.019416568038154971 0 -0.024213162476893674 -0.019607083120817593 0 -0.024614339701619237 -0.019794441694190253 0 -0.024213162476893674 -0.019607083120817593 0 -0.023989163160384044 -0.020251334554506617 0 -0.017848972759761703 -0.023598477163261449 0 -0.016829530413439906 -0.024544553587583354 0 -0.017096780183636577 -0.025895509362755635 0 -0.024409114714801075 -0.019036690842038802 0 -0.024653710049209299 -0.019416568038154971 0 -0.024213162476893674 -0.019607083120817593 0 -0.021707606399936387 -0.023030626295052946 0 -0.020483467329182211 -0.022783215097449905 0 -0.016829530413439906 -0.024544553587583354 0 -0.017096780183636577 -0.025895509362755635 0 -0.015543145915090458 -0.024705655076517844 0 -0.016080871063651355 -0.027297172652746168 0 -0.017096780183636577 -0.025895509362755635 0 -0.016308000983261281 -0.028105244604469941 0 -0.020483467329182211 -0.022783215097449905 0 -0.021089638035879921 -0.022498779284560608 0 -0.016080871063651355 -0.027297172652746168 0 -0.017096780183636577 -0.025895509362755635 0 -0.015543145915090458 -0.024705655076517844 0 -0.015965279345488435 -0.026649994418964328 0 -0.015695771783863586 -0.026300683659996524 0 -0.016080871063651355 -0.027297172652746168 0 -0.014992673067136721 -0.027357943816799461 0 -0.014707863928613733 -0.026240564018171684 0 -0.016080871063651355 -0.027297172652746168 0 -0.014707863928613733 -0.026240564018171684 0 -0.015532576693241561 -0.025311628929691694 0 -0.014992673067136721 -0.027357943816799461 0 -0.014707863928613733 -0.026240564018171684 0 -0.013908888951475211 -0.027359806545041335 0 -0.013973868143264571 -0.027403090666539391 0 -0.014096507662720588 -0.027340510577086682 0 -0.01398088521591398 -0.027329499405447228 0 -0.014288440725848882 -0.026914737075728452 0 -0.015695771783863586 -0.026300683659996524 0 -0.014096507662720588 -0.027340510577086682 0 -0.014113429935038301 -0.027221775302918163 0 -0.01398088521591398 -0.027329499405447228 0 -0.015695771783863586 -0.026300683659996524 0 -0.015572268420261232 -0.027695121664281151 0 -0.017003610127288685 -0.027820847583958534 0 -0.016998759239878133 -0.027760723193295356 0 -0.016960514955635803 -0.027752666573240461 0 -0.015695771783863586 -0.026300683659996524 0 -0.017975864324754388 -0.026113352524415805 0 -0.016829530413439906 -0.024544553587583354 0 -0.015543145915090458 -0.024705655076517844 0 -0.016754555383043448 -0.023344595682319034 0 -0.017003610127288685 -0.027820847583958534 0 -0.016998759239878133 -0.027760723193295356 0 -0.017055047211905303 -0.027761588798265974 0 -0.017848972759761703 -0.023598477163261449 0 -0.016829530413439906 -0.024544553587583354 0 -0.016754555383043448 -0.023344595682319034 0 -0.0170226411872491 -0.027497961318421898 0 -0.017975864324754388 -0.026113352524415805 0 -0.016998759239878133 -0.027760723193295356 0 -0.017418314037051328 -0.027891435680505845 0 -0.017216463967937721 -0.027656789301474669 0 -0.017418314037051328 -0.027891435680505845 0 -0.017216463967937721 -0.027656789301474669 0 -0.017337165555352332 -0.027363684456167978 0 -0.017216463967937721 -0.027656789301474669 0 -0.017337165555352332 -0.027363684456167978 0 -0.017067685807402005 -0.02756763804630312 0 -0.016790369568556167 -0.027236311235466305 0 -0.017337165555352332 -0.027363684456167978 0 -0.017067685807402005 -0.02756763804630312 0 -0.014119400089813057 -0.027196508929146389 0 -0.014113429935038301 -0.027221775302918163 0 -0.01409623367004526 -0.027207152752256113 0 -0.015324682684312549 -0.027200299720473591 0 -0.015572268420261232 -0.027695121664281151 0 -0.016790369568556167 -0.027236311235466305 0 -0.016960514955635803 -0.027752666573240461 0 -0.017067685807402005 -0.02756763804630312 0 -0.016998759239878133 -0.027760723193295356 0 -0.016960514955635803 -0.027752666573240461 0 -0.017067685807402005 -0.02756763804630312 0 -0.016998759239878133 -0.027760723193295356 0 -0.017216463967937721 -0.027656789301474669 0 -0.017067685807402005 -0.02756763804630312 0 -0.01409623367004526 -0.027207152752256113 0 -0.013936131569466334 -0.027060328702026848 0 -0.013886887357361032 -0.027303736191979733 0 -0.015324682684312549 -0.027200299720473591 0 -0.013991537507550882 -0.027276605543594366 0 -0.014587920609535805 -0.026869915216361909 0 -0.01409623367004526 -0.027207152752256113 0 -0.013936131569466334 -0.027060328702026848 0 -0.013936131569466334 -0.027060328702026848 0 -0.013664339750959114 -0.027280298433307495 0 -0.013511561272582977 -0.026987969302330227 0 -0.014024593680347164 -0.02667381878667497 0 -0.013936131569466334 -0.027060328702026848 0 -0.013511561272582977 -0.026987969302330227 0 -0.013936131569466334 -0.027060328702026848 0 -0.013664339750959114 -0.027280298433307495 0 -0.013886887357361032 -0.027303736191979733 0 -0.013664339750959114 -0.027280298433307495 0 -0.013886887357361032 -0.027303736191979733 0 -0.013728208138753181 -0.027429383215612644 0 -0.01409623367004526 -0.027207152752256113 0 -0.013886887357361032 -0.027303736191979733 0 -0.01398088521591398 -0.027329499405447228 0 -0.013886887357361032 -0.027303736191979733 0 -0.01398088521591398 -0.027329499405447228 0 -0.013728208138753181 -0.027429383215612644 0 -0.014113429935038301 -0.027221775302918163 0 -0.01409623367004526 -0.027207152752256113 0 -0.01398088521591398 -0.027329499405447228 0 -0.01398088521591398 -0.027329499405447228 0 -0.01384731482387265 -0.027396306152148112 0 -0.013728208138753181 -0.027429383215612644 0 -0.013973868143264571 -0.027403090666539391 0 -0.01398088521591398 -0.027329499405447228 0 -0.01384731482387265 -0.027396306152148112 0 -0.013973868143264571 -0.027403090666539391 0 -0.01384731482387265 -0.027396306152148112 0 -0.013908888951475211 -0.027359806545041335 0 -0.01384731482387265 -0.027396306152148112 0 -0.013908888951475211 -0.027359806545041335 0 -0.013600037373198327 -0.02742081541692816 0 -0.014288440725848882 -0.026914737075728452 0 -0.013992954146472962 -0.027248605217210224 0 -0.013908888951475211 -0.027359806545041335 0 -0.013600037373198327 -0.02742081541692816 0 -0.01337729203157376 -0.027390304040111644 0 -0.013664339750959114 -0.027280298433307495 0 -0.013728208138753181 -0.027429383215612644 0 -0.013491774873095179 -0.027593455268423779 0 -0.01384731482387265 -0.027396306152148112 0 -0.013600037373198327 -0.02742081541692816 0 -0.013728208138753181 -0.027429383215612644 0 -0.013600037373198327 -0.02742081541692816 0 -0.013728208138753181 -0.027429383215612644 0 -0.013491774873095179 -0.027593455268423779 0 -0.013600037373198327 -0.02742081541692816 0 -0.013492392080602546 -0.027416575663901769 0 -0.01337729203157376 -0.027390304040111644 0 -0.013491774873095179 -0.027593455268423779 0 -0.013492392080602546 -0.027416575663901769 0 -0.013453561689071055 -0.027851972932400246 0 -0.013600037373198327 -0.02742081541692816 0 -0.013491774873095179 -0.027593455268423779 0 -0.013492392080602546 -0.027416575663901769 0 -0.013492392080602546 -0.027416575663901769 0 -0.013453561689071055 -0.027851972932400246 0 -0.014135478128686759 -0.026441883802776175 0 -0.013795834451312808 -0.027445174168580517 0 -0.012759221334363975 -0.028818054240557132 0 -0.013491774873095179 -0.027593455268423779 0 -0.013453561689071055 -0.027851972932400246 0 -0.01297501871840916 -0.027557311317700915 0 -0.013453561689071055 -0.027851972932400246 0 -0.01297501871840916 -0.027557311317700915 0 -0.012012267342657219 -0.028136522367529362 0 -0.013491774873095179 -0.027593455268423779 0 -0.01297501871840916 -0.027557311317700915 0 -0.013156012169208973 -0.027287192424612954 0 -0.01297501871840916 -0.027557311317700915 0 -0.013156012169208973 -0.027287192424612954 0 -0.01224724206718464 -0.027417389749192774 0 -0.013664339750959114 -0.027280298433307495 0 -0.013491774873095179 -0.027593455268423779 0 -0.013156012169208973 -0.027287192424612954 0 -0.013664339750959114 -0.027280298433307495 0 -0.013156012169208973 -0.027287192424612954 0 -0.013511561272582977 -0.026987969302330227 0 -0.013156012169208973 -0.027287192424612954 0 -0.012703985639509497 -0.026971677510309416 0 -0.01224724206718464 -0.027417389749192774 0 -0.013156012169208973 -0.027287192424612954 0 -0.013511561272582977 -0.026987969302330227 0 -0.012703985639509497 -0.026971677510309416 0 -0.024753719921315708 -0.015656556352536245 0 -0.02487703772652004 -0.01577660794946209 0 -0.024613572859139059 -0.015810308508041278 0 -0.024753719921315708 -0.015656556352536245 0 -0.024961899850402737 -0.015594379903384355 0 -0.02487703772652004 -0.01577660794946209 0 -0.024961899850402737 -0.015594379903384355 0 -0.025244403359954933 -0.015571968357846718 0 -0.025156568002418115 -0.015746508835918681 0 -0.024961899850402737 -0.015594379903384355 0 -0.025156568002418115 -0.015746508835918681 0 -0.02487703772652004 -0.01577660794946209 0 -0.024961899850402737 -0.015594379903384355 0 -0.025073500724838455 -0.015378805947660588 0 -0.024688524498783924 -0.015408461769968781 0 -0.019975133175167581 -0.020878927852313534 0 -0.020119544152881943 -0.020434715503292476 0 -0.024961899850402737 -0.015594379903384355 0 -0.025073500724838455 -0.015378805947660588 0 -0.025244403359954933 -0.015571968357846718 0 -0.024753719921315708 -0.015656556352536245 0 -0.024961899850402737 -0.015594379903384355 0 -0.024688524498783924 -0.015408461769968781 0 -0.024753719921315708 -0.015656556352536245 0 -0.024688524498783924 -0.015408461769968781 0 -0.024556627646997845 -0.01560701378512753 0 -0.014422028245865588 -0.026133400182056652 0 -0.014455849934272158 -0.026221279073769293 0 -0.014538257452764358 -0.026097732298726112 0 -0.014455849934272158 -0.026221279073769293 0 -0.014135478128686759 -0.026441883802776175 0 -0.014538257452764358 -0.026097732298726112 0 -0.013453561689071055 -0.027851972932400246 0 -0.014135478128686759 -0.026441883802776175 0 -0.014665200572290872 -0.026556354753770845 0 -0.014455849934272158 -0.026221279073769293 0 -0.014135478128686759 -0.026441883802776175 0 -0.014665200572290872 -0.026556354753770845 0 -0.014135478128686759 -0.026441883802776175 0 -0.014538257452764358 -0.026097732298726112 0 -0.015248776062080685 -0.025204845731917971 0 -0.014170322683142536 -0.026424308734230399 0 -0.014608751294857059 -0.026260062421954132 0 -0.013492392080602546 -0.027416575663901769 0 -0.014135478128686759 -0.026441883802776175 0 -0.01337729203157376 -0.027390304040111644 0 -0.01497150151907492 -0.026389543133963009 0 -0.014538257452764358 -0.026097732298726112 0 -0.015248776062080685 -0.025204845731917971 0 -0.01497150151907492 -0.026389543133963009 0 -0.014422028245865588 -0.026133400182056652 0 -0.014538257452764358 -0.026097732298726112 0 -0.01497150151907492 -0.026389543133963009 0 -0.015248776062080685 -0.025204845731917971 0 -0.016147781732788798 -0.025521330811935597 0 -0.01497150151907492 -0.026389543133963009 0 -0.016147781732788798 -0.025521330811935597 0 -0.016496458392306339 -0.026327921356060397 0 -0.014608751294857059 -0.026260062421954132 0 -0.014789728340763836 -0.026703585974038883 0 -0.015248776062080685 -0.025204845731917971 0 -0.016942934799365265 -0.024633580856940489 0 -0.016147781732788798 -0.025521330811935597 0 -0.013908888951475211 -0.027359806545041335 0 -0.01337729203157376 -0.027390304040111644 0 -0.01418614310732022 -0.027894111038126539 0 -0.014992673067136721 -0.027357943816799461 0 -0.013908888951475211 -0.027359806545041335 0 -0.01418614310732022 -0.027894111038126539 0 -0.016147781732788798 -0.025521330811935597 0 -0.016496458392306339 -0.026327921356060397 0 -0.017282949153929354 -0.02545149465196828 0 -0.016942934799365265 -0.024633580856940489 0 -0.016147781732788798 -0.025521330811935597 0 -0.017282949153929354 -0.02545149465196828 0 -0.019975133175167581 -0.020878927852313534 0 -0.020784078666550021 -0.021001344360578836 0 -0.025073500724838455 -0.015378805947660588 0 -0.025515273332573526 -0.015377131848384932 0 -0.025244403359954933 -0.015571968357846718 0 -0.025515273332573526 -0.015377131848384932 0 -0.025244403359954933 -0.015571968357846718 0 -0.025515244840304825 -0.015704641423927995 0 -0.025244403359954933 -0.015571968357846718 0 -0.025515244840304825 -0.015704641423927995 0 -0.025156568002418115 -0.015746508835918681 0 -0.025515273332573526 -0.015377131848384932 0 -0.025515244840304825 -0.015704641423927995 0 -0.025979579539230711 -0.015751242051178727 0 -0.025979579539230711 -0.015751242051178727 0 -0.026207836484498793 -0.015849745073954185 0 -0.026105180994425631 -0.015723415315147832 0 -0.026289398536311129 -0.014502397882695355 0 -0.023171906344024943 -0.018975736705722196 0 -0.025979579539230711 -0.015751242051178727 0 -0.026207836484498793 -0.015849745073954185 0 -0.026061639939431142 -0.015866014932218609 0 -0.026207836484498793 -0.015849745073954185 0 -0.026374955956369864 -0.015949816704784188 0 -0.026425349047327573 -0.01597186272272649 0 -0.026207836484498793 -0.015849745073954185 0 -0.026425349047327573 -0.01597186272272649 0 -0.02622142644506897 -0.01593672336517038 0 -0.023171906344024943 -0.018975736705722196 0 -0.021776514704148708 -0.021309561622154569 0 -0.025170183867270064 -0.017661467318014989 0 -0.025406757200557167 -0.017046938411556911 0 -0.026048782057770954 -0.017220405045353576 0 -0.026207836484498793 -0.015849745073954185 0 -0.026105180994425631 -0.015723415315147832 0 -0.026374955956369864 -0.015949816704784188 0 -0.023171906344024943 -0.018975736705722196 0 -0.026607278557840636 -0.016457959096417136 0 -0.020784078666550021 -0.021001344360578836 0 -0.023171906344024943 -0.018975736705722196 0 -0.016496458392306339 -0.026327921356060397 0 -0.018020527252823642 -0.026022315396334237 0 -0.017282949153929354 -0.02545149465196828 0 -0.025515273332573526 -0.015377131848384932 0 -0.025979579539230711 -0.015751242051178727 0 -0.026035804280594363 -0.015457766768514229 0 -0.018020527252823642 -0.026022315396334237 0 -0.017282949153929354 -0.02545149465196828 0 -0.01822228701052107 -0.025248624151280985 0 -0.017282949153929354 -0.02545149465196828 0 -0.017742310955628535 -0.024956972662405374 0 -0.01822228701052107 -0.025248624151280985 0 -0.016942934799365265 -0.024633580856940489 0 -0.017282949153929354 -0.02545149465196828 0 -0.017742310955628535 -0.024956972662405374 0 -0.016942934799365265 -0.024633580856940489 0 -0.017742310955628535 -0.024956972662405374 0 -0.018478593381235076 -0.024484311091053007 0 -0.014992673067136721 -0.027357943816799461 0 -0.01418614310732022 -0.027894111038126539 0 -0.016308000983261281 -0.028105244604469941 0 -0.014789728340763836 -0.026703585974038883 0 -0.021089638035879921 -0.022498779284560608 0 -0.016080871063651355 -0.027297172652746168 0 -0.014992673067136721 -0.027357943816799461 0 -0.016308000983261281 -0.028105244604469941 0 -0.025406757200557167 -0.017046938411556911 0 -0.026030221020557784 -0.016765621040902581 0 -0.026048782057770954 -0.017220405045353576 0 -0.025616672207695784 -0.016500161957293979 0 -0.025406757200557167 -0.017046938411556911 0 -0.026030221020557784 -0.016765621040902581 0 -0.017742310955628535 -0.024956972662405374 0 -0.018478593381235076 -0.024484311091053007 0 -0.01822228701052107 -0.025248624151280985 0 -0.021089638035879921 -0.022498779284560608 0 -0.021776514704148708 -0.021309561622154569 0 -0.026030221020557784 -0.016765621040902581 0 -0.026320458571047357 -0.016558437614933995 0 -0.026318757213134671 -0.016770917778647938 0 -0.025616672207695784 -0.016500161957293979 0 -0.026030221020557784 -0.016765621040902581 0 -0.026320458571047357 -0.016558437614933995 0 -0.021089638035879921 -0.022498779284560608 0 -0.026370388095868304 -0.017855951368919848 0 -0.024614339701619237 -0.019794441694190253 0 -0.023989163160384044 -0.020251334554506617 0 -0.024780594000537812 -0.020202727137361671 0 -0.026320458571047357 -0.016558437614933995 0 -0.026318757213134671 -0.016770917778647938 0 -0.026412997364292218 -0.016662985027855296 0 -0.026318757213134671 -0.016770917778647938 0 -0.026454099967910621 -0.016468330747237563 0 -0.026412997364292218 -0.016662985027855296 0 -0.026030221020557784 -0.016765621040902581 0 -0.026318757213134671 -0.016770917778647938 0 -0.026048782057770954 -0.017220405045353576 0 -0.026181602808288823 -0.016492795713438424 0 -0.026607278557840636 -0.016457959096417136 0 -0.026318757213134671 -0.016770917778647938 0 -0.026454099967910621 -0.016468330747237563 0 -0.026048782057770954 -0.017220405045353576 0 -0.026454099967910621 -0.016468330747237563 0 -0.026374955956369864 -0.015949816704784188 0 -0.026425349047327573 -0.01597186272272649 0 -0.026454099967910621 -0.016468330747237563 0 -0.026425349047327573 -0.01597186272272649 0 -0.026534284659891216 -0.016040005264400952 0 -0.026454099967910621 -0.016468330747237563 0 -0.026534284659891216 -0.016040005264400952 0 -0.02640694820631987 -0.016244146010379202 0 -0.026534284659891216 -0.016040005264400952 0 -0.026504071706777217 -0.015949288896740684 0 -0.026607653092839155 -0.015800604742739015 0 -0.026534284659891216 -0.016040005264400952 0 -0.026607653092839155 -0.015800604742739015 0 -0.026524341025829894 -0.015839607353928718 0 -0.026425349047327573 -0.01597186272272649 0 -0.026534284659891216 -0.016040005264400952 0 -0.026504071706777217 -0.015949288896740684 0 -0.026425349047327573 -0.01597186272272649 0 -0.026317586968509731 -0.015978825155892228 0 -0.026504071706777217 -0.015949288896740684 0 -0.026504071706777217 -0.015949288896740684 0 -0.026287648795743208 -0.016080687093720826 0 -0.026454118408388863 -0.016163987702070854 0 -0.0265488395878694 -0.016022871529731073 0 -0.026508007531345128 -0.015572337532644087 0 -0.026317586968509731 -0.015978825155892228 0 -0.026504071706777217 -0.015949288896740684 0 -0.026287648795743208 -0.016080687093720826 0 -0.026287648795743208 -0.016080687093720826 0 -0.026155462769464722 -0.015968548904805476 0 -0.026245247446909536 -0.016012104963848185 0 -0.026287648795743208 -0.016080687093720826 0 -0.026047283749841745 -0.016060575129843709 0 -0.026155462769464722 -0.015968548904805476 0 -0.026352132776729237 -0.015927581073919353 0 -0.026508007531345128 -0.015572337532644087 0 -0.026504071706777217 -0.015949288896740684 0 -0.026705253698234684 -0.01567982960132722 0 -0.026607653092839155 -0.015800604742739015 0 -0.026607653092839155 -0.015800604742739015 0 -0.026524341025829894 -0.015839607353928718 0 -0.026631333895117442 -0.015271664236404201 0 -0.026705253698234684 -0.01567982960132722 0 -0.026607653092839155 -0.015800604742739015 0 -0.026631333895117442 -0.015271664236404201 0 -0.026508007531345128 -0.015572337532644087 0 -0.026549494216737572 -0.014887946663874219 0 -0.026665760888651996 -0.014740550112050298 0 -0.026624442775705876 -0.014557889611116532 0 -0.02647567412796684 -0.014625283322109165 0 -0.026508007531345128 -0.015572337532644087 0 -0.026257146583028454 -0.015208653250011151 0 -0.026257146583028454 -0.015208653250011151 0 -0.025961682304990175 -0.01423390474267733 0 -0.025871533320067312 -0.01575460498469642 0 -0.025952147042009981 -0.015422577336250324 0 -0.025645762640453994 -0.015181981719353851 0 -0.026624442775705876 -0.014557889611116532 0 -0.026467821525928824 -0.014492724392800161 0 -0.026580126311166449 -0.014388840457630201 0 -0.026624442775705876 -0.014557889611116532 0 -0.02647567412796684 -0.014625283322109165 0 -0.026467821525928824 -0.014492724392800161 0 -0.026127399778960576 -0.015599401831412479 0 -0.026407043548914686 -0.015713954636859713 0 -0.026212181327003026 -0.015068578987411943 0 -0.025871533320067312 -0.01575460498469642 0 -0.026127399778960576 -0.015599401831412479 0 -0.026220976327402536 -0.015857370944655436 0 -0.026127399778960576 -0.015599401831412479 0 -0.025952147042009981 -0.015422577336250324 0 -0.026212181327003026 -0.015068578987411943 0 -0.025871533320067312 -0.01575460498469642 0 -0.026127399778960576 -0.015599401831412479 0 -0.025952147042009981 -0.015422577336250324 0 -0.026047283749841745 -0.016060575129843709 0 -0.025871533320067312 -0.01575460498469642 0 -0.026155462769464722 -0.015968548904805476 0 -0.025871533320067312 -0.01575460498469642 0 -0.026220976327402536 -0.015857370944655436 0 -0.026155462769464722 -0.015968548904805476 0 -0.026220976327402536 -0.015857370944655436 0 -0.026155462769464722 -0.015968548904805476 0 -0.026245247446909536 -0.016012104963848185 0 -0.026245247446909536 -0.016012104963848185 0 -0.026257552413146475 -0.015960107938512637 0 -0.026175920399059353 -0.016002590766036315 0 -0.026220976327402536 -0.015857370944655436 0 -0.026245247446909536 -0.016012104963848185 0 -0.026257552413146475 -0.015960107938512637 0 -0.026127399778960576 -0.015599401831412479 0 -0.026220976327402536 -0.015857370944655436 0 -0.026407043548914686 -0.015713954636859713 0 -0.026220976327402536 -0.015857370944655436 0 -0.026257552413146475 -0.015960107938512637 0 -0.026407043548914686 -0.015713954636859713 0 -0.026257552413146475 -0.015960107938512637 0 -0.026407043548914686 -0.015713954636859713 0 -0.026074906476672814 -0.016101782701100929 0 -0.025467535546423972 -0.01521475594870856 0 -0.025381326614775147 -0.01541237051270542 0 -0.025503119692521361 -0.0151375907296981 0 -0.02592240384624896 -0.015455068793622831 0 -0.025700620468409905 -0.015815388668756002 0 -0.025467535546423972 -0.01521475594870856 0 -0.025323485670158696 -0.015575277745173387 0 -0.025381326614775147 -0.01541237051270542 0 -0.026074906476672814 -0.016101782701100929 0 -0.025935237961577533 -0.015961490165045479 0 -0.026175920399059353 -0.016002590766036315 0 -0.026257552413146475 -0.015960107938512637 0 -0.026074906476672814 -0.016101782701100929 0 -0.026175920399059353 -0.016002590766036315 0 -0.025935237961577533 -0.015961490165045479 0 -0.026074338189994641 -0.015949422812157287 0 -0.02577101004068676 -0.01585593970669184 0 -0.025935237961577533 -0.015961490165045479 0 -0.026074338189994641 -0.015949422812157287 0 -0.026175920399059353 -0.016002590766036315 0 -0.026245247446909536 -0.016012104963848185 0 -0.026175920399059353 -0.016002590766036315 0 -0.026229169801971996 -0.016009045576568907 0 -0.026287648795743208 -0.016080687093720826 0 -0.026245247446909536 -0.016012104963848185 0 -0.026229169801971996 -0.016009045576568907 0 -0.026317586968509731 -0.015978825155892228 0 -0.026287648795743208 -0.016080687093720826 0 -0.026229169801971996 -0.016009045576568907 0 -0.026074338189994641 -0.015949422812157287 0 -0.026175920399059353 -0.016002590766036315 0 -0.026229169801971996 -0.016009045576568907 0 -0.026074338189994641 -0.015949422812157287 0 -0.02622142644506897 -0.01593672336517038 0 -0.026061639939431142 -0.015866014932218609 0 -0.026425349047327573 -0.01597186272272649 0 -0.026317586968509731 -0.015978825155892228 0 -0.02622142644506897 -0.01593672336517038 0 -0.026074338189994641 -0.015949422812157287 0 -0.026229169801971996 -0.016009045576568907 0 -0.02622142644506897 -0.01593672336517038 0 -0.026317586968509731 -0.015978825155892228 0 -0.026229169801971996 -0.016009045576568907 0 -0.02622142644506897 -0.01593672336517038 0 -0.026207836484498793 -0.015849745073954185 0 -0.02622142644506897 -0.01593672336517038 0 -0.026061639939431142 -0.015866014932218609 0 -0.025979579539230711 -0.015751242051178727 0 -0.026061639939431142 -0.015866014932218609 0 -0.02577101004068676 -0.01585593970669184 0 -0.026074338189994641 -0.015949422812157287 0 -0.026061639939431142 -0.015866014932218609 0 -0.02577101004068676 -0.01585593970669184 0 -0.025515244840304825 -0.015704641423927995 0 -0.025979579539230711 -0.015751242051178727 0 -0.02577101004068676 -0.01585593970669184 0 -0.025515244840304825 -0.015704641423927995 0 -0.02577101004068676 -0.01585593970669184 0 -0.025343813943566516 -0.015846516510340688 0 -0.025515244840304825 -0.015704641423927995 0 -0.025343813943566516 -0.015846516510340688 0 -0.025156568002418115 -0.015746508835918681 0 -0.025343813943566516 -0.015846516510340688 0 -0.025231223095497433 -0.015890469677255457 0 -0.025441062132972151 -0.015922714143926413 0 -0.02577101004068676 -0.01585593970669184 0 -0.025343813943566516 -0.015846516510340688 0 -0.025441062132972151 -0.015922714143926413 0 -0.025935237961577533 -0.015961490165045479 0 -0.02577101004068676 -0.01585593970669184 0 -0.025441062132972151 -0.015922714143926413 0 -0.026074906476672814 -0.016101782701100929 0 -0.025935237961577533 -0.015961490165045479 0 -0.025441062132972151 -0.015922714143926413 0 -0.025700620468409905 -0.015815388668756002 0 -0.025477996909001016 -0.01589076095981377 0 -0.025323485670158696 -0.015575277745173387 0 -0.025441062132972151 -0.015922714143926413 0 -0.025342934057533899 -0.015709670723852771 0 -0.025323485670158696 -0.015575277745173387 0 -0.025381326614775147 -0.01541237051270542 0 -0.025342934057533899 -0.015709670723852771 0 -0.025381326614775147 -0.01541237051270542 0 -0.025274085808376919 -0.015620862561664825 0 -0.025342934057533899 -0.015709670723852771 0 -0.025274085808376919 -0.015620862561664825 0 -0.025342934057533899 -0.015709670723852771 0 -0.025152545200341745 -0.015843898377062279 0 -0.025231223095497433 -0.015890469677255457 0 -0.025342934057533899 -0.015709670723852771 0 -0.025152545200341745 -0.015843898377062279 0 -0.025231223095497433 -0.015890469677255457 0 -0.025441062132972151 -0.015922714143926413 0 -0.025342934057533899 -0.015709670723852771 0 -0.025231223095497433 -0.015890469677255457 0 -0.025152545200341745 -0.015843898377062279 0 -0.024943982200603038 -0.01594118043422094 0 -0.025274085808376919 -0.015620862561664825 0 -0.025152545200341745 -0.015843898377062279 0 -0.025136497116269751 -0.015827545182089345 0 -0.025152545200341745 -0.015843898377062279 0 -0.024796206076877412 -0.01600316769976631 0 -0.025136497116269751 -0.015827545182089345 0 -0.024796206076877412 -0.01600316769976631 0 -0.025136497116269751 -0.015827545182089345 0 -0.024655616248809534 -0.016141493569276025 0 -0.024796206076877412 -0.01600316769976631 0 -0.024943982200603038 -0.01594118043422094 0 -0.024696249528900573 -0.016001012095703974 0 -0.025152545200341745 -0.015843898377062279 0 -0.024796206076877412 -0.01600316769976631 0 -0.024943982200603038 -0.01594118043422094 0 -0.02499992385108573 -0.01588111583994849 0 -0.024722605441044099 -0.015906782213964608 0 -0.024696249528900573 -0.016001012095703974 0 -0.024943982200603038 -0.01594118043422094 0 -0.02499992385108573 -0.01588111583994849 0 -0.024696249528900573 -0.016001012095703974 0 -0.025231223095497433 -0.015890469677255457 0 -0.024943982200603038 -0.01594118043422094 0 -0.02499992385108573 -0.01588111583994849 0 -0.025343813943566516 -0.015846516510340688 0 -0.025231223095497433 -0.015890469677255457 0 -0.02499992385108573 -0.01588111583994849 0 -0.02499992385108573 -0.01588111583994849 0 -0.025156568002418115 -0.015746508835918681 0 -0.02487703772652004 -0.01577660794946209 0 -0.025343813943566516 -0.015846516510340688 0 -0.02499992385108573 -0.01588111583994849 0 -0.025156568002418115 -0.015746508835918681 0 -0.02487703772652004 -0.01577660794946209 0 -0.024722605441044099 -0.015906782213964608 0 -0.024613572859139059 -0.015810308508041278 0 -0.02499992385108573 -0.01588111583994849 0 -0.02487703772652004 -0.01577660794946209 0 -0.024722605441044099 -0.015906782213964608 0 -0.02649327827383224 -0.016561452441378383 0 -0.02620788708703204 -0.016136712714637604 0 -0.026246804006078036 -0.01693372116827498 0 -0.02649327827383224 -0.016561452441378383 0 -0.026509555096217406 -0.016767839990500896 0 -0.026468776445473605 -0.01660647253847532 0 -0.02649327827383224 -0.016561452441378383 0 -0.026246804006078036 -0.01693372116827498 0 -0.026509555096217406 -0.016767839990500896 0 -0.026340259228238759 -0.016152509858514578 0 -0.026429047146785536 -0.016081403791438242 0 -0.02649327827383224 -0.016561452441378383 0 -0.026475444558550127 -0.016606297013478818 0 -0.026468776445473605 -0.01660647253847532 0 -0.02649327827383224 -0.016561452441378383 0 -0.026654616505832181 -0.016265597541639247 0 -0.02620788708703204 -0.016136712714637604 0 -0.026447633873293665 -0.016554641238189047 0 -0.026340259228238759 -0.016152509858514578 0 -0.027072830517897304 -0.015735328914304816 0 -0.02620788708703204 -0.016136712714637604 0 -0.026571452644924869 -0.015183291247745468 0 -0.02620788708703204 -0.016136712714637604 0 -0.025709831026312326 -0.015966654487267383 0 -0.02580303270723525 -0.015222119047103142 0 -0.02620788708703204 -0.016136712714637604 0 -0.025709831026312326 -0.015966654487267383 0 -0.025679444243615578 -0.016584807306493077 0 -0.025709831026312326 -0.015966654487267383 0 -0.024999858258571903 -0.015956703801152241 0 -0.02580303270723525 -0.015222119047103142 0 -0.025709831026312326 -0.015966654487267383 0 -0.024999858258571903 -0.015956703801152241 0 -0.025679444243615578 -0.016584807306493077 0 -0.024999893157914604 -0.017123629670722021 0 -0.025679444243615578 -0.016584807306493077 0 -0.025646618020493259 -0.0172930529837198 0 -0.024999858258571903 -0.015956703801152241 0 -0.024999893157914604 -0.017123629670722021 0 -0.025679444243615578 -0.016584807306493077 0 -0.02620788708703204 -0.016136712714637604 0 -0.025679444243615578 -0.016584807306493077 0 -0.026246804006078036 -0.01693372116827498 0 -0.025679444243615578 -0.016584807306493077 0 -0.025646618020493259 -0.0172930529837198 0 -0.026246804006078036 -0.01693372116827498 0 -0.025646618020493259 -0.0172930529837198 0 -0.025997002170275278 -0.017596311986530472 0 -0.026246804006078036 -0.01693372116827498 0 -0.024999893157914604 -0.017123629670722021 0 -0.025646618020493259 -0.0172930529837198 0 -0.025000008261880147 -0.018289955053563234 0 -0.024999941418869947 -0.018290783303293968 0 -0.025788524670913891 -0.018257504868313162 0 -0.025646618020493259 -0.0172930529837198 0 -0.025000008261880147 -0.018289955053563234 0 -0.025997002170275278 -0.017596311986530472 0 -0.026250169086388553 -0.019790179072266597 0 -0.02572118224224804 -0.018919546378635573 0 -0.026322447104750818 -0.019392768552985891 0 -0.025788524670913891 -0.018257504868313162 0 -0.026330281944251421 -0.018243120743820295 0 -0.025997002170275278 -0.017596311986530472 0 -0.026246804006078036 -0.01693372116827498 0 -0.026455986521990268 -0.0170755875495767 0 -0.026246804006078036 -0.01693372116827498 0 -0.026455986521990268 -0.0170755875495767 0 -0.026509555096217406 -0.016767839990500896 0 -0.026330281944251421 -0.018243120743820295 0 -0.026353111636598297 -0.018294634248569832 0 -0.026328482821377019 -0.019613973441371772 0 -0.026322447104750818 -0.019392768552985891 0 -0.026187888606950649 -0.019853674053467833 0 -0.026455986521990268 -0.0170755875495767 0 -0.026495228023266346 -0.016754177674969294 0 -0.026509555096217406 -0.016767839990500896 0 -0.026495228023266346 -0.016754177674969294 0 -0.026465424856661198 -0.016673714721103815 0 -0.026445323769168253 -0.016652087895693932 0 -0.026495228023266346 -0.016754177674969294 0 -0.026465424856661198 -0.016673714721103815 0 -0.026509555096217406 -0.016767839990500896 0 -0.026465424856661198 -0.016673714721103815 0 -0.026509555096217406 -0.016767839990500896 0 -0.026466922626902971 -0.016636991832076616 0 -0.0252200797407264 -0.019837874611636341 0 -0.024780594000537812 -0.020202727137361671 0 -0.025542532215882364 -0.020085831488789143 0 -0.026320458571047357 -0.016558437614933995 0 -0.026445323769168253 -0.016652087895693932 0 -0.026412997364292218 -0.016662985027855296 0 -0.026370388095868304 -0.017855951368919848 0 -0.025795710660791091 -0.018431160844516695 0 -0.025767922228943644 -0.019654680010936822 0 -0.026187888606950649 -0.019853674053467833 0 -0.025542532215882364 -0.020085831488789143 0 -0.026353111636598297 -0.018294634248569832 0 -0.025795710660791091 -0.018431160844516695 0 -0.026465424856661198 -0.016673714721103815 0 -0.026445323769168253 -0.016652087895693932 0 -0.02641062293654536 -0.016598303283721624 0 -0.026445323769168253 -0.016652087895693932 0 -0.026412997364292218 -0.016662985027855296 0 -0.02641062293654536 -0.016598303283721624 0 -0.026454099967910621 -0.016468330747237563 0 -0.026412997364292218 -0.016662985027855296 0 -0.02641062293654536 -0.016598303283721624 0 -0.026462220646506166 -0.016249107897537526 0 -0.026047206507753648 -0.016417627817591443 0 -0.02641062293654536 -0.016598303283721624 0 -0.02640694820631987 -0.016244146010379202 0 -0.026407337822593448 -0.016527320265147281 0 -0.026454099967910621 -0.016468330747237563 0 -0.02641062293654536 -0.016598303283721624 0 -0.02640694820631987 -0.016244146010379202 0 -0.026509555096217406 -0.016767839990500896 0 -0.026468776445473605 -0.01660647253847532 0 -0.026466922626902971 -0.016636991832076616 0 -0.026468776445473605 -0.01660647253847532 0 -0.026466922626902971 -0.016636991832076616 0 -0.026407337822593448 -0.016527320265147281 0 -0.026465424856661198 -0.016673714721103815 0 -0.02641062293654536 -0.016598303283721624 0 -0.026466922626902971 -0.016636991832076616 0 -0.02641062293654536 -0.016598303283721624 0 -0.026466922626902971 -0.016636991832076616 0 -0.026407337822593448 -0.016527320265147281 0 -0.026475444558550127 -0.016606297013478818 0 -0.026468776445473605 -0.01660647253847532 0 -0.026407337822593448 -0.016527320265147281 0 -0.025273826268249006 -0.016309181098444869 0 -0.025886420509417838 -0.016236405460139332 0 -0.025503643554105164 -0.015863943305886807 0 -0.026340259228238759 -0.016152509858514578 0 -0.026047206507753648 -0.016417627817591443 0 -0.026340259228238759 -0.016152509858514578 0 -0.026345373407029374 -0.015360847885759898 0 -0.025886420509417838 -0.016236405460139332 0 -0.025503643554105164 -0.015863943305886807 0 -0.025949039109160087 -0.01581148610144557 0 -0.025503643554105164 -0.015863943305886807 0 -0.025949039109160087 -0.01581148610144557 0 -0.025760169329414648 -0.015310190813109064 0 -0.025949039109160087 -0.01581148610144557 0 -0.025760169329414648 -0.015310190813109064 0 -0.026308009594962781 -0.015202378282910435 0 -0.026345373407029374 -0.015360847885759898 0 -0.026435046329350089 -0.014780118952756363 0 -0.027116101021029196 -0.014160367779792829 0 -0.02698834971307908 -0.014063225349223961 0 -0.026971806908951741 -0.01453839763933166 0 -0.027254198495444113 -0.014859690555332969 0 -0.027116101021029196 -0.014160367779792829 0 -0.026971806908951741 -0.01453839763933166 0 -0.02640694820631987 -0.016244146010379202 0 -0.026524341025829894 -0.015839607353928718 0 -0.026394913211796208 -0.015652579515923446 0 -0.026534284659891216 -0.016040005264400952 0 -0.02640694820631987 -0.016244146010379202 0 -0.026524341025829894 -0.015839607353928718 0 -0.02640694820631987 -0.016244146010379202 0 -0.025886420509417838 -0.016236405460139332 0 -0.025949039109160087 -0.01581148610144557 0 -0.02640694820631987 -0.016244146010379202 0 -0.025949039109160087 -0.01581148610144557 0 -0.026394913211796208 -0.015652579515923446 0 -0.025949039109160087 -0.01581148610144557 0 -0.026394913211796208 -0.015652579515923446 0 -0.026308009594962781 -0.015202378282910435 0 -0.026524341025829894 -0.015839607353928718 0 -0.026394913211796208 -0.015652579515923446 0 -0.026631333895117442 -0.015271664236404201 0 -0.026549494216737572 -0.014887946663874219 0 -0.026307573316537578 -0.01462804096903288 0 -0.026394913211796208 -0.015652579515923446 0 -0.026631333895117442 -0.015271664236404201 0 -0.026308009594962781 -0.015202378282910435 0 -0.026631333895117442 -0.015271664236404201 0 -0.026308009594962781 -0.015202378282910435 0 -0.026395603540660794 -0.014620432702157245 0 -0.026308009594962781 -0.015202378282910435 0 -0.026395603540660794 -0.014620432702157245 0 -0.026466456722402214 -0.014484655805486283 0 -0.026308297223684871 -0.014513813401357111 0 -0.026467821525928824 -0.014492724392800161 0 -0.026355258696405381 -0.014409001646587214 0 -0.026308297223684871 -0.014513813401357111 0 -0.026162952075796681 -0.014419414563019215 0 -0.026355258696405381 -0.014409001646587214 0 -0.02647567412796684 -0.014625283322109165 0 -0.026308297223684871 -0.014513813401357111 0 -0.026467821525928824 -0.014492724392800161 0 -0.026467821525928824 -0.014492724392800161 0 -0.026355258696405381 -0.014409001646587214 0 -0.026580126311166449 -0.014388840457630201 0 -0.027116101021029196 -0.014160367779792829 0 -0.02698834971307908 -0.014063225349223961 0 -0.026928886455121943 -0.014167391997317534 0 -0.02698834971307908 -0.014063225349223961 0 -0.026928886455121943 -0.014167391997317534 0 -0.026950463086821568 -0.013929796510999605 0 -0.026435046329350089 -0.014780118952756363 0 -0.026459480122312296 -0.01453859840589649 0 -0.025760169329414648 -0.015310190813109064 0 -0.026308009594962781 -0.015202378282910435 0 -0.026466456722402214 -0.014484655805486283 0 -0.027116101021029196 -0.014160367779792829 0 -0.026466456722402214 -0.014484655805486283 0 -0.026928886455121943 -0.014167391997317534 0 -0.026466456722402214 -0.014484655805486283 0 -0.026843775840332779 -0.014274722995925216 0 -0.026928886455121943 -0.014167391997317534 0 -0.026395603540660794 -0.014620432702157245 0 -0.026466456722402214 -0.014484655805486283 0 -0.026843775840332779 -0.014274722995925216 0 -0.026307573316537578 -0.01462804096903288 0 -0.026839629725388787 -0.013644619587978541 0 -0.026839629725388787 -0.013644619587978541 0 -0.027179210136474549 -0.013531002278773057 0 -0.026843775840332779 -0.014274722995925216 0 -0.026950463086821568 -0.013929796510999605 0 -0.026926121405066658 -0.013430334262579988 0 -0.026843775840332779 -0.014274722995925216 0 -0.026928886455121943 -0.014167391997317534 0 -0.026950463086821568 -0.013929796510999605 0 -0.026926121405066658 -0.013430334262579988 0 -0.026886339094826257 -0.0138029038673801 0 -0.026631324136691663 -0.013750190510352542 0 -0.02698834971307908 -0.014063225349223961 0 -0.026950463086821568 -0.013929796510999605 0 -0.026886339094826257 -0.0138029038673801 0 -0.026950463086821568 -0.013929796510999605 0 -0.026926121405066658 -0.013430334262579988 0 -0.026886339094826257 -0.0138029038673801 0 -0.026631324136691663 -0.013750190510352542 0 -0.026155908431639986 -0.013598072032393735 0 -0.026440825446559561 -0.01303410310060089 0 -0.026926121405066658 -0.013430334262579988 0 -0.026631324136691663 -0.013750190510352542 0 -0.026440825446559561 -0.01303410310060089 0 -0.026631324136691663 -0.013750190510352542 0 -0.026793260643929839 -0.014152837582514984 0 -0.026451945098631035 -0.014287544336477703 0 -0.026631324136691663 -0.013750190510352542 0 -0.026451945098631035 -0.014287544336477703 0 -0.026155908431639986 -0.013598072032393735 0 -0.02698834971307908 -0.014063225349223961 0 -0.026793260643929839 -0.014152837582514984 0 -0.026971806908951741 -0.01453839763933166 0 -0.02698834971307908 -0.014063225349223961 0 -0.026886339094826257 -0.0138029038673801 0 -0.026793260643929839 -0.014152837582514984 0 -0.026886339094826257 -0.0138029038673801 0 -0.026631324136691663 -0.013750190510352542 0 -0.026793260643929839 -0.014152837582514984 0 -0.026793260643929839 -0.014152837582514984 0 -0.026971806908951741 -0.01453839763933166 0 -0.026451945098631035 -0.014287544336477703 0 -0.026937908973920247 -0.014523552267747522 0 -0.026453767719572936 -0.014344915962491413 0 -0.026971806908951741 -0.01453839763933166 0 -0.026434955393102647 -0.014417249091401929 0 -0.026571452644924869 -0.015183291247745468 0 -0.02620788708703204 -0.016136712714637604 0 -0.026571452644924869 -0.015183291247745468 0 -0.02580303270723525 -0.015222119047103142 0 -0.026434955393102647 -0.014417249091401929 0 -0.026571452644924869 -0.015183291247745468 0 -0.02580303270723525 -0.015222119047103142 0 -0.027072830517897304 -0.015735328914304816 0 -0.027254198495444113 -0.014859690555332969 0 -0.026973423992754892 -0.015185574744139594 0 -0.027254198495444113 -0.014859690555332969 0 -0.026971806908951741 -0.01453839763933166 0 -0.026973423992754892 -0.015185574744139594 0 -0.026971806908951741 -0.01453839763933166 0 -0.026571452644924869 -0.015183291247745468 0 -0.026973423992754892 -0.015185574744139594 0 -0.027072830517897304 -0.015735328914304816 0 -0.026571452644924869 -0.015183291247745468 0 -0.026973423992754892 -0.015185574744139594 0 -0.024999858258571903 -0.015956703801152241 0 -0.02580303270723525 -0.015222119047103142 0 -0.024999907248482424 -0.014789748496168464 0 -0.026434955393102647 -0.014417249091401929 0 -0.02580303270723525 -0.015222119047103142 0 -0.025774945598210475 -0.014092544758034902 0 -0.026453767719572936 -0.014344915962491413 0 -0.025775734111537083 -0.014027558237153379 0 -0.02580303270723525 -0.015222119047103142 0 -0.024999907248482424 -0.014789748496168464 0 -0.025774945598210475 -0.014092544758034902 0 -0.024999907248482424 -0.014789748496168464 0 -0.024999904463579279 -0.013623056993995407 0 -0.025774945598210475 -0.014092544758034902 0 -0.024999909832705586 -0.01362284864904934 0 -0.02579711080062199 -0.013983252271336656 0 -0.025596565097094452 -0.01327904611624856 0 -0.025000163640641084 -0.013622832511993426 0 -0.025775734111537083 -0.014027558237153379 0 -0.02579711080062199 -0.013983252271336656 0 -0.026155908431639986 -0.013598072032393735 0 -0.025596565097094452 -0.01327904611624856 0 -0.026451945098631035 -0.014287544336477703 0 -0.02579711080062199 -0.013983252271336656 0 -0.026155908431639986 -0.013598072032393735 0 -0.026155908431639986 -0.013598072032393735 0 -0.025899289566766442 -0.012769003246066174 0 -0.026440825446559561 -0.01303410310060089 0 -0.026155908431639986 -0.013598072032393735 0 -0.025596565097094452 -0.01327904611624856 0 -0.025899289566766442 -0.012769003246066174 0 -0.025596565097094452 -0.01327904611624856 0 -0.024999936268027174 -0.012312920196719059 0 -0.025899289566766442 -0.012769003246066174 0 -0.024999909832705586 -0.01362284864904934 0 -0.025596565097094452 -0.01327904611624856 0 -0.024999936268027174 -0.012312920196719059 0 -0.024999936268027174 -0.012312920196719059 0 -0.025899289566766442 -0.012769003246066174 0 -0.025751478529871297 -0.01188635257200751 0 -0.025899289566766442 -0.012769003246066174 0 -0.025751478529871297 -0.01188635257200751 0 -0.026270911932082065 -0.012371750547127892 0 -0.025899289566766442 -0.012769003246066174 0 -0.026440825446559561 -0.01303410310060089 0 -0.026270911932082065 -0.012371750547127892 0 -0.025751478529871297 -0.01188635257200751 0 -0.026426276910721233 -0.011947652387409725 0 -0.025689099352102007 -0.01102608907202403 0 -0.025751478529871297 -0.01188635257200751 0 -0.026270911932082065 -0.012371750547127892 0 -0.026426276910721233 -0.011947652387409725 0 -0.025751478529871297 -0.01188635257200751 0 -0.024999980622652965 -0.011004170190439999 0 -0.025689099352102007 -0.01102608907202403 0 -0.024999936268027174 -0.012312920196719059 0 -0.025751478529871297 -0.01188635257200751 0 -0.024999980622652965 -0.011004170190439999 0 -0.026926121405066658 -0.013430334262579988 0 -0.027374023512493777 -0.012875222605546676 0 -0.026629035742742575 -0.012397073577169286 0 -0.027049531901658708 -0.012677104170575429 0 -0.026657738146105718 -0.01244143973686296 0 -0.026926121405066658 -0.013430334262579988 0 -0.026440825446559561 -0.01303410310060089 0 -0.026629035742742575 -0.012397073577169286 0 -0.026440825446559561 -0.01303410310060089 0 -0.026270911932082065 -0.012371750547127892 0 -0.026629035742742575 -0.012397073577169286 0 -0.026426276910721233 -0.011947652387409725 0 -0.026629035742742575 -0.012397073577169286 0 -0.02661379100813846 -0.012396356711066817 0 -0.026270911932082065 -0.012371750547127892 0 -0.026426276910721233 -0.011947652387409725 0 -0.026629035742742575 -0.012397073577169286 0 -0.02667595100684849 -0.012511554607705684 0 -0.026629035742742575 -0.012397073577169286 0 -0.02661379100813846 -0.012396356711066817 0 -0.02667595100684849 -0.012511554607705684 0 -0.02661379100813846 -0.012396356711066817 0 -0.026653814516219253 -0.012551455644079139 0 -0.02661379100813846 -0.012396356711066817 0 -0.026566230206903924 -0.012475167192236207 0 -0.026653814516219253 -0.012551455644079139 0 -0.02661379100813846 -0.012396356711066817 0 -0.026566230206903924 -0.012475167192236207 0 -0.026487445295925061 -0.012295723002569231 0 -0.026566230206903924 -0.012475167192236207 0 -0.026487445295925061 -0.012295723002569231 0 -0.026471893084527427 -0.01241078554041989 0 -0.02655669137370496 -0.011956289446926709 0 -0.026157782427876603 -0.011318475310441518 0 -0.026426276910721233 -0.011947652387409725 0 -0.026487445295925061 -0.012295723002569231 0 -0.026566465430742717 -0.012429456859180637 0 -0.026426276910721233 -0.011947652387409725 0 -0.02661379100813846 -0.012396356711066817 0 -0.026487445295925061 -0.012295723002569231 0 -0.026566465430742717 -0.012429456859180637 0 -0.026471893084527427 -0.01241078554041989 0 -0.026422536549065855 -0.0124191916670546 0 -0.026157782427876603 -0.011318475310441518 0 -0.02576587774081019 -0.012620870657622758 0 -0.026487445295925061 -0.012295723002569231 0 -0.026566465430742717 -0.012429456859180637 0 -0.026471893084527427 -0.01241078554041989 0 -0.026566230206903924 -0.012475167192236207 0 -0.026471893084527427 -0.01241078554041989 0 -0.026493167339085039 -0.012451409628782661 0 -0.026471893084527427 -0.01241078554041989 0 -0.026493167339085039 -0.012451409628782661 0 -0.026422536549065855 -0.0124191916670546 0 -0.024999909888528841 -0.011002899207114267 0 -0.025904151253984143 -0.010515987895481022 0 -0.024999994469216042 -0.011002666440077278 0 -0.025851821356688703 -0.010368740227326876 0 -0.024999968786601091 -0.0097101641632647874 0 -0.026426276910721233 -0.011947652387409725 0 -0.026652538994776792 -0.010374794002911412 0 -0.025689099352102007 -0.01102608907202403 0 -0.026699410205389594 -0.0097595716998075434 0 -0.025851821356688703 -0.010368740227326876 0 -0.025965381863452198 -0.0097097243238278771 0 -0.026157782427876603 -0.011318475310441518 0 -0.025904151253984143 -0.010515987895481022 0 -0.026699410205389594 -0.0097595716998075434 0 -0.025965381863452198 -0.0097097243238278771 0 -0.025877841459059109 -0.0090115060944698407 0 -0.025851821356688703 -0.010368740227326876 0 -0.025965381863452198 -0.0097097243238278771 0 -0.024999968786601091 -0.0097101641632647874 0 -0.025965381863452198 -0.0097097243238278771 0 -0.024999968786601091 -0.0097101641632647874 0 -0.025877841459059109 -0.0090115060944698407 0 -0.024999968786601091 -0.0097101641632647874 0 -0.024999946706677607 -0.0084176178796039579 0 -0.025877841459059109 -0.0090115060944698407 0 -0.024999946706677607 -0.0084176178796039579 0 -0.025877841459059109 -0.0090115060944698407 0 -0.025885371032974162 -0.0077603437695500568 0 -0.025877841459059109 -0.0090115060944698407 0 -0.026790510741478899 -0.0084729661409758406 0 -0.025885371032974162 -0.0077603437695500568 0 -0.026699410205389594 -0.0097595716998075434 0 -0.025877841459059109 -0.0090115060944698407 0 -0.026790510741478899 -0.0084729661409758406 0 -0.026157782427876603 -0.011318475310441518 0 -0.025676939868677973 -0.010029280772311331 0 -0.024559189079998815 -0.013325558826676544 0 -0.025449576558008457 -0.01271385241318939 0 -0.024691473433684535 -0.011484085801165569 0 -0.025449576558008457 -0.01271385241318939 0 -0.025585616030184912 -0.011812939525466458 0 -0.024691473433684535 -0.011484085801165569 0 -0.026493167339085039 -0.012451409628782661 0 -0.026422536549065855 -0.0124191916670546 0 -0.026377987307371061 -0.012119607700521019 0 -0.02576587774081019 -0.012620870657622758 0 -0.026399165301172912 -0.012153735830512857 0 -0.025449576558008457 -0.01271385241318939 0 -0.025585616030184912 -0.011812939525466458 0 -0.026377987307371061 -0.012119607700521019 0 -0.025585616030184912 -0.011812939525466458 0 -0.025943131399180953 -0.010844181587505402 0 -0.024691473433684535 -0.011484085801165569 0 -0.025585616030184912 -0.011812939525466458 0 -0.026377987307371061 -0.012119607700521019 0 -0.025943131399180953 -0.010844181587505402 0 -0.025943131399180953 -0.010844181587505402 0 -0.024691473433684535 -0.011484085801165569 0 -0.024893405156385291 -0.0093926880542285242 0 -0.025676939868677973 -0.010029280772311331 0 -0.025863942237833507 -0.0082764761796667429 0 -0.026790510741478899 -0.0084729661409758406 0 -0.026811158370996485 -0.0071554846920833682 0 -0.025885371032974162 -0.0077603437695500568 0 -0.025943131399180953 -0.010844181587505402 0 -0.024893405156385291 -0.0093926880542285242 0 -0.026480344390155498 -0.0090446332030460642 0 -0.025943131399180953 -0.010844181587505402 0 -0.026480344390155498 -0.0090446332030460642 0 -0.027150782399286484 -0.01026572577360552 0 -0.026480344390155498 -0.0090446332030460642 0 -0.025405394858513935 -0.0071195688409659633 0 -0.027494044462370026 -0.007482210352274467 0 -0.024893405156385291 -0.0093926880542285242 0 -0.026480344390155498 -0.0090446332030460642 0 -0.025405394858513935 -0.0071195688409659633 0 -0.026811158370996485 -0.0071554846920833682 0 -0.025873232019270838 -0.0064607646322019331 0 -0.026688789869303689 -0.0058763106949428282 0 -0.025863942237833507 -0.0082764761796667429 0 -0.026059518147583189 -0.0065315198772850219 0 -0.025873232019270838 -0.0064607646322019331 0 -0.024999907382893576 -0.0071250501071911752 0 -0.024999890103861406 -0.0058325284868845136 0 -0.025873232019270838 -0.0064607646322019331 0 -0.024999907382893576 -0.0071250501071911752 0 -0.025885371032974162 -0.0077603437695500568 0 -0.024999946706677607 -0.0084176178796039579 0 -0.024999907382893576 -0.0071250501071911752 0 -0.025885371032974162 -0.0077603437695500568 0 -0.026811158370996485 -0.0071554846920833682 0 -0.025873232019270838 -0.0064607646322019331 0 -0.025885371032974162 -0.0077603437695500568 0 -0.026418195233602559 -0.013795471330027053 0 -0.026301519228370217 -0.013679593702357018 0 -0.026269941396953565 -0.013812988072803683 0 -0.028071318029285808 -0.011622998945228866 0 -0.027544615568555482 -0.012278476551339672 0 -0.026418195233602559 -0.013795471330027053 0 -0.026301519228370217 -0.013679593702357018 0 -0.026645820617328786 -0.013599271093931494 0 -0.026301519228370217 -0.013679593702357018 0 -0.026269941396953565 -0.013812988072803683 0 -0.026013848222740766 -0.013633151508277793 0 -0.02468066254696245 -0.011575062572852389 0 -0.024518546474310864 -0.011231140859880511 0 -0.023089023458532983 -0.0088247741915446209 0 -0.023014064718728956 -0.0087942463005440084 0 -0.023149198481428254 -0.0088020038768607724 0 -0.023089023458532983 -0.0088247741915446209 0 -0.023034039514837089 -0.008792667246914224 0 -0.023149198481428254 -0.0088020038768607724 0 -0.028071318029285808 -0.011622998945228866 0 -0.025339043803795952 -0.0095216673421849862 0 -0.026418195233602559 -0.013795471330027053 0 -0.026269941396953565 -0.013812988072803683 0 -0.026351146211483736 -0.013832258977113793 0 -0.02468066254696245 -0.011575062572852389 0 -0.025339043803795952 -0.0095216673421849862 0 -0.029311514772017922 -0.009196304271637144 0 -0.02867968159235211 -0.0077181585697174747 0 -0.029794647230979406 -0.0073187005577010191 0 -0.029311514772017922 -0.009196304271637144 0 -0.027958580039401056 -0.0090457060726440164 0 -0.02867968159235211 -0.0077181585697174747 0 -0.027958580039401056 -0.0090457060726440164 0 -0.027494044462370026 -0.007482210352274467 0 -0.02867968159235211 -0.0077181585697174747 0 -0.026480344390155498 -0.0090446332030460642 0 -0.027958580039401056 -0.0090457060726440164 0 -0.027494044462370026 -0.007482210352274467 0 -0.026480344390155498 -0.0090446332030460642 0 -0.027958580039401056 -0.0090457060726440164 0 -0.027150782399286484 -0.01026572577360552 0 -0.027958580039401056 -0.0090457060726440164 0 -0.027150782399286484 -0.01026572577360552 0 -0.028522972990285517 -0.011138509953369341 0 -0.029311514772017922 -0.009196304271637144 0 -0.027958580039401056 -0.0090457060726440164 0 -0.028522972990285517 -0.011138509953369341 0 -0.027150782399286484 -0.01026572577360552 0 -0.028522972990285517 -0.011138509953369341 0 -0.02718327848259788 -0.011476245359777936 0 -0.025943131399180953 -0.010844181587505402 0 -0.027150782399286484 -0.01026572577360552 0 -0.02718327848259788 -0.011476245359777936 0 -0.026377987307371061 -0.012119607700521019 0 -0.025943131399180953 -0.010844181587505402 0 -0.02718327848259788 -0.011476245359777936 0 -0.026377987307371061 -0.012119607700521019 0 -0.02718327848259788 -0.011476245359777936 0 -0.026830019948856716 -0.012387278086475479 0 -0.026493167339085039 -0.012451409628782661 0 -0.026377987307371061 -0.012119607700521019 0 -0.026830019948856716 -0.012387278086475479 0 -0.028522972990285517 -0.011138509953369341 0 -0.02718327848259788 -0.011476245359777936 0 -0.027105373861845351 -0.012832387470468975 0 -0.027544615568555482 -0.012278476551339672 0 -0.027219544753584013 -0.012744771136714891 0 -0.02718327848259788 -0.011476245359777936 0 -0.026830019948856716 -0.012387278086475479 0 -0.027105373861845351 -0.012832387470468975 0 -0.026645820617328786 -0.013599271093931494 0 -0.027105373861845351 -0.012832387470468975 0 -0.026440679446164895 -0.01312550249062863 0 -0.026645820617328786 -0.013599271093931494 0 -0.026440679446164895 -0.01312550249062863 0 -0.026134924729320119 -0.013396019760235533 0 -0.026301519228370217 -0.013679593702357018 0 -0.026645820617328786 -0.013599271093931494 0 -0.026134924729320119 -0.013396019760235533 0 -0.026301519228370217 -0.013679593702357018 0 -0.026134924729320119 -0.013396019760235533 0 -0.026013848222740766 -0.013633151508277793 0 -0.026440679446164895 -0.01312550249062863 0 -0.026134924729320119 -0.013396019760235533 0 -0.026146225560517797 -0.013175653760788051 0 -0.026134924729320119 -0.013396019760235533 0 -0.026146225560517797 -0.013175653760788051 0 -0.025881102628844681 -0.013325844231353783 0 -0.026146225560517797 -0.013175653760788051 0 -0.025912164740077369 -0.013278144298385242 0 -0.025881102628844681 -0.013325844231353783 0 -0.026146225560517797 -0.013175653760788051 0 -0.025912164740077369 -0.013278144298385242 0 -0.026166911536898086 -0.013103524029140584 0 -0.027105373861845351 -0.012832387470468975 0 -0.026440679446164895 -0.01312550249062863 0 -0.026521981473936824 -0.012918648888432622 0 -0.026440679446164895 -0.01312550249062863 0 -0.026146225560517797 -0.013175653760788051 0 -0.026521981473936824 -0.012918648888432622 0 -0.026146225560517797 -0.013175653760788051 0 -0.026521981473936824 -0.012918648888432622 0 -0.026166911536898086 -0.013103524029140584 0 -0.026521981473936824 -0.012918648888432622 0 -0.026322123046945846 -0.012935820628977369 0 -0.026166911536898086 -0.013103524029140584 0 -0.026521981473936824 -0.012918648888432622 0 -0.026322123046945846 -0.012935820628977369 0 -0.026625357034787467 -0.012720748974140281 0 -0.026322123046945846 -0.012935820628977369 0 -0.025927927236838899 -0.013229125125564662 0 -0.026166911536898086 -0.013103524029140584 0 -0.025927927236838899 -0.013229125125564662 0 -0.025713771766910292 -0.013411801717457492 0 -0.025703490369081917 -0.013370585487993187 0 -0.025927927236838899 -0.013229125125564662 0 -0.025912164740077369 -0.013278144298385242 0 -0.025713771766910292 -0.013411801717457492 0 -0.025927927236838899 -0.013229125125564662 0 -0.025912164740077369 -0.013278144298385242 0 -0.026166911536898086 -0.013103524029140584 0 -0.026566230206903924 -0.012475167192236207 0 -0.026493167339085039 -0.012451409628782661 0 -0.026699906179804053 -0.01261606459334145 0 -0.026830019948856716 -0.012387278086475479 0 -0.027105373861845351 -0.012832387470468975 0 -0.026699906179804053 -0.01261606459334145 0 -0.026493167339085039 -0.012451409628782661 0 -0.026830019948856716 -0.012387278086475479 0 -0.026699906179804053 -0.01261606459334145 0 -0.026699906179804053 -0.01261606459334145 0 -0.02675831047506666 -0.012768009120765093 0 -0.026673268973889323 -0.012631112700186877 0 -0.027105373861845351 -0.012832387470468975 0 -0.026521981473936824 -0.012918648888432622 0 -0.02675831047506666 -0.012768009120765093 0 -0.027105373861845351 -0.012832387470468975 0 -0.026699906179804053 -0.01261606459334145 0 -0.02675831047506666 -0.012768009120765093 0 -0.026521981473936824 -0.012918648888432622 0 -0.02675831047506666 -0.012768009120765093 0 -0.026625357034787467 -0.012720748974140281 0 -0.02675831047506666 -0.012768009120765093 0 -0.026625357034787467 -0.012720748974140281 0 -0.026673268973889323 -0.012631112700186877 0 -0.026625357034787467 -0.012720748974140281 0 -0.026673268973889323 -0.012631112700186877 0 -0.026653814516219253 -0.012551455644079139 0 -0.026566230206903924 -0.012475167192236207 0 -0.026673268973889323 -0.012631112700186877 0 -0.026653814516219253 -0.012551455644079139 0 -0.026566230206903924 -0.012475167192236207 0 -0.026699906179804053 -0.01261606459334145 0 -0.026673268973889323 -0.012631112700186877 0 -0.026625357034787467 -0.012720748974140281 0 -0.026636064071035824 -0.012591530519879908 0 -0.026653814516219253 -0.012551455644079139 0 -0.02667595100684849 -0.012511554607705684 0 -0.026636064071035824 -0.012591530519879908 0 -0.026653814516219253 -0.012551455644079139 0 -0.026625357034787467 -0.012720748974140281 0 -0.026636064071035824 -0.012591530519879908 0 -0.026489939505681296 -0.012674368898725996 0 -0.026641087131207275 -0.012460316396302844 0 -0.026636064071035824 -0.012591530519879908 0 -0.026489939505681296 -0.012674368898725996 0 -0.026839629725388787 -0.013644619587978541 0 -0.026239014357184509 -0.013291781093720902 0 -0.026641087131207275 -0.012460316396302844 0 -0.026489939505681296 -0.012674368898725996 0 -0.026309033847018264 -0.012436634119718603 0 -0.026641087131207275 -0.012460316396302844 0 -0.02667595100684849 -0.012511554607705684 0 -0.026636064071035824 -0.012591530519879908 0 -0.026839629725388787 -0.013644619587978541 0 -0.027049531901658708 -0.012677104170575429 0 -0.028183517395435936 -0.013304348224169236 0 -0.026926121405066658 -0.013430334262579988 0 -0.027374023512493777 -0.012875222605546676 0 -0.026039642439815162 -0.01300151465895746 0 -0.026266407342521517 -0.012831488963346594 0 -0.026087220204056294 -0.012699048706709458 0 -0.026039642439815162 -0.01300151465895746 0 -0.025736568711908093 -0.01285335084311977 0 -0.026087220204056294 -0.012699048706709458 0 -0.026039642439815162 -0.01300151465895746 0 -0.025736568711908093 -0.01285335084311977 0 -0.025797337063608112 -0.013221344682784285 0 -0.025736568711908093 -0.01285335084311977 0 -0.025797337063608112 -0.013221344682784285 0 -0.025491588765310456 -0.013436140893535972 0 -0.025927927236838899 -0.013229125125564662 0 -0.025797337063608112 -0.013221344682784285 0 -0.025703490369081917 -0.013370585487993187 0 -0.025927927236838899 -0.013229125125564662 0 -0.026039642439815162 -0.01300151465895746 0 -0.025797337063608112 -0.013221344682784285 0 -0.026322123046945846 -0.012935820628977369 0 -0.025927927236838899 -0.013229125125564662 0 -0.026039642439815162 -0.01300151465895746 0 -0.026322123046945846 -0.012935820628977369 0 -0.026625357034787467 -0.012720748974140281 0 -0.026489939505681296 -0.012674368898725996 0 -0.026322123046945846 -0.012935820628977369 0 -0.026039642439815162 -0.01300151465895746 0 -0.026266407342521517 -0.012831488963346594 0 -0.026322123046945846 -0.012935820628977369 0 -0.026489939505681296 -0.012674368898725996 0 -0.026266407342521517 -0.012831488963346594 0 -0.026489939505681296 -0.012674368898725996 0 -0.026266407342521517 -0.012831488963346594 0 -0.026309033847018264 -0.012436634119718603 0 -0.026266407342521517 -0.012831488963346594 0 -0.026309033847018264 -0.012436634119718603 0 -0.026087220204056294 -0.012699048706709458 0 -0.026239014357184509 -0.013291781093720902 0 -0.025961682304990175 -0.01423390474267733 0 -0.025736568711908093 -0.01285335084311977 0 -0.026087220204056294 -0.012699048706709458 0 -0.025389454072071133 -0.012387916677643733 0 -0.026309033847018264 -0.012436634119718603 0 -0.026087220204056294 -0.012699048706709458 0 -0.025389454072071133 -0.012387916677643733 0 -0.025961682304990175 -0.01423390474267733 0 -0.025352695863568753 -0.013278579493231085 0 -0.025736568711908093 -0.01285335084311977 0 -0.025389454072071133 -0.012387916677643733 0 -0.025491588765310456 -0.013436140893535972 0 -0.02539493650284096 -0.015035566492632605 0 -0.025724661456058482 -0.014355992593062269 0 -0.025491588765310456 -0.013436140893535972 0 -0.02539493650284096 -0.015035566492632605 0 -0.025724661456058482 -0.014355992593062269 0 -0.025951437171740588 -0.014808503570399997 0 -0.025724661456058482 -0.014355992593062269 0 -0.025583770591231084 -0.013642763927154569 0 -0.026275775368890933 -0.01487066997970868 0 -0.025724661456058482 -0.014355992593062269 0 -0.025583770591231084 -0.013642763927154569 0 -0.025491588765310456 -0.013436140893535972 0 -0.025583770591231084 -0.013642763927154569 0 -0.025584143291372791 -0.013884167465857878 0 -0.025564233901283036 -0.014183314184778285 0 -0.025583770591231084 -0.013642763927154569 0 -0.025600037980550314 -0.013653698936120418 0 -0.025584143291372791 -0.013884167465857878 0 -0.025600037980550314 -0.013653698936120418 0 -0.025584143291372791 -0.013884167465857878 0 -0.025615064121072582 -0.013714907690130089 0 -0.025583770591231084 -0.013642763927154569 0 -0.025600037980550314 -0.013653698936120418 0 -0.025609956877321108 -0.013493379041573595 0 -0.025583770591231084 -0.013642763927154569 0 -0.025491588765310456 -0.013436140893535972 0 -0.025609956877321108 -0.013493379041573595 0 -0.025797337063608112 -0.013221344682784285 0 -0.025491588765310456 -0.013436140893535972 0 -0.025703490369081917 -0.013370585487993187 0 -0.025491588765310456 -0.013436140893535972 0 -0.025609956877321108 -0.013493379041573595 0 -0.025703490369081917 -0.013370585487993187 0 -0.025563013254325438 -0.013826967623097481 0 -0.025888550936865762 -0.014762102750133408 0 -0.025583770591231084 -0.013642763927154569 0 -0.025564233901283036 -0.014183314184778285 0 -0.025490581331111394 -0.014740929925303452 0 -0.025613655393742919 -0.014144681644037588 0 -0.025638031812583527 -0.014639633602426089 0 -0.025698781687949084 -0.014257914944832348 0 -0.025613655393742919 -0.014144681644037588 0 -0.025584143291372791 -0.013884167465857878 0 -0.025615064121072582 -0.013714907690130089 0 -0.025613655393742919 -0.014144681644037588 0 -0.025584143291372791 -0.013884167465857878 0 -0.025564233901283036 -0.014183314184778285 0 -0.025613655393742919 -0.014144681644037588 0 -0.025564233901283036 -0.014183314184778285 0 -0.025580410356866961 -0.014512238457909372 0 -0.025613655393742919 -0.014144681644037588 0 -0.025580410356866961 -0.014512238457909372 0 -0.025638031812583527 -0.014639633602426089 0 -0.025564233901283036 -0.014183314184778285 0 -0.025580410356866961 -0.014512238457909372 0 -0.025490581331111394 -0.014740929925303452 0 -0.025580410356866961 -0.014512238457909372 0 -0.025571302952797741 -0.014738835070247803 0 -0.025638031812583527 -0.014639633602426089 0 -0.026407043548914686 -0.015713954636859713 0 -0.026275775368890933 -0.01487066997970868 0 -0.026212181327003026 -0.015068578987411943 0 -0.025952147042009981 -0.015422577336250324 0 -0.025645762640453994 -0.015181981719353851 0 -0.026212181327003026 -0.015068578987411943 0 -0.02539493650284096 -0.015035566492632605 0 -0.025951437171740588 -0.014808503570399997 0 -0.026212181327003026 -0.015068578987411943 0 -0.025961682304990175 -0.01423390474267733 0 -0.025977938400270403 -0.015063082354257013 0 -0.025580410356866961 -0.014512238457909372 0 -0.025490581331111394 -0.014740929925303452 0 -0.025571302952797741 -0.014738835070247803 0 -0.025724661456058482 -0.014355992593062269 0 -0.026275775368890933 -0.01487066997970868 0 -0.025951437171740588 -0.014808503570399997 0 -0.026275775368890933 -0.01487066997970868 0 -0.025951437171740588 -0.014808503570399997 0 -0.026212181327003026 -0.015068578987411943 0 -0.025467535546423972 -0.01521475594870856 0 -0.025546533053411383 -0.014940232059903901 0 -0.025503119692521361 -0.0151375907296981 0 -0.025546533053411383 -0.014940232059903901 0 -0.025503119692521361 -0.0151375907296981 0 -0.025691812328733441 -0.014885458115420934 0 -0.02592240384624896 -0.015455068793622831 0 -0.025888550936865762 -0.014762102750133408 0 -0.025467535546423972 -0.01521475594870856 0 -0.025490581331111394 -0.014740929925303452 0 -0.025546533053411383 -0.014940232059903901 0 -0.025546533053411383 -0.014940232059903901 0 -0.025571302952797741 -0.014738835070247803 0 -0.025638031812583527 -0.014639633602426089 0 -0.025490581331111394 -0.014740929925303452 0 -0.025546533053411383 -0.014940232059903901 0 -0.025571302952797741 -0.014738835070247803 0 -0.025691812328733441 -0.014885458115420934 0 -0.025463243495469745 -0.015368545420348748 0 -0.025413350914964064 -0.015225566896206818 0 -0.025503119692521361 -0.0151375907296981 0 -0.025691812328733441 -0.014885458115420934 0 -0.025413350914964064 -0.015225566896206818 0 -0.025546533053411383 -0.014940232059903901 0 -0.025638031812583527 -0.014639633602426089 0 -0.025691812328733441 -0.014885458115420934 0 -0.025668099385285952 -0.014665509682307471 0 -0.025980631058172703 -0.014845250476054048 0 -0.025691812328733441 -0.014885458115420934 0 -0.025698781687949084 -0.014257914944832348 0 -0.02586473201489875 -0.013884960847006729 0 -0.025638031812583527 -0.014639633602426089 0 -0.025691812328733441 -0.014885458115420934 0 -0.025698781687949084 -0.014257914944832348 0 -0.025691812328733441 -0.014885458115420934 0 -0.025827346067607712 -0.0152416493088052 0 -0.025463243495469745 -0.015368545420348748 0 -0.025827346067607712 -0.0152416493088052 0 -0.025463243495469745 -0.015368545420348748 0 -0.025709639349957309 -0.015456938679673312 0 -0.025980631058172703 -0.014845250476054048 0 -0.024664433273184013 -0.012988452545881886 0 -0.025433356548724674 -0.015565650605391147 0 -0.025709639349957309 -0.015456938679673312 0 -0.025618009338542524 -0.015618098411960702 0 -0.025463243495469745 -0.015368545420348748 0 -0.025433356548724674 -0.015565650605391147 0 -0.025709639349957309 -0.015456938679673312 0 -0.025709639349957309 -0.015456938679673312 0 -0.025918516900479464 -0.01545841163206812 0 -0.025618009338542524 -0.015618098411960702 0 -0.024664433273184013 -0.012988452545881886 0 -0.024432969605185859 -0.012288156777056511 0 -0.025827346067607712 -0.0152416493088052 0 -0.025709639349957309 -0.015456938679673312 0 -0.025918516900479464 -0.01545841163206812 0 -0.02573866442464251 -0.013409899490396808 0 -0.025751743259070196 -0.01339014492226172 0 -0.025783149144612216 -0.013405468922211981 0 -0.02573866442464251 -0.013409899490396808 0 -0.025696543292193702 -0.013488307898241679 0 -0.025751743259070196 -0.01339014492226172 0 -0.024664433273184013 -0.012988452545881886 0 -0.025517214901169701 -0.013095510989329259 0 -0.025751743259070196 -0.01339014492226172 0 -0.025881102628844681 -0.013325844231353783 0 -0.025783149144612216 -0.013405468922211981 0 -0.025912164740077369 -0.013278144298385242 0 -0.025881102628844681 -0.013325844231353783 0 -0.025743021795459467 -0.013399426734116556 0 -0.025696543292193702 -0.013488307898241679 0 -0.025751743259070196 -0.01339014492226172 0 -0.025743021795459467 -0.013399426734116556 0 -0.025751743259070196 -0.01339014492226172 0 -0.025881102628844681 -0.013325844231353783 0 -0.025743021795459467 -0.013399426734116556 0 -0.025743021795459467 -0.013399426734116556 0 -0.025662823262448464 -0.013525024972739301 0 -0.025713771766910292 -0.013411801717457492 0 -0.025696543292193702 -0.013488307898241679 0 -0.025743021795459467 -0.013399426734116556 0 -0.025662823262448464 -0.013525024972739301 0 -0.025912164740077369 -0.013278144298385242 0 -0.025743021795459467 -0.013399426734116556 0 -0.025713771766910292 -0.013411801717457492 0 -0.025713771766910292 -0.013411801717457492 0 -0.025609956877321108 -0.013493379041573595 0 -0.0256303642245133 -0.013556454569884177 0 -0.025713771766910292 -0.013411801717457492 0 -0.025609956877321108 -0.013493379041573595 0 -0.025703490369081917 -0.013370585487993187 0 -0.025662823262448464 -0.013525024972739301 0 -0.025713771766910292 -0.013411801717457492 0 -0.0256303642245133 -0.013556454569884177 0 -0.025662823262448464 -0.013525024972739301 0 -0.0256303642245133 -0.013556454569884177 0 -0.025615064121072582 -0.013714907690130089 0 -0.025600037980550314 -0.013653698936120418 0 -0.025609956877321108 -0.013493379041573595 0 -0.0256303642245133 -0.013556454569884177 0 -0.025600037980550314 -0.013653698936120418 0 -0.0256303642245133 -0.013556454569884177 0 -0.025615064121072582 -0.013714907690130089 0 -0.025613655393742919 -0.014144681644037588 0 -0.025615064121072582 -0.013714907690130089 0 -0.025674671739169989 -0.013751557367722926 0 -0.025662823262448464 -0.013525024972739301 0 -0.025615064121072582 -0.013714907690130089 0 -0.025674671739169989 -0.013751557367722926 0 -0.025613655393742919 -0.014144681644037588 0 -0.025698781687949084 -0.014257914944832348 0 -0.025674671739169989 -0.013751557367722926 0 -0.025698781687949084 -0.014257914944832348 0 -0.02586473201489875 -0.013884960847006729 0 -0.025674671739169989 -0.013751557367722926 0 -0.02586473201489875 -0.013884960847006729 0 -0.025764757766326363 -0.013446075724976983 0 -0.025674671739169989 -0.013751557367722926 0 -0.025764757766326363 -0.013446075724976983 0 -0.025696543292193702 -0.013488307898241679 0 -0.025674671739169989 -0.013751557367722926 0 -0.025696543292193702 -0.013488307898241679 0 -0.025662823262448464 -0.013525024972739301 0 -0.025674671739169989 -0.013751557367722926 0 -0.024835233208902931 -0.016345894123534297 0 -0.024569655754813811 -0.016504839065743342 0 -0.024566678678998338 -0.016390646221649659 0 -0.024835233208902931 -0.016345894123534297 0 -0.024655616248809534 -0.016141493569276025 0 -0.024566678678998338 -0.016390646221649659 0 -0.024835233208902931 -0.016345894123534297 0 -0.025136497116269751 -0.015827545182089345 0 -0.024655616248809534 -0.016141493569276025 0 -0.025075670458219554 -0.01548646275578053 0 -0.025136497116269751 -0.015827545182089345 0 -0.025193578322167062 -0.015471724168514752 0 -0.024945202117403188 -0.015920298084733556 0 -0.025103654572887487 -0.015833493897114557 0 -0.025075670458219554 -0.01548646275578053 0 -0.025193578322167062 -0.015471724168514752 0 -0.025104792887186225 -0.015518012844935654 0 -0.025193578322167062 -0.015471724168514752 0 -0.025247877442493061 -0.015470550370534849 0 -0.025104792887186225 -0.015518012844935654 0 -0.025274085808376919 -0.015620862561664825 0 -0.025136497116269751 -0.015827545182089345 0 -0.025193578322167062 -0.015471724168514752 0 -0.025274085808376919 -0.015620862561664825 0 -0.025193578322167062 -0.015471724168514752 0 -0.025332180274467566 -0.015377932320921663 0 -0.025503119692521361 -0.0151375907296981 0 -0.025332180274467566 -0.015377932320921663 0 -0.025413350914964064 -0.015225566896206818 0 -0.025381326614775147 -0.01541237051270542 0 -0.025503119692521361 -0.0151375907296981 0 -0.025332180274467566 -0.015377932320921663 0 -0.025381326614775147 -0.01541237051270542 0 -0.025274085808376919 -0.015620862561664825 0 -0.025332180274467566 -0.015377932320921663 0 -0.025193578322167062 -0.015471724168514752 0 -0.025332180274467566 -0.015377932320921663 0 -0.025413350914964064 -0.015225566896206818 0 -0.025193578322167062 -0.015471724168514752 0 -0.025413350914964064 -0.015225566896206818 0 -0.025247877442493061 -0.015470550370534849 0 -0.025463243495469745 -0.015368545420348748 0 -0.025413350914964064 -0.015225566896206818 0 -0.025247877442493061 -0.015470550370534849 0 -0.025463243495469745 -0.015368545420348748 0 -0.025310960123687602 -0.015509451743092076 0 -0.025247877442493061 -0.015470550370534849 0 -0.025433356548724674 -0.015565650605391147 0 -0.025310960123687602 -0.015509451743092076 0 -0.025282149487814598 -0.015617802601788243 0 -0.025463243495469745 -0.015368545420348748 0 -0.025433356548724674 -0.015565650605391147 0 -0.025310960123687602 -0.015509451743092076 0 -0.024879358719664204 -0.015364693735799262 0 -0.025271461168828727 -0.015578401049923942 0 -0.025310960123687602 -0.015509451743092076 0 -0.025220023874558024 -0.015541529094348264 0 -0.025247877442493061 -0.015470550370534849 0 -0.025310960123687602 -0.015509451743092076 0 -0.025220023874558024 -0.015541529094348264 0 -0.025282149487814598 -0.015617802601788243 0 -0.025159658837000335 -0.015826037026420062 0 -0.025247877442493061 -0.015470550370534849 0 -0.025047644116839126 -0.015724761677378483 0 -0.025247877442493061 -0.015470550370534849 0 -0.025104792887186225 -0.015518012844935654 0 -0.025047644116839126 -0.015724761677378483 0 -0.025075670458219554 -0.01548646275578053 0 -0.025104792887186225 -0.015518012844935654 0 -0.024956963516246704 -0.015618209889142339 0 -0.025104792887186225 -0.015518012844935654 0 -0.024956963516246704 -0.015618209889142339 0 -0.025047644116839126 -0.015724761677378483 0 -0.024879358719664204 -0.015364693735799262 0 -0.025150054486922587 -0.01573917818046866 0 -0.025143478328422269 -0.015843064784639264 0 -0.025047644116839126 -0.015724761677378483 0 -0.024886445403161823 -0.015968355512799046 0 -0.025047644116839126 -0.015724761677378483 0 -0.024800599842368206 -0.015836582100139263 0 -0.024886445403161823 -0.015968355512799046 0 -0.024956963516246704 -0.015618209889142339 0 -0.025047644116839126 -0.015724761677378483 0 -0.024800599842368206 -0.015836582100139263 0 -0.024800599842368206 -0.015836582100139263 0 -0.024746880072860654 -0.015624914831361175 0 -0.024483578758272031 -0.015942349763867616 0 -0.024945202117403188 -0.015920298084733556 0 -0.024666260572216225 -0.01606913007431459 0 -0.025075670458219554 -0.01548646275578053 0 -0.024956963516246704 -0.015618209889142339 0 -0.024746880072860654 -0.015624914831361175 0 -0.024956963516246704 -0.015618209889142339 0 -0.024800599842368206 -0.015836582100139263 0 -0.024746880072860654 -0.015624914831361175 0 -0.02464338356126973 -0.016276358477743433 0 -0.024415377837413144 -0.016361750105225024 0 -0.024506974398070432 -0.01627944294268957 0 -0.02464338356126973 -0.016276358477743433 0 -0.024658983116125958 -0.016129126432627306 0 -0.024864206945784641 -0.016204620711151582 0 -0.02464338356126973 -0.016276358477743433 0 -0.024658983116125958 -0.016129126432627306 0 -0.024506974398070432 -0.01627944294268957 0 -0.024800599842368206 -0.015836582100139263 0 -0.024658983116125958 -0.016129126432627306 0 -0.024483578758272031 -0.015942349763867616 0 -0.024800599842368206 -0.015836582100139263 0 -0.024658983116125958 -0.016129126432627306 0 -0.024886445403161823 -0.015968355512799046 0 -0.024658983116125958 -0.016129126432627306 0 -0.024886445403161823 -0.015968355512799046 0 -0.024864206945784641 -0.016204620711151582 0 -0.024879358719664204 -0.015364693735799262 0 -0.024762469966214447 -0.015135694013135793 0 -0.025143478328422269 -0.015843064784639264 0 -0.024886445403161823 -0.015968355512799046 0 -0.024864206945784641 -0.016204620711151582 0 -0.024762469966214447 -0.015135694013135793 0 -0.023966857538526495 -0.012779216244620979 0 -0.02464338356126973 -0.016276358477743433 0 -0.024864206945784641 -0.016204620711151582 0 -0.024556969714006716 -0.016179815271019578 0 -0.024598622145134981 -0.01356695548564618 0 -0.024167593398850967 -0.013152137899905903 0 -0.024908703400295547 -0.012679556919751346 0 -0.024167593398850967 -0.013152137899905903 0 -0.024096239517758869 -0.013687222283935653 0 -0.023401091158794358 -0.013628895622651429 0 -0.024598622145134981 -0.01356695548564618 0 -0.024167593398850967 -0.013152137899905903 0 -0.024096239517758869 -0.013687222283935653 0 -0.024276161157297232 -0.014455304370705458 0 -0.024598622145134981 -0.01356695548564618 0 -0.024096239517758869 -0.013687222283935653 0 -0.024276161157297232 -0.014455304370705458 0 -0.023835049940030242 -0.01404474885599475 0 -0.024096239517758869 -0.013687222283935653 0 -0.024879358719664204 -0.015364693735799262 0 -0.024862034385628118 -0.015033284455346062 0 -0.024862034385628118 -0.015033284455346062 0 -0.023630578313493772 -0.01149338612680126 0 -0.023835049940030242 -0.01404474885599475 0 -0.024096239517758869 -0.013687222283935653 0 -0.023401091158794358 -0.013628895622651429 0 -0.025433356548724674 -0.015565650605391147 0 -0.025282149487814598 -0.015617802601788243 0 -0.025374348554845813 -0.015709660847978296 0 -0.022133424540124826 -0.0083837293646996276 0 -0.022480405043706148 -0.0082080872085362293 0 -0.022427509438492366 -0.0084614303539569391 0 -0.023046472225427689 -0.01047969474689766 0 -0.023630578313493772 -0.01149338612680126 0 -0.022480405043706148 -0.0082080872085362293 0 -0.022427509438492366 -0.0084614303539569391 0 -0.022702528442358181 -0.0084129586222452622 0 -0.022427509438492366 -0.0084614303539569391 0 -0.022441667899831045 -0.0086718239158431066 0 -0.02223170149869173 -0.0086093682177581805 0 -0.022427509438492366 -0.0084614303539569391 0 -0.022441667899831045 -0.0086718239158431066 0 -0.022649186206728834 -0.0086654304421574426 0 -0.022441667899831045 -0.0086718239158431066 0 -0.022549328625444075 -0.008818859755843525 0 -0.022649186206728834 -0.0086654304421574426 0 -0.022441667899831045 -0.0086718239158431066 0 -0.022290015238516162 -0.0088441063660684213 0 -0.02223170149869173 -0.0086093682177581805 0 -0.022441667899831045 -0.0086718239158431066 0 -0.022549328625444075 -0.008818859755843525 0 -0.022290015238516162 -0.0088441063660684213 0 -0.022290015238516162 -0.0088441063660684213 0 -0.021989986902489166 -0.0088124016698337727 0 -0.02223170149869173 -0.0086093682177581805 0 -0.021989986902489166 -0.0088124016698337727 0 -0.022017273768641692 -0.008595138979340165 0 -0.02223170149869173 -0.0086093682177581805 0 -0.022133424540124826 -0.0083837293646996276 0 -0.022427509438492366 -0.0084614303539569391 0 -0.02223170149869173 -0.0086093682177581805 0 -0.022133424540124826 -0.0083837293646996276 0 -0.022017273768641692 -0.008595138979340165 0 -0.02223170149869173 -0.0086093682177581805 0 -0.022133424540124826 -0.0083837293646996276 0 -0.022017273768641692 -0.008595138979340165 0 -0.021762020437106722 -0.0085928726367807337 0 -0.023046472225427689 -0.01047969474689766 0 -0.023966857538526495 -0.012779216244620979 0 -0.022017273768641692 -0.008595138979340165 0 -0.021762020437106722 -0.0085928726367807337 0 -0.021873491554588814 -0.0086776090371967242 0 -0.021989986902489166 -0.0088124016698337727 0 -0.022017273768641692 -0.008595138979340165 0 -0.021873491554588814 -0.0086776090371967242 0 -0.021989986902489166 -0.0088124016698337727 0 -0.021873491554588814 -0.0086776090371967242 0 -0.021801815963048102 -0.0087963751394301883 0 -0.021989986902489166 -0.0088124016698337727 0 -0.021801815963048102 -0.0087963751394301883 0 -0.021786718587961773 -0.0089388066906625849 0 -0.021762020437106722 -0.0085928726367807337 0 -0.021873491554588814 -0.0086776090371967242 0 -0.021801815963048102 -0.0087963751394301883 0 -0.023966857538526495 -0.012779216244620979 0 -0.023414943171642819 -0.01251684403520697 0 -0.024556969714006716 -0.016179815271019578 0 -0.024687808702928235 -0.016031618039794887 0 -0.024514720991701867 -0.015723410311021351 0 -0.021762020437106722 -0.0085928726367807337 0 -0.021801815963048102 -0.0087963751394301883 0 -0.021592915372379329 -0.0089344785835125829 0 -0.02464338356126973 -0.016276358477743433 0 -0.024556969714006716 -0.016179815271019578 0 -0.024687808702928235 -0.016031618039794887 0 -0.02463822069596041 -0.016256578674357484 0 -0.024543620587319941 -0.016287689473105989 0 -0.02464338356126973 -0.016276358477743433 0 -0.024477699069947265 -0.016479456809642194 0 -0.024415377837413144 -0.016361750105225024 0 -0.022943097977174479 -0.0089103969362335847 0 -0.022997687031503091 -0.0088598668033839957 0 -0.022964225886196728 -0.0087650765567710426 0 -0.024518546474310864 -0.011231140859880511 0 -0.024240503211286627 -0.01085033296188654 0 -0.026134924729320119 -0.013396019760235533 0 -0.026013848222740766 -0.013633151508277793 0 -0.025783149144612216 -0.013405468922211981 0 -0.022985397717804265 -0.008798472208182433 0 -0.022943097977174479 -0.0089103969362335847 0 -0.022964225886196728 -0.0087650765567710426 0 -0.026134924729320119 -0.013396019760235533 0 -0.025881102628844681 -0.013325844231353783 0 -0.025783149144612216 -0.013405468922211981 0 -0.024664433273184013 -0.012988452545881886 0 -0.024240503211286627 -0.01085033296188654 0 -0.022996096444604285 -0.0090629635187810167 0 -0.022943097977174479 -0.0089103969362335847 0 -0.022997687031503091 -0.0088598668033839957 0 -0.022996096444604285 -0.0090629635187810167 0 -0.023091738164001431 -0.0089860966032071759 0 -0.022997687031503091 -0.0088598668033839957 0 -0.023630578313493772 -0.01149338612680126 0 -0.024432969605185859 -0.012288156777056511 0 -0.025433356548724674 -0.015565650605391147 0 -0.025374348554845813 -0.015709660847978296 0 -0.025618009338542524 -0.015618098411960702 0 -0.023218745245193968 -0.0089143309547182036 0 -0.023091738164001431 -0.0089860966032071759 0 -0.023106487178824072 -0.0088045340815885911 0 -0.023630578313493772 -0.01149338612680126 0 -0.022573221761145231 -0.0082288786412811395 0 -0.023106487178824072 -0.0088045340815885911 0 -0.022997687031503091 -0.0088598668033839957 0 -0.022932269463132805 -0.0087013370060391552 0 -0.023091738164001431 -0.0089860966032071759 0 -0.023106487178824072 -0.0088045340815885911 0 -0.022997687031503091 -0.0088598668033839957 0 -0.022573221761145231 -0.0082288786412811395 0 -0.023067584949896067 -0.0088123249824078997 0 -0.022702528442358181 -0.0084129586222452622 0 -0.022932269463132805 -0.0087013370060391552 0 -0.022649186206728834 -0.0086654304421574426 0 -0.022427509438492366 -0.0084614303539569391 0 -0.022702528442358181 -0.0084129586222452622 0 -0.022649186206728834 -0.0086654304421574426 0 -0.022932269463132805 -0.0087013370060391552 0 -0.022649186206728834 -0.0086654304421574426 0 -0.022739636726850383 -0.0088148127590777416 0 -0.022549328625444075 -0.008818859755843525 0 -0.022649186206728834 -0.0086654304421574426 0 -0.022739636726850383 -0.0088148127590777416 0 -0.022932269463132805 -0.0087013370060391552 0 -0.022739636726850383 -0.0088148127590777416 0 -0.022915358168298094 -0.0087890181997652174 0 -0.022915358168298094 -0.0087890181997652174 0 -0.022964225886196728 -0.0087650765567710426 0 -0.023014064718728956 -0.0087942463005440084 0 -0.022932269463132805 -0.0087013370060391552 0 -0.022915358168298094 -0.0087890181997652174 0 -0.022964225886196728 -0.0087650765567710426 0 -0.022997687031503091 -0.0088598668033839957 0 -0.022932269463132805 -0.0087013370060391552 0 -0.022964225886196728 -0.0087650765567710426 0 -0.023089023458532983 -0.0088247741915446209 0 -0.022985397717804265 -0.008798472208182433 0 -0.023014064718728956 -0.0087942463005440084 0 -0.022985397717804265 -0.008798472208182433 0 -0.022964225886196728 -0.0087650765567710426 0 -0.023014064718728956 -0.0087942463005440084 0 -0.023014064718728956 -0.0087942463005440084 0 -0.022998419174025255 -0.0088983853102809016 0 -0.022906449512351167 -0.0088976737556316233 0 -0.023014064718728956 -0.0087942463005440084 0 -0.022998419174025255 -0.0088983853102809016 0 -0.023149198481428254 -0.0088020038768607724 0 -0.022998419174025255 -0.0088983853102809016 0 -0.023023335278645737 -0.0090112766910470134 0 -0.023149198481428254 -0.0088020038768607724 0 -0.022998419174025255 -0.0088983853102809016 0 -0.023023335278645737 -0.0090112766910470134 0 -0.022929967505078502 -0.0089986371881803345 0 -0.022906449512351167 -0.0088976737556316233 0 -0.022806677802356227 -0.009005211264143333 0 -0.022929967505078502 -0.0089986371881803345 0 -0.022998419174025255 -0.0088983853102809016 0 -0.022906449512351167 -0.0088976737556316233 0 -0.022929967505078502 -0.0089986371881803345 0 -0.022915358168298094 -0.0087890181997652174 0 -0.023014064718728956 -0.0087942463005440084 0 -0.022906449512351167 -0.0088976737556316233 0 -0.022915358168298094 -0.0087890181997652174 0 -0.022906449512351167 -0.0088976737556316233 0 -0.022786592380413761 -0.0088978782479070574 0 -0.022739636726850383 -0.0088148127590777416 0 -0.022915358168298094 -0.0087890181997652174 0 -0.022786592380413761 -0.0088978782479070574 0 -0.022549328625444075 -0.008818859755843525 0 -0.022739636726850383 -0.0088148127590777416 0 -0.022647117473012429 -0.0089002873796186419 0 -0.022739636726850383 -0.0088148127590777416 0 -0.022786592380413761 -0.0088978782479070574 0 -0.022647117473012429 -0.0089002873796186419 0 -0.022786592380413761 -0.0088978782479070574 0 -0.022647117473012429 -0.0089002873796186419 0 -0.022647709154101896 -0.0089742726017571044 0 -0.022647117473012429 -0.0089002873796186419 0 -0.022647709154101896 -0.0089742726017571044 0 -0.02247669706587483 -0.0089697181573657886 0 -0.022647709154101896 -0.0089742726017571044 0 -0.022668285300552267 -0.0090415695151423083 0 -0.022450621547431826 -0.0089817099095020562 0 -0.022647709154101896 -0.0089742726017571044 0 -0.022806677802356227 -0.009005211264143333 0 -0.022668285300552267 -0.0090415695151423083 0 -0.022906449512351167 -0.0088976737556316233 0 -0.022786592380413761 -0.0088978782479070574 0 -0.022806677802356227 -0.009005211264143333 0 -0.022786592380413761 -0.0088978782479070574 0 -0.022647709154101896 -0.0089742726017571044 0 -0.022806677802356227 -0.009005211264143333 0 -0.022806677802356227 -0.009005211264143333 0 -0.02281588271047966 -0.0090940079438891624 0 -0.022871251785725202 -0.0090467773645000558 0 -0.022806677802356227 -0.009005211264143333 0 -0.022668285300552267 -0.0090415695151423083 0 -0.02281588271047966 -0.0090940079438891624 0 -0.018603405787894649 -0.004033896818947464 0 -0.019559982306166318 -0.0052388150477228864 0 -0.018211208570023837 -0.0056238113237201655 0 -0.020466573109399852 -0.0061886539057914754 0 -0.021104909699397042 -0.0072350035041790139 0 -0.022875565071938705 -0.0090747525937546637 0 -0.022937387332485886 -0.0090474604993281658 0 -0.022892938984658804 -0.0091011197268319795 0 -0.02281588271047966 -0.0090940079438891624 0 -0.022875565071938705 -0.0090747525937546637 0 -0.022871251785725202 -0.0090467773645000558 0 -0.02281588271047966 -0.0090940079438891624 0 -0.022875565071938705 -0.0090747525937546637 0 -0.022892938984658804 -0.0091011197268319795 0 -0.022875565071938705 -0.0090747525937546637 0 -0.022937387332485886 -0.0090474604993281658 0 -0.022871251785725202 -0.0090467773645000558 0 -0.022925474649534261 -0.0090275089819569655 0 -0.022937387332485886 -0.0090474604993281658 0 -0.022992581542036056 -0.0089556258742112538 0 -0.022925474649534261 -0.0090275089819569655 0 -0.022937387332485886 -0.0090474604993281658 0 -0.023023335278645737 -0.0090112766910470134 0 -0.022946888280748198 -0.0089689338831625415 0 -0.022909165253723031 -0.0092389019043799831 0 -0.023266164950707956 -0.0085634566720845847 0 -0.023221405531899136 -0.0086338133120624459 0 -0.022937387332485886 -0.0090474604993281658 0 -0.023023335278645737 -0.0090112766910470134 0 -0.022929967505078502 -0.0089986371881803345 0 -0.022806677802356227 -0.009005211264143333 0 -0.022929967505078502 -0.0089986371881803345 0 -0.022871251785725202 -0.0090467773645000558 0 -0.022937387332485886 -0.0090474604993281658 0 -0.022929967505078502 -0.0089986371881803345 0 -0.022871251785725202 -0.0090467773645000558 0 -0.022193774942730483 -0.00888672702555535 0 -0.018947342507224824 -0.010293412264335573 0 -0.021685824969989519 -0.009082832617898589 0 -0.021734633682975936 -0.0092341300346473597 0 -0.021476817673601933 -0.0092007038464962405 0 -0.021592915372379329 -0.0089344785835125829 0 -0.021685824969989519 -0.009082832617898589 0 -0.021476817673601933 -0.0092007038464962405 0 -0.023414943171642819 -0.01251684403520697 0 -0.018947342507224824 -0.010293412264335573 0 -0.021592915372379329 -0.0089344785835125829 0 -0.021786718587961773 -0.0089388066906625849 0 -0.021685824969989519 -0.009082832617898589 0 -0.021786718587961773 -0.0089388066906625849 0 -0.021870806518856322 -0.0090559040013372411 0 -0.021685824969989519 -0.009082832617898589 0 -0.021989986902489166 -0.0088124016698337727 0 -0.021786718587961773 -0.0089388066906625849 0 -0.021870806518856322 -0.0090559040013372411 0 -0.021801815963048102 -0.0087963751394301883 0 -0.021592915372379329 -0.0089344785835125829 0 -0.021786718587961773 -0.0089388066906625849 0 -0.021870806518856322 -0.0090559040013372411 0 -0.021685824969989519 -0.009082832617898589 0 -0.021734633682975936 -0.0092341300346473597 0 -0.021870806518856322 -0.0090559040013372411 0 -0.021734633682975936 -0.0092341300346473597 0 -0.021938339412683881 -0.0093818803222714183 0 -0.017577305173651754 -0.0027777193095680397 0 -0.017482447761618437 -0.0038139380080515549 0 -0.01650822789438805 -0.0035696969262106874 0 -0.020633812850203298 -0.0075344713314369682 0 -0.019170358435457221 -0.0062876714235856343 0 -0.021870806518856322 -0.0090559040013372411 0 -0.022174578569495489 -0.0090479925869294524 0 -0.021938339412683881 -0.0093818803222714183 0 -0.022290015238516162 -0.0088441063660684213 0 -0.021989986902489166 -0.0088124016698337727 0 -0.022385443906709331 -0.0090598548370190227 0 -0.021989986902489166 -0.0088124016698337727 0 -0.021870806518856322 -0.0090559040013372411 0 -0.022174578569495489 -0.0090479925869294524 0 -0.022666717278185422 -0.0094867264842947319 0 -0.020633812850203298 -0.0075344713314369682 0 -0.022290015238516162 -0.0088441063660684213 0 -0.02247669706587483 -0.0089697181573657886 0 -0.022385443906709331 -0.0090598548370190227 0 -0.02138873727591583 -0.007913801030981259 0 -0.020633812850203298 -0.0075344713314369682 0 -0.022549328625444075 -0.008818859755843525 0 -0.022290015238516162 -0.0088441063660684213 0 -0.02247669706587483 -0.0089697181573657886 0 -0.022549328625444075 -0.008818859755843525 0 -0.022647117473012429 -0.0089002873796186419 0 -0.02247669706587483 -0.0089697181573657886 0 -0.018603405787894649 -0.004033896818947464 0 -0.017577305173651754 -0.0027777193095680397 0 -0.017482447761618437 -0.0038139380080515549 0 -0.022647709154101896 -0.0089742726017571044 0 -0.02247669706587483 -0.0089697181573657886 0 -0.022450621547431826 -0.0089817099095020562 0 -0.020466573109399852 -0.0061886539057914754 0 -0.020633812850203298 -0.0075344713314369682 0 -0.018603405787894649 -0.004033896818947464 0 -0.017482447761618437 -0.0038139380080515549 0 -0.017195649332725535 -0.0048931062034401245 0 -0.018603405787894649 -0.004033896818947464 0 -0.017195649332725535 -0.0048931062034401245 0 -0.018211208570023837 -0.0056238113237201655 0 -0.017482447761618437 -0.0038139380080515549 0 -0.017195649332725535 -0.0048931062034401245 0 -0.01650822789438805 -0.0035696969262106874 0 -0.017195649332725535 -0.0048931062034401245 0 -0.01650822789438805 -0.0035696969262106874 0 -0.015283697782726303 -0.0043579050705377324 0 -0.021734633682975936 -0.0092341300346473597 0 -0.021938339412683881 -0.0093818803222714183 0 -0.020343895327596423 -0.010930145673711535 0 -0.019170358435457221 -0.0062876714235856343 0 -0.017714586034195342 -0.0077294777953137205 0 -0.017195649332725535 -0.0048931062034401245 0 -0.015283697782726303 -0.0043579050705377324 0 -0.016343461813402606 -0.006066407867953939 0 -0.017714586034195342 -0.0077294777953137205 0 -0.016401243431030478 -0.0087342659083177298 0 -0.021734633682975936 -0.0092341300346473597 0 -0.020343895327596423 -0.010930145673711535 0 -0.018960522267356644 -0.008816088962926313 0 -0.014045047796741345 -0.0076411254472512078 0 -0.014932549231955259 -0.0063444676881755516 0 -0.015068081557767003 -0.0084072620226795479 0 -0.015283697782726303 -0.0043579050705377324 0 -0.014932549231955259 -0.0063444676881755516 0 -0.013575415515256572 -0.0054343717141383009 0 -0.014045047796741345 -0.0076411254472512078 0 -0.014932549231955259 -0.0063444676881755516 0 -0.013575415515256572 -0.0054343717141383009 0 -0.015283697782726303 -0.0043579050705377324 0 -0.014932549231955259 -0.0063444676881755516 0 -0.016343461813402606 -0.006066407867953939 0 -0.014932549231955259 -0.0063444676881755516 0 -0.016343461813402606 -0.006066407867953939 0 -0.0163358738434994 -0.0081096363099367984 0 -0.014932549231955259 -0.0063444676881755516 0 -0.0163358738434994 -0.0081096363099367984 0 -0.015068081557767003 -0.0084072620226795479 0 -0.016380938403294368 -0.006171315617464021 0 -0.016475967102187929 -0.0074609773151352327 0 -0.016343461813402606 -0.006066407867953939 0 -0.01732384701551401 -0.0064438536754930307 0 -0.016648231817824238 -0.0069338356178048578 0 -0.017195649332725535 -0.0048931062034401245 0 -0.016343461813402606 -0.006066407867953939 0 -0.01732384701551401 -0.0064438536754930307 0 -0.017195649332725535 -0.0048931062034401245 0 -0.01732384701551401 -0.0064438536754930307 0 -0.018211208570023837 -0.0056238113237201655 0 -0.01732384701551401 -0.0064438536754930307 0 -0.018211208570023837 -0.0056238113237201655 0 -0.018014377606974812 -0.0065965062513739237 0 -0.01732384701551401 -0.0064438536754930307 0 -0.018014377606974812 -0.0065965062513739237 0 -0.017463218726146302 -0.0072861179931566714 0 -0.018014377606974812 -0.0065965062513739237 0 -0.017463218726146302 -0.0072861179931566714 0 -0.018307746620976832 -0.0071679281683866584 0 -0.017869856467950335 -0.0076009154857320169 0 -0.017463218726146302 -0.0072861179931566714 0 -0.018307746620976832 -0.0071679281683866584 0 -0.017869856467950335 -0.0076009154857320169 0 -0.018258160358556399 -0.0076958494770092258 0 -0.017856135302126853 -0.0080115650749726271 0 -0.017869856467950335 -0.0076009154857320169 0 -0.017468267738131819 -0.007777356249640017 0 -0.017856135302126853 -0.0080115650749726271 0 -0.017869856467950335 -0.0076009154857320169 0 -0.017468267738131819 -0.007777356249640017 0 -0.017463218726146302 -0.0072861179931566714 0 -0.017468267738131819 -0.007777356249640017 0 -0.017463218726146302 -0.0072861179931566714 0 -0.016807920941772275 -0.007689933346345156 0 -0.017468267738131819 -0.007777356249640017 0 -0.016807920941772275 -0.007689933346345156 0 -0.017261423029386602 -0.0081244496757402352 0 -0.01732384701551401 -0.0064438536754930307 0 -0.017463218726146302 -0.0072861179931566714 0 -0.016648231817824238 -0.0069338356178048578 0 -0.017463218726146302 -0.0072861179931566714 0 -0.016648231817824238 -0.0069338356178048578 0 -0.016807920941772275 -0.007689933346345156 0 -0.0163358738434994 -0.0081096363099367984 0 -0.016308681359138096 -0.010111443057080739 0 -0.015068081557767003 -0.0084072620226795479 0 -0.016475967102187929 -0.0074609773151352327 0 -0.016608482417558787 -0.0089900860545258365 0 -0.016308681359138096 -0.010111443057080739 0 -0.013947089648794318 -0.0092964180523476322 0 -0.01415034869920551 -0.010933271874825378 0 -0.014045047796741345 -0.0076411254472512078 0 -0.015068081557767003 -0.0084072620226795479 0 -0.013947089648794318 -0.0092964180523476322 0 -0.016308681359138096 -0.010111443057080739 0 -0.015068081557767003 -0.0084072620226795479 0 -0.013947089648794318 -0.0092964180523476322 0 -0.022437474795278536 -0.0075824576519255386 0 -0.022155572966397832 -0.0052041038149985598 0 -0.023172706521829154 -0.0069500402917163475 0 -0.022831931003539654 -0.0065712324424294834 0 -0.023365102248653683 -0.005190600704593218 0 -0.020531123587543255 -0.0063666167664667896 0 -0.019771850716640251 -0.0064123083879684189 0 -0.020454312364256176 -0.0070711797781791968 0 -0.024080813546434206 -0.0056849010709138356 0 -0.024044422873468495 -0.007032508663291792 0 -0.023003026476352741 -0.0087565972310641605 0 -0.022968558440730875 -0.0087208995208715653 0 -0.022992581542036056 -0.0089556258742112538 0 -0.022384259168670623 -0.0060324934763306293 0 -0.022831931003539654 -0.0065712324424294834 0 -0.023162866997597304 -0.0052077869840057413 0 -0.02364935366449511 -0.0072507148698346983 0 -0.023719146648105253 -0.0073383872106085471 0 -0.023332726311975971 -0.0075954624380823125 0 -0.025532571954390217 -0.005407057986834678 0 -0.025275545420978995 -0.0051046947387702254 0 -0.024671386530391293 -0.0063275511080331361 0 -0.024080813546434206 -0.0056849010709138356 0 -0.02317114581904452 -0.0074161112055943328 0 -0.022437474795278536 -0.0075824576519255386 0 -0.02317114581904452 -0.0074161112055943328 0 -0.023266164950707956 -0.0085634566720845847 0 -0.02317114581904452 -0.0074161112055943328 0 -0.023581459033203495 -0.0078527623376810334 0 -0.023719146648105253 -0.0073383872106085471 0 -0.023332726311975971 -0.0075954624380823125 0 -0.022925474649534261 -0.0090275089819569655 0 -0.022968558440730875 -0.0087208995208715653 0 -0.022992581542036056 -0.0089556258742112538 0 -0.019559982306166318 -0.0052388150477228864 0 -0.020531123587543255 -0.0063666167664667896 0 -0.019771850716640251 -0.0064123083879684189 0 -0.02281588271047966 -0.0090940079438891624 0 -0.022883708605375207 -0.0091224484303801257 0 -0.022892938984658804 -0.0091011197268319795 0 -0.022437474795278536 -0.0075824576519255386 0 -0.022909165253723031 -0.0092389019043799831 0 -0.021104909699397042 -0.0072350035041790139 0 -0.022437474795278536 -0.0075824576519255386 0 -0.019559982306166318 -0.0052388150477228864 0 -0.018912244038965232 -0.0062381358763591369 0 -0.019771850716640251 -0.0064123083879684189 0 -0.019559982306166318 -0.0052388150477228864 0 -0.018211208570023837 -0.0056238113237201655 0 -0.018912244038965232 -0.0062381358763591369 0 -0.018211208570023837 -0.0056238113237201655 0 -0.018014377606974812 -0.0065965062513739237 0 -0.018912244038965232 -0.0062381358763591369 0 -0.018014377606974812 -0.0065965062513739237 0 -0.018912244038965232 -0.0062381358763591369 0 -0.018307746620976832 -0.0071679281683866584 0 -0.018912244038965232 -0.0062381358763591369 0 -0.019771850716640251 -0.0064123083879684189 0 -0.019404933346971194 -0.0071506814407460272 0 -0.018936417489959188 -0.0070352340629925266 0 -0.018816333458269125 -0.0073649254421415851 0 -0.018307746620976832 -0.0071679281683866584 0 -0.018816333458269125 -0.0073649254421415851 0 -0.019082275683934415 -0.0075257472712578505 0 -0.019264315293444054 -0.0071712287826468726 0 -0.018936417489959188 -0.0070352340629925266 0 -0.018816333458269125 -0.0073649254421415851 0 -0.019264315293444054 -0.0071712287826468726 0 -0.018733144397651735 -0.0072082080683988116 0 -0.01855857804078305 -0.0071384148837236256 0 -0.018816333458269125 -0.0073649254421415851 0 -0.018307746620976832 -0.0071679281683866584 0 -0.018581151812621034 -0.0075463866481218535 0 -0.018912244038965232 -0.0062381358763591369 0 -0.019404933346971194 -0.0071506814407460272 0 -0.018307746620976832 -0.0071679281683866584 0 -0.017869856467950335 -0.0076009154857320169 0 -0.018307746620976832 -0.0071679281683866584 0 -0.018258160358556399 -0.0076958494770092258 0 -0.018307746620976832 -0.0071679281683866584 0 -0.018581151812621034 -0.0075463866481218535 0 -0.018258160358556399 -0.0076958494770092258 0 -0.018581151812621034 -0.0075463866481218535 0 -0.018474481238803839 -0.0078272828771991688 0 -0.018258160358556399 -0.0076958494770092258 0 -0.018474481238803839 -0.0078272828771991688 0 -0.018258160358556399 -0.0076958494770092258 0 -0.01828106718382928 -0.0079914122759588164 0 -0.018816333458269125 -0.0073649254421415851 0 -0.019082275683934415 -0.0075257472712578505 0 -0.018987824539046662 -0.007722016116393826 0 -0.019347366292867565 -0.0073873930671235931 0 -0.019655247993136653 -0.0067353643912033316 0 -0.018816333458269125 -0.0073649254421415851 0 -0.018581151812621034 -0.0075463866481218535 0 -0.018987824539046662 -0.007722016116393826 0 -0.018581151812621034 -0.0075463866481218535 0 -0.018474481238803839 -0.0078272828771991688 0 -0.018987824539046662 -0.007722016116393826 0 -0.024600440962863217 -0.0019725009182149696 0 -0.022674549444147332 -0.0044106244116490657 0 -0.022626490619663039 -0.0040115845977354604 0 -0.022452556614075459 -0.003969186801184214 0 -0.02242480162576406 -0.0042329460022529864 0 -0.019082275683934415 -0.0075257472712578505 0 -0.019003478923839773 -0.0077437791970266998 0 -0.019753365757620264 -0.0069949519478802675 0 -0.022626490619663039 -0.0040115845977354604 0 -0.022452556614075459 -0.003969186801184214 0 -0.022573127046272502 -0.0038487161429450654 0 -0.018936417489959188 -0.0070352340629925266 0 -0.019264315293444054 -0.0071712287826468726 0 -0.019761080170496145 -0.0069187211532017404 0 -0.019771850716640251 -0.0064123083879684189 0 -0.019404933346971194 -0.0071506814407460272 0 -0.020454312364256176 -0.0070711797781791968 0 -0.019082275683934415 -0.0075257472712578505 0 -0.019264315293444054 -0.0071712287826468726 0 -0.019753365757620264 -0.0069949519478802675 0 -0.026585389982015244 -0.00034813241231758385 0 -0.026518666295436231 -0.0010239514579784515 0 -0.026280161193224575 -0.00082846375480829767 0 -0.019655247993136653 -0.0067353643912033316 0 -0.022674549444147332 -0.0044106244116490657 0 -0.018733144397651735 -0.0072082080683988116 0 -0.022155572966397832 -0.0052041038149985598 0 -0.019264315293444054 -0.0071712287826468726 0 -0.019753365757620264 -0.0069949519478802675 0 -0.019761080170496145 -0.0069187211532017404 0 -0.022831931003539654 -0.0065712324424294834 0 -0.023365102248653683 -0.005190600704593218 0 -0.023162866997597304 -0.0052077869840057413 0 -0.022529493320390424 -0.0048222265762817964 0 -0.022486593677570204 -0.005222706062723805 0 -0.022122406690931049 -0.0052537971094647994 0 -0.022674549444147332 -0.0044106244116490657 0 -0.022155572966397832 -0.0052041038149985598 0 -0.022674549444147332 -0.0044106244116490657 0 -0.023473318607255531 -0.0045287307404588417 0 -0.022155572966397832 -0.0052041038149985598 0 -0.023473318607255531 -0.0045287307404588417 0 -0.026128076313164779 -0.001103395683475559 0 -0.026280161193224575 -0.00082846375480829767 0 -0.025815711250958481 -0.0007061234187139922 0 -0.024080813546434206 -0.0056849010709138356 0 -0.025593682982590113 -0.0031017836189928829 0 -0.023473318607255531 -0.0045287307404588417 0 -0.025593682982590113 -0.0031017836189928829 0 -0.024401433109047275 -0.003805840357540894 0 -0.023891790135167901 -0.0043374332570328012 0 -0.02480026428440266 -0.004258731081720004 0 -0.026518666295436231 -0.0010239514579784515 0 -0.026462543700860298 -0.0010828250398152797 0 -0.026280161193224575 -0.00082846375480829767 0 -0.026462543700860298 -0.0010828250398152797 0 -0.026128076313164779 -0.001103395683475559 0 -0.026280161193224575 -0.00082846375480829767 0 -0.024080813546434206 -0.0056849010709138356 0 -0.023473318607255531 -0.0045287307404588417 0 -0.026585389982015244 -0.00034813241231758385 0 -0.026280161193224575 -0.00082846375480829767 0 -0.026226744773563092 -0.00031481920600924795 0 -0.026280161193224575 -0.00082846375480829767 0 -0.026226744773563092 -0.00031481920600924795 0 -0.025815711250958481 -0.0007061234187139922 0 -0.026585389982015244 -0.00034813241231758385 0 -0.026226744773563092 -0.00031481920600924795 0 -0.026428965311422938 -9.7235522605397529e-05 0 -0.026226744773563092 -0.00031481920600924795 0 -0.025815711250958481 -0.0007061234187139922 0 -0.025903066316607423 -0.00011694405343879108 0 -0.025815711250958481 -0.0007061234187139922 0 -0.025463086827298073 -0.00030582459647576223 0 -0.025903066316607423 -0.00011694405343879108 0 -0.025889029010476659 -0.00081669418563791365 0 -0.025463086827298073 -0.00030582459647576223 0 -0.025387085618337048 -0.00079694507505249023 0 -0.025711887133534568 -0.00063573009308047219 0 -0.025546367661754447 -0.00040513733840062888 0 -0.025463086827298073 -0.00030582459647576223 0 -0.024988291478997168 -0.00066332636250412741 0 -0.024671694579652185 -0.00014272310956041861 0 -0.025463086827298073 -0.00030582459647576223 0 -0.025387085618337048 -0.00079694507505249023 0 -0.024988291478997168 -0.00066332636250412741 0 -0.025387085618337048 -0.00079694507505249023 0 -0.024988291478997168 -0.00066332636250412741 0 -0.025212684206131843 -0.0013951640808472895 0 -0.025889029010476659 -0.00081669418563791365 0 -0.025387085618337048 -0.00079694507505249023 0 -0.025212684206131843 -0.0013951640808472895 0 -0.025593682982590113 -0.0031017836189928829 0 -0.024142810150087575 -0.0034136194126992625 0 -0.026303797200055594 -0.0013165414319206373 0 -0.025889029010476659 -0.00081669418563791365 0 -0.025212684206131843 -0.0013951640808472895 0 -0.025593682982590113 -0.0031017836189928829 0 -0.025711887133534568 -0.00063573009308047219 0 -0.025275545420978995 -0.0051046947387702254 0 -0.023789030719362839 -0.005229509445987518 0 -0.024671386530391293 -0.0063275511080331361 0 -0.023789030719362839 -0.005229509445987518 0 -0.023666873937914355 -0.0062420578680123387 0 -0.024671386530391293 -0.0063275511080331361 0 -0.023666873937914355 -0.0062420578680123387 0 -0.022814740455308718 -0.0068104734096804372 0 -0.023787074247083512 -0.0072635108479671643 0 -0.023666873937914355 -0.0062420578680123387 0 -0.024671386530391293 -0.0063275511080331361 0 -0.023787074247083512 -0.0072635108479671643 0 -0.023332726311975971 -0.0075954624380823125 0 -0.023312414790986512 -0.0078589869363599879 0 -0.023055507457558192 -0.0079270606570038798 0 -0.024044422873468495 -0.007032508663291792 0 -0.023405671275895688 -0.0075823663314953148 0 -0.023581459033203495 -0.0078527623376810334 0 -0.023332726311975971 -0.0075954624380823125 0 -0.023312414790986512 -0.0078589869363599879 0 -0.027232252305348086 -0.0031938443691047966 0 -0.027581997550329067 -0.0022643266442654453 0 -0.027046747557897464 -0.0028858602287675284 0 -0.021758967603040361 -0.00674262059040038 0 -0.022814740455308718 -0.0068104734096804372 0 -0.022310553219543477 -0.0053449287633210406 0 -0.023666873937914355 -0.0062420578680123387 0 -0.022814740455308718 -0.0068104734096804372 0 -0.022310553219543477 -0.0053449287633210406 0 -0.024142810150087575 -0.0034136194126992625 0 -0.025056271898097098 -0.0028596618676443256 0 -0.023789030719362839 -0.005229509445987518 0 -0.023666873937914355 -0.0062420578680123387 0 -0.022310553219543477 -0.0053449287633210406 0 -0.025474426051407126 -0.0049514246104065884 0 -0.025056271898097098 -0.0028596618676443256 0 -0.025056271898097098 -0.0028596618676443256 0 -0.026126406360218839 -0.00070667954744361137 0 -0.027513301906442533 -0.0014968847794915477 0 -0.027708114577226987 -0.00097139811281492347 0 -0.027178128265694039 -0.0011419861886445021 0 -0.025212684206131843 -0.0013951640808472895 0 -0.024142651738423074 -0.0014905243947995646 0 -0.024401628074077718 -0.00081535472220448406 0 -0.024988291478997168 -0.00066332636250412741 0 -0.025212684206131843 -0.0013951640808472895 0 -0.024401628074077718 -0.00081535472220448406 0 -0.026126406360218839 -0.00070667954744361137 0 -0.026755970700640754 -4.6432400617133006e-05 0 -0.024988291478997168 -0.00066332636250412741 0 -0.024401628074077718 -0.00081535472220448406 0 -0.024671694579652185 -0.00014272310956041861 0 -0.027260798873399123 -0.00016521155822819385 0 -0.026755970700640754 -4.6432400617133006e-05 0 -0.027708114577226987 -0.00097139811281492347 0 -0.027081870571057945 -0.00063908424905694873 0 -0.027894357948202039 -0.00047200196524886797 0 -0.027708114577226987 -0.00097139811281492347 0 -0.027081870571057945 -0.00063908424905694873 0 -0.027178128265694039 -0.0011419861886445021 0 -0.027081870571057945 -0.00063908424905694873 0 -0.026735298415750366 -0.0010637179475285821 0 -0.027178128265694039 -0.0011419861886445021 0 -0.027081870571057945 -0.00063908424905694873 0 -0.026735298415750366 -0.0010637179475285821 0 -0.026158567522352447 -0.00075092170320770191 0 -0.027260798873399123 -0.00016521155822819385 0 -0.026126628374734499 -0.00051474127747927348 0 -0.026735298415750366 -0.0010637179475285821 0 -0.02601741874397951 -0.0017389852817491635 0 -0.026803215666246688 -0.0015907808693975164 0 -0.026735298415750366 -0.0010637179475285821 0 -0.026158567522352447 -0.00075092170320770191 0 -0.02601741874397951 -0.0017389852817491635 0 -0.027513301906442533 -0.0014968847794915477 0 -0.027178128265694039 -0.0011419861886445021 0 -0.026803215666246688 -0.0015907808693975164 0 -0.026735298415750366 -0.0010637179475285821 0 -0.027178128265694039 -0.0011419861886445021 0 -0.026803215666246688 -0.0015907808693975164 0 -0.02622983249559372 -0.00025589242431250556 0 -0.024999906862568942 -0.00086263503830937612 0 -0.024999947113505543 0.00049851183579735926 0 -0.026126628374734499 -0.00051474127747927348 0 -0.025000203738312233 -0.0008629759327733915 0 -0.026158567522352447 -0.00075092170320770191 0 -0.02500012465209461 -0.00086365858744916711 0 -0.02601741874397951 -0.0017389852817491635 0 -0.02500012465209461 -0.00086365858744916711 0 -0.024999814318657974 -0.0019544095912864276 0 -0.02601741874397951 -0.0017389852817491635 0 -0.024999911830490485 -0.0019557302625779387 0 -0.025884554170470645 -0.0022359924494244994 0 -0.025702836350077893 -0.0030094451755539281 0 -0.025000274969035719 -0.0019550253536215578 0 -0.025810109744030557 -0.0019987281336321214 0 -0.025884554170470645 -0.0022359924494244994 0 -0.025702836350077893 -0.0030094451755539281 0 -0.026513084031846598 -0.0028288100022467043 0 -0.024999911830490485 -0.0019557302625779387 0 -0.025702836350077893 -0.0030094451755539281 0 -0.024999800434317588 -0.0032476419563348962 0 -0.027581997550329067 -0.0022643266442654453 0 -0.026737149972329458 -0.00229955908035724 0 -0.027046747557897464 -0.0028858602287675284 0 -0.025056271898097098 -0.0028596618676443256 0 -0.027307339998973636 -0.0018204387279747343 0 -0.026737149972329458 -0.00229955908035724 0 -0.026513084031846598 -0.0028288100022467043 0 -0.027046747557897464 -0.0028858602287675284 0 -0.025884554170470645 -0.0022359924494244994 0 -0.026737149972329458 -0.00229955908035724 0 -0.026513084031846598 -0.0028288100022467043 0 -0.025810109744030557 -0.0019987281336321214 0 -0.027307339998973636 -0.0018204387279747343 0 -0.025702836350077893 -0.0030094451755539281 0 -0.026513084031846598 -0.0028288100022467043 0 -0.026348934504862181 -0.003701026958999654 0 -0.026513084031846598 -0.0028288100022467043 0 -0.026703563609900401 -0.0033609376630855518 0 -0.026348934504862181 -0.003701026958999654 0 -0.026513084031846598 -0.0028288100022467043 0 -0.026703563609900401 -0.0033609376630855518 0 -0.026973611888099831 -0.0032052093415686103 0 -0.026703563609900401 -0.0033609376630855518 0 -0.026973611888099831 -0.0032052093415686103 0 -0.026997764505438535 -0.0037145605756326132 0 -0.026513084031846598 -0.0028288100022467043 0 -0.027046747557897464 -0.0028858602287675284 0 -0.026973611888099831 -0.0032052093415686103 0 -0.025474426051407126 -0.0049514246104065884 0 -0.026300685287064401 -0.0034407648404350287 0 -0.027319420331803717 -0.0032648194031992387 0 -0.026973611888099831 -0.0032052093415686103 0 -0.026997764505438535 -0.0037145605756326132 0 -0.027319420331803717 -0.0032648194031992387 0 -0.027046747557897464 -0.0028858602287675284 0 -0.026973611888099831 -0.0032052093415686103 0 -0.026997764505438535 -0.0037145605756326132 0 -0.026348934504862181 -0.003701026958999654 0 -0.026938989350856177 -0.0044483064678091195 0 -0.026703563609900401 -0.0033609376630855518 0 -0.026997764505438535 -0.0037145605756326132 0 -0.026348934504862181 -0.003701026958999654 0 -0.026348934504862181 -0.003701026958999654 0 -0.026363287021061974 -0.0049494108317706806 0 -0.025730617194266399 -0.004166016784263391 0 -0.026363287021061974 -0.0049494108317706806 0 -0.026938989350856177 -0.0044483064678091195 0 -0.027227916555228771 -0.0056266944173770893 0 -0.026348934504862181 -0.003701026958999654 0 -0.026363287021061974 -0.0049494108317706806 0 -0.026938989350856177 -0.0044483064678091195 0 -0.025702836350077893 -0.0030094451755539281 0 -0.024999800434317588 -0.0032476419563348962 0 -0.025730617194266399 -0.004166016784263391 0 -0.025702836350077893 -0.0030094451755539281 0 -0.026348934504862181 -0.003701026958999654 0 -0.025730617194266399 -0.004166016784263391 0 -0.026363287021061974 -0.0049494108317706806 0 -0.025730617194266399 -0.004166016784263391 0 -0.025830637900158254 -0.0052724453771200901 0 -0.025730617194266399 -0.004166016784263391 0 -0.024999865472814346 -0.0045401938096142685 0 -0.025830637900158254 -0.0052724453771200901 0 -0.024999800434317588 -0.0032476419563348962 0 -0.025730617194266399 -0.004166016784263391 0 -0.024999865472814346 -0.0045401938096142685 0 -0.024999865472814346 -0.0045401938096142685 0 -0.025830637900158254 -0.0052724453771200901 0 -0.024999890103861406 -0.0058325284868845136 0 -0.025873232019270838 -0.0064607646322019331 0 -0.025830637900158254 -0.0052724453771200901 0 -0.026688789869303689 -0.0058763106949428282 0 -0.025873232019270838 -0.0064607646322019331 0 -0.025830637900158254 -0.0052724453771200901 0 -0.024999890103861406 -0.0058325284868845136 0 -0.026363287021061974 -0.0049494108317706806 0 -0.025405394858513935 -0.0071195688409659633 0 -0.027227916555228771 -0.0056266944173770893 0 -0.026315070669249034 -0.0050959057868325925 0 -0.026059518147583189 -0.0065315198772850219 0 -0.026363287021061974 -0.0049494108317706806 0 -0.025830637900158254 -0.0052724453771200901 0 -0.026688789869303689 -0.0058763106949428282 0 -0.025405394858513935 -0.0071195688409659633 0 -0.027494044462370026 -0.007482210352274467 0 -0.027227916555228771 -0.0056266944173770893 0 -0.027494044462370026 -0.007482210352274467 0 -0.027227916555228771 -0.0056266944173770893 0 -0.028836897463605918 -0.0056619718409755245 0 -0.027494044462370026 -0.007482210352274467 0 -0.028836897463605918 -0.0056619718409755245 0 -0.02867968159235211 -0.0077181585697174747 0 -0.028836897463605918 -0.0056619718409755245 0 -0.02867968159235211 -0.0077181585697174747 0 -0.029794647230979406 -0.0073187005577010191 0 -0.02593601285393804 -0.0068726501559175108 0 -0.025339043803795952 -0.0095216673421849862 0 -0.023034039514837089 -0.008792667246914224 0 -0.023149198481428254 -0.0088020038768607724 0 -0.023102335664336573 -0.0084527413616948821 0 -0.023425265300931364 -0.0083347658078428977 0 -0.023149198481428254 -0.0088020038768607724 0 -0.023102335664336573 -0.0084527413616948821 0 -0.023221405531899136 -0.0086338133120624459 0 -0.02316025088036015 -0.0087990588235222593 0 -0.025339043803795952 -0.0095216673421849862 0 -0.022782714325944156 -0.0082998635743598993 0 -0.022894391889272784 -0.0084812367968473048 0 -0.023077328482271713 -0.008735077724405127 0 -0.023102335664336573 -0.0084527413616948821 0 -0.023102335664336573 -0.0084527413616948821 0 -0.023037555975654083 -0.0081588671139479364 0 -0.023294834730048005 -0.0080576678721787105 0 -0.022894391889272784 -0.0084812367968473048 0 -0.023102335664336573 -0.0084527413616948821 0 -0.023037555975654083 -0.0081588671139479364 0 -0.023037555975654083 -0.0081588671139479364 0 -0.023055507457558192 -0.0079270606570038798 0 -0.022806195198330194 -0.0081162919774883588 0 -0.023425265300931364 -0.0083347658078428977 0 -0.023102335664336573 -0.0084527413616948821 0 -0.023294834730048005 -0.0080576678721787105 0 -0.023581459033203495 -0.0078527623376810334 0 -0.023425265300931364 -0.0083347658078428977 0 -0.023294834730048005 -0.0080576678721787105 0 -0.023294834730048005 -0.0080576678721787105 0 -0.023312414790986512 -0.0078589869363599879 0 -0.023055507457558192 -0.0079270606570038798 0 -0.023581459033203495 -0.0078527623376810334 0 -0.023294834730048005 -0.0080576678721787105 0 -0.023312414790986512 -0.0078589869363599879 0 -0.023405671275895688 -0.0075823663314953148 0 -0.022859838204003127 -0.0080914074379344579 0 -0.023037555975654083 -0.0081588671139479364 0 -0.023294834730048005 -0.0080576678721787105 0 -0.023055507457558192 -0.0079270606570038798 0 -0.022814740455308718 -0.0068104734096804372 0 -0.023787074247083512 -0.0072635108479671643 0 -0.022987087294804101 -0.0074868273891264244 0 -0.022814740455308718 -0.0068104734096804372 0 -0.022987087294804101 -0.0074868273891264244 0 -0.022449436212738528 -0.0078538516859713026 0 -0.023787074247083512 -0.0072635108479671643 0 -0.022987087294804101 -0.0074868273891264244 0 -0.022806195198330194 -0.0081162919774883588 0 -0.021758967603040361 -0.00674262059040038 0 -0.022814740455308718 -0.0068104734096804372 0 -0.022449436212738528 -0.0078538516859713026 0 -0.027319420331803717 -0.0032648194031992387 0 -0.026997764505438535 -0.0037145605756326132 0 -0.027989461090826805 -0.0042922202716844998 0 -0.025474426051407126 -0.0049514246104065884 0 -0.025104079846799736 -0.0060621766407919333 0 -0.026997764505438535 -0.0037145605756326132 0 -0.026938989350856177 -0.0044483064678091195 0 -0.027989461090826805 -0.0042922202716844998 0 -0.027227916555228771 -0.0056266944173770893 0 -0.028836897463605918 -0.0056619718409755245 0 -0.027989461090826805 -0.0042922202716844998 0 -0.026938989350856177 -0.0044483064678091195 0 -0.027227916555228771 -0.0056266944173770893 0 -0.027989461090826805 -0.0042922202716844998 0 -0.022894391889272784 -0.0084812367968473048 0 -0.023037555975654083 -0.0081588671139479364 0 -0.022806195198330194 -0.0081162919774883588 0 -0.02593601285393804 -0.0068726501559175108 0 -0.025104079846799736 -0.0060621766407919333 0 -0.022894391889272784 -0.0084812367968473048 0 -0.022449436212738528 -0.0078538516859713026 0 -0.022806195198330194 -0.0081162919774883588 0 -0.022987087294804101 -0.0074868273891264244 0 -0.022449436212738528 -0.0078538516859713026 0 -0.022806195198330194 -0.0081162919774883588 0 -0.0018412503662037468 -0.019333375670576369 0 -0.0049208207081975252 -0.021224730238416704 0 -0.0044392064204415941 -0.018114957520490534 0 -0.002458122236021292 -0.016965801864270599 0 -0.0034132941537894554 -0.019914612939555456 0 -0.011839223320658664 -0.019334288543457267 0 -0.011160122862155151 -0.019654712486717012 0 -0.012357418411450563 -0.021107316102248665 0 -0.0071721891979928442 -0.018062415590647779 0 -0.0049208207081975252 -0.021224730238416704 0 -0.00051073047462675796 -0.020859326970097111 0 -0.00041859122452670789 -0.020785238223013241 0 -0.00031293948672400694 -0.021031163724510825 0 -0.00051073047462675796 -0.020859326970097111 0 -0.00031293948672400694 -0.021031163724510825 0 -0.0006038393247071544 -0.020988155874926688 0 -0.00051073047462675796 -0.020859326970097111 0 -0.0006038393247071544 -0.020988155874926688 0 -0.00065085706927295285 -0.020769206473876724 0 -0.00051073047462675796 -0.020859326970097111 0 -0.00047835337993082822 -0.020653890720853454 0 -0.00065085706927295285 -0.020769206473876724 0 -0.00051073047462675796 -0.020859326970097111 0 -0.00041859122452670789 -0.020785238223013241 0 -0.00047835337993082822 -0.020653890720853454 0 -0.0018412503662037468 -0.019333375670576369 0 -0.0028538389462698841 -0.018268715093229419 0 -0.0018412503662037468 -0.019333375670576369 0 -0.00074807486485438293 -0.020356919901379538 0 -0.0010005377730843558 -0.019739901649002831 0 -0.00090843849195548071 -0.019881452985990408 0 -0.00093259133270064002 -0.020078334328057224 0 -0.0044392064204415941 -0.018114957520490534 0 -0.0038577029067916788 -0.016755953572163775 0 -0.004778893857050351 -0.015674715115105611 0 -0.0038577029067916788 -0.016755953572163775 0 -0.002458122236021292 -0.016965801864270599 0 -0.0036286053411336032 -0.015590061507401783 0 -0.0044392064204415941 -0.018114957520490534 0 -0.0038577029067916788 -0.016755953572163775 0 -0.002458122236021292 -0.016965801864270599 0 -0.0038577029067916788 -0.016755953572163775 0 -0.0036286053411336032 -0.015590061507401783 0 -0.004778893857050351 -0.015674715115105611 0 -0.012075171411752105 -0.01837887392857894 0 -0.011191154732003617 -0.017676442723066767 0 -0.011313994350303273 -0.016640511921967468 0 -0.011839223320658664 -0.019334288543457267 0 -0.011160122862155151 -0.019654712486717012 0 -0.011127204375498814 -0.017305845910836865 0 -0.01053092458776367 -0.017312505405658516 0 -0.0099434798113534964 -0.018186130434577407 0 -0.0094267637502124281 -0.0172417486567026 0 -0.01053092458776367 -0.017312505405658516 0 -0.011191154732003617 -0.017676442723066767 0 -0.010730060012793505 -0.01851423714733386 0 -0.01053092458776367 -0.017312505405658516 0 -0.011191154732003617 -0.017676442723066767 0 -0.011313994350303273 -0.016640511921967468 0 -0.012075171411752105 -0.01837887392857894 0 -0.011191154732003617 -0.017676442723066767 0 -0.010730060012793505 -0.01851423714733386 0 -0.010730060012793505 -0.01851423714733386 0 -0.0099434798113534964 -0.018186130434577407 0 -0.0098677309695531963 -0.019064860712571588 0 -0.01053092458776367 -0.017312505405658516 0 -0.010730060012793505 -0.01851423714733386 0 -0.0099434798113534964 -0.018186130434577407 0 -0.0098677309695531963 -0.019064860712571588 0 -0.010512247728932151 -0.019880649148059582 0 -0.0091478602016369526 -0.019947806988916097 0 -0.010730060012793505 -0.01851423714733386 0 -0.0098677309695531963 -0.019064860712571588 0 -0.010512247728932151 -0.019880649148059582 0 -0.010730060012793505 -0.01851423714733386 0 -0.010512247728932151 -0.019880649148059582 0 -0.011087794603463933 -0.019854414226300583 0 -0.012075171411752105 -0.01837887392857894 0 -0.010730060012793505 -0.01851423714733386 0 -0.011087794603463933 -0.019854414226300583 0 -0.010512247728932151 -0.019880649148059582 0 -0.011087794603463933 -0.019854414226300583 0 -0.01074300219300529 -0.020900824142889931 0 -0.011981990633215421 -0.019219511689645953 0 -0.011230245951469573 -0.021326938841660696 0 -0.011160122862155151 -0.019654712486717012 0 -0.011295839294660976 -0.021566564987120423 0 -0.012357418411450563 -0.021107316102248665 0 -0.012075171411752105 -0.01837887392857894 0 -0.011087794603463933 -0.019854414226300583 0 -0.011295839294660976 -0.021566564987120423 0 -0.011087794603463933 -0.019854414226300583 0 -0.011295839294660976 -0.021566564987120423 0 -0.01074300219300529 -0.020900824142889931 0 -0.011295839294660976 -0.021566564987120423 0 -0.01074300219300529 -0.020900824142889931 0 -0.010744483650456207 -0.022278540687093819 0 -0.01074300219300529 -0.020900824142889931 0 -0.0097881246733902052 -0.021015411340214982 0 -0.010744483650456207 -0.022278540687093819 0 -0.010512247728932151 -0.019880649148059582 0 -0.0097881246733902052 -0.021015411340214982 0 -0.0091478602016369526 -0.019947806988916097 0 -0.010512247728932151 -0.019880649148059582 0 -0.01074300219300529 -0.020900824142889931 0 -0.0097881246733902052 -0.021015411340214982 0 -0.0097881246733902052 -0.021015411340214982 0 -0.010744483650456207 -0.022278540687093819 0 -0.0089933005112111958 -0.021879018243760893 0 -0.010744483650456207 -0.022278540687093819 0 -0.0097788442429336559 -0.022223905891430331 0 -0.0099961552394170448 -0.022909820608118497 0 -0.010645228784021648 -0.022242347249009701 0 -0.0094405185294767057 -0.022115794148108665 0 -0.0070905684565798358 -0.025395565973329221 0 -0.0058223680311480187 -0.024473732392266648 0 -0.011295839294660976 -0.021566564987120423 0 -0.011477430074872796 -0.022576548298682185 0 -0.011945813817630213 -0.021887864178901116 0 -0.011295839294660976 -0.021566564987120423 0 -0.010744483650456207 -0.022278540687093819 0 -0.011477430074872796 -0.022576548298682185 0 -0.0029731848172655064 -0.028428636123555447 0 -0.0025451809633247574 -0.028446961575167636 0 -0.0028502371641204692 -0.027912493255639614 0 -0.0025451809633247574 -0.028446961575167636 0 -0.0020580632345910065 -0.028836987321945631 0 -0.0020908737250484766 -0.028210747953656218 0 -0.0025451809633247574 -0.028446961575167636 0 -0.0020580632345910065 -0.028836987321945631 0 -0.0027361797328772789 -0.02883508291357964 0 -0.0029731848172655064 -0.028428636123555447 0 -0.0025451809633247574 -0.028446961575167636 0 -0.0027361797328772789 -0.02883508291357964 0 -0.0058223680311480187 -0.024473732392266648 0 -0.0049208207081975252 -0.021224730238416704 0 -0.0058223680311480187 -0.024473732392266648 0 -0.002218107361499029 -0.025636378934710817 0 -0.011295839294660976 -0.021566564987120423 0 -0.011945813817630213 -0.021887864178901116 0 -0.012357418411450563 -0.021107316102248665 0 -0.0020580632345910065 -0.028836987321945631 0 -0.0027361797328772789 -0.02883508291357964 0 -0.0022495194992851806 -0.029120939733701189 0 -0.0042795173348007106 -0.02427035229832749 0 -0.0047450317126275093 -0.024077580899343691 0 -0.0046145547228635597 -0.023672497469938363 0 -0.0026454443048168608 -0.028914509933449895 0 -0.002218107361499029 -0.025636378934710817 0 -0.002218107361499029 -0.025636378934710817 0 -0.0049208207081975252 -0.021224730238416704 0 -0.00035018904537244819 -0.021149348308324125 0 -0.00031293948672400694 -0.021031163724510825 0 -0.0006038393247071544 -0.020988155874926688 0 -0.002218107361499029 -0.025636378934710817 0 -0.00067085331287084621 -0.025433258597165779 0 -0.0022011076135387813 -0.029363987870338251 0 -0.0013300744916480013 -0.029120143743216712 0 -0.0010331357528710081 -0.029879172157282977 0 -0.0020580632345910065 -0.028836987321945631 0 -0.0022011076135387813 -0.029363987870338251 0 -0.0013300744916480013 -0.029120143743216712 0 -0.0013300744916480013 -0.029120143743216712 0 -0.0014027628238386265 -0.028498435379746216 0 -0.00069017666133573414 -0.028790921173903177 0 -0.0020580632345910065 -0.028836987321945631 0 -0.0013300744916480013 -0.029120143743216712 0 -0.0014027628238386265 -0.028498435379746216 0 -0.0020580632345910065 -0.028836987321945631 0 -0.0014027628238386265 -0.028498435379746216 0 -0.0020908737250484766 -0.028210747953656218 0 -0.00069017666133573414 -0.028790921173903177 0 0.00015919108021205655 -0.029201032919693719 0 -0.00063505033524555794 -0.029352129235498462 0 -0.0014027628238386265 -0.028498435379746216 0 -0.00069017666133573414 -0.028790921173903177 0 -0.00082490382054736084 -0.028197328746596514 0 -0.0013300744916480013 -0.029120143743216712 0 -0.00069017666133573414 -0.028790921173903177 0 -0.00063505033524555794 -0.029352129235498462 0 0.00015919108021205655 -0.029201032919693719 0 0.00081944145577345442 -0.028576348164421714 0 2.4656266770241848e-05 -0.028231227734668667 0 -0.00069017666133573414 -0.028790921173903177 0 0.00015919108021205655 -0.029201032919693719 0 2.4656266770241848e-05 -0.028231227734668667 0 0.00015919108021205655 -0.029201032919693719 0 0.00072010648026269472 -0.029856914087709657 0 -1.1350250170491509e-05 -0.030266184933268363 0 0.00015919108021205655 -0.029201032919693719 0 -0.00063505033524555794 -0.029352129235498462 0 -1.1350250170491509e-05 -0.030266184933268363 0 -0.0010331357528710081 -0.029879172157282977 0 -0.00063505033524555794 -0.029352129235498462 0 -1.1350250170491509e-05 -0.030266184933268363 0 -0.0013300744916480013 -0.029120143743216712 0 -0.0010331357528710081 -0.029879172157282977 0 -0.00063505033524555794 -0.029352129235498462 0 0.0010889065265263129 -0.029201260178653928 0 0.0015854848758544246 -0.02848042752021308 0 0.0018561724144479127 -0.029197627317421135 0 0.00015919108021205655 -0.029201032919693719 0 0.0010889065265263129 -0.029201260178653928 0 0.00081944145577345442 -0.028576348164421714 0 0.0010889065265263129 -0.029201260178653928 0 0.0015854848758544246 -0.02848042752021308 0 0.00081944145577345442 -0.028576348164421714 0 0.00015919108021205655 -0.029201032919693719 0 0.0010889065265263129 -0.029201260178653928 0 0.00072010648026269472 -0.029856914087709657 0 0.0010889065265263129 -0.029201260178653928 0 0.00072010648026269472 -0.029856914087709657 0 0.001418738379066221 -0.029975199353496733 0 0.0010889065265263129 -0.029201260178653928 0 0.001418738379066221 -0.029975199353496733 0 0.0018561724144479127 -0.029197627317421135 0 0.00072010648026269472 -0.029856914087709657 0 0.00089951748218399929 -0.030603703739221118 0 -1.1350250170491509e-05 -0.030266184933268363 0 -0.0001704488188555988 -0.025584622298949922 0 -0.00043315390954742271 -0.025543859806404948 0 0.00072010648026269472 -0.029856914087709657 0 0.001418738379066221 -0.029975199353496733 0 0.00089951748218399929 -0.030603703739221118 0 -0.0010105494793026053 -0.020674044687177016 0 -0.0010714767981091832 -0.020545466237588666 0 -0.0010147958326029182 -0.020483677604554336 0 -0.0010105494793026053 -0.020674044687177016 0 -0.00090397368542434811 -0.020546523225047891 0 -0.0010147958326029182 -0.020483677604554336 0 -0.0001704488188555988 -0.025584622298949922 0 0.00084045429145335898 -0.026085858618369224 0 0.001418738379066221 -0.029975199353496733 0 0.00089951748218399929 -0.030603703739221118 0 0.0017378756893270363 -0.030953532342004039 0 -0.0010105494793026053 -0.020674044687177016 0 -0.0010714767981091832 -0.020545466237588666 0 -0.0011561209992292751 -0.020586321734485633 0 -0.00067085331287084621 -0.025433258597165779 0 -0.00043315390954742271 -0.025543859806404948 0 -0.0006038393247071544 -0.020988155874926688 0 -0.00065085706927295285 -0.020769206473876724 0 -0.00084249211975549439 -0.02081640639009797 0 -0.00084249211975549439 -0.02081640639009797 0 -0.00090397368542434811 -0.020546523225047891 0 -0.00075076541495221639 -0.020570855868913385 0 -0.0010105494793026053 -0.020674044687177016 0 -0.00084249211975549439 -0.02081640639009797 0 -0.00090397368542434811 -0.020546523225047891 0 -0.00065085706927295285 -0.020769206473876724 0 -0.00084249211975549439 -0.02081640639009797 0 -0.00075076541495221639 -0.020570855868913385 0 -0.00047835337993082822 -0.020653890720853454 0 -0.00065085706927295285 -0.020769206473876724 0 -0.00075076541495221639 -0.020570855868913385 0 -0.00075076541495221639 -0.020570855868913385 0 -0.00072239290534522498 -0.020271517655511009 0 -0.00083029895682433671 -0.020362386217744135 0 -0.00047835337993082822 -0.020653890720853454 0 -0.00075076541495221639 -0.020570855868913385 0 -0.00072239290534522498 -0.020271517655511009 0 -0.00090397368542434811 -0.020546523225047891 0 -0.00075076541495221639 -0.020570855868913385 0 -0.00083029895682433671 -0.020362386217744135 0 -0.00090397368542434811 -0.020546523225047891 0 -0.00083029895682433671 -0.020362386217744135 0 -0.00093339783147182692 -0.020368142729553503 0 -0.00083029895682433671 -0.020362386217744135 0 -0.00085944702629653976 -0.020254487064220426 0 -0.00078290083539841115 -0.020259555790396643 0 -0.00083029895682433671 -0.020362386217744135 0 -0.00085944702629653976 -0.020254487064220426 0 -0.00093339783147182692 -0.020368142729553503 0 -0.00085944702629653976 -0.020254487064220426 0 -0.00093339783147182692 -0.020368142729553503 0 -0.00094960946261338935 -0.020256719066071672 0 -0.00085944702629653976 -0.020254487064220426 0 -0.00094960946261338935 -0.020256719066071672 0 -0.00089231200356021249 -0.020117355073203721 0 -0.00085944702629653976 -0.020254487064220426 0 -0.00078290083539841115 -0.020259555790396643 0 -0.00077276211984099138 -0.020198361373174593 0 -0.00076859543188660705 -0.020253110673659213 0 -0.00078290083539841115 -0.020259555790396643 0 -0.00077276211984099138 -0.020198361373174593 0 -0.00076859543188660705 -0.020253110673659213 0 -0.00077276211984099138 -0.020198361373174593 0 -0.00082153651296673332 -0.020275170852566107 0 -0.0048902084852152968 -0.0088850965482506917 0 -0.0050381675212119422 -0.0089921485110762873 0 -0.0046671629588496957 -0.0091968075691130132 0 -0.0026617335485981408 -0.014713116132291228 0 -0.0031960244248794784 -0.014269239045191657 0 -0.00072239290534522498 -0.020271517655511009 0 -0.00076859543188660705 -0.020253110673659213 0 -0.00080082718809568025 -0.020234733052029094 0 -0.00072239290534522498 -0.020271517655511009 0 -0.00083029895682433671 -0.020362386217744135 0 -0.00078290083539841115 -0.020259555790396643 0 -0.00072239290534522498 -0.020271517655511009 0 -0.00076859543188660705 -0.020253110673659213 0 -0.00078290083539841115 -0.020259555790396643 0 -0.0011036381784912301 -0.020441467073665544 0 -0.0011264839307462647 -0.020357179342512979 0 -0.0011485901260331554 -0.020436082063711614 0 -0.0011088923994552727 -0.020540219313678963 0 -0.0011036381784912301 -0.020441467073665544 0 -0.0011485901260331554 -0.020436082063711614 0 -0.0010714767981091832 -0.020545466237588666 0 -0.0011561209992292751 -0.020586321734485633 0 -0.0011036381784912301 -0.020441467073665544 0 0.00084045429145335898 -0.026085858618369224 0 -9.701309895817053e-05 -0.019692308106870105 0 -0.0010714767981091832 -0.020545466237588666 0 -0.0011036381784912301 -0.020441467073665544 0 -0.0010147958326029182 -0.020483677604554336 0 -0.0011036381784912301 -0.020441467073665544 0 -0.0010147958326029182 -0.020483677604554336 0 -0.0010394698307844687 -0.020329483621174711 0 -0.00090397368542434811 -0.020546523225047891 0 -0.0010147958326029182 -0.020483677604554336 0 -0.00093339783147182692 -0.020368142729553503 0 -0.0010147958326029182 -0.020483677604554336 0 -0.00093339783147182692 -0.020368142729553503 0 -0.0010394698307844687 -0.020329483621174711 0 -0.00093339783147182692 -0.020368142729553503 0 -0.00094960946261338935 -0.020256719066071672 0 -0.0010394698307844687 -0.020329483621174711 0 -0.00094960946261338935 -0.020256719066071672 0 -0.0010394698307844687 -0.020329483621174711 0 -0.0010176837654585764 -0.02017957305239422 0 -0.0010394698307844687 -0.020329483621174711 0 -0.0011309037355366901 -0.020240195683052371 0 -0.0010176837654585764 -0.02017957305239422 0 -0.0010394698307844687 -0.020329483621174711 0 -0.0011309037355366901 -0.020240195683052371 0 -0.0011264839307462647 -0.020357179342512979 0 -0.0011036381784912301 -0.020441467073665544 0 -0.0010394698307844687 -0.020329483621174711 0 -0.0011264839307462647 -0.020357179342512979 0 -0.0018113329559598318 -0.014600913660575593 0 -0.0019725157083940719 -0.016712966867217044 0 -0.0029429014646536007 -0.013076041608599922 0 -0.0029157457427803407 -0.013052700970747694 0 -0.0029213153090416337 -0.0130110777015196 0 -0.0018113329559598318 -0.014600913660575593 0 -0.0040623954909354849 -0.0092844032018056643 0 -0.00361086920833172 -0.0090923230113814004 0 -0.0032650019019991503 -0.0087502866588650627 0 -0.0036672717324653411 -0.0088300388001522848 0 -0.0052322674981763939 -0.0085098777762039959 0 -0.0052870215581378834 -0.008428106461393494 0 -0.0051985547120204185 -0.0086538882891896898 0 -0.00094960946261338935 -0.020256719066071672 0 -0.0010176837654585764 -0.02017957305239422 0 -0.00089231200356021249 -0.020117355073203721 0 -0.0019725157083940719 -0.016712966867217044 0 -0.0033562182453023711 -0.012500883227796307 0 -0.0029157457427803407 -0.013052700970747694 0 -0.0029213153090416337 -0.0130110777015196 0 -0.0028839625960729734 -0.013035154153781989 0 -0.0040623954909354849 -0.0092844032018056643 0 -0.0033562182453023711 -0.012500883227796307 0 -0.0052322674981763939 -0.0085098777762039959 0 -0.0052585283375446382 -0.008452013060378228 0 -0.0052870215581378834 -0.008428106461393494 0 -0.0052585283375446382 -0.008452013060378228 0 -0.0052444770938284389 -0.0084445940658883275 0 -0.0052585183187420668 -0.0084122033255021409 0 -0.0052585283375446382 -0.008452013060378228 0 -0.0052585183187420668 -0.0084122033255021409 0 -0.0052696020300342754 -0.0083895050595406626 0 -0.0052322674981763939 -0.0085098777762039959 0 -0.0052585283375446382 -0.008452013060378228 0 -0.0052444770938284389 -0.0084445940658883275 0 -0.0052444770938284389 -0.0084445940658883275 0 -0.0052550831083146669 -0.0083942965354054169 0 -0.0052585183187420668 -0.0084122033255021409 0 -0.0052444770938284389 -0.0084445940658883275 0 -0.0052410896007459851 -0.0084237460986998358 0 -0.0052550831083146669 -0.0083942965354054169 0 -0.0052410896007459851 -0.0084237460986998358 0 -0.0052550831083146669 -0.0083942965354054169 0 -0.0052422519055861051 -0.0083989828843881592 0 -0.0052550831083146669 -0.0083942965354054169 0 -0.0052422519055861051 -0.0083989828843881592 0 -0.005265274422788172 -0.0083473576792732519 0 -0.0052550831083146669 -0.0083942965354054169 0 -0.0052685373007266903 -0.0083521930945238947 0 -0.005265274422788172 -0.0083473576792732519 0 -0.0052550831083146669 -0.0083942965354054169 0 -0.0052585183187420668 -0.0084122033255021409 0 -0.0052685373007266903 -0.0083521930945238947 0 -0.0052585183187420668 -0.0084122033255021409 0 -0.0052685373007266903 -0.0083521930945238947 0 -0.0052696020300342754 -0.0083895050595406626 0 -0.0052685373007266903 -0.0083521930945238947 0 -0.0052687484901322839 -0.008324764724048998 0 -0.0052696020300342754 -0.0083895050595406626 0 -0.0052685373007266903 -0.0083521930945238947 0 -0.0052687484901322839 -0.008324764724048998 0 -0.0052708701946705527 -0.0082918058542065035 0 -0.0052687484901322839 -0.008324764724048998 0 -0.0052696020300342754 -0.0083895050595406626 0 -0.0052870215581378834 -0.008428106461393494 0 -0.0052585283375446382 -0.008452013060378228 0 -0.0052696020300342754 -0.0083895050595406626 0 -0.0052870215581378834 -0.008428106461393494 0 -0.0052687484901322839 -0.008324764724048998 0 -0.0052870215581378834 -0.008428106461393494 0 -0.0052220794531211449 -0.0081994056143182819 0 -0.0040623954909354849 -0.0092844032018056643 0 -0.0044909317409934776 -0.0083144415686759142 0 -0.0032650019019991503 -0.0087502866588650627 0 -0.0036437150300507632 -0.0085507815363414959 0 -0.0036672717324653411 -0.0088300388001522848 0 -0.0052687484901322839 -0.008324764724048998 0 -0.0052220794531211449 -0.0081994056143182819 0 -0.0052370763494042419 -0.0082304362746131871 0 -0.0051055637632842028 -0.0087271966146831026 0 -0.0049842242372753649 -0.0087686800684723398 0 -0.0050487399834181022 -0.0085877531119605468 0 -0.0049842242372753649 -0.0087686800684723398 0 -0.0048902084852152968 -0.0088850965482506917 0 -0.004884301781971692 -0.0085977353959475755 0 -0.0049842242372753649 -0.0087686800684723398 0 -0.0048902084852152968 -0.0088850965482506917 0 -0.0050381675212119422 -0.0089921485110762873 0 -0.0051055637632842028 -0.0087271966146831026 0 -0.0049842242372753649 -0.0087686800684723398 0 -0.0050381675212119422 -0.0089921485110762873 0 -0.0026617335485981408 -0.014713116132291228 0 -0.0033562182453023711 -0.012500883227796307 0 -0.00085944702629653976 -0.020254487064220426 0 -0.00077276211984099138 -0.020198361373174593 0 -0.00089231200356021249 -0.020117355073203721 0 -0.0051055637632842028 -0.0087271966146831026 0 -0.0050381675212119422 -0.0089921485110762873 0 -0.0053521790227299961 -0.0088144416671844181 0 -0.0052322674981763939 -0.0085098777762039959 0 -0.0051920649049700422 -0.0085796442611320908 0 -0.0051985547120204185 -0.0086538882891896898 0 -0.0050669344339219612 -0.0098325199823138826 0 -0.0033562182453023711 -0.012500883227796307 0 -0.0051055637632842028 -0.0087271966146831026 0 -0.0051920649049700422 -0.0085796442611320908 0 -0.0051985547120204185 -0.0086538882891896898 0 -0.0051055637632842028 -0.0087271966146831026 0 -0.0051920649049700422 -0.0085796442611320908 0 -0.0051486494635796052 -0.0085597570956298732 0 -0.0051920649049700422 -0.0085796442611320908 0 -0.0051486494635796052 -0.0085597570956298732 0 -0.0052211273950249631 -0.0084608366870135704 0 -0.0052322674981763939 -0.0085098777762039959 0 -0.0051920649049700422 -0.0085796442611320908 0 -0.0052211273950249631 -0.0084608366870135704 0 -0.0052322674981763939 -0.0085098777762039959 0 -0.0052444770938284389 -0.0084445940658883275 0 -0.0052211273950249631 -0.0084608366870135704 0 -0.0052444770938284389 -0.0084445940658883275 0 -0.0052410896007459851 -0.0084237460986998358 0 -0.0052211273950249631 -0.0084608366870135704 0 -0.0052410896007459851 -0.0084237460986998358 0 -0.0052211273950249631 -0.0084608366870135704 0 -0.0052422519055861051 -0.0083989828843881592 0 -0.0052211273950249631 -0.0084608366870135704 0 -0.0052422519055861051 -0.0083989828843881592 0 -0.0052114581035472675 -0.0084188791336789384 0 -0.0051486494635796052 -0.0085597570956298732 0 -0.0052211273950249631 -0.0084608366870135704 0 -0.0051488932166904242 -0.0084915239123428948 0 -0.0052211273950249631 -0.0084608366870135704 0 -0.0051488932166904242 -0.0084915239123428948 0 -0.0052114581035472675 -0.0084188791336789384 0 -0.0052973671273160404 -0.0089112316552411325 0 -0.0049817687643835921 -0.0089067067557944465 0 -0.0050702531466478486 -0.008506879475443865 0 -0.004884301781971692 -0.0085977353959475755 0 -0.0050310048122799763 -0.0085027404077158385 0 -0.0051488932166904242 -0.0084915239123428948 0 -0.0050702531466478486 -0.008506879475443865 0 -0.0050487399834181022 -0.0085877531119605468 0 -0.0051486494635796052 -0.0085597570956298732 0 -0.0051488932166904242 -0.0084915239123428948 0 -0.0050487399834181022 -0.0085877531119605468 0 -0.0051055637632842028 -0.0087271966146831026 0 -0.0051486494635796052 -0.0085597570956298732 0 -0.0050487399834181022 -0.0085877531119605468 0 -0.0050702531466478486 -0.008506879475443865 0 -0.0050487399834181022 -0.0085877531119605468 0 -0.004884301781971692 -0.0085977353959475755 0 -0.0049842242372753649 -0.0087686800684723398 0 -0.0050487399834181022 -0.0085877531119605468 0 -0.004884301781971692 -0.0085977353959475755 0 -0.0052604569265242941 -0.010598627853168298 0 -0.003764935946789671 -0.010091998914045991 0 -0.0039627545002594413 -0.011445390129556272 0 -0.0052604569265242941 -0.010598627853168298 0 -0.004601443542822113 -0.0093976618499785614 0 -0.0050310048122799763 -0.0085027404077158385 0 -0.0052604569265242941 -0.010598627853168298 0 -0.003764935946789671 -0.010091998914045991 0 -0.004601443542822113 -0.0093976618499785614 0 -0.003764935946789671 -0.010091998914045991 0 -0.0029569061765736997 -0.01110126856643784 0 -0.0019612671884121666 -0.0095272911643332694 0 -0.003764935946789671 -0.010091998914045991 0 -0.0029569061765736997 -0.01110126856643784 0 -0.0039627545002594413 -0.011445390129556272 0 -0.0029569061765736997 -0.01110126856643784 0 -0.0039627545002594413 -0.011445390129556272 0 -0.0033847357975637809 -0.012899854593068459 0 -0.0029569061765736997 -0.01110126856643784 0 -0.0033847357975637809 -0.012899854593068459 0 -0.001757250750933104 -0.011693262500279468 0 -0.0039627545002594413 -0.011445390129556272 0 -0.0044520792652124634 -0.01254660658056609 0 -0.0033847357975637809 -0.012899854593068459 0 -0.0052604569265242941 -0.010598627853168298 0 -0.0050655518688188109 -0.013272302179448482 0 -0.0044520792652124634 -0.01254660658056609 0 -0.0052604569265242941 -0.010598627853168298 0 -0.0039627545002594413 -0.011445390129556272 0 -0.0044520792652124634 -0.01254660658056609 0 -0.0052973671273160404 -0.0089112316552411325 0 -0.0031960244248794784 -0.014269239045191657 0 -0.0048902084852152968 -0.0088850965482506917 0 -0.004884301781971692 -0.0085977353959475755 0 -0.0046671629588496957 -0.0091968075691130132 0 -0.0031960244248794784 -0.014269239045191657 0 -0.0036452723112496348 -0.014047410678888943 0 -0.00076859543188660705 -0.020253110673659213 0 -0.00082153651296673332 -0.020275170852566107 0 -0.00080082718809568025 -0.020234733052029094 0 -0.0040474479574680441 -0.0136108063141652 0 -0.0048103499155713863 -0.013412316503851874 0 -0.0044673895201736164 -0.014522890767921699 0 -0.0050853169496201502 -0.013278228166850686 0 -0.0048103499155713863 -0.013412316503851874 0 -0.0044673895201736164 -0.014522890767921699 0 -0.0050655518688188109 -0.013272302179448482 0 -0.0048103499155713863 -0.013412316503851874 0 -0.0044520792652124634 -0.01254660658056609 0 -0.0040474479574680441 -0.0136108063141652 0 -0.0048103499155713863 -0.013412316503851874 0 -0.0044520792652124634 -0.01254660658056609 0 -0.0033847357975637809 -0.012899854593068459 0 -0.0034222724631673986 -0.014174675330233115 0 -0.0015823886044987255 -0.014069358053185269 0 -0.0040474479574680441 -0.0136108063141652 0 -0.0044520792652124634 -0.01254660658056609 0 -0.0033847357975637809 -0.012899854593068459 0 -0.0040474479574680441 -0.0136108063141652 0 -0.0033847357975637809 -0.012899854593068459 0 -0.0034222724631673986 -0.014174675330233115 0 -0.0040474479574680441 -0.0136108063141652 0 -0.0034222724631673986 -0.014174675330233115 0 -0.0044673895201736164 -0.014522890767921699 0 -0.0034222724631673986 -0.014174675330233115 0 -0.0036286053411336032 -0.015590061507401783 0 -0.0044673895201736164 -0.014522890767921699 0 -0.0034222724631673986 -0.014174675330233115 0 -0.0036286053411336032 -0.015590061507401783 0 -0.0015823886044987255 -0.014069358053185269 0 -0.002458122236021292 -0.016965801864270599 0 -0.0036286053411336032 -0.015590061507401783 0 -0.0015823886044987255 -0.014069358053185269 0 -0.00072239290534522498 -0.020271517655511009 0 -0.00080082718809568025 -0.020234733052029094 0 -0.00093259133270064002 -0.020078334328057224 0 -0.0031960244248794784 -0.014269239045191657 0 -0.0028538389462698841 -0.018268715093229419 0 -0.00074807486485438293 -0.020356919901379538 0 -0.00070880350316906179 -0.020237904609777785 0 -0.0050853169496201502 -0.013278228166850686 0 -0.004778893857050351 -0.015674715115105611 0 -0.0044673895201736164 -0.014522890767921699 0 -0.00082153651296673332 -0.020275170852566107 0 -0.00080082718809568025 -0.020234733052029094 0 -0.00093259133270064002 -0.020078334328057224 0 -0.0036286053411336032 -0.015590061507401783 0 -0.004778893857050351 -0.015674715115105611 0 -0.0044673895201736164 -0.014522890767921699 0 -0.00090843849195548071 -0.019881452985990408 0 -0.00072239290534522498 -0.020271517655511009 0 -0.00093259133270064002 -0.020078334328057224 0 -0.010458933631525112 -0.016115796630925088 0 -0.011313994350303273 -0.016640511921967468 0 -0.011314583032057826 -0.015368153628952927 0 -0.01053092458776367 -0.017312505405658516 0 -0.010458933631525112 -0.016115796630925088 0 -0.0094267637502124281 -0.0172417486567026 0 -0.01053092458776367 -0.017312505405658516 0 -0.010458933631525112 -0.016115796630925088 0 -0.011313994350303273 -0.016640511921967468 0 -0.012075171411752105 -0.01837887392857894 0 -0.011313994350303273 -0.016640511921967468 0 -0.01220893980823737 -0.015323733878343558 0 -0.0071721891979928442 -0.018062415590647779 0 -0.0090308216661874521 -0.015440535622549474 0 -0.011981990633215421 -0.019219511689645953 0 -0.0090308216661874521 -0.015440535622549474 0 -0.011313994350303273 -0.016640511921967468 0 -0.01220893980823737 -0.015323733878343558 0 -0.011314583032057826 -0.015368153628952927 0 -0.0090308216661874521 -0.015440535622549474 0 -0.0068192390376640233 -0.012512916996808732 0 -0.012038135970223305 -0.014897244588534695 0 -0.011398381412447223 -0.014026005321096262 0 -0.012160643497616407 -0.013302048647609428 0 -0.012038135970223305 -0.014897244588534695 0 -0.01220893980823737 -0.015323733878343558 0 -0.011314583032057826 -0.015368153628952927 0 -0.012038135970223305 -0.014897244588534695 0 -0.012182467854810142 -0.015290863439474202 0 -0.012160643497616407 -0.013302048647609428 0 -0.012038135970223305 -0.014897244588534695 0 -0.011318710935382942 -0.014720001577237397 0 -0.011314583032057826 -0.015368153628952927 0 -0.0033847357975637809 -0.012899854593068459 0 -0.0015823886044987255 -0.014069358053185269 0 -0.001757250750933104 -0.011693262500279468 0 -0.0096712658399497192 -0.015561081871488231 0 -0.0090308216661874521 -0.015440535622549474 0 -0.012038135970223305 -0.014897244588534695 0 -0.011318710935382942 -0.014720001577237397 0 -0.011398381412447223 -0.014026005321096262 0 -0.011318710935382942 -0.014720001577237397 0 -0.011398381412447223 -0.014026005321096262 0 -0.010603951765225487 -0.014683187045995671 0 -0.011398381412447223 -0.014026005321096262 0 -0.010603951765225487 -0.014683187045995671 0 -0.010776491801503937 -0.013593683885067345 0 -0.010458933631525112 -0.016115796630925088 0 -0.011314583032057826 -0.015368153628952927 0 -0.010603951765225487 -0.014683187045995671 0 -0.011318710935382942 -0.014720001577237397 0 -0.011314583032057826 -0.015368153628952927 0 -0.010603951765225487 -0.014683187045995671 0 -0.010458933631525112 -0.016115796630925088 0 -0.010603951765225487 -0.014683187045995671 0 -0.0095591515531272802 -0.015531457945826121 0 -0.010603951765225487 -0.014683187045995671 0 -0.010138415112037299 -0.013823206934042983 0 -0.0098784271206814132 -0.014496899758835356 0 -0.010603951765225487 -0.014683187045995671 0 -0.010138415112037299 -0.013823206934042983 0 -0.010776491801503937 -0.013593683885067345 0 -0.010138415112037299 -0.013823206934042983 0 -0.010776491801503937 -0.013593683885067345 0 -0.010328966689229833 -0.013079868142551448 0 -0.011398381412447223 -0.014026005321096262 0 -0.010776491801503937 -0.013593683885067345 0 -0.011141118034094429 -0.012969274889926085 0 -0.010776491801503937 -0.013593683885067345 0 -0.011141118034094429 -0.012969274889926085 0 -0.010328966689229833 -0.013079868142551448 0 -0.011141118034094429 -0.012969274889926085 0 -0.010328966689229833 -0.013079868142551448 0 -0.0099892889718733655 -0.012493268559257439 0 -0.0099682872302474211 -0.012876994636042489 0 -0.0088024239323601493 -0.011170261967550171 0 -0.011398381412447223 -0.014026005321096262 0 -0.011141118034094429 -0.012969274889926085 0 -0.012160643497616407 -0.013302048647609428 0 -0.011141118034094429 -0.012969274889926085 0 -0.012160643497616407 -0.013302048647609428 0 -0.012179189824484658 -0.011392945193685377 0 -0.0068192390376640233 -0.012512916996808732 0 -0.0068243252133591828 -0.0097677864550607691 0 -0.0029569061765736997 -0.01110126856643784 0 -0.001757250750933104 -0.011693262500279468 0 -0.0019612671884121666 -0.0095272911643332694 0 -0.011141118034094429 -0.012969274889926085 0 -0.012179189824484658 -0.011392945193685377 0 -0.0099892889718733655 -0.012493268559257439 0 -0.0056983809071507133 -0.0079260329212380021 0 -0.0063702017582239027 -0.0076426211357157256 0 -0.0061145147615905811 -0.0080515268411494156 0 -0.0068243252133591828 -0.0097677864550607691 0 -0.0088024239323601493 -0.011170261967550171 0 -0.0092309352337891851 -0.012644173239756607 0 -0.0087510485865534698 -0.012473228120719214 0 -0.0088396215715311095 -0.012286057494336691 0 -0.0063702017582239027 -0.0076426211357157256 0 -0.0066365873210699174 -0.0080914842568882202 0 -0.0061145147615905811 -0.0080515268411494156 0 -0.0088024239323601493 -0.011170261967550171 0 -0.0075990576894288397 -0.0099776760288180048 0 -0.0092309352337891851 -0.012644173239756607 0 -0.0086597614429394423 -0.013133951952762877 0 -0.0087510485865534698 -0.012473228120719214 0 -0.010015239102438008 -0.012581702508751853 0 -0.0097609545718061203 -0.013315761119559155 0 -0.0086597614429394423 -0.013133951952762877 0 -0.0088024239323601493 -0.011170261967550171 0 -0.0088286363851802045 -0.01324095025544712 0 -0.010328966689229833 -0.013079868142551448 0 -0.010015239102438008 -0.012581702508751853 0 -0.0097609545718061203 -0.013315761119559155 0 -0.0094164910616723278 -0.013892687582789279 0 -0.0097609545718061203 -0.013315761119559155 0 -0.0086597614429394423 -0.013133951952762877 0 -0.010138415112037299 -0.013823206934042983 0 -0.010328966689229833 -0.013079868142551448 0 -0.0097609545718061203 -0.013315761119559155 0 -0.010138415112037299 -0.013823206934042983 0 -0.0094164910616723278 -0.013892687582789279 0 -0.0097609545718061203 -0.013315761119559155 0 -0.0086597614429394423 -0.013133951952762877 0 -0.0084470983432865781 -0.012448385521035683 0 -0.007204345851322542 -0.014424867738983627 0 -0.0084470983432865781 -0.012448385521035683 0 -0.0087510485865534698 -0.012473228120719214 0 -0.0087562043828456632 -0.012342407928950588 0 -0.0086597614429394423 -0.013133951952762877 0 -0.0084470983432865781 -0.012448385521035683 0 -0.0087510485865534698 -0.012473228120719214 0 -0.0087612522995408806 -0.012376898904011091 0 -0.009004957979316457 -0.012250128686022774 0 -0.0089072191087031238 -0.012361387985327283 0 -0.0087612522995408806 -0.012376898904011091 0 -0.009004957979316457 -0.012250128686022774 0 -0.0088736647989089926 -0.012151916131929464 0 -0.0084470983432865781 -0.012448385521035683 0 -0.0087612522995408806 -0.012376898904011091 0 -0.0087562043828456632 -0.012342407928950588 0 -0.0084470983432865781 -0.012448385521035683 0 -0.0087612522995408806 -0.012376898904011091 0 -0.0088736647989089926 -0.012151916131929464 0 -0.009004957979316457 -0.012250128686022774 0 -0.0093011567357479969 -0.012130079994860932 0 -0.0091184792613426772 -0.012266188634421089 0 -0.009004957979316457 -0.012250128686022774 0 -0.0091439992852146885 -0.012015362860239112 0 -0.0093011567357479969 -0.012130079994860932 0 -0.009004957979316457 -0.012250128686022774 0 -0.0088736647989089926 -0.012151916131929464 0 -0.0091439992852146885 -0.012015362860239112 0 -0.0084470983432865781 -0.012448385521035683 0 -0.0088736647989089926 -0.012151916131929464 0 -0.0087937209331496215 -0.01191946658050318 0 -0.0083555165548322916 -0.012554784767945323 0 -0.0080253917261537775 -0.013212288583545969 0 -0.0088736647989089926 -0.012151916131929464 0 -0.0087937209331496215 -0.01191946658050318 0 -0.0091439992852146885 -0.012015362860239112 0 -0.0087937209331496215 -0.01191946658050318 0 -0.0091439992852146885 -0.012015362860239112 0 -0.0091121786896533902 -0.011800814452246355 0 -0.0091439992852146885 -0.012015362860239112 0 -0.0091121786896533902 -0.011800814452246355 0 -0.0093561320660521963 -0.011781651131159275 0 -0.0091121786896533902 -0.011800814452246355 0 -0.0093561320660521963 -0.011781651131159275 0 -0.0092135228547869322 -0.011595206330587618 0 -0.0091121786896533902 -0.011800814452246355 0 -0.008981020136562174 -0.011685692984868712 0 -0.0092135228547869322 -0.011595206330587618 0 -0.0087937209331496215 -0.01191946658050318 0 -0.0091121786896533902 -0.011800814452246355 0 -0.008981020136562174 -0.011685692984868712 0 -0.0080253917261537775 -0.013212288583545969 0 -0.0077871170449233746 -0.014308692867424182 0 -0.0065529104060781445 -0.016841767031169554 0 -0.0084213523353589975 -0.016651379914376707 0 -0.008573593455079671 -0.014951597491236718 0 -0.0084213523353589975 -0.016651379914376707 0 -0.0095591515531272802 -0.015531457945826121 0 -0.008573593455079671 -0.014951597491236718 0 -0.010458933631525112 -0.016115796630925088 0 -0.0095591515531272802 -0.015531457945826121 0 -0.0094267637502124281 -0.0172417486567026 0 -0.0084213523353589975 -0.016651379914376707 0 -0.0095591515531272802 -0.015531457945826121 0 -0.0094267637502124281 -0.0172417486567026 0 -0.0094164910616723278 -0.013892687582789279 0 -0.0086597614429394423 -0.013133951952762877 0 -0.008573593455079671 -0.014951597491236718 0 -0.0095591515531272802 -0.015531457945826121 0 -0.0098784271206814132 -0.014496899758835356 0 -0.008573593455079671 -0.014951597491236718 0 -0.010603951765225487 -0.014683187045995671 0 -0.0095591515531272802 -0.015531457945826121 0 -0.0098784271206814132 -0.014496899758835356 0 -0.010138415112037299 -0.013823206934042983 0 -0.0094164910616723278 -0.013892687582789279 0 -0.0098784271206814132 -0.014496899758835356 0 -0.0094164910616723278 -0.013892687582789279 0 -0.0098784271206814132 -0.014496899758835356 0 -0.008573593455079671 -0.014951597491236718 0 -0.0086597614429394423 -0.013133951952762877 0 -0.007204345851322542 -0.014424867738983627 0 -0.008573593455079671 -0.014951597491236718 0 -0.007204345851322542 -0.014424867738983627 0 -0.0065529104060781445 -0.016841767031169554 0 -0.008573593455079671 -0.014951597491236718 0 -0.014045047796741345 -0.0076411254472512078 0 -0.013947089648794318 -0.0092964180523476322 0 -0.013121168741902518 -0.0088085023092059726 0 -0.014045047796741345 -0.0076411254472512078 0 -0.013121168741902518 -0.0088085023092059726 0 -0.01262138884231438 -0.0079583077164569558 0 -0.013121168741902518 -0.0088085023092059726 0 -0.012220664869104029 -0.0094352567507165995 0 -0.01262138884231438 -0.0079583077164569558 0 -0.013121168741902518 -0.0088085023092059726 0 -0.013077137485198925 -0.0096032063626293133 0 -0.012220664869104029 -0.0094352567507165995 0 -0.013947089648794318 -0.0092964180523476322 0 -0.013121168741902518 -0.0088085023092059726 0 -0.013077137485198925 -0.0096032063626293133 0 -0.013947089648794318 -0.0092964180523476322 0 -0.013077137485198925 -0.0096032063626293133 0 -0.01415034869920551 -0.010933271874825378 0 -0.012173102138125984 -0.0096058367524493593 0 -0.013390436910753202 -0.010583932746464733 0 -0.013077137485198925 -0.0096032063626293133 0 -0.012065728796793495 -0.0095905327668931138 0 -0.01415034869920551 -0.010933271874825378 0 -0.012065728796793495 -0.0095905327668931138 0 -0.012824033053641718 -0.0099126484733189097 0 -0.012110966003581667 -0.010184389703701368 0 -0.013077137485198925 -0.0096032063626293133 0 -0.012065728796793495 -0.0095905327668931138 0 -0.012220664869104029 -0.0094352567507165995 0 -0.012220664869104029 -0.0094352567507165995 0 -0.010436248013337363 -0.0095011279389021295 0 -0.010061034318065992 -0.011868231687639556 0 -0.012123060691134819 -0.0095107948118490493 0 -0.010680336710374046 -0.010928217278745848 0 -0.012065728796793495 -0.0095905327668931138 0 -0.012220664869104029 -0.0094352567507165995 0 -0.01126044608690278 -0.010050156527808713 0 -0.010436248013337363 -0.0095011279389021295 0 -0.011690556037596805 -0.0068463939214228253 0 -0.01262138884231438 -0.0079583077164569558 0 -0.0098216109607857007 -0.01040849547899411 0 -0.012348133396386324 -0.011176463461565103 0 -0.012220664869104029 -0.0094352567507165995 0 -0.010436248013337363 -0.0095011279389021295 0 -0.01262138884231438 -0.0079583077164569558 0 -0.0095302297940993534 -0.012040554781447416 0 -0.009470662740615983 -0.011896497716904228 0 -0.0094522840423495926 -0.012088272296696232 0 -0.0095302297940993534 -0.012040554781447416 0 -0.009470662740615983 -0.011896497716904228 0 -0.0097693000851121741 -0.011658707233484264 0 -0.0095302297940993534 -0.012040554781447416 0 -0.0094522840423495926 -0.012088272296696232 0 -0.00958496637277928 -0.012098651334943497 0 -0.010436248013337363 -0.0095011279389021295 0 -0.010061034318065992 -0.011868231687639556 0 -0.00958496637277928 -0.012098651334943497 0 -0.0098216109607857007 -0.01040849547899411 0 -0.0096190146594771105 -0.012171584517608417 0 -0.0093011567357479969 -0.012130079994860932 0 -0.0093462104066226216 -0.012146352503489026 0 -0.0091184792613426772 -0.012266188634421089 0 -0.0094522840423495926 -0.012088272296696232 0 -0.0093011567357479969 -0.012130079994860932 0 -0.0093462104066226216 -0.012146352503489026 0 -0.009470662740615983 -0.011896497716904228 0 -0.0094522840423495926 -0.012088272296696232 0 -0.0093011567357479969 -0.012130079994860932 0 -0.0095941501994301834 -0.012109377373621364 0 -0.0093011567357479969 -0.012130079994860932 0 -0.0093975555470264729 -0.012003514435110231 0 -0.0091139299744209812 -0.012253642549648282 0 -0.0094889311972852462 -0.011999644663486108 0 -0.0091439992852146885 -0.012015362860239112 0 -0.0093011567357479969 -0.012130079994860932 0 -0.0093975555470264729 -0.012003514435110231 0 -0.0093975555470264729 -0.012003514435110231 0 -0.0093561320660521963 -0.011781651131159275 0 -0.0096101958518880776 -0.011891836456301137 0 -0.0091439992852146885 -0.012015362860239112 0 -0.0093975555470264729 -0.012003514435110231 0 -0.0093561320660521963 -0.011781651131159275 0 -0.0093561320660521963 -0.011781651131159275 0 -0.0096006784448327154 -0.01167451362396345 0 -0.0096101958518880776 -0.011891836456301137 0 -0.0098306734668586072 -0.011725938363270502 0 -0.0096101958518880776 -0.011891836456301137 0 -0.0099891271217346384 -0.011990769066882592 0 -0.0096006784448327154 -0.01167451362396345 0 -0.0098306734668586072 -0.011725938363270502 0 -0.0096101958518880776 -0.011891836456301137 0 -0.0091139299744209812 -0.012253642549648282 0 -0.012348133396386324 -0.011176463461565103 0 -0.0095941501994301834 -0.012109377373621364 0 -0.0096101958518880776 -0.011891836456301137 0 -0.0099891271217346384 -0.011990769066882592 0 -0.0095941501994301834 -0.012109377373621364 0 -0.0093975555470264729 -0.012003514435110231 0 -0.0096101958518880776 -0.011891836456301137 0 -0.0098306734668586072 -0.011725938363270502 0 -0.0099891271217346384 -0.011990769066882592 0 -0.010259080732917871 -0.011535143220896139 0 -0.012348133396386324 -0.011176463461565103 0 -0.013695065663403332 -0.011737364354549366 0 -0.0099891271217346384 -0.011990769066882592 0 -0.01047972848366565 -0.011466587089280481 0 -0.010259080732917871 -0.011535143220896139 0 -0.01671865409100249 -0.013969736554505164 0 -0.018541684022344362 -0.012458682085707724 0 -0.017859486221995631 -0.011387679115584399 0 -0.012348133396386324 -0.011176463461565103 0 -0.016401243431030478 -0.0087342659083177298 0 -0.014045047796741345 -0.0076411254472512078 0 -0.013575415515256572 -0.0054343717141383009 0 -0.01262138884231438 -0.0079583077164569558 0 -0.011690556037596805 -0.0068463939214228253 0 -0.013575415515256572 -0.0054343717141383009 0 -0.01262138884231438 -0.0079583077164569558 0 -0.020343895327596423 -0.010930145673711535 0 -0.017859486221995631 -0.011387679115584399 0 -0.018960522267356644 -0.008816088962926313 0 -0.01047972848366565 -0.011466587089280481 0 -0.010127572336285723 -0.010872637546418257 0 -0.011064547682195258 -0.010505121861073073 0 -0.013695065663403332 -0.011737364354549366 0 -0.018947342507224824 -0.010293412264335573 0 -0.020343895327596423 -0.010930145673711535 0 -0.018541684022344362 -0.012458682085707724 0 -0.017859486221995631 -0.011387679115584399 0 -0.010259080732917871 -0.011535143220896139 0 -0.010057286853970044 -0.011002089261630627 0 -0.0098031606045039955 -0.011459483934239522 0 -0.01047972848366565 -0.011466587089280481 0 -0.010259080732917871 -0.011535143220896139 0 -0.010127572336285723 -0.010872637546418257 0 -0.0098306734668586072 -0.011725938363270502 0 -0.010259080732917871 -0.011535143220896139 0 -0.0098031606045039955 -0.011459483934239522 0 -0.011683234755484054 -0.011464030736224562 0 -0.0097110126729395459 -0.011577935664866359 0 -0.0099532541429981965 -0.011185900642054209 0 -0.011683234755484054 -0.011464030736224562 0 -0.0098925250088303697 -0.011335328495243199 0 -0.0097054130959812364 -0.011327781808892844 0 -0.0098031606045039955 -0.011459483934239522 0 -0.0097054130959812364 -0.011327781808892844 0 -0.0098031606045039955 -0.011459483934239522 0 -0.0094809491056515038 -0.011502605961418794 0 -0.0096006784448327154 -0.01167451362396345 0 -0.0098031606045039955 -0.011459483934239522 0 -0.0094809491056515038 -0.011502605961418794 0 -0.0096006784448327154 -0.01167451362396345 0 -0.0098306734668586072 -0.011725938363270502 0 -0.0098031606045039955 -0.011459483934239522 0 -0.0093561320660521963 -0.011781651131159275 0 -0.0096006784448327154 -0.01167451362396345 0 -0.0094809491056515038 -0.011502605961418794 0 -0.0093561320660521963 -0.011781651131159275 0 -0.0094809491056515038 -0.011502605961418794 0 -0.0092135228547869322 -0.011595206330587618 0 -0.0097054130959812364 -0.011327781808892844 0 -0.0094809491056515038 -0.011502605961418794 0 -0.0094978731126106278 -0.011312181803195185 0 -0.0094809491056515038 -0.011502605961418794 0 -0.0094978731126106278 -0.011312181803195185 0 -0.0092923600845792476 -0.011404686049995668 0 -0.012123132264368031 -0.013626191800372063 0 -0.011577692564552249 -0.014558166694029652 0 -0.0094978731126106278 -0.011312181803195185 0 -0.0096271150545842437 -0.011152557380134287 0 -0.0093618818320305892 -0.011126068834346425 0 -0.0094978731126106278 -0.011312181803195185 0 -0.0092923600845792476 -0.011404686049995668 0 -0.0093618818320305892 -0.011126068834346425 0 -0.015607857588076786 -0.016432640970082749 0 -0.015480256756634123 -0.016181039732197602 0 -0.015813976965393221 -0.016220880425358384 0 -0.0097054130959812364 -0.011327781808892844 0 -0.0094978731126106278 -0.011312181803195185 0 -0.0096271150545842437 -0.011152557380134287 0 -0.011577692564552249 -0.014558166694029652 0 -0.013876721573046561 -0.017680107038754767 0 -0.015607857588076786 -0.016432640970082749 0 -0.015292881258515812 -0.016571560662769803 0 -0.015797519871939305 -0.016730056174613504 0 -0.015607857588076786 -0.016432640970082749 0 -0.015813976965393221 -0.016220880425358384 0 -0.015797519871939305 -0.016730056174613504 0 -0.015292881258515812 -0.016571560662769803 0 -0.015480256756634123 -0.016181039732197602 0 -0.01514192048544339 -0.016134334620818903 0 -0.019720745071038413 -0.01708223268160881 0 -0.015892512646550269 -0.014970512222292193 0 -0.015607857588076786 -0.016432640970082749 0 -0.015292881258515812 -0.016571560662769803 0 -0.015480256756634123 -0.016181039732197602 0 -0.012123132264368031 -0.013626191800372063 0 -0.015892512646550269 -0.014970512222292193 0 -0.0097054130959812364 -0.011327781808892844 0 -0.0096271150545842437 -0.011152557380134287 0 -0.0098637767442119988 -0.011189956936259349 0 -0.0098925250088303697 -0.011335328495243199 0 -0.0097054130959812364 -0.011327781808892844 0 -0.0098637767442119988 -0.011189956936259349 0 -0.011683234755484054 -0.011464030736224562 0 -0.015892512646550269 -0.014970512222292193 0 -0.01519939320096938 -0.013090360103272594 0 -0.014770543767804904 -0.013945537891703788 0 -0.01552574172380479 -0.014036485181218554 0 -0.011683234755484054 -0.011464030736224562 0 -0.018564391388645848 -0.014505401407480191 0 -0.024059522199812187 -0.017288674959154884 0 -0.023680474135337051 -0.017267068446141329 0 -0.023902194383462347 -0.016920430197096447 0 -0.018564391388645848 -0.014505401407480191 0 -0.015892512646550269 -0.014970512222292193 0 -0.023425569347550593 -0.016607241666985 0 -0.023902194383462347 -0.016920430197096447 0 -0.024130192050887182 -0.016596363509091279 0 -0.023425569347550593 -0.016607241666985 0 -0.023680474135337051 -0.017267068446141329 0 -0.023902194383462347 -0.016920430197096447 0 -0.024059522199812187 -0.017288674959154884 0 -0.023902194383462347 -0.016920430197096447 0 -0.02411503513495325 -0.016871697872609691 0 -0.023902194383462347 -0.016920430197096447 0 -0.024130192050887182 -0.016596363509091279 0 -0.02411503513495325 -0.016871697872609691 0 -0.018564391388645848 -0.014505401407480191 0 -0.02497801183051504 -0.016156997754174833 0 -0.024514720991701867 -0.015723410311021351 0 -0.024566843408031318 -0.015290759762285602 0 -0.024714277536271787 -0.015452789245151439 0 -0.024514720991701867 -0.015723410311021351 0 -0.024752257163190534 -0.01566113859463714 0 -0.024714277536271787 -0.015452789245151439 0 -0.0248307238949616 -0.01533603459946384 0 -0.024752257163190534 -0.01566113859463714 0 -0.024714277536271787 -0.015452789245151439 0 -0.024059522199812187 -0.017288674959154884 0 -0.02411503513495325 -0.016871697872609691 0 -0.02436931717642939 -0.016691764342168524 0 -0.024130192050887182 -0.016596363509091279 0 -0.02411503513495325 -0.016871697872609691 0 -0.02436931717642939 -0.016691764342168524 0 -0.024130192050887182 -0.016596363509091279 0 -0.02436931717642939 -0.016691764342168524 0 -0.024304290594541464 -0.016532007400243558 0 -0.018564391388645848 -0.014505401407480191 0 -0.018947342507224824 -0.010293412264335573 0 -0.0248307238949616 -0.01533603459946384 0 -0.024566843408031318 -0.015290759762285602 0 -0.024714277536271787 -0.015452789245151439 0 -0.010127572336285723 -0.010872637546418257 0 -0.010414463437266774 -0.010432387694562185 0 -0.011064547682195258 -0.010505121861073073 0 -0.0072749387503491256 -0.02006703435638274 0 -0.0080049659493909922 -0.019392678162710005 0 -0.0061387001364931184 -0.019210342986950842 0 -0.0080049659493909922 -0.019392678162710005 0 -0.0079407887390162534 -0.018023051869489319 0 -0.0061387001364931184 -0.019210342986950842 0 -0.0080049659493909922 -0.019392678162710005 0 -0.0090444367884690222 -0.018748740477034197 0 -0.0079407887390162534 -0.018023051869489319 0 -0.0072749387503491256 -0.02006703435638274 0 -0.0080049659493909922 -0.019392678162710005 0 -0.0081183981874122443 -0.020284389629155904 0 -0.0080049659493909922 -0.019392678162710005 0 -0.0091478602016369526 -0.019947806988916097 0 -0.0081183981874122443 -0.020284389629155904 0 -0.0099434798113534964 -0.018186130434577407 0 -0.0098677309695531963 -0.019064860712571588 0 -0.0090444367884690222 -0.018748740477034197 0 -0.0098677309695531963 -0.019064860712571588 0 -0.0091478602016369526 -0.019947806988916097 0 -0.0090444367884690222 -0.018748740477034197 0 -0.0080049659493909922 -0.019392678162710005 0 -0.0091478602016369526 -0.019947806988916097 0 -0.0090444367884690222 -0.018748740477034197 0 -0.0090444367884690222 -0.018748740477034197 0 -0.0094267637502124281 -0.0172417486567026 0 -0.0079407887390162534 -0.018023051869489319 0 -0.0084213523353589975 -0.016651379914376707 0 -0.0094267637502124281 -0.0172417486567026 0 -0.0079407887390162534 -0.018023051869489319 0 -0.0099434798113534964 -0.018186130434577407 0 -0.0090444367884690222 -0.018748740477034197 0 -0.0094267637502124281 -0.0172417486567026 0 -0.0065529104060781445 -0.016841767031169554 0 -0.0084213523353589975 -0.016651379914376707 0 -0.0079407887390162534 -0.018023051869489319 0 -0.0077871170449233746 -0.014308692867424182 0 -0.0074451868098329302 -0.015167996220317838 0 -0.008981020136562174 -0.011685692984868712 0 -0.0092135228547869322 -0.011595206330587618 0 -0.0091262456617082766 -0.011468620483647957 0 -0.0065529104060781445 -0.016841767031169554 0 -0.0079407887390162534 -0.018023051869489319 0 -0.0061387001364931184 -0.019210342986950842 0 -0.0094809491056515038 -0.011502605961418794 0 -0.0092135228547869322 -0.011595206330587618 0 -0.0092923600845792476 -0.011404686049995668 0 -0.0092923600845792476 -0.011404686049995668 0 -0.0091262456617082766 -0.011468620483647957 0 -0.009240387328222719 -0.011419361458117129 0 -0.0092135228547869322 -0.011595206330587618 0 -0.0092923600845792476 -0.011404686049995668 0 -0.0091262456617082766 -0.011468620483647957 0 -0.0072749387503491256 -0.02006703435638274 0 -0.0061387001364931184 -0.019210342986950842 0 -0.0067211514596458031 -0.020616873575583824 0 -0.0074451868098329302 -0.015167996220317838 0 -0.0096232944358852664 -0.017433341047534575 0 -0.0091262456617082766 -0.011468620483647957 0 -0.0092351384475274009 -0.011421790380967318 0 -0.009240387328222719 -0.011419361458117129 0 -0.0061387001364931184 -0.019210342986950842 0 -0.0067211514596458031 -0.020616873575583824 0 -0.0058423103810374914 -0.02141257299854224 0 -0.0096232944358852664 -0.017433341047534575 0 -0.0079154103048585476 -0.021180934740690667 0 -0.0067211514596458031 -0.020616873575583824 0 -0.0058423103810374914 -0.02141257299854224 0 -0.0070581781226492848 -0.021566840646936439 0 -0.0096232944358852664 -0.017433341047534575 0 -0.011577692564552249 -0.014558166694029652 0 -0.0092351384475274009 -0.011421790380967318 0 -0.009240387328222719 -0.011419361458117129 0 -0.0092609571896621595 -0.01142703059705117 0 -0.0093364341238473172 -0.010358118566955449 0 -0.011577692564552249 -0.014558166694029652 0 -0.0092923600845792476 -0.011404686049995668 0 -0.009240387328222719 -0.011419361458117129 0 -0.0092609571896621595 -0.01142703059705117 0 -0.011693534320468983 -0.017480323028179361 0 -0.011921185891736588 -0.017896116995181018 0 -0.011629901865654303 -0.018258502250008812 0 -0.01223058424668387 -0.01755594150451285 0 -0.011693534320468983 -0.017480323028179361 0 -0.011921185891736588 -0.017896116995181018 0 -0.01223058424668387 -0.01755594150451285 0 -0.011921185891736588 -0.017896116995181018 0 -0.012130670776200277 -0.018285915730068585 0 -0.0096232944358852664 -0.017433341047534575 0 -0.010567601153944527 -0.020817291183968568 0 -0.0089094291530988912 -0.022147916225681619 0 -0.0088982837184061157 -0.02285596894318009 0 -0.0082740079368424438 -0.022960265263366534 0 -0.0079154103048585476 -0.021180934740690667 0 -0.010567601153944527 -0.020817291183968568 0 -0.0094825308990146122 -0.02002604732923078 0 -0.0093817322643034787 -0.020021082941525933 0 -0.0095187696658605679 -0.019884342484434409 0 -0.0079154103048585476 -0.021180934740690667 0 -0.0094405185294767057 -0.022115794148108665 0 -0.0093727523553737511 -0.022674201240128269 0 -0.0089094291530988912 -0.022147916225681619 0 -0.0097788442429336559 -0.022223905891430331 0 -0.0093727523553737511 -0.022674201240128269 0 -0.0089094291530988912 -0.022147916225681619 0 -0.0088982837184061157 -0.02285596894318009 0 -0.0070622533261756552 -0.021595867795633761 0 -0.0085055923701532702 -0.021051775728966469 0 -0.0089933005112111958 -0.021879018243760893 0 -0.0067211514596458031 -0.020616873575583824 0 -0.0070581781226492848 -0.021566840646936439 0 -0.0076186325422684213 -0.020914412279926017 0 -0.0079154103048585476 -0.021180934740690667 0 -0.0075456881434278504 -0.021256511237455148 0 -0.0070622533261756552 -0.021595867795633761 0 -0.0076186325422684213 -0.020914412279926017 0 -0.0085055923701532702 -0.021051775728966469 0 -0.0076186325422684213 -0.020914412279926017 0 -0.0081183981874122443 -0.020284389629155904 0 -0.0085055923701532702 -0.021051775728966469 0 -0.0072749387503491256 -0.02006703435638274 0 -0.0067211514596458031 -0.020616873575583824 0 -0.0076186325422684213 -0.020914412279926017 0 -0.0072749387503491256 -0.02006703435638274 0 -0.0076186325422684213 -0.020914412279926017 0 -0.0081183981874122443 -0.020284389629155904 0 -0.0097881246733902052 -0.021015411340214982 0 -0.0091478602016369526 -0.019947806988916097 0 -0.0085055923701532702 -0.021051775728966469 0 -0.0091478602016369526 -0.019947806988916097 0 -0.0081183981874122443 -0.020284389629155904 0 -0.0085055923701532702 -0.021051775728966469 0 -0.0097881246733902052 -0.021015411340214982 0 -0.0085055923701532702 -0.021051775728966469 0 -0.0089933005112111958 -0.021879018243760893 0 -0.0093727523553737511 -0.022674201240128269 0 -0.0097788442429336559 -0.022223905891430331 0 -0.0099961552394170448 -0.022909820608118497 0 -0.0093727523553737511 -0.022674201240128269 0 -0.0099961552394170448 -0.022909820608118497 0 -0.0093038583584025818 -0.023238286080858019 0 -0.0099961552394170448 -0.022909820608118497 0 -0.0098871900331772809 -0.023620720589855503 0 -0.0093038583584025818 -0.023238286080858019 0 -0.0098871900331772809 -0.023620720589855503 0 -0.0093038583584025818 -0.023238286080858019 0 -0.0092601507547057094 -0.024135083585187456 0 -0.0093038583584025818 -0.023238286080858019 0 -0.0087441675528965694 -0.023488445358701395 0 -0.0092601507547057094 -0.024135083585187456 0 -0.0093038583584025818 -0.023238286080858019 0 -0.0088982837184061157 -0.02285596894318009 0 -0.0087441675528965694 -0.023488445358701395 0 -0.0093727523553737511 -0.022674201240128269 0 -0.0093038583584025818 -0.023238286080858019 0 -0.0088982837184061157 -0.02285596894318009 0 -0.0088982837184061157 -0.02285596894318009 0 -0.0082740079368424438 -0.022960265263366534 0 -0.0087441675528965694 -0.023488445358701395 0 -0.012130670776200277 -0.018285915730068585 0 -0.011629901865654303 -0.018258502250008812 0 -0.011573330033575512 -0.019009642342901263 0 -0.011921185891736588 -0.017896116995181018 0 -0.012130670776200277 -0.018285915730068585 0 -0.011629901865654303 -0.018258502250008812 0 -0.010567601153944527 -0.020817291183968568 0 -0.010234967390540325 -0.022739194132855061 0 -0.012308152557547756 -0.021582370970087549 0 -0.012354057443574444 -0.021421677674265879 0 -0.012522423060266099 -0.021368524224962649 0 -0.012354057443574444 -0.021421677674265879 0 -0.01240175950781873 -0.021270829703492145 0 -0.012522423060266099 -0.021368524224962649 0 -0.010567601153944527 -0.020817291183968568 0 -0.013912926082170422 -0.01936262141246747 0 -0.0082740079368424438 -0.022960265263366534 0 -0.0081812644488289937 -0.023654953824200093 0 -0.0087441675528965694 -0.023488445358701395 0 -0.0087441675528965694 -0.023488445358701395 0 -0.0085830091268189069 -0.024152170235860897 0 -0.0092601507547057094 -0.024135083585187456 0 -0.0081812644488289937 -0.023654953824200093 0 -0.0087441675528965694 -0.023488445358701395 0 -0.0085830091268189069 -0.024152170235860897 0 -0.0085830091268189069 -0.024152170235860897 0 -0.0080921027889102482 -0.024329452923826222 0 -0.0086357949318713462 -0.025119591257143966 0 -0.0085830091268189069 -0.024152170235860897 0 -0.0086357949318713462 -0.025119591257143966 0 -0.0092601507547057094 -0.024135083585187456 0 -0.0081812644488289937 -0.023654953824200093 0 -0.0085830091268189069 -0.024152170235860897 0 -0.0080921027889102482 -0.024329452923826222 0 -0.012466603576780538 -0.021237290617842075 0 -0.01240175950781873 -0.021270829703492145 0 -0.012522423060266099 -0.021368524224962649 0 -0.010234967390540325 -0.022739194132855061 0 -0.010317629766227831 -0.023101955474728871 0 -0.012466603576780538 -0.021237290617842075 0 -0.01240175950781873 -0.021270829703492145 0 -0.012451109300486658 -0.021077733421509058 0 -0.010176577862726166 -0.024184735726818909 0 -0.0097459291236573365 -0.023600614129459924 0 -0.010290871973851434 -0.023494986651337812 0 -0.012466603576780538 -0.021237290617842075 0 -0.012553908117085765 -0.021199473529505075 0 -0.012451109300486658 -0.021077733421509058 0 -0.010317629766227831 -0.023101955474728871 0 -0.012175303458006702 -0.02212682141304757 0 -0.010317629766227831 -0.023101955474728871 0 -0.009232330441178091 -0.024549265958419941 0 -0.0086357949318713462 -0.025119591257143966 0 -0.0096384941981876252 -0.025089898024570116 0 -0.0092601507547057094 -0.024135083585187456 0 -0.007353793404760018 -0.025447682897033187 0 -0.0073168307106249572 -0.025420207460260216 0 -0.0052432551630514392 -0.025543273431774365 0 -0.0042249565326859971 -0.025635685520721839 0 -0.0044252642676101735 -0.026631657176834224 0 -0.0098871900331772809 -0.023620720589855503 0 -0.0092601507547057094 -0.024135083585187456 0 -0.010158702505827519 -0.024293567654454017 0 -0.0096384941981876252 -0.025089898024570116 0 -0.0092601507547057094 -0.024135083585187456 0 -0.010158702505827519 -0.024293567654454017 0 -0.024477699069947265 -0.016479456809642194 0 -0.024415377837413144 -0.016361750105225024 0 -0.024309789765555426 -0.016446941425362901 0 -0.024415377837413144 -0.016361750105225024 0 -0.024309789765555426 -0.016446941425362901 0 -0.024284405278165017 -0.016394413671391394 0 -0.024477699069947265 -0.016479456809642194 0 -0.02436931717642939 -0.016691764342168524 0 -0.024304290594541464 -0.016532007400243558 0 -0.024477699069947265 -0.016479456809642194 0 -0.024309789765555426 -0.016446941425362901 0 -0.024304290594541464 -0.016532007400243558 0 -0.024543620587319941 -0.016287689473105989 0 -0.02497801183051504 -0.016156997754174833 0 -0.024687808702928235 -0.016031618039794887 0 -0.024514720991701867 -0.015723410311021351 0 -0.024752257163190534 -0.01566113859463714 0 -0.024130192050887182 -0.016596363509091279 0 -0.024236174022228892 -0.016477372500209579 0 -0.024256562822288209 -0.016406768967907461 0 -0.024309789765555426 -0.016446941425362901 0 -0.024304290594541464 -0.016532007400243558 0 -0.024236174022228892 -0.016477372500209579 0 -0.023425569347550593 -0.016607241666985 0 -0.024130192050887182 -0.016596363509091279 0 -0.023476796317362932 -0.015777928805424779 0 -0.02404193745211556 -0.016549972795465669 0 -0.024203336877887591 -0.016075633585882054 0 -0.024130192050887182 -0.016596363509091279 0 -0.024304290594541464 -0.016532007400243558 0 -0.024236174022228892 -0.016477372500209579 0 -0.024258739634833892 -0.016425490981398463 0 -0.024276817545877079 -0.016401411088400143 0 -0.024256562822288209 -0.016406768967907461 0 -0.024236174022228892 -0.016477372500209579 0 -0.024258739634833892 -0.016425490981398463 0 -0.024256562822288209 -0.016406768967907461 0 -0.024309789765555426 -0.016446941425362901 0 -0.024236174022228892 -0.016477372500209579 0 -0.024258739634833892 -0.016425490981398463 0 -0.024309789765555426 -0.016446941425362901 0 -0.024258739634833892 -0.016425490981398463 0 -0.024284405278165017 -0.016394413671391394 0 -0.024284405278165017 -0.016394413671391394 0 -0.024276817545877079 -0.016401411088400143 0 -0.02429494195361136 -0.016398281759529287 0 -0.024258739634833892 -0.016425490981398463 0 -0.024284405278165017 -0.016394413671391394 0 -0.024276817545877079 -0.016401411088400143 0 -0.023114360872349787 -0.015815448353052094 0 -0.023476796317362932 -0.015777928805424779 0 -0.022836395930527598 -0.015023750137170709 0 -0.024256562822288209 -0.016406768967907461 0 -0.024329762388048012 -0.016397626865687191 0 -0.024295850609511928 -0.016399961675716068 0 -0.024203336877887591 -0.016075633585882054 0 -0.020977565440686567 -0.016713067951954381 0 -0.019033123660325325 -0.016179056802734348 0 -0.020977565440686567 -0.016713067951954381 0 -0.024276817545877079 -0.016401411088400143 0 -0.024256562822288209 -0.016406768967907461 0 -0.024295850609511928 -0.016399961675716068 0 -0.023425569347550593 -0.016607241666985 0 -0.023114360872349787 -0.015815448353052094 0 -0.023476796317362932 -0.015777928805424779 0 -0.019720745071038413 -0.01708223268160881 0 -0.019033123660325325 -0.016179056802734348 0 -0.015292881258515812 -0.016571560662769803 0 -0.01545826438952898 -0.017009828964253494 0 -0.015797519871939305 -0.016730056174613504 0 -0.01545826438952898 -0.017009828964253494 0 -0.015797519871939305 -0.016730056174613504 0 -0.015776135604004957 -0.017233357847524205 0 -0.013876721573046561 -0.017680107038754767 0 -0.013912926082170422 -0.01936262141246747 0 -0.01545826438952898 -0.017009828964253494 0 -0.015776135604004957 -0.017233357847524205 0 -0.015622423340815457 -0.017452476322805183 0 -0.012466603576780538 -0.021237290617842075 0 -0.012522423060266099 -0.021368524224962649 0 -0.012553908117085765 -0.021199473529505075 0 -0.016671252109984516 -0.019177577978447082 0 -0.01709582217010519 -0.018350519292397362 0 -0.01683825317728796 -0.017992886070376586 0 -0.013912926082170422 -0.01936262141246747 0 -0.017235776195291441 -0.019324170038853582 0 -0.016671252109984516 -0.019177577978447082 0 -0.01709582217010519 -0.018350519292397362 0 -0.017229073212113814 -0.018532450493392971 0 -0.013912926082170422 -0.01936262141246747 0 -0.020977565440686567 -0.016713067951954381 0 -0.024089001956205992 -0.016791857388662061 0 -0.024118670697890178 -0.016833697657903456 0 -0.024122370930517823 -0.016718783971942992 0 -0.020116642950878998 -0.01772872764942908 0 -0.020977565440686567 -0.016713067951954381 0 -0.020116642950878998 -0.01772872764942908 0 -0.017235776195291441 -0.019324170038853582 0 -0.01643187378616371 -0.019805124360969942 0 -0.01642447332207041 -0.019855913043809688 0 -0.016521689319446253 -0.019973574551694271 0 -0.017235776195291441 -0.019324170038853582 0 -0.012175303458006702 -0.02212682141304757 0 -0.024118670697890178 -0.016833697657903456 0 -0.024122370930517823 -0.016718783971942992 0 -0.024198455477828573 -0.01662397397898796 0 -0.017235776195291441 -0.019324170038853582 0 -0.020395990015558838 -0.017949217831111031 0 -0.024074400048697844 -0.016650933309749628 0 -0.024093262417391261 -0.016611603635065992 0 -0.024069636202930331 -0.016567772206644567 0 -0.020395990015558838 -0.017949217831111031 0 -0.020040668354518554 -0.018312175173909723 0 -0.01642447332207041 -0.019855913043809688 0 -0.0164585104124042 -0.020000398602719474 0 -0.016521689319446253 -0.019973574551694271 0 -0.020395990015558838 -0.017949217831111031 0 -0.021636978394157402 -0.016747280232414102 0 -0.024093262417391261 -0.016611603635065992 0 -0.024198455477828573 -0.01662397397898796 0 -0.024169524738408037 -0.01655146492576972 0 -0.024069646959034924 -0.016661113934401749 0 -0.024093262417391261 -0.016611603635065992 0 -0.024198455477828573 -0.01662397397898796 0 -0.024089001956205992 -0.016791857388662061 0 -0.024069646959034924 -0.016661113934401749 0 -0.024122370930517823 -0.016718783971942992 0 -0.020116642950878998 -0.01772872764942908 0 -0.020395990015558838 -0.017949217831111031 0 -0.024069646959034924 -0.016661113934401749 0 -0.024122370930517823 -0.016718783971942992 0 -0.024198455477828573 -0.01662397397898796 0 -0.019754687898312671 -0.017949155831967413 0 -0.019915780014457807 -0.018171290899110945 0 -0.019895437924260281 -0.018361101791693809 0 -0.024329762388048012 -0.016397626865687191 0 -0.024323234631345732 -0.016534800699888098 0 -0.024311244496258544 -0.016423350628968974 0 -0.024118670697890178 -0.016833697657903456 0 -0.024323234631345732 -0.016534800699888098 0 -0.024198455477828573 -0.01662397397898796 0 -0.020977565440686567 -0.016713067951954381 0 -0.025376935900204577 -0.016226730686983083 0 -0.024323234631345732 -0.016534800699888098 0 -0.024198455477828573 -0.01662397397898796 0 -0.024169524738408037 -0.01655146492576972 0 -0.024311244496258544 -0.016423350628968974 0 -0.02429494195361136 -0.016398281759529287 0 -0.0243249176566658 -0.016435055884984836 0 -0.024329762388048012 -0.016397626865687191 0 -0.024311244496258544 -0.016423350628968974 0 -0.024295850609511928 -0.016399961675716068 0 -0.024276817545877079 -0.016401411088400143 0 -0.024295850609511928 -0.016399961675716068 0 -0.02429494195361136 -0.016398281759529287 0 -0.024311244496258544 -0.016423350628968974 0 -0.024295850609511928 -0.016399961675716068 0 -0.02429494195361136 -0.016398281759529287 0 -0.024284405278165017 -0.016394413671391394 0 -0.02429494195361136 -0.016398281759529287 0 -0.024317965515367058 -0.01633911421939056 0 -0.02429494195361136 -0.016398281759529287 0 -0.024317965515367058 -0.01633911421939056 0 -0.0243249176566658 -0.016435055884984836 0 -0.024323234631345732 -0.016534800699888098 0 -0.0243249176566658 -0.016435055884984836 0 -0.024387784382335985 -0.016536312582496684 0 -0.024317965515367058 -0.01633911421939056 0 -0.0243249176566658 -0.016435055884984836 0 -0.024387784382335985 -0.016536312582496684 0 -0.024323234631345732 -0.016534800699888098 0 -0.024311244496258544 -0.016423350628968974 0 -0.0243249176566658 -0.016435055884984836 0 -0.024658983116125958 -0.016129126432627306 0 -0.024317965515367058 -0.01633911421939056 0 -0.024483578758272031 -0.015942349763867616 0 -0.024338421584672757 -0.016327431304119608 0 -0.02444413186512134 -0.016233825502466537 0 -0.024658983116125958 -0.016129126432627306 0 -0.024317965515367058 -0.01633911421939056 0 -0.024506974398070432 -0.01627944294268957 0 -0.024415377837413144 -0.016361750105225024 0 -0.024284405278165017 -0.016394413671391394 0 -0.024317965515367058 -0.01633911421939056 0 -0.024415377837413144 -0.016361750105225024 0 -0.024317965515367058 -0.01633911421939056 0 -0.024506974398070432 -0.01627944294268957 0 -0.024569655754813811 -0.016504839065743342 0 -0.024386959442592494 -0.016483470278206951 0 -0.024566678678998338 -0.016390646221649659 0 -0.024569655754813811 -0.016504839065743342 0 -0.024387784382335985 -0.016536312582496684 0 -0.024386959442592494 -0.016483470278206951 0 -0.024666260572216225 -0.01606913007431459 0 -0.02444413186512134 -0.016233825502466537 0 -0.024323234631345732 -0.016534800699888098 0 -0.024386959442592494 -0.016483470278206951 0 -0.02423452560272046 -0.016486800142331778 0 -0.024323234631345732 -0.016534800699888098 0 -0.024387784382335985 -0.016536312582496684 0 -0.024386959442592494 -0.016483470278206951 0 -0.02423452560272046 -0.016486800142331778 0 -0.024148877652124819 -0.016449499056748022 0 -0.024251016578622438 -0.016382461925200788 0 -0.024386959442592494 -0.016483470278206951 0 -0.02423452560272046 -0.016486800142331778 0 -0.024251016578622438 -0.016382461925200788 0 -0.024323234631345732 -0.016534800699888098 0 -0.02423452560272046 -0.016486800142331778 0 -0.024169524738408037 -0.01655146492576972 0 -0.024169524738408037 -0.01655146492576972 0 -0.024069636202930331 -0.016567772206644567 0 -0.024129849953451833 -0.016513762391277033 0 -0.02423452560272046 -0.016486800142331778 0 -0.024169524738408037 -0.01655146492576972 0 -0.024129849953451833 -0.016513762391277033 0 -0.024093262417391261 -0.016611603635065992 0 -0.024169524738408037 -0.01655146492576972 0 -0.024069636202930331 -0.016567772206644567 0 -0.024069636202930331 -0.016567772206644567 0 -0.024129849953451833 -0.016513762391277033 0 -0.02403615517658084 -0.016513634662638652 0 -0.024129849953451833 -0.016513762391277033 0 -0.024148877652124819 -0.016449499056748022 0 -0.02403615517658084 -0.016513634662638652 0 -0.02423452560272046 -0.016486800142331778 0 -0.024129849953451833 -0.016513762391277033 0 -0.024148877652124819 -0.016449499056748022 0 -0.024148877652124819 -0.016449499056748022 0 -0.024089453407496977 -0.016353277466275479 0 -0.02403615517658084 -0.016513634662638652 0 -0.024148877652124819 -0.016449499056748022 0 -0.024089453407496977 -0.016353277466275479 0 -0.024251016578622438 -0.016382461925200788 0 -0.024089453407496977 -0.016353277466275479 0 -0.024287591417977952 -0.01625213375684291 0 -0.024251016578622438 -0.016382461925200788 0 -0.024386959442592494 -0.016483470278206951 0 -0.024251016578622438 -0.016382461925200788 0 -0.024413387243090327 -0.016336584673953713 0 -0.024287591417977952 -0.01625213375684291 0 -0.024413387243090327 -0.016336584673953713 0 -0.024463401396352613 -0.016208414556756996 0 -0.024287591417977952 -0.01625213375684291 0 -0.024251016578622438 -0.016382461925200788 0 -0.024413387243090327 -0.016336584673953713 0 -0.024413387243090327 -0.016336584673953713 0 -0.024463401396352613 -0.016208414556756996 0 -0.024655616248809534 -0.016141493569276025 0 -0.024386959442592494 -0.016483470278206951 0 -0.024413387243090327 -0.016336584673953713 0 -0.024566678678998338 -0.016390646221649659 0 -0.024413387243090327 -0.016336584673953713 0 -0.024655616248809534 -0.016141493569276025 0 -0.024566678678998338 -0.016390646221649659 0 -0.0080590638242124327 -0.024482630744989551 0 -0.009216306261991207 -0.022773022292927055 0 -0.0080590638242124327 -0.024482630744989551 0 -0.0058681937835194029 -0.023658774702407202 0 -0.0060728802725287636 -0.024343416397708581 0 -0.0050690285765364277 -0.024134295301512464 0 -0.0048414011833924258 -0.024853749454844316 0 -0.0050690285765364277 -0.024134295301512464 0 -0.0049957998397218723 -0.023544224968322598 0 -0.0055642063953476257 -0.023488756225769392 0 -0.0060728802725287636 -0.024343416397708581 0 -0.0050690285765364277 -0.024134295301512464 0 -0.0055642063953476257 -0.023488756225769392 0 -0.0050690285765364277 -0.024134295301512464 0 -0.0044680870735896447 -0.024372950677054885 0 -0.0044927203463309938 -0.023878394723290525 0 -0.0050690285765364277 -0.024134295301512464 0 -0.0049957998397218723 -0.023544224968322598 0 -0.0044927203463309938 -0.023878394723290525 0 -0.0050690285765364277 -0.024134295301512464 0 -0.0048414011833924258 -0.024853749454844316 0 -0.0044680870735896447 -0.024372950677054885 0 -0.0052432551630514392 -0.025543273431774365 0 -0.0060728802725287636 -0.024343416397708581 0 -0.0048414011833924258 -0.024853749454844316 0 -0.0052432551630514392 -0.025543273431774365 0 -0.0048414011833924258 -0.024853749454844316 0 -0.0042249565326859971 -0.025635685520721839 0 -0.0086357949318713462 -0.025119591257143966 0 -0.0096384941981876252 -0.025089898024570116 0 -0.0091531957698850891 -0.025869825799730569 0 -0.007353793404760018 -0.025447682897033187 0 -0.0080590638242124327 -0.024482630744989551 0 -0.0097459291236573365 -0.023600614129459924 0 -0.0092481348861968952 -0.022974835034242882 0 -0.0096445852072221776 -0.023048962599379618 0 -0.0097459291236573365 -0.023600614129459924 0 -0.0096445852072221776 -0.023048962599379618 0 -0.0099685133613212767 -0.023045220198175502 0 -0.009232330441178091 -0.024549265958419941 0 -0.0080590638242124327 -0.024482630744989551 0 -0.012175303458006702 -0.02212682141304757 0 -0.015330293955059414 -0.020561575185122735 0 -0.0164585104124042 -0.020000398602719474 0 -0.016521689319446253 -0.019973574551694271 0 -0.016492516488158464 -0.020140661723449565 0 -0.0097459291236573365 -0.023600614129459924 0 -0.010290871973851434 -0.023494986651337812 0 -0.0099685133613212767 -0.023045220198175502 0 -0.010612806855461282 -0.0237621973465608 0 -0.01072118314073423 -0.023045981080460277 0 -0.010139451317447944 -0.023169926616257091 0 -0.012175303458006702 -0.02212682141304757 0 -0.010021336760371697 -0.02315372746779211 0 -0.020040668354518554 -0.018312175173909723 0 -0.015330293955059414 -0.020561575185122735 0 -0.015330293955059414 -0.020561575185122735 0 -0.010123016542231817 -0.022852233891509009 0 -0.01072118314073423 -0.023045981080460277 0 -0.010152944529018352 -0.022668140297885449 0 -0.010469992079415319 -0.022245426515103077 0 -0.01072118314073423 -0.023045981080460277 0 -0.010152944529018352 -0.022668140297885449 0 -0.010139451317447944 -0.023169926616257091 0 -0.0092481348861968952 -0.022974835034242882 0 -0.009620613683275726 -0.022522242437408285 0 -0.009625638353952172 -0.022238289568342031 0 -0.0092481348861968952 -0.022974835034242882 0 -0.0096445852072221776 -0.023048962599379618 0 -0.009620613683275726 -0.022522242437408285 0 -0.0096445852072221776 -0.023048962599379618 0 -0.0099685133613212767 -0.023045220198175502 0 -0.009620613683275726 -0.022522242437408285 0 -0.010152944529018352 -0.022668140297885449 0 -0.010139451317447944 -0.023169926616257091 0 -0.009620613683275726 -0.022522242437408285 0 -0.010021336760371697 -0.02315372746779211 0 -0.0096590357013347852 -0.02256657518015848 0 -0.010023185060760456 -0.022304523250032477 0 -0.009625638353952172 -0.022238289568342031 0 -0.0099777989585303605 -0.021219611070331011 0 -0.009620613683275726 -0.022522242437408285 0 -0.010023185060760456 -0.022304523250032477 0 -0.009625638353952172 -0.022238289568342031 0 -0.010152944529018352 -0.022668140297885449 0 -0.009620613683275726 -0.022522242437408285 0 -0.010023185060760456 -0.022304523250032477 0 -0.0087069547032681185 -0.02348913661902733 0 -0.0086472202754706937 -0.021970944391515049 0 -0.0080093217221622621 -0.022741384772940389 0 -0.010023185060760456 -0.022304523250032477 0 -0.010469992079415319 -0.022245426515103077 0 -0.0099777989585303605 -0.021219611070331011 0 -0.017871438007841616 -0.018936215875945434 0 -0.015330293955059414 -0.020561575185122735 0 -0.011146319165208205 -0.021736544407528834 0 -0.010879309046622977 -0.023291862651503844 0 -0.010469992079415319 -0.022245426515103077 0 -0.010152944529018352 -0.022668140297885449 0 -0.010023185060760456 -0.022304523250032477 0 -0.010469992079415319 -0.022245426515103077 0 -0.011146319165208205 -0.021736544407528834 0 -0.0099777989585303605 -0.021219611070331011 0 -0.01087687271210774 -0.020840420198497772 0 -0.011146319165208205 -0.021736544407528834 0 -0.010469992079415319 -0.022245426515103077 0 -0.0099777989585303605 -0.021219611070331011 0 -0.009216306261991207 -0.022773022292927055 0 -0.0099266836340488572 -0.02136579667561524 0 -0.0087069547032681185 -0.02348913661902733 0 -0.0099777989585303605 -0.021219611070331011 0 -0.0086472202754706937 -0.021970944391515049 0 -0.0099777989585303605 -0.021219611070331011 0 -0.0086472202754706937 -0.021970944391515049 0 -0.0087503048939911298 -0.020656480927847044 0 -0.0086472202754706937 -0.021970944391515049 0 -0.0078773276690656136 -0.021716324624610202 0 -0.0087503048939911298 -0.020656480927847044 0 -0.0078773276690656136 -0.021716324624610202 0 -0.0069821581308761125 -0.021189561157315285 0 -0.0071935573603112155 -0.022355870915302885 0 -0.0078773276690656136 -0.021716324624610202 0 -0.0069821581308761125 -0.021189561157315285 0 -0.0087503048939911298 -0.020656480927847044 0 -0.0069821581308761125 -0.021189561157315285 0 -0.0071935573603112155 -0.022355870915302885 0 -0.0062665986221335434 -0.022062144779322425 0 -0.0071935573603112155 -0.022355870915302885 0 -0.0064549124935646173 -0.022864021325516071 0 -0.0062665986221335434 -0.022062144779322425 0 -0.0078773276690656136 -0.021716324624610202 0 -0.0071935573603112155 -0.022355870915302885 0 -0.0080093217221622621 -0.022741384772940389 0 -0.0086472202754706937 -0.021970944391515049 0 -0.0078773276690656136 -0.021716324624610202 0 -0.0080093217221622621 -0.022741384772940389 0 -0.0087069547032681185 -0.02348913661902733 0 -0.0073676647614935899 -0.023561331008343265 0 -0.0080093217221622621 -0.022741384772940389 0 -0.0074334343273747732 -0.025634392089578711 0 -0.0073676647614935899 -0.023561331008343265 0 -0.0062973088591165753 -0.024012789366830038 0 -0.0074334343273747732 -0.025634392089578711 0 -0.0087069547032681185 -0.02348913661902733 0 -0.0073676647614935899 -0.023561331008343265 0 -0.0071935573603112155 -0.022355870915302885 0 -0.0073676647614935899 -0.023561331008343265 0 -0.0080093217221622621 -0.022741384772940389 0 -0.0071935573603112155 -0.022355870915302885 0 -0.0073676647614935899 -0.023561331008343265 0 -0.0064549124935646173 -0.022864021325516071 0 -0.0073676647614935899 -0.023561331008343265 0 -0.0064549124935646173 -0.022864021325516071 0 -0.0062973088591165753 -0.024012789366830038 0 -0.0049957998397218723 -0.023544224968322598 0 -0.0055642063953476257 -0.023488756225769392 0 -0.0051394329350752258 -0.022333985824022965 0 -0.0049957998397218723 -0.023544224968322598 0 -0.0051394329350752258 -0.022333985824022965 0 -0.0044669774779790795 -0.023393345674542074 0 -0.0058681937835194029 -0.023658774702407202 0 -0.0051997124463296872 -0.022506069802921844 0 -0.0064549124935646173 -0.022864021325516071 0 -0.0062973088591165753 -0.024012789366830038 0 -0.0051394329350752258 -0.022333985824022965 0 -0.0051394329350752258 -0.022333985824022965 0 -0.0055837734965293612 -0.021384357743208546 0 -0.0039477986345686986 -0.022974287109589805 0 -0.0064549124935646173 -0.022864021325516071 0 -0.0051394329350752258 -0.022333985824022965 0 -0.0062665986221335434 -0.022062144779322425 0 -0.0051394329350752258 -0.022333985824022965 0 -0.0062665986221335434 -0.022062144779322425 0 -0.0055837734965293612 -0.021384357743208546 0 -0.0069821581308761125 -0.021189561157315285 0 -0.0062665986221335434 -0.022062144779322425 0 -0.0055837734965293612 -0.021384357743208546 0 -0.0057416997918081367 -0.025832570275972775 0 -0.005747876224118079 -0.025835686827961359 0 -0.0057412896856743195 -0.02582955167194393 0 -0.0057416997918081367 -0.025832570275972775 0 -0.0057412896856743195 -0.02582955167194393 0 -0.0057330026519868309 -0.02581276366141232 0 -0.0056904189300802871 -0.023659312279459402 0 -0.0047637852222821775 -0.023751571140160029 0 -0.005747876224118079 -0.025835686827961359 0 -0.0057412896856743195 -0.02582955167194393 0 -0.0057480755759742935 -0.025835942913878442 0 -0.0057412896856743195 -0.02582955167194393 0 -0.0057390951361270658 -0.025835671162406156 0 -0.0057480755759742935 -0.025835942913878442 0 -0.0057412896856743195 -0.02582955167194393 0 -0.005735763844475111 -0.02582454122333968 0 -0.0057330026519868309 -0.02581276366141232 0 -0.0057347737978308494 -0.025832641981340738 0 -0.0057333562003345807 -0.025837698940264987 0 -0.0057330026519868309 -0.02581276366141232 0 -0.005735763844475111 -0.02582454122333968 0 -0.0057347737978308494 -0.025832641981340738 0 -0.0057330026519868309 -0.02581276366141232 0 -0.005735763844475111 -0.02582454122333968 0 -0.0057370903983479746 -0.025830014311984183 0 -0.0057347737978308494 -0.025832641981340738 0 -0.0057412896856743195 -0.02582955167194393 0 -0.005735763844475111 -0.02582454122333968 0 -0.0057370903983479746 -0.025830014311984183 0 -0.0057347737978308494 -0.025832641981340738 0 -0.00573410623688142 -0.025843462162103554 0 -0.0057333562003345807 -0.025837698940264987 0 -0.0057347737978308494 -0.025832641981340738 0 -0.0057390951361270658 -0.025835671162406156 0 -0.00573410623688142 -0.025843462162103554 0 -0.0057412896856743195 -0.02582955167194393 0 -0.0057370903983479746 -0.025830014311984183 0 -0.0057390951361270658 -0.025835671162406156 0 -0.0057370903983479746 -0.025830014311984183 0 -0.0057347737978308494 -0.025832641981340738 0 -0.0057390951361270658 -0.025835671162406156 0 -0.0057390951361270658 -0.025835671162406156 0 -0.0057480755759742935 -0.025835942913878442 0 -0.00573410623688142 -0.025843462162103554 0 -0.0057480755759742935 -0.025835942913878442 0 -0.00573410623688142 -0.025843462162103554 0 -0.0057520178058043424 -0.025837716303276401 0 -0.00573410623688142 -0.025843462162103554 0 -0.0057333562003345807 -0.025837698940264987 0 -0.0057211434529277905 -0.025860061824598587 0 -0.00573410623688142 -0.025843462162103554 0 -0.0057520178058043424 -0.025837716303276401 0 -0.0057211434529277905 -0.025860061824598587 0 -0.0041274879732553565 -0.024879695909395136 0 -0.0057584014844345114 -0.025477944200226373 0 -0.0057333562003345807 -0.025837698940264987 0 -0.0057374669683393636 -0.025838681750671014 0 -0.0057330026519868309 -0.02581276366141232 0 -0.0031680301849396283 -0.022134970809748744 0 -0.0035985778192786579 -0.022949745797921545 0 -0.0041525091391768866 -0.023125655114411958 0 -0.0057333562003345807 -0.025837698940264987 0 -0.0057374669683393636 -0.025838681750671014 0 -0.0057211434529277905 -0.025860061824598587 0 -0.0041274879732553565 -0.024879695909395136 0 -0.0047637852222821775 -0.023751571140160029 0 -0.0031680301849396283 -0.022134970809748744 0 -0.0032295825904723146 -0.022748709934948815 0 -0.0028065258290425796 -0.022723791148873046 0 -0.0032295825904723146 -0.022748709934948815 0 -0.0030487585599074524 -0.023064683781587058 0 -0.0028065258290425796 -0.022723791148873046 0 -0.0031680301849396283 -0.022134970809748744 0 -0.0032295825904723146 -0.022748709934948815 0 -0.0035985778192786579 -0.022949745797921545 0 -0.0035985778192786579 -0.022949745797921545 0 -0.0034344130043351359 -0.023063514209843844 0 -0.0036355808904848454 -0.02330491241859612 0 -0.0032295825904723146 -0.022748709934948815 0 -0.0035985778192786579 -0.022949745797921545 0 -0.0034344130043351359 -0.023063514209843844 0 -0.0034344130043351359 -0.023063514209843844 0 -0.0036355808904848454 -0.02330491241859612 0 -0.0033048072887542188 -0.023294005970788415 0 -0.0035985778192786579 -0.022949745797921545 0 -0.0036355808904848454 -0.02330491241859612 0 -0.0039689527747746685 -0.023300402554510293 0 -0.0032295825904723146 -0.022748709934948815 0 -0.0034344130043351359 -0.023063514209843844 0 -0.0030487585599074524 -0.023064683781587058 0 -0.0030487585599074524 -0.023064683781587058 0 -0.0033048072887542188 -0.023294005970788415 0 -0.0029825426163451558 -0.023497382397332782 0 -0.0034344130043351359 -0.023063514209843844 0 -0.0030487585599074524 -0.023064683781587058 0 -0.0033048072887542188 -0.023294005970788415 0 -0.0029825426163451558 -0.023497382397332782 0 -0.0031995704664075841 -0.023750338123819728 0 -0.002794839218743011 -0.023980249827808255 0 -0.0033048072887542188 -0.023294005970788415 0 -0.0029825426163451558 -0.023497382397332782 0 -0.003418300851543374 -0.023538563965370875 0 -0.0029825426163451558 -0.023497382397332782 0 -0.0031995704664075841 -0.023750338123819728 0 -0.003418300851543374 -0.023538563965370875 0 -0.0036355808904848454 -0.02330491241859612 0 -0.003418300851543374 -0.023538563965370875 0 -0.0037760458752381732 -0.023608758778251734 0 -0.0036355808904848454 -0.02330491241859612 0 -0.0033048072887542188 -0.023294005970788415 0 -0.003418300851543374 -0.023538563965370875 0 -0.0031995704664075841 -0.023750338123819728 0 -0.003418300851543374 -0.023538563965370875 0 -0.0035140614256593079 -0.023871420449767741 0 -0.003418300851543374 -0.023538563965370875 0 -0.0037760458752381732 -0.023608758778251734 0 -0.0035140614256593079 -0.023871420449767741 0 -0.0041454294700637171 -0.023558816246724741 0 -0.0039689527747746685 -0.023300402554510293 0 -0.0041515004237863843 -0.023108171160918189 0 -0.0036355808904848454 -0.02330491241859612 0 -0.0037760458752381732 -0.023608758778251734 0 -0.0039689527747746685 -0.023300402554510293 0 -0.0037760458752381732 -0.023608758778251734 0 -0.0041454294700637171 -0.023558816246724741 0 -0.0039689527747746685 -0.023300402554510293 0 -0.0041454294700637171 -0.023558816246724741 0 -0.0044669774779790795 -0.023393345674542074 0 -0.0041515004237863843 -0.023108171160918189 0 -0.0041454294700637171 -0.023558816246724741 0 -0.0044669774779790795 -0.023393345674542074 0 -0.0044927203463309938 -0.023878394723290525 0 -0.0049957998397218723 -0.023544224968322598 0 -0.0044669774779790795 -0.023393345674542074 0 -0.0044927203463309938 -0.023878394723290525 0 -0.0043364277531527991 -0.023307335259686812 0 -0.0047637852222821775 -0.023751571140160029 0 -0.0051394329350752258 -0.022333985824022965 0 -0.0044669774779790795 -0.023393345674542074 0 -0.0039477986345686986 -0.022974287109589805 0 -0.0035985778192786579 -0.022949745797921545 0 -0.0039689527747746685 -0.023300402554510293 0 -0.0041525091391768866 -0.023125655114411958 0 -0.0045874528643341916 -0.023690171389677658 0 -0.0047637852222821775 -0.023751571140160029 0 0.00021379852191932242 -0.026753686518964558 0 0.00090693232891244421 -0.027096759148492751 0 0.00053958674082842291 -0.026610175210968048 0 -0.0019251439596215162 -0.023777260622301889 0 -0.00062350876059706877 -0.024846802414228802 0 -0.0015587092665715438 -0.024953199696757956 0 -0.0019715556198258142 -0.025289582323115067 0 -0.00071124392533487629 -0.025631702009357764 0 -0.0020207377871034786 -0.022413227908895508 0 -0.0013441643585497545 -0.023115925805921346 0 -0.00074895663132452689 -0.022749614357408268 0 -0.00062072860507160173 -0.025938753703931977 0 -0.00062350876059706877 -0.024846802414228802 0 -0.0032443638734751274 -0.024936681996632116 0 -0.0019715556198258142 -0.025289582323115067 0 -0.0026848058950096499 -0.024385957053459979 0 -0.0041274879732553565 -0.024879695909395136 0 -0.0019251439596215162 -0.023777260622301889 0 -0.0031680301849396283 -0.022134970809748744 0 -0.0020207377871034786 -0.022413227908895508 0 -0.0028065258290425796 -0.022723791148873046 0 -0.0015587092665715438 -0.024953199696757956 0 -0.0019715556198258142 -0.025289582323115067 0 -0.0026848058950096499 -0.024385957053459979 0 -0.0020207377871034786 -0.022413227908895508 0 -0.0028065258290425796 -0.022723791148873046 0 -0.0025540673453114796 -0.023201431587085829 0 -0.0020207377871034786 -0.022413227908895508 0 -0.0025540673453114796 -0.023201431587085829 0 -0.0020140117232494005 -0.023434697975489013 0 -0.0030487585599074524 -0.023064683781587058 0 -0.0028065258290425796 -0.022723791148873046 0 -0.0025540673453114796 -0.023201431587085829 0 -0.0030487585599074524 -0.023064683781587058 0 -0.0029825426163451558 -0.023497382397332782 0 -0.0025540673453114796 -0.023201431587085829 0 -0.0029825426163451558 -0.023497382397332782 0 -0.0025471306003263376 -0.023848864311451688 0 -0.002794839218743011 -0.023980249827808255 0 -0.0029825426163451558 -0.023497382397332782 0 -0.0025540673453114796 -0.023201431587085829 0 -0.0025471306003263376 -0.023848864311451688 0 -0.0025540673453114796 -0.023201431587085829 0 -0.0020140117232494005 -0.023434697975489013 0 -0.0025471306003263376 -0.023848864311451688 0 -0.0020207377871034786 -0.022413227908895508 0 -0.0020140117232494005 -0.023434697975489013 0 -0.0013441643585497545 -0.023115925805921346 0 -0.0020140117232494005 -0.023434697975489013 0 -0.0011663373480564005 -0.023691101938548918 0 -0.0013441643585497545 -0.023115925805921346 0 -0.0020140117232494005 -0.023434697975489013 0 -0.0011663373480564005 -0.023691101938548918 0 -0.0015832739617810533 -0.024269951651983958 0 -0.0013441643585497545 -0.023115925805921346 0 -0.00075491317977155394 -0.023316406465924672 0 -0.00074895663132452689 -0.022749614357408268 0 -0.0011663373480564005 -0.023691101938548918 0 -0.0013441643585497545 -0.023115925805921346 0 -0.00075491317977155394 -0.023316406465924672 0 -0.00093828828002857619 -0.024427926749865089 0 -0.001571045618928646 -0.024809095383061999 0 -0.0010479607020324009 -0.025295857716020123 0 -0.0011663373480564005 -0.023691101938548918 0 -0.00093828828002857619 -0.024427926749865089 0 -0.00059061210023820783 -0.023803399812283098 0 -0.0011663373480564005 -0.023691101938548918 0 -0.00093828828002857619 -0.024427926749865089 0 -0.0015832739617810533 -0.024269951651983958 0 -0.00093828828002857619 -0.024427926749865089 0 -0.0015832739617810533 -0.024269951651983958 0 -0.001571045618928646 -0.024809095383061999 0 -0.0015832739617810533 -0.024269951651983958 0 -0.001571045618928646 -0.024809095383061999 0 -0.0021533407651527061 -0.024999246209018899 0 -0.0020140117232494005 -0.023434697975489013 0 -0.0025471306003263376 -0.023848864311451688 0 -0.0023468077413273114 -0.024626372381093387 0 -0.0020290411656039317 -0.023520650942661269 0 -0.0022393643269799021 -0.024775348377719397 0 -0.0020140117232494005 -0.023434697975489013 0 -0.0015832739617810533 -0.024269951651983958 0 -0.0021533407651527061 -0.024999246209018899 0 -0.002794839218743011 -0.023980249827808255 0 -0.0028298754418752394 -0.024405366706410653 0 -0.0029899348830176378 -0.02420267911428723 0 -0.0025471306003263376 -0.023848864311451688 0 -0.002794839218743011 -0.023980249827808255 0 -0.0026359734419716583 -0.024284471011283011 0 -0.0026359734419716583 -0.024284471011283011 0 -0.0027197553892664749 -0.024726878624828363 0 -0.0023468077413273114 -0.024626372381093387 0 -0.0026359734419716583 -0.024284471011283011 0 -0.0028298754418752394 -0.024405366706410653 0 -0.0027197553892664749 -0.024726878624828363 0 -0.002794839218743011 -0.023980249827808255 0 -0.0026359734419716583 -0.024284471011283011 0 -0.0028298754418752394 -0.024405366706410653 0 -0.0025471306003263376 -0.023848864311451688 0 -0.0026359734419716583 -0.024284471011283011 0 -0.0023468077413273114 -0.024626372381093387 0 -0.0028168567851003727 -0.025132321535873546 0 -0.0023468077413273114 -0.024626372381093387 0 -0.0025875860572100217 -0.025799205101981609 0 -0.0020144917026775409 -0.02522874549832415 0 -0.0021533407651527061 -0.024999246209018899 0 -0.0022418840541365446 -0.02615835195176533 0 -0.0020144917026775409 -0.02522874549832415 0 -0.0022418840541365446 -0.02615835195176533 0 -0.0014716084803516876 -0.025875111801076323 0 -0.0022393643269799021 -0.024775348377719397 0 -0.0024186451288801718 -0.025972161928042001 0 -0.0027197553892664749 -0.024726878624828363 0 -0.0028168567851003727 -0.025132321535873546 0 -0.0030445567535935976 -0.024818491173284617 0 -0.0028298754418752394 -0.024405366706410653 0 -0.0027197553892664749 -0.024726878624828363 0 -0.0030445567535935976 -0.024818491173284617 0 -0.0027197553892664749 -0.024726878624828363 0 -0.0028168567851003727 -0.025132321535873546 0 -0.0023468077413273114 -0.024626372381093387 0 -0.001571045618928646 -0.024809095383061999 0 -0.0020144917026775409 -0.02522874549832415 0 -0.0021533407651527061 -0.024999246209018899 0 -0.0018734013549405522 -0.025246958192165672 0 -0.0012019743024238865 -0.025314347295331319 0 -0.0020144917026775409 -0.02522874549832415 0 -0.0011799391957223421 -0.025309643914398178 0 -0.0014716084803516876 -0.025875111801076323 0 -0.001571045618928646 -0.024809095383061999 0 -0.0020144917026775409 -0.02522874549832415 0 -0.0010479607020324009 -0.025295857716020123 0 -0.0011799391957223421 -0.025309643914398178 0 -0.0014716084803516876 -0.025875111801076323 0 -0.00082239061028798832 -0.025692547645955383 0 -0.0044680870735896447 -0.024372950677054885 0 -0.003971874759814557 -0.024078750342787468 0 -0.003966571126868065 -0.024788729165038277 0 -0.003971874759814557 -0.024078750342787468 0 -0.0035359323134728678 -0.024230084319967194 0 -0.003966571126868065 -0.024788729165038277 0 -0.0041454294700637171 -0.023558816246724741 0 -0.0044927203463309938 -0.023878394723290525 0 -0.003971874759814557 -0.024078750342787468 0 -0.0044680870735896447 -0.024372950677054885 0 -0.0044927203463309938 -0.023878394723290525 0 -0.003971874759814557 -0.024078750342787468 0 -0.0037760458752381732 -0.023608758778251734 0 -0.0041454294700637171 -0.023558816246724741 0 -0.003971874759814557 -0.024078750342787468 0 -0.003971874759814557 -0.024078750342787468 0 -0.0035140614256593079 -0.023871420449767741 0 -0.0035359323134728678 -0.024230084319967194 0 -0.0037760458752381732 -0.023608758778251734 0 -0.003971874759814557 -0.024078750342787468 0 -0.0035140614256593079 -0.023871420449767741 0 -0.0035140614256593079 -0.023871420449767741 0 -0.0031730878114318898 -0.024040458334747782 0 -0.0035359323134728678 -0.024230084319967194 0 -0.0031995704664075841 -0.023750338123819728 0 -0.002794839218743011 -0.023980249827808255 0 -0.0031730878114318898 -0.024040458334747782 0 -0.0031995704664075841 -0.023750338123819728 0 -0.0035140614256593079 -0.023871420449767741 0 -0.0031730878114318898 -0.024040458334747782 0 -0.002794839218743011 -0.023980249827808255 0 -0.0031730878114318898 -0.024040458334747782 0 -0.0029899348830176378 -0.02420267911428723 0 -0.0028298754418752394 -0.024405366706410653 0 -0.0031635410331293749 -0.024382223079703003 0 -0.0030445567535935976 -0.024818491173284617 0 -0.0028298754418752394 -0.024405366706410653 0 -0.0029899348830176378 -0.02420267911428723 0 -0.0031635410331293749 -0.024382223079703003 0 -0.0031730878114318898 -0.024040458334747782 0 -0.0031635410331293749 -0.024382223079703003 0 -0.0035359323134728678 -0.024230084319967194 0 -0.0031730878114318898 -0.024040458334747782 0 -0.0029899348830176378 -0.02420267911428723 0 -0.0031635410331293749 -0.024382223079703003 0 -0.0035359323134728678 -0.024230084319967194 0 -0.0034531441734868907 -0.024650853578864779 0 -0.003966571126868065 -0.024788729165038277 0 -0.0031635410331293749 -0.024382223079703003 0 -0.0035359323134728678 -0.024230084319967194 0 -0.0034531441734868907 -0.024650853578864779 0 -0.0034531441734868907 -0.024650853578864779 0 -0.0033762697463843479 -0.025394077365431197 0 -0.003966571126868065 -0.024788729165038277 0 -0.0034531441734868907 -0.024650853578864779 0 -0.0030445567535935976 -0.024818491173284617 0 -0.0033762697463843479 -0.025394077365431197 0 -0.0031635410331293749 -0.024382223079703003 0 -0.0034531441734868907 -0.024650853578864779 0 -0.0030445567535935976 -0.024818491173284617 0 -0.0028168567851003727 -0.025132321535873546 0 -0.0030445567535935976 -0.024818491173284617 0 -0.0033762697463843479 -0.025394077365431197 0 -0.0048414011833924258 -0.024853749454844316 0 -0.003966571126868065 -0.024788729165038277 0 -0.0042249565326859971 -0.025635685520721839 0 -0.0033762697463843479 -0.025394077365431197 0 -0.003966571126868065 -0.024788729165038277 0 -0.0042249565326859971 -0.025635685520721839 0 -0.0048414011833924258 -0.024853749454844316 0 -0.0044680870735896447 -0.024372950677054885 0 -0.003966571126868065 -0.024788729165038277 0 -0.0042249565326859971 -0.025635685520721839 0 -0.0044252642676101735 -0.026631657176834224 0 -0.0035069566815993359 -0.026372390025471475 0 -0.0044252642676101735 -0.026631657176834224 0 -0.0035069566815993359 -0.026372390025471475 0 -0.0036240784514672457 -0.027641572470476695 0 -0.0035069566815993359 -0.026372390025471475 0 -0.0025875860572100217 -0.025799205101981609 0 -0.0027749029770661169 -0.026902358145416257 0 -0.0033762697463843479 -0.025394077365431197 0 -0.0035069566815993359 -0.026372390025471475 0 -0.0025875860572100217 -0.025799205101981609 0 -0.0033762697463843479 -0.025394077365431197 0 -0.0042249565326859971 -0.025635685520721839 0 -0.0035069566815993359 -0.026372390025471475 0 -0.0028168567851003727 -0.025132321535873546 0 -0.0033762697463843479 -0.025394077365431197 0 -0.0025875860572100217 -0.025799205101981609 0 -0.0014716084803516876 -0.025875111801076323 0 -0.0015730871439551737 -0.026601233138861178 0 -0.00091231332040046516 -0.026229162966755769 0 -0.0022418840541365446 -0.02615835195176533 0 -0.0014716084803516876 -0.025875111801076323 0 -0.0015730871439551737 -0.026601233138861178 0 -0.0014716084803516876 -0.025875111801076323 0 -0.00091231332040046516 -0.026229162966755769 0 -0.00082239061028798832 -0.025692547645955383 0 -0.0015730871439551737 -0.026601233138861178 0 -0.00079045307914115293 -0.026903175876458352 0 -0.00091231332040046516 -0.026229162966755769 0 -0.0015730871439551737 -0.026601233138861178 0 -0.0015053488202888049 -0.027290872619430855 0 -0.00079045307914115293 -0.026903175876458352 0 -0.0024186451288801718 -0.025972161928042001 0 -0.0026161722268829967 -0.027010639153289578 0 -0.0015730871439551737 -0.026601233138861178 0 -0.0024315256860912913 -0.027077754743726264 0 -0.0015053488202888049 -0.027290872619430855 0 -0.0022418840541365446 -0.02615835195176533 0 -0.0015730871439551737 -0.026601233138861178 0 -0.0024315256860912913 -0.027077754743726264 0 -0.0026161722268829967 -0.027010639153289578 0 -0.0028228916372637905 -0.027873529903367156 0 -0.0024315256860912913 -0.027077754743726264 0 -0.0020643330852633669 -0.027666058801570408 0 -0.0028502371641204692 -0.027912493255639614 0 -0.0024315256860912913 -0.027077754743726264 0 -0.0020643330852633669 -0.027666058801570408 0 -0.0015053488202888049 -0.027290872619430855 0 -0.0015053488202888049 -0.027290872619430855 0 -0.001437307545121488 -0.02790474468078644 0 -0.00065189131263832618 -0.027679559000946589 0 -0.0020643330852633669 -0.027666058801570408 0 -0.0015053488202888049 -0.027290872619430855 0 -0.001437307545121488 -0.02790474468078644 0 -0.0020643330852633669 -0.027666058801570408 0 -0.001437307545121488 -0.02790474468078644 0 -0.0020908737250484766 -0.028210747953656218 0 -0.0014027628238386265 -0.028498435379746216 0 -0.001437307545121488 -0.02790474468078644 0 -0.0020908737250484766 -0.028210747953656218 0 -0.0014027628238386265 -0.028498435379746216 0 -0.001437307545121488 -0.02790474468078644 0 -0.00082490382054736084 -0.028197328746596514 0 -0.0020643330852633669 -0.027666058801570408 0 -0.0020908737250484766 -0.028210747953656218 0 -0.0028502371641204692 -0.027912493255639614 0 -0.0025451809633247574 -0.028446961575167636 0 -0.0020908737250484766 -0.028210747953656218 0 -0.0028502371641204692 -0.027912493255639614 0 -0.0070905684565798358 -0.025395565973329221 0 -0.0072158148975832916 -0.025561608543180767 0 -0.010744483650456207 -0.022278540687093819 0 -0.011477430074872796 -0.022576548298682185 0 -0.010757274464689321 -0.023478200351361916 0 -0.0029731848172655064 -0.028428636123555447 0 -0.0028502371641204692 -0.027912493255639614 0 -0.0036240784514672457 -0.027641572470476695 0 -0.010744483650456207 -0.022278540687093819 0 -0.0099961552394170448 -0.022909820608118497 0 -0.010757274464689321 -0.023478200351361916 0 -0.0099961552394170448 -0.022909820608118497 0 -0.0098871900331772809 -0.023620720589855503 0 -0.010757274464689321 -0.023478200351361916 0 -0.0098871900331772809 -0.023620720589855503 0 -0.010158702505827519 -0.024293567654454017 0 -0.010757274464689321 -0.023478200351361916 0 -0.0073168307106249572 -0.025420207460260216 0 -0.0072158148975832916 -0.025561608543180767 0 -0.0035069566815993359 -0.026372390025471475 0 -0.0027749029770661169 -0.026902358145416257 0 -0.0036240784514672457 -0.027641572470476695 0 -0.0027749029770661169 -0.026902358145416257 0 -0.0028502371641204692 -0.027912493255639614 0 -0.0036240784514672457 -0.027641572470476695 0 0.0011802989022242452 -0.02779495366880097 0 0.00020980268277369355 -0.027260808511829472 0 0.0011660465653216289 -0.027239068201757109 0 0.0011802989022242452 -0.02779495366880097 0 0.0016725711863899008 -0.027470985155707121 0 0.0022010472004892669 -0.027809598926090019 0 0.0011802989022242452 -0.02779495366880097 0 0.0011660465653216289 -0.027239068201757109 0 0.0016725711863899008 -0.027470985155707121 0 0.0011802989022242452 -0.02779495366880097 0 0.0015854848758544246 -0.02848042752021308 0 0.0022010472004892669 -0.027809598926090019 0 0.0011802989022242452 -0.02779495366880097 0 0.00081944145577345442 -0.028576348164421714 0 2.4656266770241848e-05 -0.028231227734668667 0 0.0011802989022242452 -0.02779495366880097 0 0.0015854848758544246 -0.02848042752021308 0 0.00081944145577345442 -0.028576348164421714 0 2.4656266770241848e-05 -0.028231227734668667 0 -0.00082490382054736084 -0.028197328746596514 0 -0.00065189131263832618 -0.027679559000946589 0 -0.00069017666133573414 -0.028790921173903177 0 2.4656266770241848e-05 -0.028231227734668667 0 -0.00082490382054736084 -0.028197328746596514 0 -0.001437307545121488 -0.02790474468078644 0 -0.00082490382054736084 -0.028197328746596514 0 -0.00065189131263832618 -0.027679559000946589 0 -0.00065189131263832618 -0.027679559000946589 0 0.00020980268277369355 -0.027260808511829472 0 -0.00079045307914115293 -0.026903175876458352 0 -0.0015053488202888049 -0.027290872619430855 0 -0.00065189131263832618 -0.027679559000946589 0 -0.00079045307914115293 -0.026903175876458352 0 0.0011802989022242452 -0.02779495366880097 0 2.4656266770241848e-05 -0.028231227734668667 0 0.00020980268277369355 -0.027260808511829472 0 2.4656266770241848e-05 -0.028231227734668667 0 -0.00065189131263832618 -0.027679559000946589 0 0.00020980268277369355 -0.027260808511829472 0 0.00020980268277369355 -0.027260808511829472 0 -0.00079045307914115293 -0.026903175876458352 0 -0.0001538393208125543 -0.026352533719342864 0 0.00020980268277369355 -0.027260808511829472 0 -0.0001538393208125543 -0.026352533719342864 0 0.00056822803753755883 -0.026586057426814021 0 -0.00079045307914115293 -0.026903175876458352 0 -0.00091231332040046516 -0.026229162966755769 0 -0.0001538393208125543 -0.026352533719342864 0 -0.00046153018890748073 -0.025973030447304632 0 -0.0001538393208125543 -0.026352533719342864 0 -8.700685601525869e-05 -0.02594279797525129 0 -0.00091231332040046516 -0.026229162966755769 0 -0.00046153018890748073 -0.025973030447304632 0 -0.0001538393208125543 -0.026352533719342864 0 -0.00091231332040046516 -0.026229162966755769 0 -0.00046153018890748073 -0.025973030447304632 0 -0.00082239061028798832 -0.025692547645955383 0 -0.0001538393208125543 -0.026352533719342864 0 -8.700685601525869e-05 -0.02594279797525129 0 0.00035246325426630741 -0.025974343301490125 0 -0.0001538393208125543 -0.026352533719342864 0 0.00056822803753755883 -0.026586057426814021 0 0.00035246325426630741 -0.025974343301490125 0 0.00056822803753755883 -0.026586057426814021 0 0.00108066641484442 -0.025848224463522636 0 0.00035246325426630741 -0.025974343301490125 0 0.00056822803753755883 -0.026586057426814021 0 0.0018156924938069528 -0.026512498107546398 0 0.00108066641484442 -0.025848224463522636 0 0.0006545780417097503 -0.026601013385578152 0 0.0020408964611973103 -0.026364074657152327 0 0.00020980268277369355 -0.027260808511829472 0 0.00056822803753755883 -0.026586057426814021 0 0.0011660465653216289 -0.027239068201757109 0 0.00056822803753755883 -0.026586057426814021 0 0.0011660465653216289 -0.027239068201757109 0 0.0020556185580290487 -0.026984962537456733 0 0.0016725711863899008 -0.027470985155707121 0 0.0020556185580290487 -0.026984962537456733 0 0.0022010472004892669 -0.027809598926090019 0 0.0011660465653216289 -0.027239068201757109 0 0.0016725711863899008 -0.027470985155707121 0 0.0020556185580290487 -0.026984962537456733 0 0.00056822803753755883 -0.026586057426814021 0 0.0020556185580290487 -0.026984962537456733 0 0.0022808251432595893 -0.026172396011571317 0 0.0020556185580290487 -0.026984962537456733 0 0.0022808251432595893 -0.026172396011571317 0 0.0028776976619662321 -0.026757408183922145 0 0.0020862075647266991 -0.026662480139011204 0 0.0018881181627741969 -0.026782382104057645 0 0.0019845875063806517 -0.026638659374863906 0 0.0020862075647266991 -0.026662480139011204 0 0.0018881181627741969 -0.026782382104057645 0 0.0021863399268323724 -0.026670809450253574 0 0.0014709759902237721 -0.026367258458216469 0 0.0021078292159334888 -0.026603652222438438 0 0.0018156924938069528 -0.026512498107546398 0 0.00108066641484442 -0.025848224463522636 0 0.0021863399268323724 -0.026670809450253574 0 0.0016778781998403826 -0.026665120944569014 0 0.0018881181627741969 -0.026782382104057645 0 0.0014252896653103532 -0.026652293552134946 0 0.0016778781998403826 -0.026665120944569014 0 0.0018881181627741969 -0.026782382104057645 0 0.0017977715007230916 -0.026680932026283778 0 0.0017065444160907486 -0.026616637989840479 0 0.0016778781998403826 -0.026665120944569014 0 0.0017977715007230916 -0.026680932026283778 0 0.0016778781998403826 -0.026665120944569014 0 0.0015653051901059884 -0.026592594520161782 0 0.0014252896653103532 -0.026652293552134946 0 0.0017065444160907486 -0.026616637989840479 0 0.0016778781998403826 -0.026665120944569014 0 0.0015653051901059884 -0.026592594520161782 0 0.0018881181627741969 -0.026782382104057645 0 0.0019155217077752287 -0.026645626216054392 0 0.0019845875063806517 -0.026638659374863906 0 0.0017065444160907486 -0.026616637989840479 0 0.0017977715007230916 -0.026680932026283778 0 0.0019155217077752287 -0.026645626216054392 0 0.0018881181627741969 -0.026782382104057645 0 0.0017977715007230916 -0.026680932026283778 0 0.0019155217077752287 -0.026645626216054392 0 0.0019155217077752287 -0.026645626216054392 0 0.0019439121393789813 -0.026589415311313477 0 0.0018698366331564413 -0.026512194363453732 0 0.0019439121393789813 -0.026589415311313477 0 0.0018698366331564413 -0.026512194363453732 0 0.0020059338081695557 -0.026559441876158454 0 0.0018311258670266233 -0.026567426961173309 0 0.0016684799075744267 -0.026443763541843156 0 0.0019155217077752287 -0.026645626216054392 0 0.0017885490913107671 -0.026512979316037612 0 0.0018698366331564413 -0.026512194363453732 0 0.0019155217077752287 -0.026645626216054392 0 0.0015611504531870184 -0.026470757963031631 0 0.0014342812362753529 -0.026135554904591098 0 0.0019155217077752287 -0.026645626216054392 0 0.0019439121393789813 -0.026589415311313477 0 0.0019845875063806517 -0.026638659374863906 0 0.0019155217077752287 -0.026645626216054392 0 0.0017885490913107671 -0.026512979316037612 0 0.0016642485553935381 -0.026506986138126583 0 0.0017065444160907486 -0.026616637989840479 0 0.0019155217077752287 -0.026645626216054392 0 0.0015611504531870184 -0.026470757963031631 0 0.0017065444160907486 -0.026616637989840479 0 0.0015653051901059884 -0.026592594520161782 0 0.0015611504531870184 -0.026470757963031631 0 0.0017885490913107671 -0.026512979316037612 0 0.0018698366331564413 -0.026512194363453732 0 0.0017878578526849237 -0.026424163084413355 0 0.0017885490913107671 -0.026512979316037612 0 0.0017035716377931632 -0.026450876959820121 0 0.0017878578526849237 -0.026424163084413355 0 0.0018698366331564413 -0.026512194363453732 0 0.0020059338081695557 -0.026559441876158454 0 0.0020213726739068557 -0.026382173833196961 0 0.0020059338081695557 -0.026559441876158454 0 0.0020213726739068557 -0.026382173833196961 0 0.0021521607796797168 -0.026520753493875584 0 0.0020862075647266991 -0.026662480139011204 0 0.0020059338081695557 -0.026559441876158454 0 0.0021521607796797168 -0.026520753493875584 0 0.0020862075647266991 -0.026662480139011204 0 0.0019845875063806517 -0.026638659374863906 0 0.0020059338081695557 -0.026559441876158454 0 0.0019439121393789813 -0.026589415311313477 0 0.0019845875063806517 -0.026638659374863906 0 0.0020059338081695557 -0.026559441876158454 0 -0.0011799391957223421 -0.025309643914398178 0 -0.00082239061028798832 -0.025692547645955383 0 -0.00035444144552890456 -0.025414422895800245 0 -0.0012019743024238865 -0.025314347295331319 0 0.0002026972511171935 -0.025875975510607486 0 -0.0010479607020324009 -0.025295857716020123 0 -2.271769775267517e-05 -0.025359939459555475 0 -0.00052929917765623196 -0.024849159262830361 0 -0.00034247981328836393 -0.025627088820589543 0 -0.00034412561858891157 -0.025436964218596252 0 -8.700685601525869e-05 -0.02594279797525129 0 -0.00082239061028798832 -0.025692547645955383 0 -0.00034247981328836393 -0.025627088820589543 0 -0.00035444144552890456 -0.025414422895800245 0 -0.00046153018890748073 -0.025973030447304632 0 -0.00082239061028798832 -0.025692547645955383 0 -0.00034247981328836393 -0.025627088820589543 0 -0.00046153018890748073 -0.025973030447304632 0 -0.00034247981328836393 -0.025627088820589543 0 -8.700685601525869e-05 -0.02594279797525129 0 0.0001253106946239069 -0.025737225930038424 0 0.0002026972511171935 -0.025875975510607486 0 0.0014709759902237721 -0.026367258458216469 0 0.0002026972511171935 -0.025875975510607486 0 0.0018881181627741969 -0.026782382104057645 0 0.00092430601230216987 -0.026779884276598234 0 0.0014252896653103532 -0.026652293552134946 0 0.00108066641484442 -0.025848224463522636 0 -0.00034412561858891157 -0.025436964218596252 0 0.00035246325426630741 -0.025974343301490125 0 0.00092430601230216987 -0.026779884276598234 0 0.0014252896653103532 -0.026652293552134946 0 0.0011575768868293283 -0.02655092994117696 0 -0.00034412561858891157 -0.025436964218596252 0 -8.700685601525869e-05 -0.02594279797525129 0 0.00035246325426630741 -0.025974343301490125 0 0.0014252896653103532 -0.026652293552134946 0 0.0013258155779295854 -0.026508292643313412 0 0.0011575768868293283 -0.02655092994117696 0 0.0015653051901059884 -0.026592594520161782 0 0.0014252896653103532 -0.026652293552134946 0 0.0014566152164055498 -0.026536141648105104 0 0.0015611504531870184 -0.026470757963031631 0 0.0013916021904532296 -0.026312388218595922 0 0.0014342812362753529 -0.026135554904591098 0 0.0015611504531870184 -0.026470757963031631 0 0.0014566152164055498 -0.026536141648105104 0 0.0013979229048609069 -0.026429516613913222 0 0.0015653051901059884 -0.026592594520161782 0 0.0015611504531870184 -0.026470757963031631 0 0.0014566152164055498 -0.026536141648105104 0 0.0014566152164055498 -0.026536141648105104 0 0.0013258155779295854 -0.026508292643313412 0 0.0013979229048609069 -0.026429516613913222 0 0.0014252896653103532 -0.026652293552134946 0 0.0014566152164055498 -0.026536141648105104 0 0.0013258155779295854 -0.026508292643313412 0 0.0013916021904532296 -0.026312388218595922 0 0.0012820861087224336 -0.026237493155053429 0 0.0012175176162083376 -0.026368822944167158 0 0.0013258155779295854 -0.026508292643313412 0 0.0013979229048609069 -0.026429516613913222 0 0.0012175176162083376 -0.026368822944167158 0 0.0013916021904532296 -0.026312388218595922 0 0.0013979229048609069 -0.026429516613913222 0 0.0012175176162083376 -0.026368822944167158 0 0.0015611504531870184 -0.026470757963031631 0 0.0013916021904532296 -0.026312388218595922 0 0.0013979229048609069 -0.026429516613913222 0 0.0017885490913107671 -0.026512979316037612 0 0.0016642485553935381 -0.026506986138126583 0 0.0017035716377931632 -0.026450876959820121 0 0.0013916021904532296 -0.026312388218595922 0 0.0014342812362753529 -0.026135554904591098 0 0.0012820861087224336 -0.026237493155053429 0 0.0014342812362753529 -0.026135554904591098 0 0.0012820861087224336 -0.026237493155053429 0 0.0011332059745003491 -0.026122716371208762 0 0.0011332059745003491 -0.026122716371208762 0 0.0012175176162083376 -0.026368822944167158 0 0.00088212760181389247 -0.026221942931611043 0 0.0012820861087224336 -0.026237493155053429 0 0.0011332059745003491 -0.026122716371208762 0 0.0012175176162083376 -0.026368822944167158 0 0.0012175176162083376 -0.026368822944167158 0 0.0011575768868293283 -0.02655092994117696 0 0.00088212760181389247 -0.026221942931611043 0 0.0013258155779295854 -0.026508292643313412 0 0.0012175176162083376 -0.026368822944167158 0 0.0011575768868293283 -0.02655092994117696 0 0.0002026972511171935 -0.025875975510607486 0 0.0004002673865090909 -0.025200978898618352 0 0.00092430601230216987 -0.026779884276598234 0 0.0011575768868293283 -0.02655092994117696 0 0.00088212760181389247 -0.026221942931611043 0 -2.271769775267517e-05 -0.025359939459555475 0 -6.8939954555591172e-05 -0.024323917000324206 0 -0.00052929917765623196 -0.024849159262830361 0 -0.00093828828002857619 -0.024427926749865089 0 -6.8939954555591172e-05 -0.024323917000324206 0 -0.00059061210023820783 -0.023803399812283098 0 -0.00093828828002857619 -0.024427926749865089 0 -0.0010479607020324009 -0.025295857716020123 0 -0.00052929917765623196 -0.024849159262830361 0 -0.00093828828002857619 -0.024427926749865089 0 -6.8939954555591172e-05 -0.024323917000324206 0 -0.00052929917765623196 -0.024849159262830361 0 0.0004002673865090909 -0.025200978898618352 0 0.00048635342848610041 -0.025106894789636996 0 -6.8939954555591172e-05 -0.024323917000324206 0 -0.00059061210023820783 -0.023803399812283098 0 -0.00011396939366512671 -0.023273288787586784 0 0.0011332059745003491 -0.026122716371208762 0 0.00088212760181389247 -0.026221942931611043 0 0.00084837676702721201 -0.025640699089704594 0 -0.00075491317977155394 -0.023316406465924672 0 -0.00011396939366512671 -0.023273288787586784 0 -0.00074895663132452689 -0.022749614357408268 0 0.00048635342848610041 -0.025106894789636996 0 -0.00062350876059706877 -0.024846802414228802 0 -0.0011663373480564005 -0.023691101938548918 0 -0.00075491317977155394 -0.023316406465924672 0 -0.00059061210023820783 -0.023803399812283098 0 -0.00075491317977155394 -0.023316406465924672 0 -0.00059061210023820783 -0.023803399812283098 0 -0.00011396939366512671 -0.023273288787586784 0 0.00049222645424590295 -0.025638847925318706 0 0.00047044664603046937 -0.025199831925190957 0 -0.000320213453504472 -0.024975335966603129 0 0.00048635342848610041 -0.025106894789636996 0 0.00063707925095271112 -0.025888537910344945 0 0.0011141510236822995 -0.026074585860438943 0 0.0011042816053595981 -0.025903989946647509 0 0.0013218426322476717 -0.025967333071222599 0 0.00063707925095271112 -0.025888537910344945 0 0.0010913049230119127 -0.026278886496613009 0 0.0010913049230119127 -0.026278886496613009 0 0.00075034979209723577 -0.026384719806202477 0 0.00057460767525007578 -0.026146642675937793 0 0.0010825272590502129 -0.026290316745981646 0 0.00056734208095797457 -0.025997206443100503 0 0.0014342812362753529 -0.026135554904591098 0 0.0011332059745003491 -0.026122716371208762 0 0.00084837676702721201 -0.025640699089704594 0 0.0016684799075744267 -0.026443763541843156 0 0.00048635342848610041 -0.025106894789636996 0 0.0016642485553935381 -0.026506986138126583 0 0.0011141510236822995 -0.026074585860438943 0 0.0015925349383579159 -0.026047198526482039 0 0.0010913049230119127 -0.026278886496613009 0 0.0014924765550763013 -0.0264041072608273 0 0.0011141510236822995 -0.026074585860438943 0 0.0013218426322476717 -0.025967333071222599 0 0.0015925349383579159 -0.026047198526482039 0 0.0017035716377931632 -0.026450876959820121 0 0.0016589561394557372 -0.026293476561428861 0 0.0017878578526849237 -0.026424163084413355 0 0.0016642485553935381 -0.026506986138126583 0 0.0017035716377931632 -0.026450876959820121 0 0.0015925349383579159 -0.026047198526482039 0 0.0016378078175925555 -0.026369232177386247 0 0.0014924765550763013 -0.0264041072608273 0 0.0016571860006153246 -0.026302222055457181 0 0.0017113011467174736 -0.026131213413608738 0 0.0015551080201175642 -0.026041499074369114 0 0.0014924765550763013 -0.0264041072608273 0 0.0013400539680180877 -0.026268654003025402 0 0.0012312488004631156 -0.026813952451944616 0 0.0010721676697094101 -0.026622102928251332 0 0.0011314021090236765 -0.026440313984596338 0 0.0016571860006153246 -0.026302222055457181 0 0.0017113011467174736 -0.026131213413608738 0 0.0017934390087043777 -0.026227473339720399 0 0.0017113011467174736 -0.026131213413608738 0 0.0017366360861999378 -0.025968219930165223 0 0.0015551080201175642 -0.026041499074369114 0 0.0010721676697094101 -0.026622102928251332 0 0.0011314021090236765 -0.026440313984596338 0 0.00093569116586384327 -0.0263744923406408 0 0.0010844817389890579 -0.026772767354159715 0 0.0012312488004631156 -0.026813952451944616 0 0.0010721676697094101 -0.026622102928251332 0 0.00075034979209723577 -0.026384719806202477 0 0.0009166025013370181 -0.026539888632835573 0 -0.00060066439312600288 -0.02552328198879187 0 0.00029311802085673971 -0.025965160745845667 0 -7.8163588698830112e-05 -0.025939561221489972 0 0.00090693232891244421 -0.027096759148492751 0 0.00088474695857954327 -0.026540840450085822 0 0.00053958674082842291 -0.026610175210968048 0 0.0010721676697094101 -0.026622102928251332 0 0.000963417487797649 -0.026706302883765552 0 0.00093569116586384327 -0.0263744923406408 0 -0.00062072860507160173 -0.025938753703931977 0 0.00075034979209723577 -0.026384719806202477 0 0.00029709513393405996 -0.026042241729579189 0 0.00029311802085673971 -0.025965160745845667 0 -7.8163588698830112e-05 -0.025939561221489972 0 0.0010844817389890579 -0.026772767354159715 0 0.0010721676697094101 -0.026622102928251332 0 0.000963417487797649 -0.026706302883765552 0 0.00063707925095271112 -0.025888537910344945 0 0.00075034979209723577 -0.026384719806202477 0 0.00063707925095271112 -0.025888537910344945 0 -0.00062350876059706877 -0.024846802414228802 0 0.0020213726739068557 -0.026382173833196961 0 0.0020997657120991314 -0.026111918212947761 0 0.0022329724797730604 -0.026296115347298372 0 0.0020213726739068557 -0.026382173833196961 0 0.0019297521682254989 -0.026191802289260456 0 0.0020997657120991314 -0.026111918212947761 0 0.0020213726739068557 -0.026382173833196961 0 0.0021521607796797168 -0.026520753493875584 0 0.0022329724797730604 -0.026296115347298372 0 0.0018698366331564413 -0.026512194363453732 0 0.0020213726739068557 -0.026382173833196961 0 0.0018748391661661285 -0.026359062174899764 0 0.0018698366331564413 -0.026512194363453732 0 0.0018748391661661285 -0.026359062174899764 0 0.0017878578526849237 -0.026424163084413355 0 0.0016571860006153246 -0.026302222055457181 0 0.0018748391661661285 -0.026359062174899764 0 0.0017934390087043777 -0.026227473339720399 0 0.0014924765550763013 -0.0264041072608273 0 0.0018872856831377057 -0.026366880674209246 0 0.0016589561394557372 -0.026293476561428861 0 0.0018748391661661285 -0.026359062174899764 0 0.0017878578526849237 -0.026424163084413355 0 0.0018748391661661285 -0.026359062174899764 0 0.0019297521682254989 -0.026191802289260456 0 0.0017934390087043777 -0.026227473339720399 0 0.0020213726739068557 -0.026382173833196961 0 0.0018748391661661285 -0.026359062174899764 0 0.0019297521682254989 -0.026191802289260456 0 0.0019297521682254989 -0.026191802289260456 0 0.0018224086014020987 -0.026100179172793454 0 0.0019669793842880048 -0.025972230572162466 0 0.0019297521682254989 -0.026191802289260456 0 0.0017934390087043777 -0.026227473339720399 0 0.0018224086014020987 -0.026100179172793454 0 0.0017113011467174736 -0.026131213413608738 0 0.0017934390087043777 -0.026227473339720399 0 0.0018224086014020987 -0.026100179172793454 0 0.0017113011467174736 -0.026131213413608738 0 0.0018224086014020987 -0.026100179172793454 0 0.0017366360861999378 -0.025968219930165223 0 0.0019297521682254989 -0.026191802289260456 0 0.0020997657120991314 -0.026111918212947761 0 0.0019669793842880048 -0.025972230572162466 0 0.0020997657120991314 -0.026111918212947761 0 0.0021982683019423441 -0.025836479856600463 0 0.0019669793842880048 -0.025972230572162466 0 0.0021982683019423441 -0.025836479856600463 0 0.0019669793842880048 -0.025972230572162466 0 0.0020552071879912843 -0.025802574110548836 0 0.0018224086014020987 -0.026100179172793454 0 0.0017366360861999378 -0.025968219930165223 0 0.0019669793842880048 -0.025972230572162466 0 0.0019669793842880048 -0.025972230572162466 0 0.001862093360776804 -0.025803851670688046 0 0.0020552071879912843 -0.025802574110548836 0 0.0017366360861999378 -0.025968219930165223 0 0.0019669793842880048 -0.025972230572162466 0 0.001862093360776804 -0.025803851670688046 0 0.0017366360861999378 -0.025968219930165223 0 0.001862093360776804 -0.025803851670688046 0 0.0016964647170009228 -0.025826999582094345 0 0.0019398457753067259 -0.025637364988184752 0 0.0022237809816988779 -0.025708749584936252 0 0.0020104473236867465 -0.025359962865417356 0 0.001862093360776804 -0.025803851670688046 0 0.001672444258860832 -0.025680172235091409 0 0.0016964647170009228 -0.025826999582094345 0 0.001862093360776804 -0.025803851670688046 0 0.0019398457753067259 -0.025637364988184752 0 0.001672444258860832 -0.025680172235091409 0 0.001862093360776804 -0.025803851670688046 0 0.0019398457753067259 -0.025637364988184752 0 0.0020552071879912843 -0.025802574110548836 0 0.0019398457753067259 -0.025637364988184752 0 0.0016275875348618837 -0.025448145864812814 0 0.001672444258860832 -0.025680172235091409 0 0.0021982683019423441 -0.025836479856600463 0 0.0020552071879912843 -0.025802574110548836 0 0.0022237809816988779 -0.025708749584936252 0 0.0019398457753067259 -0.025637364988184752 0 0.0020552071879912843 -0.025802574110548836 0 0.0022237809816988779 -0.025708749584936252 0 0.0022237809816988779 -0.025708749584936252 0 0.0020104473236867465 -0.025359962865417356 0 0.0024748618090850885 -0.025837080963719783 0 0.0029136223534814592 -0.026776464036744749 0 0.0027723003913142962 -0.026488955024368818 0 0.0024748618090850885 -0.025837080963719783 0 0.0023246088348116032 -0.026052975601542995 0 0.0024567196887741302 -0.025864319145750533 0 0.0019398457753067259 -0.025637364988184752 0 0.0020104473236867465 -0.025359962865417356 0 0.0016275875348618837 -0.025448145864812814 0 0.0030054251043969719 -0.026406442928757112 0 0.001590193721782942 -0.025877756073305686 0 0.001844587546143001 -0.026415190281409467 0 0.0030054251043969719 -0.026406442928757112 0 0.001590193721782942 -0.025877756073305686 0 0.0017034797745716971 -0.024827975041257448 0 0.0029136223534814592 -0.026776464036744749 0 0.0030054251043969719 -0.026406442928757112 0 0.001844587546143001 -0.026415190281409467 0 0.0030054251043969719 -0.026406442928757112 0 0.0027723003913142962 -0.026488955024368818 0 0.0026799128446272922 -0.026882789789480818 0 0.0029136223534814592 -0.026776464036744749 0 0.0030054251043969719 -0.026406442928757112 0 0.0027723003913142962 -0.026488955024368818 0 0.0010183362439060094 -0.025936498223029285 0 -0.0026129836084817174 -0.025851535129285397 0 0.00036994015548661065 -0.026984795654852883 0 -0.00082665553730522162 -0.025990769379831562 0 -0.0027563628178522361 -0.026422839826229984 0 0.00036994015548661065 -0.026984795654852883 0 -0.00082665553730522162 -0.025990769379831562 0 9.1146571084263508e-05 -0.025952231946925572 0 -0.00082665553730522162 -0.025990769379831562 0 -0.00039653190241950993 -0.025544516739125958 0 -0.0009185571486644453 -0.025203196383008369 0 -0.00039653190241950993 -0.025544516739125958 0 9.1146571084263508e-05 -0.025952231946925572 0 5.493415905456152e-05 -0.025038297373384047 0 -0.00082665553730522162 -0.025990769379831562 0 -0.00039653190241950993 -0.025544516739125958 0 9.1146571084263508e-05 -0.025952231946925572 0 0.00036994015548661065 -0.026984795654852883 0 0.0010629799665920132 -0.026169072202262118 0 0.001844587546143001 -0.026415190281409467 0 9.1146571084263508e-05 -0.025952231946925572 0 0.0010629799665920132 -0.026169072202262118 0 0.00091225002070664807 -0.025316704553400095 0 0.0010629799665920132 -0.026169072202262118 0 0.001590193721782942 -0.025877756073305686 0 0.00091225002070664807 -0.025316704553400095 0 0.0010629799665920132 -0.026169072202262118 0 0.001590193721782942 -0.025877756073305686 0 0.001844587546143001 -0.026415190281409467 0 0.00036994015548661065 -0.026984795654852883 0 9.1146571084263508e-05 -0.025952231946925572 0 0.0010629799665920132 -0.026169072202262118 0 0.0023246088348116032 -0.026052975601542995 0 0.0010183362439060094 -0.025936498223029285 0 0.0020104473236867465 -0.025359962865417356 0 0.0012638916817597858 -0.0250155164000022 0 0.0016275875348618837 -0.025448145864812814 0 0.0012638916817597858 -0.0250155164000022 0 0.0016275875348618837 -0.025448145864812814 0 0.0012959338143260465 -0.025347018214771189 0 0.0029136223534814592 -0.026776464036744749 0 0.00036994015548661065 -0.026984795654852883 0 0.001844587546143001 -0.026415190281409467 0 0.0016275875348618837 -0.025448145864812814 0 0.0014893753425230625 -0.025475597999538288 0 0.0015668905840942162 -0.025557549559944336 0 0.0012959338143260465 -0.025347018214771189 0 0.0014893753425230625 -0.025475597999538288 0 0.0014727712944342176 -0.025616861150767858 0 0.0016275875348618837 -0.025448145864812814 0 0.0012959338143260465 -0.025347018214771189 0 0.0014893753425230625 -0.025475597999538288 0 0.00097620325245505277 -0.025273981341697161 0 0.001177357919891807 -0.025839335765999422 0 0.0012638916817597858 -0.0250155164000022 0 0.00066728724463400123 -0.025185469161103459 0 0.00030299025022732367 -0.024967084766462266 0 0.0012959338143260465 -0.025347018214771189 0 0.00095237701577913073 -0.025241524534219018 0 0.0013523371496207939 -0.025760128675045742 0 0.0012638916817597858 -0.0250155164000022 0 0.0012959338143260465 -0.025347018214771189 0 0.00095237701577913073 -0.025241524534219018 0 0.0012638916817597858 -0.0250155164000022 0 0.00095237701577913073 -0.025241524534219018 0 0.00066728724463400123 -0.025185469161103459 0 0.00066728724463400123 -0.025185469161103459 0 0.00069766011817530907 -0.025457470664239656 0 0.00016576937134343413 -0.025420257079362872 0 0.00095237701577913073 -0.025241524534219018 0 0.00066728724463400123 -0.025185469161103459 0 0.00069766011817530907 -0.025457470664239656 0 0.00095237701577913073 -0.025241524534219018 0 0.00069766011817530907 -0.025457470664239656 0 0.00073313150783712135 -0.025744184260267772 0 0.00073313150783712135 -0.025744184260267772 0 0.00088483242676649606 -0.025974090457867319 0 0.00059234749781681469 -0.025983852446511278 0 0.00095237701577913073 -0.025241524534219018 0 0.00073313150783712135 -0.025744184260267772 0 0.0010279820421245829 -0.026002900224485821 0 0.0010279820421245829 -0.026002900224485821 0 0.00088483242676649606 -0.025974090457867319 0 0.00093569116586384327 -0.0263744923406408 0 0.00073313150783712135 -0.025744184260267772 0 0.0010279820421245829 -0.026002900224485821 0 0.00088483242676649606 -0.025974090457867319 0 0.00088483242676649606 -0.025974090457867319 0 0.00059234749781681469 -0.025983852446511278 0 0.00053226038006137821 -0.026274629117583648 0 0.0012959338143260465 -0.025347018214771189 0 0.0013523371496207939 -0.025760128675045742 0 0.0014727712944342176 -0.025616861150767858 0 0.0016275875348618837 -0.025448145864812814 0 0.001672444258860832 -0.025680172235091409 0 0.0015668905840942162 -0.025557549559944336 0 0.001672444258860832 -0.025680172235091409 0 0.0015668905840942162 -0.025557549559944336 0 0.0014727712944342176 -0.025616861150767858 0 0.001672444258860832 -0.025680172235091409 0 0.0014727712944342176 -0.025616861150767858 0 0.0015486396473543681 -0.025759914373822756 0 0.0014893753425230625 -0.025475597999538288 0 0.0015668905840942162 -0.025557549559944336 0 0.0014727712944342176 -0.025616861150767858 0 0.0013523371496207939 -0.025760128675045742 0 0.0014727712944342176 -0.025616861150767858 0 0.0015486396473543681 -0.025759914373822756 0 0.0013523371496207939 -0.025760128675045742 0 0.0015486396473543681 -0.025759914373822756 0 0.0015655332081361633 -0.025879082212412235 0 0.001672444258860832 -0.025680172235091409 0 0.0015486396473543681 -0.025759914373822756 0 0.0016964647170009228 -0.025826999582094345 0 0.0015486396473543681 -0.025759914373822756 0 0.0016964647170009228 -0.025826999582094345 0 0.0015655332081361633 -0.025879082212412235 0 0.001177357919891807 -0.025839335765999422 0 0.0013400539680180877 -0.026268654003025402 0 0.0013523371496207939 -0.025760128675045742 0 0.0015655332081361633 -0.025879082212412235 0 0.0015551080201175642 -0.026041499074369114 0 0.0017366360861999378 -0.025968219930165223 0 0.0016964647170009228 -0.025826999582094345 0 0.0015655332081361633 -0.025879082212412235 0 0.0017366360861999378 -0.025968219930165223 0 0.0015655332081361633 -0.025879082212412235 0 0.0015551080201175642 -0.026041499074369114 0 0.00088483242676649606 -0.025974090457867319 0 0.00088474695857954327 -0.026540840450085822 0 0.00053226038006137821 -0.026274629117583648 0 0.0010279820421245829 -0.026002900224485821 0 0.0011314021090236765 -0.026440313984596338 0 0.00093569116586384327 -0.0263744923406408 0 0.00088625521099166085 -0.025989940946555875 0 0.0009166025013370181 -0.026539888632835573 0 0.00088474695857954327 -0.026540840450085822 0 0.00053958674082842291 -0.026610175210968048 0 0.00053226038006137821 -0.026274629117583648 0 0.00021379852191932242 -0.026753686518964558 0 0.00053958674082842291 -0.026610175210968048 0 0.00018878712598668167 -0.02638381917712259 0 0.00053958674082842291 -0.026610175210968048 0 0.00053226038006137821 -0.026274629117583648 0 0.00018878712598668167 -0.02638381917712259 0 0.00053226038006137821 -0.026274629117583648 0 0.00018878712598668167 -0.02638381917712259 0 0.00021978087215146234 -0.025940072044384567 0 -0.00093332180216993592 -0.026252199437170384 0 -0.0019613472655278397 -0.025736659546352559 0 -0.001786661988216251 -0.025563802897494062 0 -0.00062072860507160173 -0.025938753703931977 0 -0.0015408098980756652 -0.026318403441570593 0 -0.00062072860507160173 -0.025938753703931977 0 -0.0029506661932484604 -0.025777702304411704 0 0.00021379852191932242 -0.026753686518964558 0 0.00018878712598668167 -0.02638381917712259 0 -0.00024258243112861786 -0.026391102997564034 0 -0.0029506661932484604 -0.025777702304411704 0 -0.0015408098980756652 -0.026318403441570593 0 -0.0032033837145540541 -0.026679909326751423 0 -0.0029316085794425539 -0.02641083660522095 0 -0.0041734458865671162 -0.025399537965146289 0 0.00018878712598668167 -0.02638381917712259 0 -0.00024258243112861786 -0.026391102997564034 0 0.00021978087215146234 -0.025940072044384567 0 -0.0010809932834343874 -0.026410631737656644 0 -0.0019564183655249954 -0.026601277968169679 0 -0.0011690400529776139 -0.025544066061310926 0 -0.0011096009235968096 -0.02728894103322381 0 -0.0010809932834343874 -0.026410631737656644 0 -0.00019096674341616173 -0.026385881150946373 0 -0.0015408098980756652 -0.026318403441570593 0 9.1256944434463328e-05 -0.026147053050220172 0 -0.0011096009235968096 -0.02728894103322381 0 -0.0010809932834343874 -0.026410631737656644 0 -0.0019564183655249954 -0.026601277968169679 0 -0.0010809932834343874 -0.026410631737656644 0 -0.00019096674341616173 -0.026385881150946373 0 -0.0011690400529776139 -0.025544066061310926 0 0.00073313150783712135 -0.025744184260267772 0 0.00059234749781681469 -0.025983852446511278 0 0.00021978087215146234 -0.025940072044384567 0 0.00069766011817530907 -0.025457470664239656 0 0.00073313150783712135 -0.025744184260267772 0 0.00021978087215146234 -0.025940072044384567 0 0.00062029320114411813 -0.025535520564580628 0 9.1256944434463328e-05 -0.026147053050220172 0 0.00059234749781681469 -0.025983852446511278 0 0.00053226038006137821 -0.026274629117583648 0 0.00021978087215146234 -0.025940072044384567 0 -0.0057565222696816052 -0.025853254939310507 0 -0.0057495342895179857 -0.025845465778634166 0 -0.005749013959142249 -0.025874007435189153 0 -0.0057629145258537894 -0.025873043197855078 0 -0.0057565222696816052 -0.025853254939310507 0 -0.005749013959142249 -0.025874007435189153 0 -0.0057629145258537894 -0.025873043197855078 0 -0.0057565222696816052 -0.025853254939310507 0 -0.0057667457087590386 -0.025844097564480126 0 -0.0057565222696816052 -0.025853254939310507 0 -0.0057564200861090235 -0.025833671860984318 0 -0.0057495342895179857 -0.025845465778634166 0 -0.005747876224118079 -0.025835686827961359 0 -0.0057564200861090235 -0.025833671860984318 0 -0.0057495342895179857 -0.025845465778634166 0 -0.005747876224118079 -0.025835686827961359 0 -0.0057480755759742935 -0.025835942913878442 0 -0.0057564200861090235 -0.025833671860984318 0 -0.0057565222696816052 -0.025853254939310507 0 -0.0057564200861090235 -0.025833671860984318 0 -0.0057667457087590386 -0.025844097564480126 0 -0.0057564200861090235 -0.025833671860984318 0 -0.0057660418058714186 -0.025808604168980429 0 -0.0057667457087590386 -0.025844097564480126 0 -0.0057564200861090235 -0.025833671860984318 0 -0.0057520178058043424 -0.025837716303276401 0 -0.0057660418058714186 -0.025808604168980429 0 -0.0057480755759742935 -0.025835942913878442 0 -0.0057564200861090235 -0.025833671860984318 0 -0.0057520178058043424 -0.025837716303276401 0 -0.0057520178058043424 -0.025837716303276401 0 -0.0057211434529277905 -0.025860061824598587 0 -0.0057660418058714186 -0.025808604168980429 0 -0.0057660418058714186 -0.025808604168980429 0 -0.0057667457087590386 -0.025844097564480126 0 -0.0058064415500348344 -0.025860468100852185 0 -0.0057629145258537894 -0.025873043197855078 0 -0.0057667457087590386 -0.025844097564480126 0 -0.0058064415500348344 -0.025860468100852185 0 -0.0056694059538900518 -0.025799787003042283 0 -0.0054241310403438121 -0.025869023733423212 0 -0.0054955184889924182 -0.025371440557050758 0 -0.0055002636651535928 -0.025715106210884946 0 -0.0052726346264649043 -0.025697903167543171 0 -0.0052278648179691564 -0.026026330715168088 0 -0.0057211434529277905 -0.025860061824598587 0 -0.0055002636651535928 -0.025715106210884946 0 -0.0057660418058714186 -0.025808604168980429 0 -0.0054955184889924182 -0.025371440557050758 0 -0.0055002636651535928 -0.025715106210884946 0 -0.0057211434529277905 -0.025860061824598587 0 -0.0057660418058714186 -0.025808604168980429 0 -0.0055002636651535928 -0.025715106210884946 0 -0.0052278648179691564 -0.026026330715168088 0 -0.0055002636651535928 -0.025715106210884946 0 -0.0052726346264649043 -0.025697903167543171 0 -0.0041274879732553565 -0.024879695909395136 0 -0.0029506661932484604 -0.025777702304411704 0 -0.0052278648179691564 -0.026026330715168088 0 -0.0048667420366782944 -0.025678813941785922 0 -0.0052726346264649043 -0.025697903167543171 0 -0.0032033837145540541 -0.026679909326751423 0 -0.0045877535103824784 -0.025976742585404375 0 -0.0041734458865671162 -0.025399537965146289 0 -0.0048667420366782944 -0.025678813941785922 0 -0.0054955184889924182 -0.025371440557050758 0 -0.0052726346264649043 -0.025697903167543171 0 -0.0015408098980756652 -0.026318403441570593 0 -0.0045255864336604451 -0.026147565650626151 0 -0.0029506661932484604 -0.025777702304411704 0 -0.0054241310403438121 -0.025869023733423212 0 -0.0055168223768243358 -0.026311012021964331 0 -0.0055718774094694942 -0.026124531291378695 0 -0.0053971675708731522 -0.026178270881524111 0 -0.0045255864336604451 -0.026147565650626151 0 -0.0031808894206212458 -0.025783782672576548 0 -0.0055168223768243358 -0.026311012021964331 0 -0.0057480802682991546 -0.026018732879579141 0 -0.0055718774094694942 -0.026124531291378695 0 -0.0058194532368192192 -0.025905364169112807 0 -0.0058433289803977309 -0.025921616578161551 0 -0.0057882526486887752 -0.025941177783560282 0 -0.0054241310403438121 -0.025869023733423212 0 -0.0045255864336604451 -0.026147565650626151 0 -0.0057629145258537894 -0.025873043197855078 0 -0.0058064415500348344 -0.025860468100852185 0 -0.0057459176403821463 -0.025932212024393154 0 -0.0045255864336604451 -0.026147565650626151 0 -0.0061505443585161005 -0.025916106238991134 0 -0.0058194532368192192 -0.025905364169112807 0 -0.0057882526486887752 -0.025941177783560282 0 -0.0057459176403821463 -0.025932212024393154 0 -0.0058433289803977309 -0.025921616578161551 0 -0.0057882526486887752 -0.025941177783560282 0 -0.0057480802682991546 -0.026018732879579141 0 -0.0054241310403438121 -0.025869023733423212 0 -0.0058919233963088437 -0.02590201778778433 0 -0.0057882526486887752 -0.025941177783560282 0 -0.0057480802682991546 -0.026018732879579141 0 -0.0057459176403821463 -0.025932212024393154 0 -0.0057629145258537894 -0.025873043197855078 0 -0.005749013959142249 -0.025874007435189153 0 -0.0057459176403821463 -0.025932212024393154 0 -0.0057480802682991546 -0.026018732879579141 0 -0.0056571200208236899 -0.026018184564357776 0 -0.0055718774094694942 -0.026124531291378695 0 -0.0057480802682991546 -0.026018732879579141 0 -0.0056571200208236899 -0.026018184564357776 0 -0.0057708440711492425 -0.025955083764794631 0 -0.0055718774094694942 -0.026124531291378695 0 -0.0055277281813707526 -0.026076051314217686 0 -0.0053971675708731522 -0.026178270881524111 0 -0.0056571200208236899 -0.026018184564357776 0 -0.0055277281813707526 -0.026076051314217686 0 -0.0055835883667122261 -0.025972038296649295 0 -0.0056571200208236899 -0.026018184564357776 0 -0.0055718774094694942 -0.026124531291378695 0 -0.0055277281813707526 -0.026076051314217686 0 -0.0054430288166283976 -0.026082369184105593 0 -0.0055277281813707526 -0.026076051314217686 0 -0.0053971675708731522 -0.026178270881524111 0 -0.0054430288166283976 -0.026082369184105593 0 -0.0055835883667122261 -0.025972038296649295 0 -0.0052742961812067652 -0.026086749719766923 0 -0.0058471150346860092 -0.026085116428539799 0 -0.0065414914371750487 -0.026483157436888435 0 -0.0052742961812067652 -0.026086749719766923 0 -0.0054430288166283976 -0.026082369184105593 0 -0.0055277281813707526 -0.026076051314217686 0 -0.0055835883667122261 -0.025972038296649295 0 -0.0058471150346860092 -0.026085116428539799 0 -0.0065721463288690206 -0.025589461044528732 0 -0.0058117246032235058 -0.025293910726530377 0 -0.0058471150346860092 -0.026085116428539799 0 -0.0065414914371750487 -0.026483157436888435 0 -0.0065721463288690206 -0.025589461044528732 0 -0.0065414914371750487 -0.026483157436888435 0 -0.0077996430802106725 -0.025616996928576722 0 -0.0084012914572390799 -0.026561952376002049 0 -0.0056571200208236899 -0.026018184564357776 0 -0.0055835883667122261 -0.025972038296649295 0 -0.0057708440711492425 -0.025955083764794631 0 -0.006097695242077616 -0.026197659888323743 0 -0.0069452395413027021 -0.026455372395162133 0 -0.0065414914371750487 -0.026483157436888435 0 -0.0077996430802106725 -0.025616996928576722 0 -0.0065721463288690206 -0.025589461044528732 0 -0.00021278276212141915 -0.025075207304036937 0 0.00016576937134343413 -0.025420257079362872 0 -0.00031986534277433221 -0.025560963893017215 0 -0.00021278276212141915 -0.025075207304036937 0 0.00030299025022732367 -0.024967084766462266 0 0.00016576937134343413 -0.025420257079362872 0 0.00066728724463400123 -0.025185469161103459 0 0.00030299025022732367 -0.024967084766462266 0 0.00016576937134343413 -0.025420257079362872 0 0.00069766011817530907 -0.025457470664239656 0 -0.00019096674341616173 -0.026385881150946373 0 0.00016576937134343413 -0.025420257079362872 0 -0.00019096674341616173 -0.026385881150946373 0 0.00016576937134343413 -0.025420257079362872 0 -0.00031986534277433221 -0.025560963893017215 0 -0.00019096674341616173 -0.026385881150946373 0 -0.00031986534277433221 -0.025560963893017215 0 -0.0011690400529776139 -0.025544066061310926 0 -0.0054430288166283976 -0.026082369184105593 0 -0.0053971675708731522 -0.026178270881524111 0 -0.0052742961812067652 -0.026086749719766923 0 -0.0031808894206212458 -0.025783782672576548 0 -0.0026129836084817174 -0.025851535129285397 0 -0.00021278276212141915 -0.025075207304036937 0 -0.0011690400529776139 -0.025544066061310926 0 -0.00037388174421169363 -0.024528642131280039 0 -0.00021278276212141915 -0.025075207304036937 0 -0.00031986534277433221 -0.025560963893017215 0 -0.0011690400529776139 -0.025544066061310926 0 -0.0053971675708731522 -0.026178270881524111 0 -0.0052742961812067652 -0.026086749719766923 0 -0.0050447101795923627 -0.026067378617947903 0 -0.0058471150346860092 -0.026085116428539799 0 -0.0052742961812067652 -0.026086749719766923 0 -0.0050447101795923627 -0.026067378617947903 0 -0.006097695242077616 -0.026197659888323743 0 -0.0053480861300105285 -0.026115434685568449 0 -0.006180844875627649 -0.026068167398778073 0 -0.0026129836084817174 -0.025851535129285397 0 -0.0058471150346860092 -0.026085116428539799 0 -0.0036048007604531579 -0.02689557438590294 0 -0.0048948431835264391 -0.025572601888382528 0 -0.0058471150346860092 -0.026085116428539799 0 -0.0048948431835264391 -0.025572601888382528 0 -0.0058117246032235058 -0.025293910726530377 0 -0.0038249414371638924 -0.025781128440748102 0 -0.0036048007604531579 -0.02689557438590294 0 -0.0048948431835264391 -0.025572601888382528 0 -0.0038249414371638924 -0.025781128440748102 0 -0.0036048007604531579 -0.02689557438590294 0 -0.0030150663461763791 -0.024938462501476275 0 -0.00082665553730522162 -0.025990769379831562 0 -0.0027563628178522361 -0.026422839826229984 0 -0.0009185571486644453 -0.025203196383008369 0 0.0012638916817597858 -0.0250155164000022 0 0.00030299025022732367 -0.024967084766462266 0 -0.00037388174421169363 -0.024528642131280039 0 -0.00021278276212141915 -0.025075207304036937 0 0.00030299025022732367 -0.024967084766462266 0 -0.00037388174421169363 -0.024528642131280039 0 -0.0036048007604531579 -0.02689557438590294 0 -0.0030150663461763791 -0.024938462501476275 0 -0.0012297709654496361 -0.024158400117280852 0 -0.0027461280124873671 -0.030688811487625541 0 -0.0026030929784285981 -0.030611942424039879 0 -0.0022946459204207471 -0.030683169776833774 0 -0.0030150663461763791 -0.024938462501476275 0 -0.0043276447505609487 -0.023924752946116068 0 -0.0012654092030903771 -0.023889106101937022 0 -0.0027563628178522361 -0.026422839826229984 0 -0.0009185571486644453 -0.025203196383008369 0 -0.0012297709654496361 -0.024158400117280852 0 -0.0055846785661574638 -0.02725334953730978 0 -0.0014074101420714436 -0.027279262876225542 0 -0.0026129836084817174 -0.025851535129285397 0 -0.0015713165959246192 -0.024596883925237633 0 -0.0030150663461763791 -0.024938462501476275 0 -0.0012654092030903771 -0.023889106101937022 0 -0.0012297709654496361 -0.024158400117280852 0 -0.0038249414371638924 -0.025781128440748102 0 -0.0030150663461763791 -0.024938462501476275 0 -0.003977987361144227 -0.025004261054443741 0 -0.0030150663461763791 -0.024938462501476275 0 -0.003977987361144227 -0.025004261054443741 0 -0.0043276447505609487 -0.023924752946116068 0 -0.0038249414371638924 -0.025781128440748102 0 -0.003977987361144227 -0.025004261054443741 0 -0.0048948431835264391 -0.025572601888382528 0 -0.003977987361144227 -0.025004261054443741 0 -0.0048948431835264391 -0.025572601888382528 0 -0.0043276447505609487 -0.023924752946116068 0 -0.0046265607493603915 -0.024659546665992255 0 -0.0055846785661574638 -0.02725334953730978 0 -0.0048948431835264391 -0.025572601888382528 0 -0.0046124093162626216 -0.024491219677773853 0 -0.0058117246032235058 -0.025293910726530377 0 -0.0055846785661574638 -0.02725334953730978 0 -0.0052927197836389779 -0.029789070415976376 0 -0.010413226956232697 -0.02726215636470096 0 -0.010247330132759441 -0.027486848708889042 0 -0.010510935074935026 -0.027563515263595302 0 -0.0027461280124873671 -0.030688811487625541 0 -0.0026128024324773365 -0.030360593131327038 0 -0.0026030929784285981 -0.030611942424039879 0 -0.0026128024324773365 -0.030360593131327038 0 -0.0025508071589757288 -0.03040334669209763 0 -0.0026030929784285981 -0.030611942424039879 0 -0.0052927197836389779 -0.029789070415976376 0 -0.004468866999897559 -0.030222843994672455 0 -0.0025508071589757288 -0.03040334669209763 0 -0.0024902057329816408 -0.030488767461664911 0 -0.0025219660137899644 -0.030551297082021287 0 -0.0025508071589757288 -0.03040334669209763 0 -0.0024324822777922984 -0.03044450224350129 0 -0.0024902057329816408 -0.030488767461664911 0 -0.0025508071589757288 -0.03040334669209763 0 -0.0024589961010568033 -0.030351598870379297 0 -0.0024324822777922984 -0.03044450224350129 0 -0.0026029646041208186 -0.030371176913866271 0 -0.0025508071589757288 -0.03040334669209763 0 -0.0024589961010568033 -0.030351598870379297 0 -0.0024589961010568033 -0.030351598870379297 0 -0.0024324822777922984 -0.03044450224350129 0 -0.0023071038014858946 -0.030424458764518422 0 -0.0024324822777922984 -0.03044450224350129 0 -0.0023824492603102677 -0.030509578239968416 0 -0.0023071038014858946 -0.030424458764518422 0 -0.0024042639645696202 -0.030608881270283432 0 -0.0026030929784285981 -0.030611942424039879 0 -0.0022946459204207471 -0.030683169776833774 0 -0.0024324822777922984 -0.03044450224350129 0 -0.0024421559411142231 -0.030545291184334189 0 -0.0024902057329816408 -0.030488767461664911 0 -0.0024324822777922984 -0.03044450224350129 0 -0.0024421559411142231 -0.030545291184334189 0 -0.0023824492603102677 -0.030509578239968416 0 -0.0024421559411142231 -0.030545291184334189 0 -0.0023824492603102677 -0.030509578239968416 0 -0.0023828213046298966 -0.030555625383433722 0 -0.0023824492603102677 -0.030509578239968416 0 -0.0023023874164537104 -0.030558930535024117 0 -0.0023071038014858946 -0.030424458764518422 0 -0.0023824492603102677 -0.030509578239968416 0 -0.0023828213046298966 -0.030555625383433722 0 -0.0023023874164537104 -0.030558930535024117 0 -0.0023828213046298966 -0.030555625383433722 0 -0.0024042639645696202 -0.030608881270283432 0 -0.0023023874164537104 -0.030558930535024117 0 -0.0024042639645696202 -0.030608881270283432 0 -0.0022946459204207471 -0.030683169776833774 0 -0.0023023874164537104 -0.030558930535024117 0 -0.0024421559411142231 -0.030545291184334189 0 -0.0024042639645696202 -0.030608881270283432 0 -0.0025219660137899644 -0.030551297082021287 0 -0.0024421559411142231 -0.030545291184334189 0 -0.0023828213046298966 -0.030555625383433722 0 -0.0024042639645696202 -0.030608881270283432 0 -0.0025508071589757288 -0.03040334669209763 0 -0.0026030929784285981 -0.030611942424039879 0 -0.0025219660137899644 -0.030551297082021287 0 -0.0024042639645696202 -0.030608881270283432 0 -0.0026030929784285981 -0.030611942424039879 0 -0.0025219660137899644 -0.030551297082021287 0 -0.0024421559411142231 -0.030545291184334189 0 -0.0024902057329816408 -0.030488767461664911 0 -0.0025219660137899644 -0.030551297082021287 0 -0.0089349275521258265 -0.025795244218665053 0 -0.0090661289420822192 -0.02601713194808666 0 -0.0099825064011046082 -0.027156797106944252 0 -0.0097405910553645808 -0.027223477206243116 0 -0.0095136477815085611 -0.026819702000003241 0 -0.0077996430802106725 -0.025616996928576722 0 -0.0070558869010311463 -0.024756844969458965 0 -0.0090321637889278182 -0.025213802862826477 0 -0.0077996430802106725 -0.025616996928576722 0 -0.0070558869010311463 -0.024756844969458965 0 -0.0065721463288690206 -0.025589461044528732 0 -0.0055846785661574638 -0.02725334953730978 0 -0.0089349275521258265 -0.025795244218665053 0 -0.0046124093162626216 -0.024491219677773853 0 -0.0070558869010311463 -0.024756844969458965 0 -0.0058117246032235058 -0.025293910726530377 0 -0.0070558869010311463 -0.024756844969458965 0 -0.0065721463288690206 -0.025589461044528732 0 -0.0058117246032235058 -0.025293910726530377 0 -0.010247330132759441 -0.027486848708889042 0 -0.0099825064011046082 -0.027156797106944252 0 -0.0099781884313876138 -0.027480273955050344 0 -0.010413226956232697 -0.02726215636470096 0 -0.010247330132759441 -0.027486848708889042 0 -0.0099825064011046082 -0.027156797106944252 0 -0.0099825064011046082 -0.027156797106944252 0 -0.0099781884313876138 -0.027480273955050344 0 -0.0097405910553645808 -0.027223477206243116 0 -0.0099781884313876138 -0.027480273955050344 0 -0.0097405910553645808 -0.027223477206243116 0 -0.0096351924714752641 -0.027591036069767254 0 -0.0098498996017565704 -0.02783551872041138 0 -0.0096351924714752641 -0.027591036069767254 0 -0.0095417274694584095 -0.028088449073891325 0 -0.0099781884313876138 -0.027480273955050344 0 -0.0098498996017565704 -0.02783551872041138 0 -0.0096351924714752641 -0.027591036069767254 0 -0.0098498996017565704 -0.02783551872041138 0 -0.010226054578814595 -0.027855346442709039 0 -0.0098079061762590854 -0.028277248921840022 0 -0.0099781884313876138 -0.027480273955050344 0 -0.0098498996017565704 -0.02783551872041138 0 -0.010226054578814595 -0.027855346442709039 0 -0.010247330132759441 -0.027486848708889042 0 -0.0099781884313876138 -0.027480273955050344 0 -0.010226054578814595 -0.027855346442709039 0 -0.007848595754036361 -0.029648819910247443 0 -0.0078257682321279318 -0.029580020441551377 0 -0.0048540102296601049 -0.031594981857540345 0 -0.0059769062678046167 -0.030834985669379117 0 -0.0044191690059318329 -0.03044350947002377 0 -0.0098498996017565704 -0.02783551872041138 0 -0.0098079061762590854 -0.028277248921840022 0 -0.0095417274694584095 -0.028088449073891325 0 -0.0026029646041208186 -0.030371176913866271 0 -0.0023973683669007524 -0.030229045553312829 0 -0.0024841623651259527 -0.030007103775872391 0 -0.0052927197836389779 -0.029789070415976376 0 -0.0028526955808144965 -0.030834491405131833 0 -0.0037655584709437068 -0.032326321708498418 0 -0.0040929331461534496 -0.031479478883777785 0 -0.0033746287597855589 -0.031276930181322007 0 -0.0024589961010568033 -0.030351598870379297 0 -0.0023973683669007524 -0.030229045553312829 0 -0.0023071038014858946 -0.030424458764518422 0 -0.0026029646041208186 -0.030371176913866271 0 -0.0024589961010568033 -0.030351598870379297 0 -0.0023973683669007524 -0.030229045553312829 0 -0.010247330132759441 -0.027486848708889042 0 -0.010510935074935026 -0.027563515263595302 0 -0.010226054578814595 -0.027855346442709039 0 -0.0037655584709437068 -0.032326321708498418 0 -0.0048540102296601049 -0.031594981857540345 0 -0.0040929331461534496 -0.031479478883777785 0 -0.0052927197836389779 -0.029789070415976376 0 -0.007848595754036361 -0.029648819910247443 0 -0.0040929331461534496 -0.031479478883777785 0 -0.0033746287597855589 -0.031276930181322007 0 -0.0044191690059318329 -0.03044350947002377 0 -0.0048540102296601049 -0.031594981857540345 0 -0.0040929331461534496 -0.031479478883777785 0 -0.0044191690059318329 -0.03044350947002377 0 -0.0028526955808144965 -0.030834491405131833 0 -0.0026794524972284552 -0.029844968837023918 0 -0.0033746287597855589 -0.031276930181322007 0 -0.0029580529208657522 -0.030217141569427917 0 -0.0044191690059318329 -0.03044350947002377 0 -0.0024841623651259527 -0.030007103775872391 0 -0.0020258583663120729 -0.030023169383785714 0 -0.0024114448656084955 -0.029607526604058038 0 -0.0020258583663120729 -0.030023169383785714 0 -0.0021188995092787134 -0.030304940914738041 0 -0.0018198433964759372 -0.030390156943772853 0 -0.0023973683669007524 -0.030229045553312829 0 -0.0020258583663120729 -0.030023169383785714 0 -0.0021188995092787134 -0.030304940914738041 0 -0.0023973683669007524 -0.030229045553312829 0 -0.0024841623651259527 -0.030007103775872391 0 -0.0020258583663120729 -0.030023169383785714 0 -0.0023973683669007524 -0.030229045553312829 0 -0.0021188995092787134 -0.030304940914738041 0 -0.0023071038014858946 -0.030424458764518422 0 -0.0020258583663120729 -0.030023169383785714 0 -0.0015045873981976634 -0.03019656622884772 0 -0.0018198433964759372 -0.030390156943772853 0 -0.0020258583663120729 -0.030023169383785714 0 -0.0015333029907002159 -0.029770993133489417 0 -0.0019559467453279964 -0.029543838080835501 0 -0.0020258583663120729 -0.030023169383785714 0 -0.0015333029907002159 -0.029770993133489417 0 -0.0015045873981976634 -0.03019656622884772 0 -0.00010144563276822111 -0.028360136552495953 0 0.0001410897886418958 -0.028482104898108391 0 0.00047783645138070753 -0.028320036544543355 0 -0.00082196558986841293 -0.028973326180006382 0 -0.00078351487996407699 -0.029674356132181692 0 0.00047660288923838986 -0.028467561224004685 0 0.0001410897886418958 -0.028482104898108391 0 0.00047783645138070753 -0.028320036544543355 0 -0.0015045873981976634 -0.03019656622884772 0 -0.0014197724789885159 -0.030618886663961953 0 -0.0018198433964759372 -0.030390156943772853 0 -0.00078351487996407699 -0.029674356132181692 0 0.000979269797461285 -0.027850297031527374 0 0.00047660288923838986 -0.028467561224004685 0 0.0001410897886418958 -0.028482104898108391 0 0.00024115053099170732 -0.028730302712305797 0 0.000979269797461285 -0.027850297031527374 0 0.0017613678331729256 -0.02812740948761016 0 0.00047660288923838986 -0.028467561224004685 0 0.00024115053099170732 -0.028730302712305797 0 0.00068742480651712019 -0.028637229808484023 0 0.0033000554792326497 -0.027387583850695365 0 0.0026799128446272922 -0.026882789789480818 0 0.0025481072168705939 -0.027601728960892219 0 0.0030054251043969719 -0.026406442928757112 0 0.0033000554792326497 -0.027387583850695365 0 0.0026799128446272922 -0.026882789789480818 0 0.0033694591410039893 -0.025560795710516011 0 0.000979269797461285 -0.027850297031527374 0 0.0030054251043969719 -0.026406442928757112 0 0.0027574867951459994 -0.024013081990137169 0 0.0017034797745716971 -0.024827975041257448 0 0.001590193721782942 -0.025877756073305686 0 0.0017034797745716971 -0.024827975041257448 0 0.00091225002070664807 -0.025316704553400095 0 0.0027574867951459994 -0.024013081990137169 0 0.0017034797745716971 -0.024827975041257448 0 0.00089421520756695274 -0.024032836992945332 0 0.0017034797745716971 -0.024827975041257448 0 0.00089421520756695274 -0.024032836992945332 0 0.00091225002070664807 -0.025316704553400095 0 0.00089421520756695274 -0.024032836992945332 0 0.00091225002070664807 -0.025316704553400095 0 5.493415905456152e-05 -0.025038297373384047 0 5.493415905456152e-05 -0.025038297373384047 0 -0.0009185571486644453 -0.025203196383008369 0 -0.00046111062993241237 -0.024432366820204613 0 -0.00039653190241950993 -0.025544516739125958 0 5.493415905456152e-05 -0.025038297373384047 0 -0.0009185571486644453 -0.025203196383008369 0 9.1146571084263508e-05 -0.025952231946925572 0 0.00091225002070664807 -0.025316704553400095 0 5.493415905456152e-05 -0.025038297373384047 0 -0.00062383866532562818 -0.027313600028661834 0 -0.0014074101420714436 -0.027279262876225542 0 0.00089421520756695274 -0.024032836992945332 0 -0.0012654092030903771 -0.023889106101937022 0 -0.00046111062993241237 -0.024432366820204613 0 -0.0009185571486644453 -0.025203196383008369 0 -0.0012297709654496361 -0.024158400117280852 0 -0.00046111062993241237 -0.024432366820204613 0 -0.0012654092030903771 -0.023889106101937022 0 -0.0012297709654496361 -0.024158400117280852 0 -0.00046111062993241237 -0.024432366820204613 0 0.00089421520756695274 -0.024032836992945332 0 5.493415905456152e-05 -0.025038297373384047 0 -0.00046111062993241237 -0.024432366820204613 0 -0.0018482527342528186 -0.030658541974088176 0 -0.0022946459204207471 -0.030683169776833774 0 -0.0020909802234273162 -0.030520377056108688 0 -0.0020909802234273162 -0.030520377056108688 0 -0.0023023874164537104 -0.030558930535024117 0 -0.0023071038014858946 -0.030424458764518422 0 -0.0022946459204207471 -0.030683169776833774 0 -0.0020909802234273162 -0.030520377056108688 0 -0.0023023874164537104 -0.030558930535024117 0 -0.0021188995092787134 -0.030304940914738041 0 -0.0020909802234273162 -0.030520377056108688 0 -0.0023071038014858946 -0.030424458764518422 0 -0.0021188995092787134 -0.030304940914738041 0 -0.0020909802234273162 -0.030520377056108688 0 -0.0018198433964759372 -0.030390156943772853 0 -0.0014197724789885159 -0.030618886663961953 0 -0.0018482527342528186 -0.030658541974088176 0 -0.0018198433964759372 -0.030390156943772853 0 0.000979269797461285 -0.027850297031527374 0 -0.00062383866532562818 -0.027313600028661834 0 -0.0018482527342528186 -0.030658541974088176 0 -0.0020909802234273162 -0.030520377056108688 0 -0.0018198433964759372 -0.030390156943772853 0 -0.024722605441044099 -0.015906782213964608 0 -0.024495468845139569 -0.016010673030720061 0 -0.024613572859139059 -0.015810308508041278 0 -0.024495468845139569 -0.016010673030720061 0 -0.024436823401725427 -0.015905156495137046 0 -0.024613572859139059 -0.015810308508041278 0 -0.024495468845139569 -0.016010673030720061 0 -0.024436823401725427 -0.015905156495137046 0 -0.024301019999840707 -0.016069563444750135 0 -0.024495468845139569 -0.016010673030720061 0 -0.024301019999840707 -0.016069563444750135 0 -0.024265121322854421 -0.016210559973388099 0 -0.024436823401725427 -0.015905156495137046 0 -0.024301019999840707 -0.016069563444750135 0 -0.02430313645065197 -0.015879801058684678 0 -0.024301019999840707 -0.016069563444750135 0 -0.024148996710872957 -0.016144497534489509 0 -0.02430313645065197 -0.015879801058684678 0 -0.024301019999840707 -0.016069563444750135 0 -0.024265121322854421 -0.016210559973388099 0 -0.024148996710872957 -0.016144497534489509 0 -0.024495468845139569 -0.016010673030720061 0 -0.024420249564175992 -0.016118923648788048 0 -0.024265121322854421 -0.016210559973388099 0 -0.024420249564175992 -0.016118923648788048 0 -0.024265121322854421 -0.016210559973388099 0 -0.024248458772759073 -0.016207020824575924 0 -0.024420249564175992 -0.016118923648788048 0 -0.024696249528900573 -0.016001012095703974 0 -0.024535960227205281 -0.01608644589139897 0 -0.024495468845139569 -0.016010673030720061 0 -0.024420249564175992 -0.016118923648788048 0 -0.024696249528900573 -0.016001012095703974 0 -0.024722605441044099 -0.015906782213964608 0 -0.024495468845139569 -0.016010673030720061 0 -0.024696249528900573 -0.016001012095703974 0 -0.024796206076877412 -0.01600316769976631 0 -0.024535960227205281 -0.01608644589139897 0 -0.024504649388665346 -0.016133309841834264 0 -0.024796206076877412 -0.01600316769976631 0 -0.024696249528900573 -0.016001012095703974 0 -0.024535960227205281 -0.01608644589139897 0 -0.024463401396352613 -0.016208414556756996 0 -0.024655616248809534 -0.016141493569276025 0 -0.024504649388665346 -0.016133309841834264 0 -0.024796206076877412 -0.01600316769976631 0 -0.024655616248809534 -0.016141493569276025 0 -0.024504649388665346 -0.016133309841834264 0 -0.024287591417977952 -0.01625213375684291 0 -0.024463401396352613 -0.016208414556756996 0 -0.024504649388665346 -0.016133309841834264 0 -0.024287591417977952 -0.01625213375684291 0 -0.024504649388665346 -0.016133309841834264 0 -0.024248458772759073 -0.016207020824575924 0 -0.024420249564175992 -0.016118923648788048 0 -0.024535960227205281 -0.01608644589139897 0 -0.024248458772759073 -0.016207020824575924 0 -0.024535960227205281 -0.01608644589139897 0 -0.024504649388665346 -0.016133309841834264 0 -0.024248458772759073 -0.016207020824575924 0 -0.024287591417977952 -0.01625213375684291 0 -0.024248458772759073 -0.016207020824575924 0 -0.02415734887516607 -0.016233865052671492 0 -0.011146319165208205 -0.021736544407528834 0 -0.011538263868759883 -0.019876329727946007 0 -0.01087687271210774 -0.020840420198497772 0 -0.017871438007841616 -0.018936215875945434 0 -0.018214737816046461 -0.017780325561462324 0 -0.024089453407496977 -0.016353277466275479 0 -0.024287591417977952 -0.01625213375684291 0 -0.02415734887516607 -0.016233865052671492 0 -0.011538263868759883 -0.019876329727946007 0 -0.011175127430574382 -0.019704481078576117 0 -0.011111568454720328 -0.020156182242128472 0 -0.011538263868759883 -0.019876329727946007 0 -0.011111568454720328 -0.020156182242128472 0 -0.01087687271210774 -0.020840420198497772 0 -0.018214737816046461 -0.017780325561462324 0 -0.015041658150867178 -0.0188179025035945 0 -0.011538263868759883 -0.019876329727946007 0 -0.011219270238620994 -0.01933878396754277 0 -0.011175127430574382 -0.019704481078576117 0 -0.024248458772759073 -0.016207020824575924 0 -0.02415734887516607 -0.016233865052671492 0 -0.024129884904379107 -0.016343693886334165 0 -0.011538263868759883 -0.019876329727946007 0 -0.011219270238620994 -0.01933878396754277 0 -0.011668610701447441 -0.01874961801320877 0 -0.011219270238620994 -0.01933878396754277 0 -0.011668610701447441 -0.01874961801320877 0 -0.011159434413205872 -0.019037521329859589 0 -0.011668610701447441 -0.01874961801320877 0 -0.010954659863624146 -0.018925680139793753 0 -0.011159434413205872 -0.019037521329859589 0 -0.024248458772759073 -0.016207020824575924 0 -0.024129884904379107 -0.016343693886334165 0 -0.024108184116529929 -0.016365008829218396 0 -0.024265121322854421 -0.016210559973388099 0 -0.024248458772759073 -0.016207020824575924 0 -0.024108184116529929 -0.016365008829218396 0 -0.015041658150867178 -0.0188179025035945 0 -0.024478616295132347 -0.017792546619167404 0 -0.024108184116529929 -0.016365008829218396 0 -0.024148996710872957 -0.016144497534489509 0 -0.023817395941864078 -0.016303951623512732 0 -0.024265121322854421 -0.016210559973388099 0 -0.024108184116529929 -0.016365008829218396 0 -0.024148996710872957 -0.016144497534489509 0 -0.0058148346591876589 -0.024606404458414392 0 -0.006584158342014609 -0.024783360067194775 0 -0.0061350684027376857 -0.02410399973330116 0 -0.013643500654928786 -0.021371243136816358 0 -0.010580871705420027 -0.024017827245798658 0 -0.0058148346591876589 -0.024606404458414392 0 -0.006584158342014609 -0.024783360067194775 0 -0.0065744691433014119 -0.025660476455771547 0 -0.006584158342014609 -0.024783360067194775 0 -0.0064497151614085722 -0.024145465971310748 0 -0.0061350684027376857 -0.02410399973330116 0 -0.006139088489166891 -0.023417358519897666 0 -0.0064497151614085722 -0.024145465971310748 0 -0.0069583280206812256 -0.02436988618721651 0 -0.006139088489166891 -0.023417358519897666 0 -0.007135720728344043 -0.024210809788233395 0 -0.0069583280206812256 -0.02436988618721651 0 -0.006584158342014609 -0.024783360067194775 0 -0.0064497151614085722 -0.024145465971310748 0 -0.0069583280206812256 -0.02436988618721651 0 -0.015041658150867178 -0.0188179025035945 0 -0.013643500654928786 -0.021371243136816358 0 -0.006139088489166891 -0.023417358519897666 0 -0.0064497151614085722 -0.024145465971310748 0 -0.0061350684027376857 -0.02410399973330116 0 -0.0237417553098134 -0.016671627799445719 0 -0.024108184116529929 -0.016365008829218396 0 -0.023817395941864078 -0.016303951623512732 0 -0.006139088489166891 -0.023417358519897666 0 -0.005988493208461166 -0.024240076421531226 0 -0.0061350684027376857 -0.02410399973330116 0 -0.007135720728344043 -0.024210809788233395 0 -0.0076821199661666643 -0.024807717530045237 0 -0.0077345381687508978 -0.024180675133764727 0 -0.007135720728344043 -0.024210809788233395 0 -0.0069583280206812256 -0.02436988618721651 0 -0.0076821199661666643 -0.024807717530045237 0 -0.006584158342014609 -0.024783360067194775 0 -0.0069583280206812256 -0.02436988618721651 0 -0.0072683994371080538 -0.02533527699125734 0 -0.0069583280206812256 -0.02436988618721651 0 -0.0076821199661666643 -0.024807717530045237 0 -0.0072683994371080538 -0.02533527699125734 0 -0.007968610108854959 -0.021404446953239536 0 -0.0086522278812259552 -0.023706809314039689 0 -0.0076821199661666643 -0.024807717530045237 0 -0.0083393216938039069 -0.024983845050375084 0 -0.0083155874882003857 -0.025866380076687977 0 -0.0083393216938039069 -0.024983845050375084 0 -0.0077345381687508978 -0.024180675133764727 0 -0.0088569559810487749 -0.024780252291763824 0 -0.0083393216938039069 -0.024983845050375084 0 -0.0088102246943063921 -0.025268822160848695 0 -0.0083155874882003857 -0.025866380076687977 0 -0.0076821199661666643 -0.024807717530045237 0 -0.0083393216938039069 -0.024983845050375084 0 -0.0077345381687508978 -0.024180675133764727 0 -0.0087691889266004238 -0.021034259071586577 0 -0.0086522278812259552 -0.023706809314039689 0 -0.010618738146500382 -0.018684659140856975 0 -0.010224041201903159 -0.019423766650176467 0 -0.009389557165227682 -0.018654667325484226 0 -0.01066780577868416 -0.018944189063707442 0 -0.010618738146500382 -0.018684659140856975 0 -0.010224041201903159 -0.019423766650176467 0 -0.010949004113373529 -0.018690254420877839 0 -0.0087691889266004238 -0.021034259071586577 0 -0.006139088489166891 -0.023417358519897666 0 -0.007135720728344043 -0.024210809788233395 0 -0.0077345381687508978 -0.024180675133764727 0 -0.011668610701447441 -0.01874961801320877 0 -0.010618738146500382 -0.018684659140856975 0 -0.010954659863624146 -0.018925680139793753 0 -0.015041658150867178 -0.0188179025035945 0 -0.007968610108854959 -0.021404446953239536 0 -0.010857805443890508 -0.019170406698729461 0 -0.01066780577868416 -0.018944189063707442 0 -0.010331239079457644 -0.019262477975639854 0 -0.010857805443890508 -0.019170406698729461 0 -0.01066780577868416 -0.018944189063707442 0 -0.010954659863624146 -0.018925680139793753 0 -0.01066780577868416 -0.018944189063707442 0 -0.010618738146500382 -0.018684659140856975 0 -0.010954659863624146 -0.018925680139793753 0 -0.011219270238620994 -0.01933878396754277 0 -0.010857805443890508 -0.019170406698729461 0 -0.011159434413205872 -0.019037521329859589 0 -0.010857805443890508 -0.019170406698729461 0 -0.010954659863624146 -0.018925680139793753 0 -0.011159434413205872 -0.019037521329859589 0 -0.010918759124495008 -0.019524575099040656 0 -0.011111568454720328 -0.020156182242128472 0 -0.010331239079457644 -0.019262477975639854 0 -0.011111568454720328 -0.020156182242128472 0 -0.0095742280485640267 -0.019692926793011507 0 -0.0092436917875981916 -0.018049337158750921 0 -0.011219270238620994 -0.01933878396754277 0 -0.010857805443890508 -0.019170406698729461 0 -0.010918759124495008 -0.019524575099040656 0 -0.011239218035786033 -0.019307466793094769 0 -0.0087691889266004238 -0.021034259071586577 0 -0.011219270238620994 -0.01933878396754277 0 -0.010918759124495008 -0.019524575099040656 0 -0.011175127430574382 -0.019704481078576117 0 -0.010857805443890508 -0.019170406698729461 0 -0.010918759124495008 -0.019524575099040656 0 -0.010331239079457644 -0.019262477975639854 0 -0.010918759124495008 -0.019524575099040656 0 -0.011175127430574382 -0.019704481078576117 0 -0.011111568454720328 -0.020156182242128472 0 -0.011111568454720328 -0.020156182242128472 0 -0.010315903061369472 -0.02049080693975798 0 -0.0095742280485640267 -0.019692926793011507 0 -0.0099777989585303605 -0.021219611070331011 0 -0.010315903061369472 -0.02049080693975798 0 -0.01087687271210774 -0.020840420198497772 0 -0.011111568454720328 -0.020156182242128472 0 -0.010315903061369472 -0.02049080693975798 0 -0.01087687271210774 -0.020840420198497772 0 -0.0095742280485640267 -0.019692926793011507 0 -0.0087503048939911298 -0.020656480927847044 0 -0.0075398855058748946 -0.019599444529809877 0 -0.010315903061369472 -0.02049080693975798 0 -0.0095742280485640267 -0.019692926793011507 0 -0.0087503048939911298 -0.020656480927847044 0 -0.0099777989585303605 -0.021219611070331011 0 -0.010315903061369472 -0.02049080693975798 0 -0.0087503048939911298 -0.020656480927847044 0 -0.0087691889266004238 -0.021034259071586577 0 -0.0063978278303546939 -0.022948561254053347 0 -0.0095742280485640267 -0.019692926793011507 0 -0.0092436917875981916 -0.018049337158750921 0 -0.0075398855058748946 -0.019599444529809877 0 -0.0057833385417125167 -0.025871839488610271 0 -0.0057633489511701294 -0.025899168284461448 0 -0.0057502017581462315 -0.0258785370898077 0 -0.0057633489511701294 -0.025899168284461448 0 -0.0057502017581462315 -0.0258785370898077 0 -0.0057473406910788418 -0.025902619856297677 0 -0.0057633489511701294 -0.025899168284461448 0 -0.0057473406910788418 -0.025902619856297677 0 -0.0057592122482229904 -0.025942517867803376 0 -0.0056904189300802871 -0.023659312279459402 0 -0.0063978278303546939 -0.022948561254053347 0 -0.0069821581308761125 -0.021189561157315285 0 -0.0087503048939911298 -0.020656480927847044 0 -0.0075398855058748946 -0.019599444529809877 0 -0.0069821581308761125 -0.021189561157315285 0 -0.0055837734965293612 -0.021384357743208546 0 -0.0075398855058748946 -0.019599444529809877 0 -0.0057502017581462315 -0.0258785370898077 0 -0.005746015240965594 -0.025865782742366651 0 -0.0057473406910788418 -0.025902619856297677 0 -0.0057416997918081367 -0.025832570275972775 0 -0.0057502017581462315 -0.0258785370898077 0 -0.005746015240965594 -0.025865782742366651 0 -0.0057416997918081367 -0.025832570275972775 0 -0.0057495342895179857 -0.025845465778634166 0 -0.005746015240965594 -0.025865782742366651 0 -0.0057416997918081367 -0.025832570275972775 0 -0.005747876224118079 -0.025835686827961359 0 -0.0057495342895179857 -0.025845465778634166 0 -0.005746015240965594 -0.025865782742366651 0 -0.005749013959142249 -0.025874007435189153 0 -0.0057473406910788418 -0.025902619856297677 0 -0.0057495342895179857 -0.025845465778634166 0 -0.005746015240965594 -0.025865782742366651 0 -0.005749013959142249 -0.025874007435189153 0 -0.005749013959142249 -0.025874007435189153 0 -0.0057473406910788418 -0.025902619856297677 0 -0.0057459176403821463 -0.025932212024393154 0 -0.0057473406910788418 -0.025902619856297677 0 -0.0057459176403821463 -0.025932212024393154 0 -0.0057592122482229904 -0.025942517867803376 0 -0.0057592122482229904 -0.025942517867803376 0 -0.005776826687025823 -0.025910399295714134 0 -0.0057708440711492425 -0.025955083764794631 0 -0.0057480802682991546 -0.026018732879579141 0 -0.0057459176403821463 -0.025932212024393154 0 -0.0057592122482229904 -0.025942517867803376 0 -0.0057480802682991546 -0.026018732879579141 0 -0.0057592122482229904 -0.025942517867803376 0 -0.0057708440711492425 -0.025955083764794631 0 -0.0057633489511701294 -0.025899168284461448 0 -0.0057592122482229904 -0.025942517867803376 0 -0.005776826687025823 -0.025910399295714134 0 -0.0057833385417125167 -0.025871839488610271 0 -0.0057633489511701294 -0.025899168284461448 0 -0.005776826687025823 -0.025910399295714134 0 -0.0088569559810487749 -0.024780252291763824 0 -0.0088102246943063921 -0.025268822160848695 0 -0.0088533322449524457 -0.025475544127665443 0 -0.0086522278812259552 -0.023706809314039689 0 -0.0093457458458995873 -0.026099941678746835 0 -0.0083393216938039069 -0.024983845050375084 0 -0.0088569559810487749 -0.024780252291763824 0 -0.0088102246943063921 -0.025268822160848695 0 -0.0086522278812259552 -0.023706809314039689 0 -0.0069452395413027021 -0.026455372395162133 0 -0.010006541086097663 -0.026645694159185468 0 -0.0084012914572390799 -0.026561952376002049 0 -0.0088533322449524457 -0.025475544127665443 0 -0.0077996430802106725 -0.025616996928576722 0 -0.0084012914572390799 -0.026561952376002049 0 -0.0088533322449524457 -0.025475544127665443 0 -0.0077996430802106725 -0.025616996928576722 0 -0.0090321637889278182 -0.025213802862826477 0 -0.0088533322449524457 -0.025475544127665443 0 -0.0095136477815085611 -0.026819702000003241 0 -0.0091843900724763138 -0.027030878818623021 0 -0.0095232050888569893 -0.027189716929792999 0 -0.0097405910553645808 -0.027223477206243116 0 -0.0095136477815085611 -0.026819702000003241 0 -0.0095232050888569893 -0.027189716929792999 0 -0.0088102246943063921 -0.025268822160848695 0 -0.0090321637889278182 -0.025213802862826477 0 -0.0088533322449524457 -0.025475544127665443 0 -0.0088102246943063921 -0.025268822160848695 0 -0.0090321637889278182 -0.025213802862826477 0 -0.0083155874882003857 -0.025866380076687977 0 -0.0095136477815085611 -0.026819702000003241 0 -0.0091843900724763138 -0.027030878818623021 0 -0.0083155874882003857 -0.025866380076687977 0 -0.0090661289420822192 -0.02601713194808666 0 -0.0083467251970873423 -0.025879250124854855 0 -0.0091843900724763138 -0.027030878818623021 0 -0.0088403461385691256 -0.027710692563227102 0 -0.0083155874882003857 -0.025866380076687977 0 -0.0091843900724763138 -0.027030878818623021 0 -0.0088403461385691256 -0.027710692563227102 0 -0.0093090904190380602 -0.027480150573032897 0 -0.0093090904190380602 -0.027480150573032897 0 -0.0095232050888569893 -0.027189716929792999 0 -0.0096351924714752641 -0.027591036069767254 0 -0.0091843900724763138 -0.027030878818623021 0 -0.0093090904190380602 -0.027480150573032897 0 -0.0095232050888569893 -0.027189716929792999 0 -0.0097405910553645808 -0.027223477206243116 0 -0.0095232050888569893 -0.027189716929792999 0 -0.0096351924714752641 -0.027591036069767254 0 -0.0093090904190380602 -0.027480150573032897 0 -0.0096351924714752641 -0.027591036069767254 0 -0.0092340834189113749 -0.02804736014234822 0 -0.0096351924714752641 -0.027591036069767254 0 -0.0092340834189113749 -0.02804736014234822 0 -0.0095417274694584095 -0.028088449073891325 0 -0.0098079061762590854 -0.028277248921840022 0 -0.0095417274694584095 -0.028088449073891325 0 -0.0091812911506500908 -0.028626453337575356 0 -0.0092340834189113749 -0.02804736014234822 0 -0.0095417274694584095 -0.028088449073891325 0 -0.0091812911506500908 -0.028626453337575356 0 -0.0092340834189113749 -0.02804736014234822 0 -0.0088681391161102123 -0.028333146784699694 0 -0.0091812911506500908 -0.028626453337575356 0 -0.0088403461385691256 -0.027710692563227102 0 -0.0092340834189113749 -0.02804736014234822 0 -0.0088681391161102123 -0.028333146784699694 0 -0.0088403461385691256 -0.027710692563227102 0 -0.0093090904190380602 -0.027480150573032897 0 -0.0092340834189113749 -0.02804736014234822 0 -0.0088403461385691256 -0.027710692563227102 0 -0.0088223874010899869 -0.028251388685376726 0 -0.0089226579804334086 -0.028478007565169581 0 -0.0088403461385691256 -0.027710692563227102 0 -0.0088681391161102123 -0.028333146784699694 0 -0.0088223874010899869 -0.028251388685376726 0 -0.0088681391161102123 -0.028333146784699694 0 -0.0088127045618288016 -0.028457406751312479 0 -0.0086665335272163007 -0.028584093445635773 0 -0.0088681391161102123 -0.028333146784699694 0 -0.0088223874010899869 -0.028251388685376726 0 -0.0088127045618288016 -0.028457406751312479 0 -0.0088127045618288016 -0.028457406751312479 0 -0.0089488536154330826 -0.028466422631502546 0 -0.0089556273832943536 -0.028513642461057538 0 -0.0089488536154330826 -0.028466422631502546 0 -0.0092171089976478895 -0.028608828109145775 0 -0.0089556273832943536 -0.028513642461057538 0 -0.0088223874010899869 -0.028251388685376726 0 -0.0088127045618288016 -0.028457406751312479 0 -0.0089488536154330826 -0.028466422631502546 0 -0.0088223874010899869 -0.028251388685376726 0 -0.0089488536154330826 -0.028466422631502546 0 -0.0089226579804334086 -0.028478007565169581 0 -0.0089488536154330826 -0.028466422631502546 0 -0.0089226579804334086 -0.028478007565169581 0 -0.0091864643742880312 -0.028601894657051659 0 -0.0072202532485845751 -0.027377914700665088 0 -0.007475465471971577 -0.026374309810437528 0 -0.006481302569727428 -0.026621981510138587 0 -0.0088403461385691256 -0.027710692563227102 0 -0.0072202532485845751 -0.027377914700665088 0 -0.007475465471971577 -0.026374309810437528 0 -0.0091346941706507492 -0.027670709743045346 0 -0.007451340359130091 -0.028294336288259607 0 -0.0088403461385691256 -0.027710692563227102 0 -0.0083155874882003857 -0.025866380076687977 0 -0.007475465471971577 -0.026374309810437528 0 -0.0083155874882003857 -0.025866380076687977 0 -0.0072683994371080538 -0.02533527699125734 0 -0.007475465471971577 -0.026374309810437528 0 -0.0076821199661666643 -0.024807717530045237 0 -0.0083155874882003857 -0.025866380076687977 0 -0.0072683994371080538 -0.02533527699125734 0 -0.0072683994371080538 -0.02533527699125734 0 -0.007475465471971577 -0.026374309810437528 0 -0.0065744691433014119 -0.025660476455771547 0 -0.007475465471971577 -0.026374309810437528 0 -0.0065744691433014119 -0.025660476455771547 0 -0.006481302569727428 -0.026621981510138587 0 -0.0058148346591876589 -0.024606404458414392 0 -0.0065744691433014119 -0.025660476455771547 0 -0.0056149719175537707 -0.026093487223664773 0 -0.013643500654928786 -0.021371243136816358 0 -0.010257950354142511 -0.024042041707210794 0 -0.0065744691433014119 -0.025660476455771547 0 -0.0056149719175537707 -0.026093487223664773 0 -0.006481302569727428 -0.026621981510138587 0 -0.006584158342014609 -0.024783360067194775 0 -0.0072683994371080538 -0.02533527699125734 0 -0.0065744691433014119 -0.025660476455771547 0 -0.014751278558967237 -0.022773469083742663 0 -0.015819130098857808 -0.021386645766855266 0 -0.014992585209956992 -0.021392970694702966 0 -0.024148996710872957 -0.016144497534489509 0 -0.023817395941864078 -0.016303951623512732 0 -0.024078655293185602 -0.01576222930097592 0 -0.013643500654928786 -0.021371243136816358 0 -0.020780043664138086 -0.017757898049416191 0 -0.024148996710872957 -0.016144497534489509 0 -0.024078655293185602 -0.01576222930097592 0 -0.02430313645065197 -0.015879801058684678 0 -0.015819130098857808 -0.021386645766855266 0 -0.014992585209956992 -0.021392970694702966 0 -0.015207254512795391 -0.01996889540469491 0 -0.015819130098857808 -0.021386645766855266 0 -0.015207254512795391 -0.01996889540469491 0 -0.016902746821010894 -0.019942344995011393 0 -0.010290234224158215 -0.024565676608963971 0 -0.020230996149050239 -0.018925488288213738 0 -0.010257950354142511 -0.024042041707210794 0 -0.010290234224158215 -0.024565676608963971 0 -0.0072202532485845751 -0.027377914700665088 0 -0.0054817636482467668 -0.027314737945667817 0 -0.006481302569727428 -0.026621981510138587 0 -0.007451340359130091 -0.028294336288259607 0 -0.010290234224158215 -0.024565676608963971 0 -0.0056149719175537707 -0.026093487223664773 0 -0.0054817636482467668 -0.027314737945667817 0 -0.006481302569727428 -0.026621981510138587 0 -0.0089226579804334086 -0.028478007565169581 0 -0.009282299876593748 -0.028685428780401982 0 -0.0091864643742880312 -0.028601894657051659 0 -0.0091147930783176644 -0.02827999231936059 0 -0.010456788697998725 -0.027802116719443097 0 -0.0091864643742880312 -0.028601894657051659 0 -0.0093628536081897511 -0.028675201570305068 0 -0.0092941506648944149 -0.028687765285773915 0 -0.0091864643742880312 -0.028601894657051659 0 -0.0092171089976478895 -0.028608828109145775 0 -0.0093628536081897511 -0.028675201570305068 0 -0.0092171089976478895 -0.028608828109145775 0 -0.0093628536081897511 -0.028675201570305068 0 -0.0097855756762160965 -0.028734677739639045 0 -0.0089488536154330826 -0.028466422631502546 0 -0.0091864643742880312 -0.028601894657051659 0 -0.0092171089976478895 -0.028608828109145775 0 -0.0094989419868006797 -0.029504615490307362 0 -0.010456788697998725 -0.027802116719443097 0 -0.0093628536081897511 -0.028675201570305068 0 -0.0097855756762160965 -0.028734677739639045 0 -0.0092941506648944149 -0.028687765285773915 0 -0.0097855756762160965 -0.028734677739639045 0 -0.01033208721044322 -0.029751915486202807 0 -0.0096678343235927031 -0.030558813331828819 0 -0.0097855756762160965 -0.028734677739639045 0 -0.01033208721044322 -0.029751915486202807 0 -0.011059067251091331 -0.029036183656443618 0 -0.010456788697998725 -0.027802116719443097 0 -0.016727023301437837 -0.024573623422355671 0 -0.011332744064051971 -0.024650658147890907 0 -0.011786268939780862 -0.021760957199764633 0 -0.017680882336854411 -0.024604693247800409 0 -0.01033208721044322 -0.029751915486202807 0 -0.0096678343235927031 -0.030558813331828819 0 -0.011405509327819759 -0.030724039845872079 0 -0.009282299876593748 -0.028685428780401982 0 -0.0091864643742880312 -0.028601894657051659 0 -0.0092990303961983985 -0.028602247677456814 0 -0.010290234224158215 -0.024565676608963971 0 -0.010456788697998725 -0.027802116719443097 0 -0.011786268939780862 -0.021760957199764633 0 -0.0190703799972884 -0.022691106540073881 0 -0.017680882336854411 -0.024604693247800409 0 -0.011405509327819759 -0.030724039845872079 0 -0.011091016808452729 -0.029834070698356394 0 -0.011568573432549122 -0.029491574337014013 0 -0.016727023301437837 -0.024573623422355671 0 -0.020230996149050239 -0.018925488288213738 0 -0.01033208721044322 -0.029751915486202807 0 -0.011405509327819759 -0.030724039845872079 0 -0.011091016808452729 -0.029834070698356394 0 -0.01033208721044322 -0.029751915486202807 0 -0.011091016808452729 -0.029834070698356394 0 -0.011059067251091331 -0.029036183656443618 0 -0.011091016808452729 -0.029834070698356394 0 -0.011568573432549122 -0.029491574337014013 0 -0.011059067251091331 -0.029036183656443618 0 -0.011568573432549122 -0.029491574337014013 0 -0.011059067251091331 -0.029036183656443618 0 -0.011835990764630242 -0.028742344779037674 0 -0.011405509327819759 -0.030724039845872079 0 -0.011568573432549122 -0.029491574337014013 0 -0.012429809685713934 -0.029216905151434998 0 -0.011568573432549122 -0.029491574337014013 0 -0.012429809685713934 -0.029216905151434998 0 -0.011835990764630242 -0.028742344779037674 0 -0.014455849934272158 -0.026221279073769293 0 -0.014888866867135845 -0.026035209775113241 0 -0.014665200572290872 -0.026556354753770845 0 -0.016727023301437837 -0.024573623422355671 0 -0.012759221334363975 -0.028818054240557132 0 -0.020119544152881943 -0.020434715503292476 0 -0.016727023301437837 -0.024573623422355671 0 -0.024688524498783924 -0.015408461769968781 0 -0.024239402473384405 -0.015426210299251812 0 -0.02434419973322954 -0.015508529288802295 0 -0.014422028245865588 -0.026133400182056652 0 -0.014455849934272158 -0.026221279073769293 0 -0.014888866867135845 -0.026035209775113241 0 -0.024688524498783924 -0.015408461769968781 0 -0.024556627646997845 -0.01560701378512753 0 -0.02434419973322954 -0.015508529288802295 0 -0.024556627646997845 -0.01560701378512753 0 -0.024421582856284072 -0.015615209627042412 0 -0.02434419973322954 -0.015508529288802295 0 -0.024556627646997845 -0.01560701378512753 0 -0.024421582856284072 -0.015615209627042412 0 -0.024444815798736003 -0.015743497213426137 0 -0.020780043664138086 -0.017757898049416191 0 -0.020230996149050239 -0.018925488288213738 0 -0.024078655293185602 -0.01576222930097592 0 -0.024254116130471345 -0.015510741997131549 0 -0.024338809898461999 -0.01565072850199712 0 -0.024199281966629502 -0.017287566602580507 0 -0.020230996149050239 -0.018925488288213738 0 -0.024239402473384405 -0.015426210299251812 0 -0.02434419973322954 -0.015508529288802295 0 -0.024104913730590878 -0.01557127699642104 0 -0.02434419973322954 -0.015508529288802295 0 -0.024254116130471345 -0.015510741997131549 0 -0.024338809898461999 -0.01565072850199712 0 -0.024421582856284072 -0.015615209627042412 0 -0.024338809898461999 -0.01565072850199712 0 -0.024444815798736003 -0.015743497213426137 0 -0.024421582856284072 -0.015615209627042412 0 -0.02434419973322954 -0.015508529288802295 0 -0.024338809898461999 -0.01565072850199712 0 -0.024338809898461999 -0.01565072850199712 0 -0.02430313645065197 -0.015879801058684678 0 -0.024444815798736003 -0.015743497213426137 0 -0.024078655293185602 -0.01576222930097592 0 -0.024338809898461999 -0.01565072850199712 0 -0.02430313645065197 -0.015879801058684678 0 -0.024436823401725427 -0.015905156495137046 0 -0.02430313645065197 -0.015879801058684678 0 -0.024444815798736003 -0.015743497213426137 0 -0.024556627646997845 -0.01560701378512753 0 -0.024613572859139059 -0.015810308508041278 0 -0.024444815798736003 -0.015743497213426137 0 -0.024436823401725427 -0.015905156495137046 0 -0.024613572859139059 -0.015810308508041278 0 -0.024444815798736003 -0.015743497213426137 0 -0.024753719921315708 -0.015656556352536245 0 -0.024556627646997845 -0.01560701378512753 0 -0.024613572859139059 -0.015810308508041278 0 -0.012703985639509497 -0.026971677510309416 0 -0.011644499071825092 -0.026954479744638243 0 -0.01224724206718464 -0.027417389749192774 0 -0.011644499071825092 -0.026954479744638243 0 -0.011508548136893042 -0.027599375983943065 0 -0.010886189041134893 -0.027517001418348036 0 -0.011644499071825092 -0.026954479744638243 0 -0.011508548136893042 -0.027599375983943065 0 -0.01224724206718464 -0.027417389749192774 0 -0.01297501871840916 -0.027557311317700915 0 -0.01224724206718464 -0.027417389749192774 0 -0.012012267342657219 -0.028136522367529362 0 -0.013453561689071055 -0.027851972932400246 0 -0.012429809685713934 -0.029216905151434998 0 -0.012012267342657219 -0.028136522367529362 0 -0.012429809685713934 -0.029216905151434998 0 -0.012012267342657219 -0.028136522367529362 0 -0.011835990764630242 -0.028742344779037674 0 -0.012012267342657219 -0.028136522367529362 0 -0.011835990764630242 -0.028742344779037674 0 -0.011146564676157249 -0.028029914594757559 0 -0.011059067251091331 -0.029036183656443618 0 -0.011835990764630242 -0.028742344779037674 0 -0.011146564676157249 -0.028029914594757559 0 -0.011027965754031976 -0.029040454181482829 0 -0.010546079978598898 -0.028121057953652953 0 -0.011508548136893042 -0.027599375983943065 0 -0.012012267342657219 -0.028136522367529362 0 -0.011146564676157249 -0.028029914594757559 0 -0.011508548136893042 -0.027599375983943065 0 -0.01224724206718464 -0.027417389749192774 0 -0.012012267342657219 -0.028136522367529362 0 -0.0098766019051801431 -0.028086252502697862 0 -0.0093311080996640716 -0.028146071063209301 0 -0.0096421452349645682 -0.027855475443095981 0 -0.010546079978598898 -0.028121057953652953 0 -0.010252279330738325 -0.027663734292106744 0 -0.0097855756762160965 -0.028734677739639045 0 -0.011059067251091331 -0.029036183656443618 0 -0.0098766019051801431 -0.028086252502697862 0 -0.0097855756762160965 -0.028734677739639045 0 -0.0098766019051801431 -0.028086252502697862 0 -0.0093150448075942759 -0.028384415170146175 0 -0.0092171089976478895 -0.028608828109145775 0 -0.0097855756762160965 -0.028734677739639045 0 -0.0093150448075942759 -0.028384415170146175 0 -0.0092171089976478895 -0.028608828109145775 0 -0.0093150448075942759 -0.028384415170146175 0 -0.0089556273832943536 -0.028513642461057538 0 -0.0093150448075942759 -0.028384415170146175 0 -0.0093311080996640716 -0.028146071063209301 0 -0.0089152476139917666 -0.028437805355477942 0 -0.0098766019051801431 -0.028086252502697862 0 -0.0093150448075942759 -0.028384415170146175 0 -0.0093311080996640716 -0.028146071063209301 0 -0.0093311080996640716 -0.028146071063209301 0 -0.0096421452349645682 -0.027855475443095981 0 -0.0088916043399513821 -0.027904719374250979 0 -0.011508548136893042 -0.027599375983943065 0 -0.011146564676157249 -0.028029914594757559 0 -0.010886189041134893 -0.027517001418348036 0 -0.011644499071825092 -0.026954479744638243 0 -0.010886189041134893 -0.027517001418348036 0 -0.010278756102528966 -0.026962999141770101 0 -0.0096421452349645682 -0.027855475443095981 0 -0.0088916043399513821 -0.027904719374250979 0 -0.0095494268436376734 -0.027263859539959735 0 -0.010252279330738325 -0.027663734292106744 0 -0.0098934074642678272 -0.027067506725267546 0 -0.0088916043399513821 -0.027904719374250979 0 -0.0088123333450463356 -0.027027372336624143 0 -0.0095494268436376734 -0.027263859539959735 0 -0.0088916043399513821 -0.027904719374250979 0 -0.0078742855216564715 -0.027228769759021731 0 -0.0088123333450463356 -0.027027372336624143 0 -0.0088916043399513821 -0.027904719374250979 0 -0.0077235433991698589 -0.028067745815770033 0 -0.0078742855216564715 -0.027228769759021731 0 -0.0088916043399513821 -0.027904719374250979 0 -0.0084513898320082419 -0.028807485085653506 0 -0.0077235433991698589 -0.028067745815770033 0 -0.0093311080996640716 -0.028146071063209301 0 -0.0088916043399513821 -0.027904719374250979 0 -0.0089152476139917666 -0.028437805355477942 0 -0.0093150448075942759 -0.028384415170146175 0 -0.0089152476139917666 -0.028437805355477942 0 -0.0089556273832943536 -0.028513642461057538 0 -0.0089152476139917666 -0.028437805355477942 0 -0.0089556273832943536 -0.028513642461057538 0 -0.0086665335272163007 -0.028584093445635773 0 -0.0088127045618288016 -0.028457406751312479 0 -0.0089556273832943536 -0.028513642461057538 0 -0.0086665335272163007 -0.028584093445635773 0 -0.0089152476139917666 -0.028437805355477942 0 -0.0086665335272163007 -0.028584093445635773 0 -0.0084513898320082419 -0.028807485085653506 0 -0.0088916043399513821 -0.027904719374250979 0 -0.0089152476139917666 -0.028437805355477942 0 -0.0084513898320082419 -0.028807485085653506 0 -0.0084513898320082419 -0.028807485085653506 0 -0.0071449608834276814 -0.030018469052592648 0 -0.0073108207708320449 -0.028911214834680222 0 -0.0084513898320082419 -0.028807485085653506 0 -0.0073108207708320449 -0.028911214834680222 0 -0.0077235433991698589 -0.028067745815770033 0 -0.0084489603614698004 -0.028880586305284294 0 -0.0081739850506903963 -0.029282276388007015 0 -0.0088681391161102123 -0.028333146784699694 0 -0.0086665335272163007 -0.028584093445635773 0 -0.0091812911506500908 -0.028626453337575356 0 -0.0086665335272163007 -0.028584093445635773 0 -0.0084513898320082419 -0.028807485085653506 0 -0.0091812911506500908 -0.028626453337575356 0 -0.0078257682321279318 -0.029580020441551377 0 -0.0081739850506903963 -0.029282276388007015 0 -0.0073108207708320449 -0.028911214834680222 0 -0.0066791467941748894 -0.028324991089030076 0 -0.0059262722301881478 -0.029380111029894705 0 -0.0071449608834276814 -0.030018469052592648 0 -0.0073108207708320449 -0.028911214834680222 0 -0.0059262722301881478 -0.029380111029894705 0 -0.0073108207708320449 -0.028911214834680222 0 -0.0066791467941748894 -0.028324991089030076 0 -0.0077235433991698589 -0.028067745815770033 0 -0.0077235433991698589 -0.028067745815770033 0 -0.0065849114008603733 -0.027323483184818288 0 -0.0078742855216564715 -0.027228769759021731 0 -0.0066791467941748894 -0.028324991089030076 0 -0.0077235433991698589 -0.028067745815770033 0 -0.0065849114008603733 -0.027323483184818288 0 -0.0065849114008603733 -0.027323483184818288 0 -0.0073147856550080078 -0.02656662047970787 0 -0.0064414709381040471 -0.026393128408870658 0 -0.0065849114008603733 -0.027323483184818288 0 -0.0078742855216564715 -0.027228769759021731 0 -0.0073147856550080078 -0.02656662047970787 0 -0.0078742855216564715 -0.027228769759021731 0 -0.0073147856550080078 -0.02656662047970787 0 -0.008170006505844157 -0.02619057870275519 0 -0.0073147856550080078 -0.02656662047970787 0 -0.007134231775841251 -0.025791235430730416 0 -0.008170006505844157 -0.02619057870275519 0 -0.0073147856550080078 -0.02656662047970787 0 -0.0064414709381040471 -0.026393128408870658 0 -0.007134231775841251 -0.025791235430730416 0 -0.0064414709381040471 -0.026393128408870658 0 -0.007134231775841251 -0.025791235430730416 0 -0.0059241331706291226 -0.025764221592595438 0 -0.007134231775841251 -0.025791235430730416 0 -0.0082491724980357298 -0.024999821617737294 0 -0.008170006505844157 -0.02619057870275519 0 -0.0067655131720870017 -0.024999803791092109 0 -0.007134231775841251 -0.025791235430730416 0 -0.0059241331706291226 -0.025764221592595438 0 -0.0067655131720870017 -0.024999803791092109 0 -0.007134231775841251 -0.025791235430730416 0 -0.0082491724980357298 -0.024999821617737294 0 -0.0082491724980357298 -0.024999821617737294 0 -0.0090857905647647279 -0.025602983335472205 0 -0.008170006505844157 -0.02619057870275519 0 -0.0082491724980357298 -0.024999821617737294 0 -0.0090857905647647279 -0.025602983335472205 0 -0.0097322929669648971 -0.024999698418474492 0 -0.0090857905647647279 -0.025602983335472205 0 -0.008170006505844157 -0.02619057870275519 0 -0.0094732008203180212 -0.026316567013271869 0 -0.008170006505844157 -0.02619057870275519 0 -0.0088123333450463356 -0.027027372336624143 0 -0.0094732008203180212 -0.026316567013271869 0 -0.0078742855216564715 -0.027228769759021731 0 -0.008170006505844157 -0.02619057870275519 0 -0.0088123333450463356 -0.027027372336624143 0 -0.0088123333450463356 -0.027027372336624143 0 -0.0095494268436376734 -0.027263859539959735 0 -0.0094732008203180212 -0.026316567013271869 0 -0.0098934074642678272 -0.027067506725267546 0 -0.0095004525737707683 -0.026323201186807418 0 -0.011644499071825092 -0.026954479744638243 0 -0.010278756102528966 -0.026962999141770101 0 -0.010940252191391543 -0.026369760354228534 0 -0.011068447291822096 -0.026426392464771267 0 -0.010374392341474739 -0.025741484571295065 0 -0.010940252191391543 -0.026369760354228534 0 -0.0094732008203180212 -0.026316567013271869 0 -0.010239726614617141 -0.025674861380226021 0 -0.010278756102528966 -0.026962999141770101 0 -0.010940252191391543 -0.026369760354228534 0 -0.0094732008203180212 -0.026316567013271869 0 -0.0090857905647647279 -0.025602983335472205 0 -0.0094732008203180212 -0.026316567013271869 0 -0.010239726614617141 -0.025674861380226021 0 -0.0090857905647647279 -0.025602983335472205 0 -0.0097322929669648971 -0.024999698418474492 0 -0.010239726614617141 -0.025674861380226021 0 -0.0097327240731785083 -0.025000117557272414 0 -0.010374392341474739 -0.025741484571295065 0 -0.0097328456724768524 -0.024999959432932005 0 -0.010501713611847908 -0.025835528261785527 0 -0.011095332416280941 -0.0249998358706577 0 -0.010501713611847908 -0.025835528261785527 0 -0.011474233049809287 -0.025871274286656126 0 -0.011095332416280941 -0.0249998358706577 0 -0.01118682288028631 -0.026464389181415939 0 -0.010501713611847908 -0.025835528261785527 0 -0.011474233049809287 -0.025871274286656126 0 -0.011474233049809287 -0.025871274286656126 0 -0.011095332416280941 -0.0249998358706577 0 -0.012457588412585414 -0.024999898550212573 0 -0.011474233049809287 -0.025871274286656126 0 -0.012457588412585414 -0.024999898550212573 0 -0.012440004028581439 -0.02604991406424341 0 -0.011474233049809287 -0.025871274286656126 0 -0.012440004028581439 -0.02604991406424341 0 -0.012123047458002989 -0.026589595975962898 0 -0.01118682288028631 -0.026464389181415939 0 -0.011474233049809287 -0.025871274286656126 0 -0.012123047458002989 -0.026589595975962898 0 -0.011578587371854597 -0.026946491874586229 0 -0.011068447291822096 -0.026426392464771267 0 -0.011644499071825092 -0.026954479744638243 0 -0.01118682288028631 -0.026464389181415939 0 -0.012123047458002989 -0.026589595975962898 0 -0.012703985639509497 -0.026971677510309416 0 -0.011644499071825092 -0.026954479744638243 0 -0.012123047458002989 -0.026589595975962898 0 -0.0012611583549202545 -0.027966244631393616 0 -0.0010175411311712057 -0.028625741136847453 0 -0.0024858958988287229 -0.028052840958493294 0 -0.0024660891638374378 -0.029063807102618775 0 -0.0035497542536713522 -0.028586449259496553 0 -0.0013034513180075018 -0.027974665392968869 0 -0.0024858958988287229 -0.028052840958493294 0 -0.0024660891638374378 -0.029063807102618775 0 -0.0024858958988287229 -0.028052840958493294 0 -0.0017950418593310135 -0.027112569954809533 0 -0.0027843258956155672 -0.027309309453007774 0 -0.0013034513180075018 -0.027974665392968869 0 -0.00058059801595916323 -0.027297950426904447 0 -0.0017950418593310135 -0.027112569954809533 0 -0.0013034513180075018 -0.027974665392968869 0 -0.0024858958988287229 -0.028052840958493294 0 -0.0017950418593310135 -0.027112569954809533 0 -0.00058059801595916323 -0.027297950426904447 0 -4.9864719446923757e-05 -0.027872383786362104 0 0.00066201812679208725 -0.027170620664101426 0 -0.0013034513180075018 -0.027974665392968869 0 -4.9864719446923757e-05 -0.027872383786362104 0 -0.00058757456620263794 -0.02821416532831611 0 -0.0013034513180075018 -0.027974665392968869 0 -0.00058059801595916323 -0.027297950426904447 0 -4.9864719446923757e-05 -0.027872383786362104 0 -4.9864719446923757e-05 -0.027872383786362104 0 4.537714998242637e-05 -0.028213764319255978 0 -0.00058757456620263794 -0.02821416532831611 0 -4.9864719446923757e-05 -0.027872383786362104 0 4.537714998242637e-05 -0.028213764319255978 0 0.00045542892509749038 -0.028096443198841931 0 -0.00010144563276822111 -0.028360136552495953 0 4.537714998242637e-05 -0.028213764319255978 0 0.00047783645138070753 -0.028320036544543355 0 4.537714998242637e-05 -0.028213764319255978 0 0.00045542892509749038 -0.028096443198841931 0 0.00047783645138070753 -0.028320036544543355 0 -0.00010144563276822111 -0.028360136552495953 0 4.537714998242637e-05 -0.028213764319255978 0 -0.00058757456620263794 -0.02821416532831611 0 -0.00082196558986841293 -0.028973326180006382 0 -0.0010175411311712057 -0.028625741136847453 0 -0.0015333029907002159 -0.029770993133489417 0 -0.0019559467453279964 -0.029543838080835501 0 -0.0014030704275440648 -0.029144224370334572 0 -0.0019559467453279964 -0.029543838080835501 0 -0.0014030704275440648 -0.029144224370334572 0 -0.0024660891638374378 -0.029063807102618775 0 -0.0013034513180075018 -0.027974665392968869 0 -0.0014030704275440648 -0.029144224370334572 0 -0.0024660891638374378 -0.029063807102618775 0 -0.0024708015165776989 -0.029134562551291855 0 -0.0026794524972284552 -0.029844968837023918 0 -0.0020258583663120729 -0.030023169383785714 0 -0.0019559467453279964 -0.029543838080835501 0 -0.0024114448656084955 -0.029607526604058038 0 -0.0019559467453279964 -0.029543838080835501 0 -0.0024660891638374378 -0.029063807102618775 0 -0.0024114448656084955 -0.029607526604058038 0 -0.0029580529208657522 -0.030217141569427917 0 -0.0044191690059318329 -0.03044350947002377 0 -0.0036138094799194964 -0.02942200951959607 0 -0.0045992580206919579 -0.029029804009215628 0 -0.0036138094799194964 -0.02942200951959607 0 -0.0035497542536713522 -0.028586449259496553 0 -0.0044191690059318329 -0.03044350947002377 0 -0.0045992580206919579 -0.029029804009215628 0 -0.0036138094799194964 -0.02942200951959607 0 -0.0024660891638374378 -0.029063807102618775 0 -0.0036138094799194964 -0.02942200951959607 0 -0.0035497542536713522 -0.028586449259496553 0 -0.0024660891638374378 -0.029063807102618775 0 -0.0029580529208657522 -0.030217141569427917 0 -0.0036138094799194964 -0.02942200951959607 0 -0.0059769062678046167 -0.030834985669379117 0 -0.0071449608834276814 -0.030018469052592648 0 -0.0059262722301881478 -0.029380111029894705 0 -0.0059769062678046167 -0.030834985669379117 0 -0.0044191690059318329 -0.03044350947002377 0 -0.0059262722301881478 -0.029380111029894705 0 -0.0045992580206919579 -0.029029804009215628 0 -0.0059262722301881478 -0.029380111029894705 0 -0.005536406101299257 -0.028235614149287103 0 -0.0044191690059318329 -0.03044350947002377 0 -0.0045992580206919579 -0.029029804009215628 0 -0.0059262722301881478 -0.029380111029894705 0 -0.0066791467941748894 -0.028324991089030076 0 -0.0059262722301881478 -0.029380111029894705 0 -0.005536406101299257 -0.028235614149287103 0 -0.0045992580206919579 -0.029029804009215628 0 -0.005536406101299257 -0.028235614149287103 0 -0.0044639691976155697 -0.027999688617875815 0 -0.005536406101299257 -0.028235614149287103 0 -0.0053637513540314942 -0.027383042703989984 0 -0.0044639691976155697 -0.027999688617875815 0 -0.0065849114008603733 -0.027323483184818288 0 -0.005536406101299257 -0.028235614149287103 0 -0.0053637513540314942 -0.027383042703989984 0 -0.0066791467941748894 -0.028324991089030076 0 -0.0065849114008603733 -0.027323483184818288 0 -0.005536406101299257 -0.028235614149287103 0 -0.0024858958988287229 -0.028052840958493294 0 -0.0035497542536713522 -0.028586449259496553 0 -0.0035362712292911478 -0.027820757535039445 0 -0.0045992580206919579 -0.029029804009215628 0 -0.0035497542536713522 -0.028586449259496553 0 -0.0044639691976155697 -0.027999688617875815 0 -0.0035497542536713522 -0.028586449259496553 0 -0.0044639691976155697 -0.027999688617875815 0 -0.0035362712292911478 -0.027820757535039445 0 -0.0053637513540314942 -0.027383042703989984 0 -0.0044639691976155697 -0.027999688617875815 0 -0.0041701252684725612 -0.027091466297527945 0 -0.0044639691976155697 -0.027999688617875815 0 -0.0035362712292911478 -0.027820757535039445 0 -0.0041701252684725612 -0.027091466297527945 0 -0.0024858958988287229 -0.028052840958493294 0 -0.0035362712292911478 -0.027820757535039445 0 -0.0027843258956155672 -0.027309309453007774 0 -0.0035362712292911478 -0.027820757535039445 0 -0.0041701252684725612 -0.027091466297527945 0 -0.0027843258956155672 -0.027309309453007774 0 -0.0041701252684725612 -0.027091466297527945 0 -0.0030565214809574483 -0.026606642912577749 0 -0.0027843258956155672 -0.027309309453007774 0 -0.0041701252684725612 -0.027091466297527945 0 -0.0030565214809574483 -0.026606642912577749 0 -0.0043573426197967714 -0.02592294500582017 0 -0.0041701252684725612 -0.027091466297527945 0 -0.0054968831828609791 -0.026621001794576677 0 -0.0043573426197967714 -0.02592294500582017 0 -0.0065849114008603733 -0.027323483184818288 0 -0.0064414709381040471 -0.026393128408870658 0 -0.0054968831828609791 -0.026621001794576677 0 -0.0065849114008603733 -0.027323483184818288 0 -0.0053637513540314942 -0.027383042703989984 0 -0.0054968831828609791 -0.026621001794576677 0 -0.0053637513540314942 -0.027383042703989984 0 -0.0041701252684725612 -0.027091466297527945 0 -0.0054968831828609791 -0.026621001794576677 0 -0.0064414709381040471 -0.026393128408870658 0 -0.0054968831828609791 -0.026621001794576677 0 -0.0059241331706291226 -0.025764221592595438 0 -0.0054968831828609791 -0.026621001794576677 0 -0.0059241331706291226 -0.025764221592595438 0 -0.0043573426197967714 -0.02592294500582017 0 -0.0059241331706291226 -0.025764221592595438 0 -0.0052819423568126944 -0.024999775743206627 0 -0.0043573426197967714 -0.02592294500582017 0 -0.0067655131720870017 -0.024999803791092109 0 -0.0059241331706291226 -0.025764221592595438 0 -0.0052819423568126944 -0.024999775743206627 0 -0.0030565214809574483 -0.026606642912577749 0 -0.0043573426197967714 -0.02592294500582017 0 -0.0029883123087572879 -0.025706034949366047 0 -0.0052819423568126944 -0.024999775743206627 0 -0.0043573426197967714 -0.02592294500582017 0 -0.0037982973258139808 -0.024999773970014828 0 -0.0043573426197967714 -0.02592294500582017 0 -0.0037982973258139808 -0.024999773970014828 0 -0.0029883123087572879 -0.025706034949366047 0 -0.0037982973258139808 -0.024999773970014828 0 -0.0023146738007787529 -0.024999775085434228 0 -0.0029883123087572879 -0.025706034949366047 0 -0.0023146738007787529 -0.024999775085434228 0 -0.0016527120412339654 -0.026046421269413363 0 -0.0008311326826691565 -0.02499980949363784 0 -0.0030565214809574483 -0.026606642912577749 0 -0.0016527120412339654 -0.026046421269413363 0 -0.0029883123087572879 -0.025706034949366047 0 -0.0023146738007787529 -0.024999775085434228 0 -0.0016527120412339654 -0.026046421269413363 0 -0.0029883123087572879 -0.025706034949366047 0 -0.0030565214809574483 -0.026606642912577749 0 -0.0016527120412339654 -0.026046421269413363 0 -0.0017950418593310135 -0.027112569954809533 0 -0.0016527120412339654 -0.026046421269413363 0 -0.0017950418593310135 -0.027112569954809533 0 -0.00094430526157775988 -0.026690121880129408 0 -0.0030565214809574483 -0.026606642912577749 0 -0.0017950418593310135 -0.027112569954809533 0 -0.0027843258956155672 -0.027309309453007774 0 -0.00058059801595916323 -0.027297950426904447 0 -2.8568798523280757e-05 -0.026630954787399266 0 0.00066201812679208725 -0.027170620664101426 0 -0.00058059801595916323 -0.027297950426904447 0 -0.00094430526157775988 -0.026690121880129408 0 -2.8568798523280757e-05 -0.026630954787399266 0 -0.00058059801595916323 -0.027297950426904447 0 -0.0017950418593310135 -0.027112569954809533 0 -0.00094430526157775988 -0.026690121880129408 0 -0.0016527120412339654 -0.026046421269413363 0 -0.00094430526157775988 -0.026690121880129408 0 -0.00051269045065227624 -0.025910462476329006 0 -0.00094430526157775988 -0.026690121880129408 0 -2.8568798523280757e-05 -0.026630954787399266 0 -0.00051269045065227624 -0.025910462476329006 0 -2.8568798523280757e-05 -0.026630954787399266 0 -0.00051269045065227624 -0.025910462476329006 0 0.00054822709453072112 -0.025969124679845471 0 -0.0016527120412339654 -0.026046421269413363 0 -0.00051269045065227624 -0.025910462476329006 0 -0.0008311326826691565 -0.02499980949363784 0 -0.00051269045065227624 -0.025910462476329006 0 -0.0008311326826691565 -0.02499980949363784 0 0.00065229791848173135 -0.024999878496882781 0 0.00065229791848173135 -0.024999878496882781 0 0.0021354644882207855 -0.025000010010397332 0 0.0016550128164395841 -0.026058771139214523 0 0.00065229791848173135 -0.024999878496882781 0 0.00054822709453072112 -0.025969124679845471 0 0.0016550128164395841 -0.026058771139214523 0 -0.00051269045065227624 -0.025910462476329006 0 0.00065229791848173135 -0.024999878496882781 0 0.00054822709453072112 -0.025969124679845471 0 0.0021354644882207855 -0.025000010010397332 0 0.0027247100320231532 -0.02618974478342008 0 0.0036189503738869233 -0.024999864915982346 0 0.0021354644882207855 -0.025000010010397332 0 0.0016550128164395841 -0.026058771139214523 0 0.0027247100320231532 -0.02618974478342008 0 0.0016550128164395841 -0.026058771139214523 0 0.0020767270204503051 -0.026417173347813995 0 0.0027247100320231532 -0.02618974478342008 0 0.0020767270204503051 -0.026417173347813995 0 0.0016169810678182818 -0.026759988237764345 0 0.0022408200509457035 -0.026633985573663609 0 0.0020767270204503051 -0.026417173347813995 0 0.0022408200509457035 -0.026633985573663609 0 0.0027247100320231532 -0.02618974478342008 0 0.0016550128164395841 -0.026058771139214523 0 0.0020767270204503051 -0.026417173347813995 0 0.0016169810678182818 -0.026759988237764345 0 0.0016550128164395841 -0.026058771139214523 0 0.0016169810678182818 -0.026759988237764345 0 0.00090293320241685777 -0.026537029401331614 0 0.0016169810678182818 -0.026759988237764345 0 0.0020160190085720207 -0.026912364000986327 0 0.0022408200509457035 -0.026633985573663609 0 -2.8568798523280757e-05 -0.026630954787399266 0 0.00054822709453072112 -0.025969124679845471 0 0.00090293320241685777 -0.026537029401331614 0 0.00054822709453072112 -0.025969124679845471 0 0.0016550128164395841 -0.026058771139214523 0 0.00090293320241685777 -0.026537029401331614 0 0.0016169810678182818 -0.026759988237764345 0 0.00090293320241685777 -0.026537029401331614 0 0.00066201812679208725 -0.027170620664101426 0 -2.8568798523280757e-05 -0.026630954787399266 0 0.00090293320241685777 -0.026537029401331614 0 0.00066201812679208725 -0.027170620664101426 0 -4.9864719446923757e-05 -0.027872383786362104 0 0.00066201812679208725 -0.027170620664101426 0 0.00087597187120558588 -0.027648230347736481 0 0.00087597187120558588 -0.027648230347736481 0 0.0015901969910637002 -0.027240449304601379 0 0.0013637283026275869 -0.027559676989907335 0 0.0016169810678182818 -0.026759988237764345 0 0.00066201812679208725 -0.027170620664101426 0 0.0015901969910637002 -0.027240449304601379 0 0.00066201812679208725 -0.027170620664101426 0 0.00087597187120558588 -0.027648230347736481 0 0.0015901969910637002 -0.027240449304601379 0 0.0016169810678182818 -0.026759988237764345 0 0.0020160190085720207 -0.026912364000986327 0 0.0015901969910637002 -0.027240449304601379 0 0.0020160190085720207 -0.026912364000986327 0 0.0015901969910637002 -0.027240449304601379 0 0.0020936072729187565 -0.027055964000672797 0 0.0015901969910637002 -0.027240449304601379 0 0.0016495788371151388 -0.02748189190640991 0 0.0020936072729187565 -0.027055964000672797 0 0.0015901969910637002 -0.027240449304601379 0 0.0013637283026275869 -0.027559676989907335 0 0.0016495788371151388 -0.02748189190640991 0 0.0013637283026275869 -0.027559676989907335 0 0.0016495788371151388 -0.02748189190640991 0 0.0013627568220186332 -0.027662798280452719 0 0.0016495788371151388 -0.02748189190640991 0 0.0018087174478221969 -0.027450683643887881 0 0.0020457402601193821 -0.027251709571416934 0 0.0018087174478221969 -0.027450683643887881 0 0.0016781326370575438 -0.027558865302372049 0 0.0017512116189482925 -0.027540380089668148 0 0.0016495788371151388 -0.02748189190640991 0 0.0018087174478221969 -0.027450683643887881 0 0.0016781326370575438 -0.027558865302372049 0 0.0016495788371151388 -0.02748189190640991 0 0.0016781326370575438 -0.027558865302372049 0 0.0015507268042806693 -0.027624639400765781 0 0.0016495788371151388 -0.02748189190640991 0 0.0015507268042806693 -0.027624639400765781 0 0.0013627568220186332 -0.027662798280452719 0 0.00079476250447223966 -0.028166304171027549 0 0.00045542892509749038 -0.028096443198841931 0 0.00047783645138070753 -0.028320036544543355 0 -4.9864719446923757e-05 -0.027872383786362104 0 0.00087597187120558588 -0.027648230347736481 0 0.00045542892509749038 -0.028096443198841931 0 0.00087597187120558588 -0.027648230347736481 0 0.00079476250447223966 -0.028166304171027549 0 0.00045542892509749038 -0.028096443198841931 0 0.00087597187120558588 -0.027648230347736481 0 0.0013637283026275869 -0.027559676989907335 0 0.0013627568220186332 -0.027662798280452719 0 0.00089420757822342178 -0.027625255932375661 0 0.0010710726968078824 -0.027885751577898795 0 0.0023527567495899189 -0.027166234286768336 0 0.0025008420568426995 -0.027080259575938018 0 0.0023354282107942111 -0.0270977329125472 0 0.0023527567495899189 -0.027166234286768336 0 0.0025008420568426995 -0.027080259575938018 0 0.0025067848261218525 -0.027154795127364351 0 0.0025008420568426995 -0.027080259575938018 0 0.0025067848261218525 -0.027154795127364351 0 0.0026405913457891992 -0.027095997023481762 0 0.0025067848261218525 -0.027154795127364351 0 0.0026571046045753186 -0.027137384730082301 0 0.0026405913457891992 -0.027095997023481762 0 0.0026571046045753186 -0.027137384730082301 0 0.0025825349143396813 -0.027176093612957246 0 0.002852789957312325 -0.027027075062753664 0 0.0025067848261218525 -0.027154795127364351 0 0.0026571046045753186 -0.027137384730082301 0 0.0025825349143396813 -0.027176093612957246 0 0.0025067848261218525 -0.027154795127364351 0 0.0025825349143396813 -0.027176093612957246 0 0.0023742643169621966 -0.027286732835825694 0 0.0023527567495899189 -0.027166234286768336 0 0.0025067848261218525 -0.027154795127364351 0 0.0022115348360962281 -0.027294763559542162 0 0.0025067848261218525 -0.027154795127364351 0 0.0022115348360962281 -0.027294763559542162 0 0.0023742643169621966 -0.027286732835825694 0 0.0022115348360962281 -0.027294763559542162 0 0.0019596450881502773 -0.027396224002387788 0 0.0019606031098558601 -0.027475486437977092 0 0.0022115348360962281 -0.027294763559542162 0 0.0019596450881502773 -0.027396224002387788 0 0.0021747956981055892 -0.027240934107323433 0 0.0018087174478221969 -0.027450683643887881 0 0.0019596450881502773 -0.027396224002387788 0 0.0017512116189482925 -0.027540380089668148 0 0.0018087174478221969 -0.027450683643887881 0 0.0019596450881502773 -0.027396224002387788 0 0.0020457402601193821 -0.027251709571416934 0 0.0019596450881502773 -0.027396224002387788 0 0.0020457402601193821 -0.027251709571416934 0 0.0021747956981055892 -0.027240934107323433 0 0.0020457402601193821 -0.027251709571416934 0 0.0021747956981055892 -0.027240934107323433 0 0.0023354282107942111 -0.0270977329125472 0 0.0023527567495899189 -0.027166234286768336 0 0.0022115348360962281 -0.027294763559542162 0 0.0021747956981055892 -0.027240934107323433 0 0.0023527567495899189 -0.027166234286768336 0 0.0021747956981055892 -0.027240934107323433 0 0.0023354282107942111 -0.0270977329125472 0 0.0020457402601193821 -0.027251709571416934 0 0.0023354282107942111 -0.0270977329125472 0 0.0022698830435649159 -0.027027518296089893 0 0.0023354282107942111 -0.0270977329125472 0 0.0022698830435649159 -0.027027518296089893 0 0.0024482542086133458 -0.02688972584809475 0 0.0020457402601193821 -0.027251709571416934 0 0.0022698830435649159 -0.027027518296089893 0 0.0020936072729187565 -0.027055964000672797 0 0.0016495788371151388 -0.02748189190640991 0 0.0020457402601193821 -0.027251709571416934 0 0.0020936072729187565 -0.027055964000672797 0 0.0020160190085720207 -0.026912364000986327 0 0.0020936072729187565 -0.027055964000672797 0 0.0023298920220188521 -0.026810358188545182 0 0.0022698830435649159 -0.027027518296089893 0 0.0020936072729187565 -0.027055964000672797 0 0.0023298920220188521 -0.026810358188545182 0 0.0022698830435649159 -0.027027518296089893 0 0.0024482542086133458 -0.02688972584809475 0 0.0023298920220188521 -0.026810358188545182 0 0.0024482542086133458 -0.02688972584809475 0 0.0025018167424298013 -0.026977559838851237 0 0.0026245479148718897 -0.02679574102956939 0 0.0025008420568426995 -0.027080259575938018 0 0.0023354282107942111 -0.0270977329125472 0 0.0025018167424298013 -0.026977559838851237 0 0.0023354282107942111 -0.0270977329125472 0 0.0024482542086133458 -0.02688972584809475 0 0.0025018167424298013 -0.026977559838851237 0 0.0038554017901659852 -0.026619424558606074 0 0.0039938819240965817 -0.026980991170591818 0 0.0025008420568426995 -0.027080259575938018 0 0.0026159342141226154 -0.026969065022644755 0 0.0026405913457891992 -0.027095997023481762 0 0.0025008420568426995 -0.027080259575938018 0 0.0025018167424298013 -0.026977559838851237 0 0.0026159342141226154 -0.026969065022644755 0 0.0025018167424298013 -0.026977559838851237 0 0.0026159342141226154 -0.026969065022644755 0 0.0026245479148718897 -0.02679574102956939 0 0.0052908674879492612 -0.026564974864912817 0 0.0052494934938312615 -0.026411506065262425 0 0.0053751852536858763 -0.026477540704319416 0 0.0038554017901659852 -0.026619424558606074 0 0.0048840615490819616 -0.027159295892320922 0 0.0057315341515970213 -0.027825415848069929 0 0.0061546732019363403 -0.026945780155056238 0 0.0066178700944565603 -0.027621477537166077 0 0.0048840615490819616 -0.027159295892320922 0 0.0060507478829831375 -0.02746977565845124 0 0.0024482542086133458 -0.02688972584809475 0 0.0026245479148718897 -0.02679574102956939 0 0.0025372020955405435 -0.026675757084503409 0 0.0048840615490819616 -0.027159295892320922 0 0.0035735631369409565 -0.027022331930037956 0 0.0057260864615819715 -0.028008280857978188 0 0.0047983414637067243 -0.027426838207173898 0 0.0053409550149928061 -0.026453542747667948 0 0.0047983414637067243 -0.027426838207173898 0 0.0038506921546623482 -0.026872318172013576 0 0.0053409550149928061 -0.026453542747667948 0 0.0057315341515970213 -0.027825415848069929 0 0.0061546732019363403 -0.026945780155056238 0 0.0053409550149928061 -0.026453542747667948 0 0.0048840615490819616 -0.027159295892320922 0 0.0056297066629212907 -0.026868436988067533 0 0.0022408200509457035 -0.026633985573663609 0 0.0023298920220188521 -0.026810358188545182 0 0.0025169672942584051 -0.026492678865876418 0 0.0020160190085720207 -0.026912364000986327 0 0.0022408200509457035 -0.026633985573663609 0 0.0023298920220188521 -0.026810358188545182 0 0.0024482542086133458 -0.02688972584809475 0 0.0025372020955405435 -0.026675757084503409 0 0.0023298920220188521 -0.026810358188545182 0 0.0025372020955405435 -0.026675757084503409 0 0.0023298920220188521 -0.026810358188545182 0 0.0025169672942584051 -0.026492678865876418 0 0.0035735631369409565 -0.027022331930037956 0 0.0031829642261625006 -0.026658972799464442 0 0.0022408200509457035 -0.026633985573663609 0 0.0025169672942584051 -0.026492678865876418 0 0.0027247100320231532 -0.02618974478342008 0 0.0038506921546623482 -0.026872318172013576 0 0.0027247100320231532 -0.02618974478342008 0 0.0043647490035965799 -0.025838006250052552 0 0.0031829642261625006 -0.026658972799464442 0 0.0027214951928475426 -0.026244421544158486 0 0.0038506921546623482 -0.026872318172013576 0 0.0043647490035965799 -0.025838006250052552 0 0.0053409550149928061 -0.026453542747667948 0 0.0043647490035965799 -0.025838006250052552 0 0.0036189503738869233 -0.024999864915982346 0 0.0051029835268147162 -0.024999993687688033 0 0.0027247100320231532 -0.02618974478342008 0 0.0043647490035965799 -0.025838006250052552 0 0.0036189503738869233 -0.024999864915982346 0 0.0061546732019363403 -0.026945780155056238 0 0.0053409550149928061 -0.026453542747667948 0 0.0062919629161011506 -0.026011625229492331 0 0.0053409550149928061 -0.026453542747667948 0 0.0051029835268147162 -0.024999993687688033 0 0.0062919629161011506 -0.026011625229492331 0 0.0043647490035965799 -0.025838006250052552 0 0.0053409550149928061 -0.026453542747667948 0 0.0051029835268147162 -0.024999993687688033 0 0.0051029835268147162 -0.024999993687688033 0 0.0065864810754404117 -0.025000000241461959 0 0.0062919629161011506 -0.026011625229492331 0 0.0065864810754404117 -0.025000000241461959 0 0.0062919629161011506 -0.026011625229492331 0 0.0076330541478004509 -0.026019811354091368 0 0.0062919629161011506 -0.026011625229492331 0 0.0076330541478004509 -0.026019811354091368 0 0.0069474451651540788 -0.026842771124026926 0 0.0065864810754404117 -0.025000000241461959 0 0.0076330541478004509 -0.026019811354091368 0 0.0080700453729317286 -0.025000022131004499 0 0.0076330541478004509 -0.026019811354091368 0 0.0080700453729317286 -0.025000022131004499 0 0.0086456562258513895 -0.0256884324694658 0 0.0080700453729317286 -0.025000022131004499 0 0.0086456562258513895 -0.0256884324694658 0 0.0095536122084257241 -0.024999883938354159 0 0.0086456562258513895 -0.0256884324694658 0 0.0093309026611492745 -0.025892611131598652 0 0.0095536122084257241 -0.024999883938354159 0 0.0086456562258513895 -0.0256884324694658 0 0.0093309026611492745 -0.025892611131598652 0 0.0086358749155430736 -0.026556343386169134 0 0.0093309026611492745 -0.025892611131598652 0 0.0086358749155430736 -0.026556343386169134 0 0.0098582360348317619 -0.026613525097130636 0 0.0076330541478004509 -0.026019811354091368 0 0.0086358749155430736 -0.026556343386169134 0 0.0078886247020775822 -0.027099443611648559 0 0.0076330541478004509 -0.026019811354091368 0 0.0086456562258513895 -0.0256884324694658 0 0.0086358749155430736 -0.026556343386169134 0 0.0086358749155430736 -0.026556343386169134 0 0.0078886247020775822 -0.027099443611648559 0 0.0087334596873905115 -0.027474756526079853 0 0.0095913329080100397 -0.026076034162366372 0 0.011283611854021961 -0.025791794332932879 0 0.0086333789977676191 -0.027127374845176407 0 0.0095913329080100397 -0.026076034162366372 0 0.0086358749155430736 -0.026556343386169134 0 0.0087691587093135567 -0.027548625697323741 0 0.0098582360348317619 -0.026613525097130636 0 0.0095913329080100397 -0.026076034162366372 0 0.011203986421451624 -0.024545514811179382 0 0.012484003087906951 -0.024850556379180856 0 0.012321049398108118 -0.024807353000508865 0 0.012446681417272005 -0.024667875349314524 0 0.0078886247020775822 -0.027099443611648559 0 0.0087334596873905115 -0.027474756526079853 0 0.0080064310277722893 -0.028129247806005748 0 0.0087520814599254034 -0.024976483962478178 0 0.0080816876282279963 -0.025575574528904056 0 0.0088696381604759355 -0.02596713349562605 0 0.0095913329080100397 -0.026076034162366372 0 0.0079850310858542908 -0.026936216808107424 0 0.0072755122413022217 -0.027568736009594585 0 0.0071101694760120331 -0.028177407072292743 0 0.0080064310277722893 -0.028129247806005748 0 0.0078886247020775822 -0.027099443611648559 0 0.0072755122413022217 -0.027568736009594585 0 0.0080064310277722893 -0.028129247806005748 0 0.0057315341515970213 -0.027825415848069929 0 0.0066178700944565603 -0.027621477537166077 0 0.0065073410151797115 -0.028304297767263266 0 0.0072755122413022217 -0.027568736009594585 0 0.0066178700944565603 -0.027621477537166077 0 0.0071101694760120331 -0.028177407072292743 0 0.0072755122413022217 -0.027568736009594585 0 0.0066178700944565603 -0.027621477537166077 0 0.0069474451651540788 -0.026842771124026926 0 0.0066178700944565603 -0.027621477537166077 0 0.0065073410151797115 -0.028304297767263266 0 0.0071101694760120331 -0.028177407072292743 0 0.0061546732019363403 -0.026945780155056238 0 0.0062919629161011506 -0.026011625229492331 0 0.0069474451651540788 -0.026842771124026926 0 0.0061546732019363403 -0.026945780155056238 0 0.0066178700944565603 -0.027621477537166077 0 0.0069474451651540788 -0.026842771124026926 0 0.0076330541478004509 -0.026019811354091368 0 0.0078886247020775822 -0.027099443611648559 0 0.0069474451651540788 -0.026842771124026926 0 0.0078886247020775822 -0.027099443611648559 0 0.0072755122413022217 -0.027568736009594585 0 0.0069474451651540788 -0.026842771124026926 0 0.011873971156868744 -0.025549164903209416 0 0.011720258768364755 -0.025350768332490017 0 0.011524251197522151 -0.024986143171932724 0 0.011844072170901032 -0.025411371295446503 0 0.011865516149765566 -0.026121716726922862 0 0.011873971156868744 -0.025549164903209416 0 0.012219712307584611 -0.026575899890999625 0 0.012662093154506502 -0.025994864659238368 0 0.011873971156868744 -0.025549164903209416 0 0.012520213530308376 -0.024999741570989352 0 0.012662093154506502 -0.025994864659238368 0 0.011873971156868744 -0.025549164903209416 0 0.01159605360521049 -0.025402502624418073 0 0.012520213530308376 -0.024999741570989352 0 0.01159605360521049 -0.025402502624418073 0 0.011038187759212757 -0.024999897835042386 0 0.012520213530308376 -0.024999741570989352 0 0.01159605360521049 -0.025402502624418073 0 0.011038187759212757 -0.024999897835042386 0 0.011241350034535528 -0.025499836750891628 0 0.01159605360521049 -0.025402502624418073 0 0.011720258768364755 -0.025350768332490017 0 0.011241350034535528 -0.025499836750891628 0 0.011873971156868744 -0.025549164903209416 0 0.01159605360521049 -0.025402502624418073 0 0.011720258768364755 -0.025350768332490017 0 0.011204102878449517 -0.025537911175319318 0 0.011283611854021961 -0.025791794332932879 0 0.011783987422199969 -0.025222550096796817 0 0.011241350034535528 -0.025499836750891628 0 0.012344112361099059 -0.025073133272194466 0 0.011241350034535528 -0.025499836750891628 0 0.010232044653059134 -0.025550592342472048 0 0.0098582360348317619 -0.026613525097130636 0 0.011783987422199969 -0.025222550096796817 0 0.012344112361099059 -0.025073133272194466 0 0.012040398034277911 -0.024980097794159706 0 0.011720258768364755 -0.025350768332490017 0 0.011783987422199969 -0.025222550096796817 0 0.012040398034277911 -0.024980097794159706 0 0.011720258768364755 -0.025350768332490017 0 0.011783987422199969 -0.025222550096796817 0 0.011241350034535528 -0.025499836750891628 0 0.011038187759212757 -0.024999897835042386 0 0.011241350034535528 -0.025499836750891628 0 0.010232044653059134 -0.025550592342472048 0 0.011038187759212757 -0.024999897835042386 0 0.010232044653059134 -0.025550592342472048 0 0.0095536122084257241 -0.024999883938354159 0 0.0093309026611492745 -0.025892611131598652 0 0.010232044653059134 -0.025550592342472048 0 0.0095536122084257241 -0.024999883938354159 0 0.0093309026611492745 -0.025892611131598652 0 0.010232044653059134 -0.025550592342472048 0 0.0098582360348317619 -0.026613525097130636 0 0.012344112361099059 -0.025073133272194466 0 0.012321049398108118 -0.024807353000508865 0 0.012040398034277911 -0.024980097794159706 0 0.012484003087906951 -0.024850556379180856 0 0.012344112361099059 -0.025073133272194466 0 0.012321049398108118 -0.024807353000508865 0 0.012772126330862653 -0.024186093021313929 0 0.012301112251672927 -0.024255791525145218 0 0.012463521644412438 -0.02365127762868021 0 0.012301112251672927 -0.024255791525145218 0 0.012040398034277911 -0.024980097794159706 0 0.011916180848274463 -0.024846786174919627 0 0.012788404741168559 -0.024367660470640897 0 0.011978590472414442 -0.025029094922235002 0 0.012772126330862653 -0.024186093021313929 0 0.012301112251672927 -0.024255791525145218 0 0.012040398034277911 -0.024980097794159706 0 0.011720258768364755 -0.025350768332490017 0 0.011916180848274463 -0.024846786174919627 0 0.011524251197522151 -0.024986143171932724 0 0.011916180848274463 -0.024846786174919627 0 0.012052139877768996 -0.024371248947039625 0 0.011524251197522151 -0.024986143171932724 0 0.011720258768364755 -0.025350768332490017 0 0.012040398034277911 -0.024980097794159706 0 0.011916180848274463 -0.024846786174919627 0 0.012052139877768996 -0.024371248947039625 0 0.012020786932513575 -0.024027439941041891 0 0.012353092181957686 -0.023774792091155208 0 0.012301112251672927 -0.024255791525145218 0 0.011916180848274463 -0.024846786174919627 0 0.012052139877768996 -0.024371248947039625 0 0.012301112251672927 -0.024255791525145218 0 0.012052139877768996 -0.024371248947039625 0 0.012353092181957686 -0.023774792091155208 0 0.012976192340798439 -0.023806726019149134 0 0.011865516149765566 -0.026121716726922862 0 0.012020786932513575 -0.024027439941041891 0 0.011422564213304034 -0.024089207175983954 0 0.011524251197522151 -0.024986143171932724 0 0.012052139877768996 -0.024371248947039625 0 0.012020786932513575 -0.024027439941041891 0 0.011524251197522151 -0.024986143171932724 0 0.013095969648313671 -0.023569055123875172 0 0.013529216620106518 -0.023309505203765624 0 0.014349225823419154 -0.023578392178527668 0 0.013095969648313671 -0.023569055123875172 0 0.013539161941228365 -0.023891302195031154 0 0.014349225823419154 -0.023578392178527668 0 0.013043700429316961 -0.023734470637368946 0 0.013095969648313671 -0.023569055123875172 0 0.013539161941228365 -0.023891302195031154 0 0.012858447176697421 -0.023684575039606647 0 0.013095969648313671 -0.023569055123875172 0 0.01259458386818213 -0.023624323706100982 0 0.013043700429316961 -0.023734470637368946 0 0.012858447176697421 -0.023684575039606647 0 0.012690482553214111 -0.023848866765182324 0 0.013043700429316961 -0.023734470637368946 0 0.012858447176697421 -0.023684575039606647 0 0.013095969648313671 -0.023569055123875172 0 0.013095969648313671 -0.023569055123875172 0 0.012478168378589508 -0.023429251710107509 0 0.01259458386818213 -0.023624323706100982 0 0.013095969648313671 -0.023569055123875172 0 0.012478168378589508 -0.023429251710107509 0 0.013529216620106518 -0.023309505203765624 0 0.013292116621838827 -0.022376814954503409 0 0.012478168378589508 -0.023429251710107509 0 0.013529216620106518 -0.023309505203765624 0 0.012976192340798439 -0.023806726019149134 0 0.012371494631621929 -0.02334809088816955 0 0.012020786932513575 -0.024027439941041891 0 0.011422564213304034 -0.024089207175983954 0 0.012478168378589508 -0.023429251710107509 0 0.012478168378589508 -0.023429251710107509 0 0.012353092181957686 -0.023774792091155208 0 0.01259458386818213 -0.023624323706100982 0 0.012353092181957686 -0.023774792091155208 0 0.01259458386818213 -0.023624323706100982 0 0.012463521644412438 -0.02365127762868021 0 0.012020786932513575 -0.024027439941041891 0 0.012478168378589508 -0.023429251710107509 0 0.012353092181957686 -0.023774792091155208 0 0.01259458386818213 -0.023624323706100982 0 0.012463521644412438 -0.02365127762868021 0 0.012690482553214111 -0.023848866765182324 0 0.012463521644412438 -0.02365127762868021 0 0.012454671036918536 -0.02350759708318027 0 0.012472930359784494 -0.023496208877145916 0 0.012549934781924401 -0.02366387207147563 0 0.012383962161092166 -0.023683452985144994 0 0.012858447176697421 -0.023684575039606647 0 0.01259458386818213 -0.023624323706100982 0 0.012690482553214111 -0.023848866765182324 0 0.012463521644412438 -0.02365127762868021 0 0.012520141667934777 -0.023499921776259342 0 0.012483668636972409 -0.023522489799282318 0 0.012463521644412438 -0.02365127762868021 0 0.012483668636972409 -0.023522489799282318 0 0.012454671036918536 -0.02350759708318027 0 0.012463521644412438 -0.02365127762868021 0 0.012610472937494633 -0.023515370494036722 0 0.012520141667934777 -0.023499921776259342 0 0.012301112251672927 -0.024255791525145218 0 0.012353092181957686 -0.023774792091155208 0 0.012463521644412438 -0.02365127762868021 0 0.012772126330862653 -0.024186093021313929 0 0.012720162473440542 -0.023692212562807787 0 0.012941763533012185 -0.023794714203360927 0 0.012772126330862653 -0.024186093021313929 0 0.012463521644412438 -0.02365127762868021 0 0.012720162473440542 -0.023692212562807787 0 0.012720162473440542 -0.023692212562807787 0 0.012610472937494633 -0.023515370494036722 0 0.012804175482311943 -0.023460111848636368 0 0.012463521644412438 -0.02365127762868021 0 0.012720162473440542 -0.023692212562807787 0 0.012610472937494633 -0.023515370494036722 0 0.012610472937494633 -0.023515370494036722 0 0.012572012119505586 -0.023404248658198096 0 0.012804175482311943 -0.023460111848636368 0 0.013083838631113301 -0.023621035451951627 0 0.010561525657475068 -0.023895946066467263 0 0.012610472937494633 -0.023515370494036722 0 0.012572012119505586 -0.023404248658198096 0 0.012548451567770704 -0.023439774285978574 0 0.010924458805281475 -0.023014253018521329 0 0.0083776162659189787 -0.024777087421832881 0 0.012572012119505586 -0.023404248658198096 0 0.012558984642350638 -0.023399875237528841 0 0.012506410457820962 -0.023439249127105818 0 0.0091786306318260309 -0.022899315499305954 0 0.0065541584179740183 -0.022902220715105229 0 0.0078575650168752533 -0.023889032654883961 0 0.0091786306318260309 -0.022899315499305954 0 0.0091408943624755844 -0.024199191172131835 0 0.0078575650168752533 -0.023889032654883961 0 0.012572012119505586 -0.023404248658198096 0 0.012558984642350638 -0.023399875237528841 0 0.012548451567770704 -0.023439774285978574 0 0.012558984642350638 -0.023399875237528841 0 0.012548451567770704 -0.023439774285978574 0 0.012487044820864039 -0.023445553849860259 0 0.012548451567770704 -0.023439774285978574 0 0.012520141667934777 -0.023499921776259342 0 0.012487044820864039 -0.023445553849860259 0 0.012610472937494633 -0.023515370494036722 0 0.012548451567770704 -0.023439774285978574 0 0.012520141667934777 -0.023499921776259342 0 0.012520141667934777 -0.023499921776259342 0 0.012483668636972409 -0.023522489799282318 0 0.012487044820864039 -0.023445553849860259 0 0.012446250736200516 -0.023699364382458343 0 0.012942171342202538 -0.022961249834448579 0 0.012454671036918536 -0.02350759708318027 0 0.012487044820864039 -0.023445553849860259 0 0.012417018836252292 -0.023393311751530345 0 0.012454671036918536 -0.02350759708318027 0 0.012472930359784494 -0.023496208877145916 0 0.012485324086901685 -0.023753472714214068 0 0.012483668636972409 -0.023522489799282318 0 0.012454671036918536 -0.02350759708318027 0 0.012487044820864039 -0.023445553849860259 0 0.0091786306318260309 -0.022899315499305954 0 0.011759255322384888 -0.022907071321078207 0 0.0103734407352007 -0.024593779825371833 0 0.012558984642350638 -0.023399875237528841 0 0.012487044820864039 -0.023445553849860259 0 0.012417018836252292 -0.023393311751530345 0 0.010924458805281475 -0.023014253018521329 0 0.012942171342202538 -0.022961249834448579 0 0.012942171342202538 -0.022961249834448579 0 0.014785648358728344 -0.024016610106614201 0 0.012472930359784494 -0.023496208877145916 0 0.012485324086901685 -0.023753472714214068 0 0.012839050702699669 -0.02375986881049966 0 0.015396281988626224 -0.022716183638382348 0 0.015805952091807424 -0.023028933997945686 0 0.016097339349023361 -0.022716894750033419 0 0.012383962161092166 -0.023683452985144994 0 0.014785648358728344 -0.024016610106614201 0 0.012690482553214111 -0.023848866765182324 0 0.013539161941228365 -0.023891302195031154 0 0.014394251934649807 -0.024933128215439998 0 0.013043700429316961 -0.023734470637368946 0 0.012690482553214111 -0.023848866765182324 0 0.013539161941228365 -0.023891302195031154 0 0.0055418358436027737 -0.026650050986901073 0 0.0055236958775426899 -0.026533740749790258 0 0.0056977568750027118 -0.026630131398396175 0 0.0065592337845506192 -0.026903293945286535 0 0.0068719845026171816 -0.025542108408126169 0 0.0054708155798012664 -0.026582462796702597 0 0.0055418358436027737 -0.026650050986901073 0 0.0055236958775426899 -0.026533740749790258 0 0.0059832301183610831 -0.026965249848610592 0 0.0065592337845506192 -0.026903293945286535 0 0.0054708155798012664 -0.026582462796702597 0 0.0055418358436027737 -0.026650050986901073 0 0.0054393230731339644 -0.02668912596749767 0 0.0052908674879492612 -0.026564974864912817 0 0.0053821236417871598 -0.026627047455573573 0 0.0053258495674963898 -0.026748987833994875 0 0.0054708155798012664 -0.026582462796702597 0 0.0054393230731339644 -0.02668912596749767 0 0.0053821236417871598 -0.026627047455573573 0 0.0054393230731339644 -0.02668912596749767 0 0.0053821236417871598 -0.026627047455573573 0 0.0053258495674963898 -0.026748987833994875 0 0.0052908674879492612 -0.026564974864912817 0 0.0053821236417871598 -0.026627047455573573 0 0.0054059920425873591 -0.026559437624320718 0 0.0054708155798012664 -0.026582462796702597 0 0.0054059920425873591 -0.026559437624320718 0 0.0055137604996628791 -0.026547610512826 0 0.0054708155798012664 -0.026582462796702597 0 0.0053821236417871598 -0.026627047455573573 0 0.0054059920425873591 -0.026559437624320718 0 0.0054059920425873591 -0.026559437624320718 0 0.0053751852536858763 -0.026477540704319416 0 0.0055137604996628791 -0.026547610512826 0 0.0065073410151797115 -0.028304297767263266 0 0.0071101694760120331 -0.028177407072292743 0 0.0072793589237606631 -0.028780527532895072 0 0.0060507478829831375 -0.02746977565845124 0 0.0065592337845506192 -0.026903293945286535 0 0.0052908674879492612 -0.026564974864912817 0 0.0054059920425873591 -0.026559437624320718 0 0.0053751852536858763 -0.026477540704319416 0 0.0071101694760120331 -0.028177407072292743 0 0.0072793589237606631 -0.028780527532895072 0 0.0080064310277722893 -0.028129247806005748 0 0.0065592337845506192 -0.026903293945286535 0 0.0079850310858542908 -0.026936216808107424 0 0.0080816876282279963 -0.025575574528904056 0 0.0088696381604759355 -0.02596713349562605 0 0.0082038876193817421 -0.026674453761596734 0 0.0074072689381016544 -0.026184466605637818 0 0.0080816876282279963 -0.025575574528904056 0 0.0082038876193817421 -0.026674453761596734 0 0.012788404741168559 -0.024367660470640897 0 0.011203986421451624 -0.024545514811179382 0 0.0068719845026171816 -0.025542108408126169 0 0.010561525657475068 -0.023895946066467263 0 0.0097423795291749979 -0.024139946794298681 0 0.0092342931050354328 -0.024675700815764107 0 0.0098480770764094241 -0.025049118059782601 0 0.012720162473440542 -0.023692212562807787 0 0.012941763533012185 -0.023794714203360927 0 0.012804175482311943 -0.023460111848636368 0 0.011203986421451624 -0.024545514811179382 0 0.010561525657475068 -0.023895946066467263 0 0.011203986421451624 -0.024545514811179382 0 0.0068719845026171816 -0.025542108408126169 0 0.0058536082036382006 -0.02370362962902877 0 0.0064829446892880069 -0.025041903472595134 0 0.0055746366106701204 -0.025798888122141768 0 0.0058536082036382006 -0.02370362962902877 0 0.0064829446892880069 -0.025041903472595134 0 0.0071941677663599213 -0.024526871163874954 0 0.012572012119505586 -0.023404248658198096 0 0.012479328203001355 -0.023362412744220108 0 0.012506410457820962 -0.023439249127105818 0 0.010561525657475068 -0.023895946066467263 0 0.0083776162659189787 -0.024777087421832881 0 0.0064829446892880069 -0.025041903472595134 0 0.0071941677663599213 -0.024526871163874954 0 0.0073510432604617197 -0.025804196354507404 0 0.0083776162659189787 -0.024777087421832881 0 0.0051318549219131612 -0.025989941077892549 0 0.0067408994560055778 -0.025882584107581531 0 0.0055746366106701204 -0.025798888122141768 0 0.0062129039102908007 -0.026701134542655172 0 0.0064829446892880069 -0.025041903472595134 0 0.0073510432604617197 -0.025804196354507404 0 0.0055746366106701204 -0.025798888122141768 0 0.0055746366106701204 -0.025798888122141768 0 0.0044073967221868685 -0.025251979237546417 0 0.0044034776960535302 -0.026461006869031294 0 0.0055418358436027737 -0.026650050986901073 0 0.0054393230731339644 -0.02668912596749767 0 0.005495957196942603 -0.026830172405269765 0 0.0055418358436027737 -0.026650050986901073 0 0.0056977568750027118 -0.026630131398396175 0 0.005495957196942603 -0.026830172405269765 0 0.0068719845026171816 -0.025542108408126169 0 0.0047893443697553722 -0.025981154730069254 0 0.0058536082036382006 -0.02370362962902877 0 0.0055746366106701204 -0.025798888122141768 0 0.0044073967221868685 -0.025251979237546417 0 0.0054393230731339644 -0.02668912596749767 0 0.005495957196942603 -0.026830172405269765 0 0.0053258495674963898 -0.026748987833994875 0 0.005495957196942603 -0.026830172405269765 0 0.0053258495674963898 -0.026748987833994875 0 0.0053709073805433506 -0.026954427812340767 0 0.0026571046045753186 -0.027137384730082301 0 0.0026405913457891992 -0.027095997023481762 0 0.0027128464534614326 -0.027120284359293582 0 0.0044073967221868685 -0.025251979237546417 0 0.00345097914309248 -0.026227242181909791 0 0.0044034776960535302 -0.026461006869031294 0 0.0039938819240965817 -0.026980991170591818 0 0.0041279795322967253 -0.026888693577650488 0 0.0047893443697553722 -0.025981154730069254 0 0.0041279795322967253 -0.026888693577650488 0 0.0026571046045753186 -0.027137384730082301 0 0.0027128464534614326 -0.027120284359293582 0 0.002852789957312325 -0.027027075062753664 0 0.0036249460551782946 -0.027197416609760761 0 0.0044034776960535302 -0.026461006869031294 0 0.002852789957312325 -0.027027075062753664 0 0.00345097914309248 -0.026227242181909791 0 0.0044034776960535302 -0.026461006869031294 0 0.002852789957312325 -0.027027075062753664 0 0.0041279795322967253 -0.026888693577650488 0 0.003103193115364989 -0.027190394769853913 0 0.0036249460551782946 -0.027197416609760761 0 0.002852789957312325 -0.027027075062753664 0 0.0028750957649892575 -0.02752464609283738 0 0.0051145885119484556 -0.027360951141346328 0 0.0050135802411247028 -0.027721912589483925 0 0.004570291228407344 -0.027546412636389385 0 0.0044969981517299692 -0.027603086760947308 0 0.003337576879581439 -0.027562083205910807 0 0.0036249460551782946 -0.027197416609760761 0 0.003745432627343876 -0.027925478524918283 0 0.0028750957649892575 -0.02752464609283738 0 0.003745432627343876 -0.027925478524918283 0 0.0028750957649892575 -0.02752464609283738 0 0.0025882312220865296 -0.027978547446849161 0 0.0051145885119484556 -0.027360951141346328 0 0.0050135802411247028 -0.027721912589483925 0 0.0053158814519231037 -0.027694251901061791 0 0.0051145885119484556 -0.027360951141346328 0 0.0055337630289511866 -0.02751142896469352 0 0.0054888126371880784 -0.027161762547007154 0 0.0044969981517299692 -0.027603086760947308 0 0.005385466251723839 -0.027222060136298021 0 0.0051145885119484556 -0.027360951141346328 0 0.0055337630289511866 -0.02751142896469352 0 0.0053158814519231037 -0.027694251901061791 0 0.0036249460551782946 -0.027197416609760761 0 0.003745432627343876 -0.027925478524918283 0 0.0054888126371880784 -0.027161762547007154 0 0.0055746366106701204 -0.025798888122141768 0 0.0044034776960535302 -0.026461006869031294 0 0.0054888126371880784 -0.027161762547007154 0 0.0036249460551782946 -0.027197416609760761 0 0.0044034776960535302 -0.026461006869031294 0 0.0054888126371880784 -0.027161762547007154 0 0.0055746366106701204 -0.025798888122141768 0 0.0054888126371880784 -0.027161762547007154 0 0.0062129039102908007 -0.026701134542655172 0 0.0054888126371880784 -0.027161762547007154 0 0.0062129039102908007 -0.026701134542655172 0 0.0060314794435562882 -0.027377537028913695 0 0.0083776162659189787 -0.024777087421832881 0 0.0066614105021939466 -0.025941423053208887 0 0.0067408994560055778 -0.025882584107581531 0 0.0062129039102908007 -0.026701134542655172 0 0.0067612977486075244 -0.026883732716870966 0 0.0062129039102908007 -0.026701134542655172 0 0.0067612977486075244 -0.026883732716870966 0 0.0064795888275630117 -0.027222430260158182 0 0.0066614105021939466 -0.025941423053208887 0 0.0069479580627189461 -0.027481136137138075 0 0.0067612977486075244 -0.026883732716870966 0 0.0064795888275630117 -0.027222430260158182 0 0.0069408674764003496 -0.027544476946289604 0 0.0062129039102908007 -0.026701134542655172 0 0.0064795888275630117 -0.027222430260158182 0 0.0060314794435562882 -0.027377537028913695 0 0.0064595797457020366 -0.027568817079926474 0 0.0060314794435562882 -0.027377537028913695 0 0.0062582214005749226 -0.027847869120770592 0 0.0064795888275630117 -0.027222430260158182 0 0.0064595797457020366 -0.027568817079926474 0 0.0060314794435562882 -0.027377537028913695 0 0.0064795888275630117 -0.027222430260158182 0 0.0064595797457020366 -0.027568817079926474 0 0.0069408674764003496 -0.027544476946289604 0 0.0055337630289511866 -0.02751142896469352 0 0.0054888126371880784 -0.027161762547007154 0 0.0060314794435562882 -0.027377537028913695 0 0.0055337630289511866 -0.02751142896469352 0 0.0060314794435562882 -0.027377537028913695 0 0.0059041272514219808 -0.027711764480199224 0 0.0055337630289511866 -0.02751142896469352 0 0.0059041272514219808 -0.027711764480199224 0 0.0056445557423914737 -0.027919766071947304 0 0.0060314794435562882 -0.027377537028913695 0 0.0059041272514219808 -0.027711764480199224 0 0.0062582214005749226 -0.027847869120770592 0 0.0059041272514219808 -0.027711764480199224 0 0.0060981608600445061 -0.028044742256234156 0 0.0062582214005749226 -0.027847869120770592 0 0.0060981608600445061 -0.028044742256234156 0 0.0058468244748672528 -0.02815322168557961 0 0.0056445557423914737 -0.027919766071947304 0 0.0059041272514219808 -0.027711764480199224 0 0.0060981608600445061 -0.028044742256234156 0 0.0056445557423914737 -0.027919766071947304 0 0.0064595797457020366 -0.027568817079926474 0 0.0065646036649586337 -0.027956700681814665 0 0.0069408674764003496 -0.027544476946289604 0 0.0065646036649586337 -0.027956700681814665 0 0.0069408674764003496 -0.027544476946289604 0 0.0070577836089669053 -0.028161737581132874 0 0.0064595797457020366 -0.027568817079926474 0 0.0062582214005749226 -0.027847869120770592 0 0.0065646036649586337 -0.027956700681814665 0 0.0060981608600445061 -0.028044742256234156 0 0.0062582214005749226 -0.027847869120770592 0 0.0063959683821847363 -0.028043706760806673 0 0.0062582214005749226 -0.027847869120770592 0 0.0063959683821847363 -0.028043706760806673 0 0.0065646036649586337 -0.027956700681814665 0 0.0063959683821847363 -0.028043706760806673 0 0.0065646036649586337 -0.027956700681814665 0 0.0067472466612123775 -0.027936097963922723 0 0.0071012804115234236 -0.026792112441658564 0 0.0088802279273705736 -0.026102877779203032 0 0.0063959683821847363 -0.028043706760806673 0 0.0063034466795014532 -0.028378574481478132 0 0.0067472466612123775 -0.027936097963922723 0 0.00867286609196956 -0.025338362668802843 0 0.0088802279273705736 -0.026102877779203032 0 0.011127708317306207 -0.022179396431872271 0 0.011627126530553322 -0.021518492440344265 0 0.011657186878676217 -0.021896666065566926 0 0.0060981608600445061 -0.028044742256234156 0 0.0063959683821847363 -0.028043706760806673 0 0.0063034466795014532 -0.028378574481478132 0 0.011127708317306207 -0.022179396431872271 0 0.011707356782173901 -0.022106508307215725 0 0.011401493869317238 -0.02266298677291393 0 0.011127708317306207 -0.022179396431872271 0 0.011657186878676217 -0.021896666065566926 0 0.011707356782173901 -0.022106508307215725 0 0.0063034466795014532 -0.028378574481478132 0 0.0058468244748672528 -0.02815322168557961 0 0.0057951359834694542 -0.028400294843425575 0 0.0060981608600445061 -0.028044742256234156 0 0.0063034466795014532 -0.028378574481478132 0 0.0058468244748672528 -0.02815322168557961 0 0.0058468244748672528 -0.02815322168557961 0 0.0057951359834694542 -0.028400294843425575 0 0.0055534059310486756 -0.028279288804543123 0 0.0057951359834694542 -0.028400294843425575 0 0.0055534059310486756 -0.028279288804543123 0 0.0055728000913541111 -0.028506047281445478 0 0.0055534059310486756 -0.028279288804543123 0 0.005329939123589921 -0.028467253957917923 0 0.0055728000913541111 -0.028506047281445478 0 0.0055534059310486756 -0.028279288804543123 0 0.0053018464471215488 -0.028065390280828786 0 0.0056445557423914737 -0.027919766071947304 0 0.0058468244748672528 -0.02815322168557961 0 0.0055534059310486756 -0.028279288804543123 0 0.0056445557423914737 -0.027919766071947304 0 0.0055534059310486756 -0.028279288804543123 0 0.0053018464471215488 -0.028065390280828786 0 0.005329939123589921 -0.028467253957917923 0 0.0053018464471215488 -0.028065390280828786 0 0.0050730185018856401 -0.028271294788102721 0 0.005329939123589921 -0.028467253957917923 0 0.0050730185018856401 -0.028271294788102721 0 0.0050190182227970743 -0.028566971464604803 0 0.005329939123589921 -0.028467253957917923 0 0.0050730185018856401 -0.028271294788102721 0 0.0050190182227970743 -0.028566971464604803 0 0.0047982075284022001 -0.0282528634248073 0 0.0050730185018856401 -0.028271294788102721 0 0.0049187813919935432 -0.028016505941391118 0 0.0047982075284022001 -0.0282528634248073 0 0.0053018464471215488 -0.028065390280828786 0 0.0050730185018856401 -0.028271294788102721 0 0.0049187813919935432 -0.028016505941391118 0 0.0053018464471215488 -0.028065390280828786 0 0.0049187813919935432 -0.028016505941391118 0 0.0050135802411247028 -0.027721912589483925 0 0.0053018464471215488 -0.028065390280828786 0 0.0050135802411247028 -0.027721912589483925 0 0.0053158814519231037 -0.027694251901061791 0 0.0049187813919935432 -0.028016505941391118 0 0.0050135802411247028 -0.027721912589483925 0 0.0047141940718685724 -0.0278373548300422 0 0.0055337630289511866 -0.02751142896469352 0 0.0053158814519231037 -0.027694251901061791 0 0.0056445557423914737 -0.027919766071947304 0 0.0053018464471215488 -0.028065390280828786 0 0.0053158814519231037 -0.027694251901061791 0 0.0056445557423914737 -0.027919766071947304 0 0.014035614300666691 -0.024624759296517258 0 0.014077135054793553 -0.024420534067510925 0 0.015574364916835406 -0.023391263704551725 0 0.016057315385804519 -0.023690262896302876 0 0.016153737614771603 -0.023289257575158154 0 0.015574364916835406 -0.023391263704551725 0 0.015736304956246568 -0.024064457874530265 0 0.016057315385804519 -0.023690262896302876 0 0.015574364916835406 -0.023391263704551725 0 0.015805952091807424 -0.023028933997945686 0 0.016153737614771603 -0.023289257575158154 0 0.015396281988626224 -0.022716183638382348 0 0.015574364916835406 -0.023391263704551725 0 0.015805952091807424 -0.023028933997945686 0 0.011759255322384888 -0.022907071321078207 0 0.012278371451931258 -0.025314391814344268 0 0.0103734407352007 -0.024593779825371833 0 0.012942171342202538 -0.022961249834448579 0 0.014035614300666691 -0.024624759296517258 0 0.012278371451931258 -0.025314391814344268 0 0.010855584154644804 -0.02626774249354881 0 0.0103734407352007 -0.024593779825371833 0 0.012278371451931258 -0.025314391814344268 0 0.010855584154644804 -0.02626774249354881 0 0.012808812831478856 -0.027670810051122558 0 0.010855584154644804 -0.02626774249354881 0 0.0087566256553357653 -0.025912484015910304 0 0.010054440105672977 -0.027829396238742581 0 0.010855584154644804 -0.02626774249354881 0 0.0087566256553357653 -0.025912484015910304 0 0.0103734407352007 -0.024593779825371833 0 0.0087566256553357653 -0.025912484015910304 0 0.0103734407352007 -0.024593779825371833 0 0.0091408943624755844 -0.024199191172131835 0 0.0091786306318260309 -0.022899315499305954 0 0.0103734407352007 -0.024593779825371833 0 0.0091408943624755844 -0.024199191172131835 0 0.0087566256553357653 -0.025912484015910304 0 0.0091408943624755844 -0.024199191172131835 0 0.0078575650168752533 -0.023889032654883961 0 0.0067764017114580032 -0.025171693962758018 0 0.0087566256553357653 -0.025912484015910304 0 0.0078575650168752533 -0.023889032654883961 0 0.0065541584179740183 -0.022902220715105229 0 0.0067764017114580032 -0.025171693962758018 0 0.0078575650168752533 -0.023889032654883961 0 0.008032011865710573 -0.026860102304519927 0 0.0088802279273705736 -0.026102877779203032 0 0.0067764017114580032 -0.025171693962758018 0 0.0087566256553357653 -0.025912484015910304 0 0.0069408674764003496 -0.027544476946289604 0 0.0087566256553357653 -0.025912484015910304 0 0.0069408674764003496 -0.027544476946289604 0 0.0070577836089669053 -0.028161737581132874 0 0.011627126530553322 -0.021518492440344265 0 0.012131293708621992 -0.02179687001293542 0 0.012610078577072834 -0.021476027256953915 0 0.0087566256553357653 -0.025912484015910304 0 0.0074018328643075948 -0.027947156049142025 0 0.010054440105672977 -0.027829396238742581 0 0.0088802279273705736 -0.026102877779203032 0 0.011296356511411887 -0.024508797878958429 0 0.011627126530553322 -0.021518492440344265 0 0.011657186878676217 -0.021896666065566926 0 0.012131293708621992 -0.02179687001293542 0 0.011707356782173901 -0.022106508307215725 0 0.012131293708621992 -0.02179687001293542 0 0.012461032917788301 -0.022547636081173758 0 0.011657186878676217 -0.021896666065566926 0 0.011707356782173901 -0.022106508307215725 0 0.012131293708621992 -0.02179687001293542 0 0.011784791026796733 -0.022122643735442652 0 0.012652395542955604 -0.022459110801425732 0 0.012131293708621992 -0.02179687001293542 0 0.012997965963759961 -0.022090841836576704 0 0.012461032917788301 -0.022547636081173758 0 0.012131293708621992 -0.02179687001293542 0 0.012610078577072834 -0.021476027256953915 0 0.012997965963759961 -0.022090841836576704 0 0.011296356511411887 -0.024508797878958429 0 0.014077135054793553 -0.024420534067510925 0 0.010855584154644804 -0.02626774249354881 0 0.010054440105672977 -0.027829396238742581 0 0.012808812831478856 -0.027670810051122558 0 0.012610078577072834 -0.021476027256953915 0 0.012997965963759961 -0.022090841836576704 0 0.013660449664538065 -0.02143451146492727 0 0.015048142276766489 -0.023083991269750838 0 0.014077135054793553 -0.024420534067510925 0 0.016146866131682498 -0.024467637657153412 0 0.016003597982045776 -0.02404373112086125 0 0.016232320017014527 -0.024222615981327612 0 0.012997965963759961 -0.022090841836576704 0 0.013891865026115183 -0.022364537313521952 0 0.013660449664538065 -0.02143451146492727 0 0.014001586463237042 -0.022729891762424882 0 0.014042831613988368 -0.023593249325228174 0 0.015366472520392345 -0.023264252179026994 0 0.013513085009497714 -0.022746193202988419 0 0.015297158815183639 -0.024066386009699917 0 0.014042831613988368 -0.023593249325228174 0 0.014641501351455387 -0.024237696961737894 0 0.015366472520392345 -0.023264252179026994 0 0.015048142276766489 -0.023083991269750838 0 0.015297158815183639 -0.024066386009699917 0 0.012997965963759961 -0.022090841836576704 0 0.013891865026115183 -0.022364537313521952 0 0.013279668101410461 -0.022953269900225337 0 0.013891865026115183 -0.022364537313521952 0 0.013279668101410461 -0.022953269900225337 0 0.014131078133771954 -0.023342772571857191 0 0.012997965963759961 -0.022090841836576704 0 0.013279668101410461 -0.022953269900225337 0 0.012461032917788301 -0.022547636081173758 0 0.014001586463237042 -0.022729891762424882 0 0.013061480833379671 -0.023378303311933784 0 0.012777380581185285 -0.022326420766619989 0 0.013513085009497714 -0.022746193202988419 0 0.012652395542955604 -0.022459110801425732 0 0.014001586463237042 -0.022729891762424882 0 0.014042831613988368 -0.023593249325228174 0 0.013061480833379671 -0.023378303311933784 0 0.014042831613988368 -0.023593249325228174 0 0.013061480833379671 -0.023378303311933784 0 0.013703054487762741 -0.024316964534550293 0 0.013061480833379671 -0.023378303311933784 0 0.012171044070125392 -0.022876868111910136 0 0.012438744094431114 -0.024223218594023224 0 0.013061480833379671 -0.023378303311933784 0 0.012777380581185285 -0.022326420766619989 0 0.012171044070125392 -0.022876868111910136 0 0.011707356782173901 -0.022106508307215725 0 0.012171044070125392 -0.022876868111910136 0 0.011401493869317238 -0.02266298677291393 0 0.012171044070125392 -0.022876868111910136 0 0.011401493869317238 -0.02266298677291393 0 0.011501624405117705 -0.023246567049628263 0 0.011707356782173901 -0.022106508307215725 0 0.012777380581185285 -0.022326420766619989 0 0.012171044070125392 -0.022876868111910136 0 0.012171044070125392 -0.022876868111910136 0 0.012438744094431114 -0.024223218594023224 0 0.011501624405117705 -0.023246567049628263 0 0.012438744094431114 -0.024223218594023224 0 0.011501624405117705 -0.023246567049628263 0 0.010884582937307836 -0.024198903973061969 0 0.011809835445953518 -0.025078344778109513 0 0.012438744094431114 -0.024223218594023224 0 0.012867531877859537 -0.025482910366320034 0 0.011809835445953518 -0.025078344778109513 0 0.012438744094431114 -0.024223218594023224 0 0.010884582937307836 -0.024198903973061969 0 0.012438744094431114 -0.024223218594023224 0 0.013681801200190453 -0.025130523691949892 0 0.012867531877859537 -0.025482910366320034 0 0.012438744094431114 -0.024223218594023224 0 0.013703054487762741 -0.024316964534550293 0 0.013681801200190453 -0.025130523691949892 0 0.013061480833379671 -0.023378303311933784 0 0.012438744094431114 -0.024223218594023224 0 0.013703054487762741 -0.024316964534550293 0 0.014042831613988368 -0.023593249325228174 0 0.013703054487762741 -0.024316964534550293 0 0.014641501351455387 -0.024237696961737894 0 0.013703054487762741 -0.024316964534550293 0 0.013681801200190453 -0.025130523691949892 0 0.01470828129821198 -0.02529615076071209 0 0.013703054487762741 -0.024316964534550293 0 0.01470828129821198 -0.02529615076071209 0 0.014641501351455387 -0.024237696961737894 0 0.01470828129821198 -0.02529615076071209 0 0.014641501351455387 -0.024237696961737894 0 0.015704690095564487 -0.024706388707257713 0 0.0091714415613800889 -0.023044628441831382 0 0.01013158717799427 -0.022701188095981373 0 0.009444621648062328 -0.023768752050169845 0 0.0091714415613800889 -0.023044628441831382 0 0.0081812081447073075 -0.023561551821638986 0 0.009444621648062328 -0.023768752050169845 0 0.0091714415613800889 -0.023044628441831382 0 0.0085709949570473495 -0.022747218328364849 0 0.0092554727726964024 -0.02238408901465554 0 0.0091714415613800889 -0.023044628441831382 0 0.0081812081447073075 -0.023561551821638986 0 0.0085709949570473495 -0.022747218328364849 0 0.0081812081447073075 -0.023561551821638986 0 0.0085709949570473495 -0.022747218328364849 0 0.0077497938756836398 -0.022813618308701562 0 0.0085709949570473495 -0.022747218328364849 0 0.0083234874613444722 -0.022045637800058037 0 0.0092554727726964024 -0.02238408901465554 0 0.0085709949570473495 -0.022747218328364849 0 0.0083234874613444722 -0.022045637800058037 0 0.0077497938756836398 -0.022813618308701562 0 0.0062717110817126307 -0.025482685125522469 0 0.0046728430891373358 -0.027865388684521198 0 0.0062717110817126307 -0.025482685125522469 0 0.0073857439557709677 -0.025524333571424692 0 0.0050669859598333113 -0.028544277899176431 0 0.005329939123589921 -0.028467253957917923 0 0.0054781770397480901 -0.028712569748244269 0 0.0091714415613800889 -0.023044628441831382 0 0.0092554727726964024 -0.02238408901465554 0 0.01013158717799427 -0.022701188095981373 0 0.005329939123589921 -0.028467253957917923 0 0.0054781770397480901 -0.028712569748244269 0 0.0055728000913541111 -0.028506047281445478 0 0.0054781770397480901 -0.028712569748244269 0 0.0057505012784108515 -0.028648118282859063 0 0.0059259668883965017 -0.028850231035405353 0 0.0073857439557709677 -0.025524333571424692 0 0.0088322012026703697 -0.024254291542785879 0 0.0054781770397480901 -0.028712569748244269 0 0.0055728000913541111 -0.028506047281445478 0 0.0057505012784108515 -0.028648118282859063 0 0.0057951359834694542 -0.028400294843425575 0 0.0055728000913541111 -0.028506047281445478 0 0.0057505012784108515 -0.028648118282859063 0 0.0063034466795014532 -0.028378574481478132 0 0.0057951359834694542 -0.028400294843425575 0 0.0057505012784108515 -0.028648118282859063 0 0.00867286609196956 -0.025338362668802843 0 0.0088322012026703697 -0.024254291542785879 0 0.0063034466795014532 -0.028378574481478132 0 0.0057505012784108515 -0.028648118282859063 0 0.0059259668883965017 -0.028850231035405353 0 0.010576231280366204 -0.022941794852105093 0 0.011401493869317238 -0.02266298677291393 0 0.011501624405117705 -0.023246567049628263 0 0.011127708317306207 -0.022179396431872271 0 0.010576231280366204 -0.022941794852105093 0 0.011401493869317238 -0.02266298677291393 0 0.010205003221773725 -0.022752688261769401 0 0.011501624405117705 -0.023246567049628263 0 0.010884582937307836 -0.024198903973061969 0 0.0088322012026703697 -0.024254291542785879 0 0.011939973772601089 -0.023018079103448611 0 0.010205003221773725 -0.022752688261769401 0 0.010884582937307836 -0.024198903973061969 0 0.009444621648062328 -0.023768752050169845 0 0.0088322012026703697 -0.024254291542785879 0 0.0099789389125590072 -0.023062293952858158 0 0.010884582937307836 -0.024198903973061969 0 0.0096688035126126677 -0.024936716648311898 0 0.009444621648062328 -0.023768752050169845 0 0.011809835445953518 -0.025078344778109513 0 0.010884582937307836 -0.024198903973061969 0 0.010787450892040281 -0.025286208755933022 0 0.010884582937307836 -0.024198903973061969 0 0.0096688035126126677 -0.024936716648311898 0 0.010787450892040281 -0.025286208755933022 0 0.0096688035126126677 -0.024936716648311898 0 0.0085817358220332714 -0.024495591382012835 0 0.0085341542183759635 -0.025479077945882941 0 0.0096688035126126677 -0.024936716648311898 0 0.009444621648062328 -0.023768752050169845 0 0.0085817358220332714 -0.024495591382012835 0 0.0081812081447073075 -0.023561551821638986 0 0.0085817358220332714 -0.024495591382012835 0 0.0069105357148671167 -0.024690874496238458 0 0.0081812081447073075 -0.023561551821638986 0 0.009444621648062328 -0.023768752050169845 0 0.0085817358220332714 -0.024495591382012835 0 0.0085817358220332714 -0.024495591382012835 0 0.0069105357148671167 -0.024690874496238458 0 0.0085341542183759635 -0.025479077945882941 0 0.0069105357148671167 -0.024690874496238458 0 0.00676468533586183 -0.023511446887168112 0 0.0053147069130234387 -0.024353943420235887 0 0.0081812081447073075 -0.023561551821638986 0 0.0069105357148671167 -0.024690874496238458 0 0.00676468533586183 -0.023511446887168112 0 0.0081812081447073075 -0.023561551821638986 0 0.0077497938756836398 -0.022813618308701562 0 0.00676468533586183 -0.023511446887168112 0 0.0077497938756836398 -0.022813618308701562 0 0.00676468533586183 -0.023511446887168112 0 0.0069686824760525276 -0.022524761840996613 0 0.00676468533586183 -0.023511446887168112 0 0.0069686824760525276 -0.022524761840996613 0 0.0055504664739601198 -0.023160978038926961 0 0.00676468533586183 -0.023511446887168112 0 0.0055504664739601198 -0.023160978038926961 0 0.0053147069130234387 -0.024353943420235887 0 0.0064223489507387668 -0.022786075190017498 0 0.0050949305951267926 -0.023557140640409525 0 0.0049043773672446493 -0.02343848698566052 0 0.0053201898185157373 -0.023648164146859638 0 0.0047664224555959223 -0.023830341942268168 0 0.0049043773672446493 -0.02343848698566052 0 0.0053201898185157373 -0.023648164146859638 0 0.0053062553727964363 -0.023255358603600399 0 0.0062717110817126307 -0.025482685125522469 0 0.0064223489507387668 -0.022786075190017498 0 0.0083234874613444722 -0.022045637800058037 0 0.0077497938756836398 -0.022813618308701562 0 0.0069686824760525276 -0.022524761840996613 0 0.0062717110817126307 -0.025482685125522469 0 0.0048857868692015992 -0.025749223360859073 0 0.0058878402750380619 -0.023473035630737198 0 0.0053201898185157373 -0.023648164146859638 0 0.0053062553727964363 -0.023255358603600399 0 0.0049043773672446493 -0.02343848698566052 0 0.0041938949006086104 -0.023407576195588194 0 0.0047664224555959223 -0.023830341942268168 0 0.0050949305951267926 -0.023557140640409525 0 0.0043220686285921732 -0.023954012696578233 0 0.0055504664739601198 -0.023160978038926961 0 0.0042157892819807696 -0.024044477763320842 0 0.0053147069130234387 -0.024353943420235887 0 0.0041938949006086104 -0.023407576195588194 0 0.0047664224555959223 -0.023830341942268168 0 0.0042157892819807696 -0.024044477763320842 0 0.0042157892819807696 -0.024044477763320842 0 0.0053147069130234387 -0.024353943420235887 0 0.0041843691129443928 -0.025023368486546741 0 0.0069105357148671167 -0.024690874496238458 0 0.0053147069130234387 -0.024353943420235887 0 0.0048502569049535017 -0.025722248178760281 0 0.0053147069130234387 -0.024353943420235887 0 0.0041843691129443928 -0.025023368486546741 0 0.0048502569049535017 -0.025722248178760281 0 0.0041843691129443928 -0.025023368486546741 0 0.0034572351206394636 -0.025792889041082994 0 0.0048502569049535017 -0.025722248178760281 0 0.0041843691129443928 -0.025023368486546741 0 0.0033157881573313958 -0.025085639407597303 0 0.0034572351206394636 -0.025792889041082994 0 0.0027305524480005258 -0.025563114377680465 0 0.0033157881573313958 -0.025085639407597303 0 0.0034572351206394636 -0.025792889041082994 0 0.0027305524480005258 -0.025563114377680465 0 0.0027425867671757947 -0.025954581471669357 0 0.0034572351206394636 -0.025792889041082994 0 0.0027305524480005258 -0.025563114377680465 0 0.0033157881573313958 -0.025085639407597303 0 0.002262326466063439 -0.025363552407240208 0 0.0033157881573313958 -0.025085639407597303 0 0.002262326466063439 -0.025363552407240208 0 0.0033377824154758122 -0.023945838990583789 0 0.0042157892819807696 -0.024044477763320842 0 0.0041843691129443928 -0.025023368486546741 0 0.0033157881573313958 -0.025085639407597303 0 0.0021982683019423441 -0.025836479856600463 0 0.0024075391106146158 -0.025745656178415632 0 0.0022692446589388754 -0.02602271754556628 0 0.0021982683019423441 -0.025836479856600463 0 0.0024075391106146158 -0.025745656178415632 0 0.0023432988234647028 -0.02565543303546803 0 0.0027305524480005258 -0.025563114377680465 0 0.0024075391106146158 -0.025745656178415632 0 0.002262326466063439 -0.025363552407240208 0 0.0027305524480005258 -0.025563114377680465 0 0.0024075391106146158 -0.025745656178415632 0 0.0027425867671757947 -0.025954581471669357 0 0.0024075391106146158 -0.025745656178415632 0 0.002262326466063439 -0.025363552407240208 0 0.0023432988234647028 -0.02565543303546803 0 0.0021982683019423441 -0.025836479856600463 0 0.0022237809816988779 -0.025708749584936252 0 0.0023432988234647028 -0.02565543303546803 0 0.0022237809816988779 -0.025708749584936252 0 0.0023432988234647028 -0.02565543303546803 0 0.0024748618090850885 -0.025837080963719783 0 0.002262326466063439 -0.025363552407240208 0 0.0023432988234647028 -0.02565543303546803 0 0.0024748618090850885 -0.025837080963719783 0 0.002262326466063439 -0.025363552407240208 0 0.0024748618090850885 -0.025837080963719783 0 0.0019123692198548482 -0.026483626750041313 0 0.0024748618090850885 -0.025837080963719783 0 0.0019123692198548482 -0.026483626750041313 0 0.0022357597730726223 -0.026751925173522415 0 0.0019123692198548482 -0.026483626750041313 0 0.0022357597730726223 -0.026751925173522415 0 0.0016233675751944733 -0.027322703300673535 0 0.0027723003913142962 -0.026488955024368818 0 0.0026799128446272922 -0.026882789789480818 0 0.0022357597730726223 -0.026751925173522415 0 0.0027723003913142962 -0.026488955024368818 0 0.0024748618090850885 -0.025837080963719783 0 0.0022357597730726223 -0.026751925173522415 0 0.0042157892819807696 -0.024044477763320842 0 0.0033157881573313958 -0.025085639407597303 0 0.0033377824154758122 -0.023945838990583789 0 0.0041938949006086104 -0.023407576195588194 0 0.0042157892819807696 -0.024044477763320842 0 0.0033377824154758122 -0.023945838990583789 0 0.002262326466063439 -0.025363552407240208 0 0.0019123692198548482 -0.026483626750041313 0 0.0013287794189926858 -0.026391296260790623 0 0.0022877370945344751 -0.025300486231769788 0 0.0023632260403892926 -0.025222872337564799 0 0.0019123692198548482 -0.026483626750041313 0 0.001455146526477594 -0.027055946632090759 0 0.0016233675751944733 -0.027322703300673535 0 0.0019123692198548482 -0.026483626750041313 0 0.0013287794189926858 -0.026391296260790623 0 0.001455146526477594 -0.027055946632090759 0 0.0012762690183435901 -0.027067803529313244 0 0.0013287794189926858 -0.026391296260790623 0 0.001455146526477594 -0.027055946632090759 0 0.0027609868718849579 -0.024993603439270311 0 0.0023632260403892926 -0.025222872337564799 0 0.0012762690183435901 -0.027067803529313244 0 0.001455146526477594 -0.027055946632090759 0 0.0014515552977047408 -0.02739912672859314 0 0.001455146526477594 -0.027055946632090759 0 0.0014515552977047408 -0.02739912672859314 0 0.0015300741341696721 -0.027430541957342753 0 0.001455146526477594 -0.027055946632090759 0 0.0012118984958895038 -0.028170727217246064 0 0.0016233675751944733 -0.027322703300673535 0 0.0014387623086777187 -0.027151440267556757 0 0.0014469167541430843 -0.027845339751434408 0 0.001455146526477594 -0.027055946632090759 0 0.0016792883456719409 -0.027546096644637051 0 0.0015300741341696721 -0.027430541957342753 0 0.0016792883456719409 -0.027546096644637051 0 0.0015887716085414545 -0.027551855243488747 0 0.0015300741341696721 -0.027430541957342753 0 0.0012118984958895038 -0.028170727217246064 0 0.0016233675751944733 -0.027322703300673535 0 0.0013594771449163708 -0.02807838094862624 0 0.0016792883456719409 -0.027546096644637051 0 0.0015887716085414545 -0.027551855243488747 0 0.0016001104707729912 -0.02760778034699729 0 0.0015887716085414545 -0.027551855243488747 0 0.001542321805926653 -0.027547869015700197 0 0.0016001104707729912 -0.02760778034699729 0 0.001542321805926653 -0.027547869015700197 0 0.0016181502379169269 -0.027609402930274706 0 0.0015341823060242147 -0.027588374959148943 0 0.0014515552977047408 -0.02739912672859314 0 0.001542321805926653 -0.027547869015700197 0 0.0015341823060242147 -0.027588374959148943 0 0.0015887716085414545 -0.027551855243488747 0 0.001542321805926653 -0.027547869015700197 0 0.0015300741341696721 -0.027430541957342753 0 0.0014515552977047408 -0.02739912672859314 0 0.001542321805926653 -0.027547869015700197 0 0.0015300741341696721 -0.027430541957342753 0 0.0026799128446272922 -0.026882789789480818 0 0.0021272198133689296 -0.02727736424175535 0 0.0025481072168705939 -0.027601728960892219 0 0.0026799128446272922 -0.026882789789480818 0 0.0022357597730726223 -0.026751925173522415 0 0.0021272198133689296 -0.02727736424175535 0 0.0021272198133689296 -0.02727736424175535 0 0.0013594771449163708 -0.02807838094862624 0 0.0025481072168705939 -0.027601728960892219 0 0.0022357597730726223 -0.026751925173522415 0 0.0021272198133689296 -0.02727736424175535 0 0.0016233675751944733 -0.027322703300673535 0 0.0021272198133689296 -0.02727736424175535 0 0.0016233675751944733 -0.027322703300673535 0 0.0013594771449163708 -0.02807838094862624 0 0.0012118984958895038 -0.028170727217246064 0 0.0013594771449163708 -0.02807838094862624 0 0.00092395246481283711 -0.028317019252776694 0 0.0013594771449163708 -0.02807838094862624 0 0.00068742480651712019 -0.028637229808484023 0 0.00092395246481283711 -0.028317019252776694 0 0.0012512969034275737 -0.028092830993915983 0 0.0017613678331729256 -0.02812740948761016 0 0.00047660288923838986 -0.028467561224004685 0 0.00068742480651712019 -0.028637229808484023 0 0.00092395246481283711 -0.028317019252776694 0 0.00047660288923838986 -0.028467561224004685 0 0.00092395246481283711 -0.028317019252776694 0 0.00047783645138070753 -0.028320036544543355 0 0.00092395246481283711 -0.028317019252776694 0 0.00094423148016259493 -0.028290508578354565 0 0.00047783645138070753 -0.028320036544543355 0 0.0012118984958895038 -0.028170727217246064 0 0.00092395246481283711 -0.028317019252776694 0 0.00094423148016259493 -0.028290508578354565 0 0.00079476250447223966 -0.028166304171027549 0 0.00094423148016259493 -0.028290508578354565 0 0.00047783645138070753 -0.028320036544543355 0 0.0010710726968078824 -0.027885751577898795 0 0.0012654549312415826 -0.027976812674077395 0 0.0015507268042806693 -0.027624639400765781 0 0.0013627568220186332 -0.027662798280452719 0 0.0015758026053881429 -0.027651892335208435 0 0.0016181502379169269 -0.027609402930274706 0 0.0016001104707729912 -0.02760778034699729 0 0.0016051736227825754 -0.027620735105120257 0 0.001542321805926653 -0.027547869015700197 0 0.0016181502379169269 -0.027609402930274706 0 0.0016001104707729912 -0.02760778034699729 0 0.0014469167541430843 -0.027845339751434408 0 0.0012654549312415826 -0.027976812674077395 0 0.0016792883456719409 -0.027546096644637051 0 0.0015758026053881429 -0.027651892335208435 0 0.0016001104707729912 -0.02760778034699729 0 0.0015758026053881429 -0.027651892335208435 0 0.0016001104707729912 -0.02760778034699729 0 0.0016051736227825754 -0.027620735105120257 0 0.0015507268042806693 -0.027624639400765781 0 0.0015758026053881429 -0.027651892335208435 0 0.0016051736227825754 -0.027620735105120257 0 0.0016781326370575438 -0.027558865302372049 0 0.0015507268042806693 -0.027624639400765781 0 0.0016051736227825754 -0.027620735105120257 0 0.0016181502379169269 -0.027609402930274706 0 0.0016051736227825754 -0.027620735105120257 0 0.0017512116189482925 -0.027540380089668148 0 0.0016781326370575438 -0.027558865302372049 0 0.0016051736227825754 -0.027620735105120257 0 0.0017512116189482925 -0.027540380089668148 0 0.0019596450881502773 -0.027396224002387788 0 0.0017512116189482925 -0.027540380089668148 0 0.0019606031098558601 -0.027475486437977092 0 0.0017512116189482925 -0.027540380089668148 0 0.0017657453394805459 -0.027584144388817958 0 0.0019606031098558601 -0.027475486437977092 0 0.0016181502379169269 -0.027609402930274706 0 0.0017512116189482925 -0.027540380089668148 0 0.0017657453394805459 -0.027584144388817958 0 0.0017657453394805459 -0.027584144388817958 0 0.001640322840306206 -0.027614270291362746 0 0.0017688377380824653 -0.027645616416806587 0 0.0016181502379169269 -0.027609402930274706 0 0.0015341823060242147 -0.027588374959148943 0 0.001640322840306206 -0.027614270291362746 0 0.0016181502379169269 -0.027609402930274706 0 0.0017657453394805459 -0.027584144388817958 0 0.001640322840306206 -0.027614270291362746 0 0.0019154670917981402 -0.027608380019081624 0 0.0020845417510295125 -0.027687697152483537 0 0.0019399732838875998 -0.027710348578144674 0 0.0019154670917981402 -0.027608380019081624 0 0.0017688377380824653 -0.027645616416806587 0 0.0019399732838875998 -0.027710348578144674 0 0.0017657453394805459 -0.027584144388817958 0 0.0019154670917981402 -0.027608380019081624 0 0.0017688377380824653 -0.027645616416806587 0 0.0017657453394805459 -0.027584144388817958 0 0.0019154670917981402 -0.027608380019081624 0 0.0019606031098558601 -0.027475486437977092 0 0.0019154670917981402 -0.027608380019081624 0 0.0020894670022084598 -0.02753853477751456 0 0.0020845417510295125 -0.027687697152483537 0 0.0019154670917981402 -0.027608380019081624 0 0.0019606031098558601 -0.027475486437977092 0 0.0020894670022084598 -0.02753853477751456 0 0.0019606031098558601 -0.027475486437977092 0 0.0021615655140749717 -0.027404486879335034 0 0.0020894670022084598 -0.02753853477751456 0 0.0022115348360962281 -0.027294763559542162 0 0.0019606031098558601 -0.027475486437977092 0 0.0021615655140749717 -0.027404486879335034 0 0.0021615655140749717 -0.027404486879335034 0 0.0023742643169621966 -0.027286732835825694 0 0.0022827923621293244 -0.027467487969440516 0 0.0022115348360962281 -0.027294763559542162 0 0.0021615655140749717 -0.027404486879335034 0 0.0023742643169621966 -0.027286732835825694 0 0.0022827923621293244 -0.027467487969440516 0 0.0025224968483131614 -0.027351242368715348 0 0.0024297437062350794 -0.027639195404853198 0 0.0023742643169621966 -0.027286732835825694 0 0.0022827923621293244 -0.027467487969440516 0 0.0025224968483131614 -0.027351242368715348 0 0.0021615655140749717 -0.027404486879335034 0 0.0022827923621293244 -0.027467487969440516 0 0.0020894670022084598 -0.02753853477751456 0 0.0025825349143396813 -0.027176093612957246 0 0.002852789957312325 -0.027027075062753664 0 0.0025224968483131614 -0.027351242368715348 0 0.0025825349143396813 -0.027176093612957246 0 0.0023742643169621966 -0.027286732835825694 0 0.0025224968483131614 -0.027351242368715348 0 0.0025224968483131614 -0.027351242368715348 0 0.0028750957649892575 -0.02752464609283738 0 0.0024297437062350794 -0.027639195404853198 0 0.002852789957312325 -0.027027075062753664 0 0.0025224968483131614 -0.027351242368715348 0 0.0028750957649892575 -0.02752464609283738 0 0.0028750957649892575 -0.02752464609283738 0 0.0024297437062350794 -0.027639195404853198 0 0.0025882312220865296 -0.027978547446849161 0 0.0024297437062350794 -0.027639195404853198 0 0.0025882312220865296 -0.027978547446849161 0 0.0022797067164333695 -0.027763438795241405 0 0.0022827923621293244 -0.027467487969440516 0 0.0020894670022084598 -0.02753853477751456 0 0.0022222260227278425 -0.027636714526111713 0 0.0020894670022084598 -0.02753853477751456 0 0.0022222260227278425 -0.027636714526111713 0 0.0020845417510295125 -0.027687697152483537 0 0.0022827923621293244 -0.027467487969440516 0 0.0024297437062350794 -0.027639195404853198 0 0.0022222260227278425 -0.027636714526111713 0 0.0024297437062350794 -0.027639195404853198 0 0.0022222260227278425 -0.027636714526111713 0 0.0022797067164333695 -0.027763438795241405 0 0.0025882312220865296 -0.027978547446849161 0 0.0022797067164333695 -0.027763438795241405 0 0.0021469310631079958 -0.027865263866217474 0 0.0020845417510295125 -0.027687697152483537 0 0.0021469310631079958 -0.027865263866217474 0 0.0019399732838875998 -0.027710348578144674 0 0.0022797067164333695 -0.027763438795241405 0 0.0020845417510295125 -0.027687697152483537 0 0.0021469310631079958 -0.027865263866217474 0 0.0022222260227278425 -0.027636714526111713 0 0.0022797067164333695 -0.027763438795241405 0 0.0020845417510295125 -0.027687697152483537 0 0.0022370266946561044 -0.027522475268784482 0 0.0022774719742972541 -0.027674394392430076 0 0.0018056262265092216 -0.027696518779701709 0 0.003337576879581439 -0.027562083205910807 0 0.0021062036228158328 -0.027729769293076266 0 0.0027221185169827287 -0.027348994213594924 0 0.0022370266946561044 -0.027522475268784482 0 0.0022774719742972541 -0.027674394392430076 0 0.0041816562571423748 -0.027834783351684673 0 0.0044696467091088887 -0.027855298596743683 0 0.0042648095610017551 -0.028055843339831001 0 0.0031397576194436539 -0.027839586763835997 0 0.0031513898837862609 -0.026750992156869654 0 0.0050135802411247028 -0.027721912589483925 0 0.004570291228407344 -0.027546412636389385 0 0.0047141940718685724 -0.0278373548300422 0 0.004570291228407344 -0.027546412636389385 0 0.0041816562571423748 -0.027834783351684673 0 0.0044696467091088887 -0.027855298596743683 0 0.004570291228407344 -0.027546412636389385 0 0.0044696467091088887 -0.027855298596743683 0 0.0047141940718685724 -0.0278373548300422 0 0.003337576879581439 -0.027562083205910807 0 0.0031397576194436539 -0.027839586763835997 0 0.0044696467091088887 -0.027855298596743683 0 0.0045828631175510162 -0.028068480412448842 0 0.0042648095610017551 -0.028055843339831001 0 0.0049187813919935432 -0.028016505941391118 0 0.0047141940718685724 -0.0278373548300422 0 0.0045828631175510162 -0.028068480412448842 0 0.0044696467091088887 -0.027855298596743683 0 0.0047141940718685724 -0.0278373548300422 0 0.0045828631175510162 -0.028068480412448842 0 0.0050190182227970743 -0.028566971464604803 0 0.0043995758781428095 -0.028343587163197868 0 0.0047982075284022001 -0.0282528634248073 0 0.0049187813919935432 -0.028016505941391118 0 0.0045828631175510162 -0.028068480412448842 0 0.0047982075284022001 -0.0282528634248073 0 0.0045828631175510162 -0.028068480412448842 0 0.0043995758781428095 -0.028343587163197868 0 0.0047982075284022001 -0.0282528634248073 0 0.0045828631175510162 -0.028068480412448842 0 0.0043995758781428095 -0.028343587163197868 0 0.0042648095610017551 -0.028055843339831001 0 0.0048857868692015992 -0.025749223360859073 0 0.0031513898837862609 -0.026750992156869654 0 0.0041816562571423748 -0.027834783351684673 0 0.0042648095610017551 -0.028055843339831001 0 0.0037907927697757001 -0.028125740779920194 0 0.0049043773672446493 -0.02343848698566052 0 0.0053062553727964363 -0.023255358603600399 0 0.0047272991746939467 -0.023058590146050509 0 0.0043995758781428095 -0.028343587163197868 0 0.0042648095610017551 -0.028055843339831001 0 0.0037907927697757001 -0.028125740779920194 0 0.0049043773672446493 -0.02343848698566052 0 0.0041938949006086104 -0.023407576195588194 0 0.0047272991746939467 -0.023058590146050509 0 0.0031513898837862609 -0.026750992156869654 0 0.0010527156021054823 -0.027493687213091724 0 0.0012762690183435901 -0.027067803529313244 0 0.0010916561581125503 -0.027450924150103376 0 0.0014398860190967125 -0.027585225251877003 0 0.0027609868718849579 -0.024993603439270311 0 0.0031513898837862609 -0.026750992156869654 0 0.0012762690183435901 -0.027067803529313244 0 0.0014515552977047408 -0.02739912672859314 0 0.0014398860190967125 -0.027585225251877003 0 0.0014515552977047408 -0.02739912672859314 0 0.0014398860190967125 -0.027585225251877003 0 0.0015341823060242147 -0.027588374959148943 0 0.0014398860190967125 -0.027585225251877003 0 0.0015341823060242147 -0.027588374959148943 0 0.001640322840306206 -0.027614270291362746 0 0.0014398860190967125 -0.027585225251877003 0 0.001640322840306206 -0.027614270291362746 0 0.0017688377380824653 -0.027645616416806587 0 0.0017688377380824653 -0.027645616416806587 0 0.0019399732838875998 -0.027710348578144674 0 0.0018056262265092216 -0.027696518779701709 0 0.0018830421590055085 -0.027946715486912403 0 0.0014398860190967125 -0.027585225251877003 0 0.0018056262265092216 -0.027696518779701709 0 0.0022774719742972541 -0.027674394392430076 0 0.0018830421590055085 -0.027946715486912403 0 0.0018056262265092216 -0.027696518779701709 0 0.0021469310631079958 -0.027865263866217474 0 0.0019399732838875998 -0.027710348578144674 0 0.0018056262265092216 -0.027696518779701709 0 0.0021062036228158328 -0.027729769293076266 0 0.0019174225177102228 -0.027704720033573663 0 0.0014398860190967125 -0.027585225251877003 0 0.0017688377380824653 -0.027645616416806587 0 0.0018056262265092216 -0.027696518779701709 0 0.024781612772533889 -0.021266273944871308 0 0.025004706615853058 -0.020415123548407164 0 0.024755450876654268 -0.021336670970590554 0 0.025004706615853058 -0.020415123548407164 0 0.02476227637137186 -0.020826019366522737 0 0.024755450876654268 -0.021336670970590554 0 0.02476227637137186 -0.020826019366522737 0 0.024409462884033461 -0.021208273336016076 0 0.024755450876654268 -0.021336670970590554 0 0.024409462884033461 -0.021208273336016076 0 0.024863316041629967 -0.020212299941862057 0 0.024970978997610433 -0.019018078464361581 0 0.025124360320743763 -0.02020368109373398 0 0.024999243663895727 -0.019186085623170739 0 0.025000315430208385 -0.020380350376579152 0 0.024804010936569938 -0.02065792187619081 0 0.024940278758746267 -0.01916052628150192 0 0.02476227637137186 -0.020826019366522737 0 0.024409462884033461 -0.021208273336016076 0 0.024863316041629967 -0.020212299941862057 0 0.025004706615853058 -0.020415123548407164 0 0.02476227637137186 -0.020826019366522737 0 0.024863316041629967 -0.020212299941862057 0 0.025004706615853058 -0.020415123548407164 0 0.024863316041629967 -0.020212299941862057 0 0.025029607444017367 -0.019651921208513612 0 0.024863316041629967 -0.020212299941862057 0 0.024970978997610433 -0.019018078464361581 0 0.025029607444017367 -0.019651921208513612 0 0.025124360320743763 -0.02020368109373398 0 0.024999243663895727 -0.019186085623170739 0 0.024970978997610433 -0.019018078464361581 0 0.024970978997610433 -0.019018078464361581 0 0.025029607444017367 -0.019651921208513612 0 0.025202478489442209 -0.019450014100223203 0 0.025004706615853058 -0.020415123548407164 0 0.025202478489442209 -0.019450014100223203 0 0.025482358002960448 -0.019891024795216945 0 0.024781612772533889 -0.021266273944871308 0 0.025004706615853058 -0.020415123548407164 0 0.025482358002960448 -0.019891024795216945 0 0.025004706615853058 -0.020415123548407164 0 0.025029607444017367 -0.019651921208513612 0 0.025202478489442209 -0.019450014100223203 0 0.024615619293806269 -0.02005587231429155 0 0.024386578869409543 -0.021213116127492306 0 0.02430028672427488 -0.02144367245681485 0 0.023630440659651159 -0.022320593143791412 0 0.023683103760662086 -0.021576533083949155 0 0.02383849727977053 -0.020281152480852261 0 0.02430028672427488 -0.02144367245681485 0 0.024112810668389169 -0.020482778058779023 0 0.02430028672427488 -0.02144367245681485 0 0.023683103760662086 -0.021576533083949155 0 0.024112810668389169 -0.020482778058779023 0 0.024781612772533889 -0.021266273944871308 0 0.025482358002960448 -0.019891024795216945 0 0.02430028672427488 -0.02144367245681485 0 0.024781612772533889 -0.021266273944871308 0 0.02430028672427488 -0.02144367245681485 0 0.024393120000564046 -0.021854703982918965 0 0.024781612772533889 -0.021266273944871308 0 0.024393120000564046 -0.021854703982918965 0 0.024727414195173544 -0.021765761118072904 0 0.02430028672427488 -0.02144367245681485 0 0.024393120000564046 -0.021854703982918965 0 0.023630440659651159 -0.022320593143791412 0 0.024393120000564046 -0.021854703982918965 0 0.024603585038350025 -0.022375072924736936 0 0.023630440659651159 -0.022320593143791412 0 0.024393120000564046 -0.021854703982918965 0 0.024727414195173544 -0.021765761118072904 0 0.024603585038350025 -0.022375072924736936 0 0.024781612772533889 -0.021266273944871308 0 0.024727414195173544 -0.021765761118072904 0 0.024755450876654268 -0.021336670970590554 0 0.024804010936569938 -0.02065792187619081 0 0.024999887966120276 -0.021576387277246201 0 0.024727414195173544 -0.021765761118072904 0 0.024755450876654268 -0.021336670970590554 0 0.024997926089912276 -0.021578311569483113 0 0.024409462884033461 -0.021208273336016076 0 0.024755450876654268 -0.021336670970590554 0 0.024997926089912276 -0.021578311569483113 0 0.025124360320743763 -0.02020368109373398 0 0.025000315430208385 -0.020380350376579152 0 0.02499982880767675 -0.021576924512519732 0 0.024727414195173544 -0.021765761118072904 0 0.024953190375521749 -0.022981551224548816 0 0.024603585038350025 -0.022375072924736936 0 0.024997926089912276 -0.021578311569483113 0 0.024953190375521749 -0.022981551224548816 0 0.024997065991719303 -0.024999726975896811 0 0.024727414195173544 -0.021765761118072904 0 0.024997926089912276 -0.021578311569483113 0 0.024953190375521749 -0.022981551224548816 0 0.024953190375521749 -0.022981551224548816 0 0.024997065991719303 -0.024999726975896811 0 0.024313560287357511 -0.024997736668146288 0 0.024953190375521749 -0.022981551224548816 0 0.025096974415844998 -0.02374190914435546 0 0.024313560287357511 -0.024997736668146288 0 0.024953190375521749 -0.022981551224548816 0 0.025096974415844998 -0.02374190914435546 0 0.024857669443587378 -0.022818196150229061 0 0.024035049299830441 -0.024323606258630372 0 0.024308443425245723 -0.024999730833135583 0 0.02300812765221634 -0.025044453927697961 0 0.024308410798726639 -0.025000114256695734 0 0.023153218689172136 -0.024999316310512925 0 0.022004153004529022 -0.024999601625168986 0 0.023153218689172136 -0.024999316310512925 0 0.022510683261522408 -0.024688763006138273 0 0.022004153004529022 -0.024999601625168986 0 0.022510683261522408 -0.024688763006138273 0 0.023210678139978094 -0.02409601344765621 0 0.02300812765221634 -0.025044453927697961 0 0.023153218689172136 -0.024999316310512925 0 0.022510683261522408 -0.024688763006138273 0 0.025096974415844998 -0.02374190914435546 0 0.024729178125176134 -0.022609530698697856 0 0.024857669443587378 -0.022818196150229061 0 0.024035049299830441 -0.024323606258630372 0 0.023603245222164886 -0.023305346275855822 0 0.02300812765221634 -0.025044453927697961 0 0.022510683261522408 -0.024688763006138273 0 0.022415842598294964 -0.023899506336561207 0 0.022510683261522408 -0.024688763006138273 0 0.022415842598294964 -0.023899506336561207 0 0.023094160442268117 -0.023513396549987048 0 0.023603245222164886 -0.023305346275855822 0 0.023500453535213364 -0.022688331962628618 0 0.024729178125176134 -0.022609530698697856 0 0.024603585038350025 -0.022375072924736936 0 0.023476619876228223 -0.022559493863424599 0 0.022415842598294964 -0.023899506336561207 0 0.023476619876228223 -0.022559493863424599 0 0.023094160442268117 -0.023513396549987048 0 0.024953190375521749 -0.022981551224548816 0 0.024857669443587378 -0.022818196150229061 0 0.024603585038350025 -0.022375072924736936 0 0.024729178125176134 -0.022609530698697856 0 0.024857669443587378 -0.022818196150229061 0 0.024603585038350025 -0.022375072924736936 0 0.024603585038350025 -0.022375072924736936 0 0.023476619876228223 -0.022559493863424599 0 0.023630440659651159 -0.022320593143791412 0 0.023476619876228223 -0.022559493863424599 0 0.023085894614120278 -0.022695809128799913 0 0.022795996368832627 -0.02276890159355846 0 0.023085894614120278 -0.022695809128799913 0 0.021251170399549053 -0.023157509334199401 0 0.022795996368832627 -0.02276890159355846 0 0.023476619876228223 -0.022559493863424599 0 0.023085894614120278 -0.022695809128799913 0 0.023094160442268117 -0.023513396549987048 0 0.022510683261522408 -0.024688763006138273 0 0.023094160442268117 -0.023513396549987048 0 0.023210678139978094 -0.02409601344765621 0 0.02079613862700834 -0.025162473223466441 0 0.020594577039335184 -0.024999569247819962 0 0.019954022001777753 -0.024859729354459563 0 0.023085894614120278 -0.022695809128799913 0 0.023094160442268117 -0.023513396549987048 0 0.023210678139978094 -0.02409601344765621 0 0.020182308698165334 -0.024595666223605591 0 0.02079613862700834 -0.025162473223466441 0 0.019954022001777753 -0.024859729354459563 0 0.021619063627207606 -0.023709709402714878 0 0.021984394949747244 -0.024531616231752686 0 0.022001074004966068 -0.02499970933374061 0 0.021984394949747244 -0.024531616231752686 0 0.021999981304380356 -0.024999760960034999 0 0.02079613862700834 -0.025162473223466441 0 0.020594577039335184 -0.024999569247819962 0 0.019189639484646311 -0.024999164227837919 0 0.019954022001777753 -0.024859729354459563 0 0.018884937263130414 -0.024829998428302375 0 0.020594577039335184 -0.024999569247819962 0 0.019189639484646311 -0.024999164227837919 0 0.019954022001777753 -0.024859729354459563 0 0.019954022001777753 -0.024859729354459563 0 0.019461561635221263 -0.024386240351630142 0 0.018884937263130414 -0.024829998428302375 0 0.020379337019047074 -0.024116593085117623 0 0.020161604275388274 -0.023600229462648475 0 0.019461561635221263 -0.024386240351630142 0 0.019954022001777753 -0.024859729354459563 0 0.020379337019047074 -0.024116593085117623 0 0.019461561635221263 -0.024386240351630142 0 0.020182308698165334 -0.024595666223605591 0 0.019954022001777753 -0.024859729354459563 0 0.020379337019047074 -0.024116593085117623 0 0.020182308698165334 -0.024595666223605591 0 0.020379337019047074 -0.024116593085117623 0 0.021251170399549053 -0.023157509334199401 0 0.021619063627207606 -0.023709709402714878 0 0.021303740983209529 -0.023294159681396216 0 0.020379337019047074 -0.024116593085117623 0 0.021251170399549053 -0.023157509334199401 0 0.020161604275388274 -0.023600229462648475 0 0.020763173589299477 -0.023221840176103074 0 0.021691623945832676 -0.022977605333178799 0 0.020161604275388274 -0.023600229462648475 0 0.021251170399549053 -0.023157509334199401 0 0.021691623945832676 -0.022977605333178799 0 0.020161604275388274 -0.023600229462648475 0 0.020763173589299477 -0.023221840176103074 0 0.021691623945832676 -0.022977605333178799 0 0.021761503929342337 -0.022898605634281376 0 0.021691623945832676 -0.022977605333178799 0 0.022865951615519856 -0.022456429567965747 0 0.021761503929342337 -0.022898605634281376 0 0.021251170399549053 -0.023157509334199401 0 0.021691623945832676 -0.022977605333178799 0 0.022795996368832627 -0.02276890159355846 0 0.023476619876228223 -0.022559493863424599 0 0.022795996368832627 -0.02276890159355846 0 0.023630440659651159 -0.022320593143791412 0 0.022795996368832627 -0.02276890159355846 0 0.023630440659651159 -0.022320593143791412 0 0.022865951615519856 -0.022456429567965747 0 0.021691623945832676 -0.022977605333178799 0 0.022795996368832627 -0.02276890159355846 0 0.022865951615519856 -0.022456429567965747 0 0.022865951615519856 -0.022456429567965747 0 0.023683103760662086 -0.021576533083949155 0 0.02283986118662952 -0.022251642089613607 0 0.023683103760662086 -0.021576533083949155 0 0.02283986118662952 -0.022251642089613607 0 0.02369509055858781 -0.020878182123229217 0 0.023630440659651159 -0.022320593143791412 0 0.022865951615519856 -0.022456429567965747 0 0.023683103760662086 -0.021576533083949155 0 0.02283986118662952 -0.022251642089613607 0 0.021761503929342337 -0.022898605634281376 0 0.021254092676780995 -0.023265070936402999 0 0.02283986118662952 -0.022251642089613607 0 0.021254092676780995 -0.023265070936402999 0 0.023574198742374573 -0.021496347043651148 0 0.022865951615519856 -0.022456429567965747 0 0.02283986118662952 -0.022251642089613607 0 0.021761503929342337 -0.022898605634281376 0 0.020284304643388418 -0.023338848406997792 0 0.019571940952161127 -0.024052885317817348 0 0.019127696451659605 -0.023670456118653444 0 0.021761503929342337 -0.022898605634281376 0 0.020284304643388418 -0.023338848406997792 0 0.021254092676780995 -0.023265070936402999 0 0.020284304643388418 -0.023338848406997792 0 0.021254092676780995 -0.023265070936402999 0 0.019571940952161127 -0.024052885317817348 0 0.021254092676780995 -0.023265070936402999 0 0.019571940952161127 -0.024052885317817348 0 0.020175692922173281 -0.024460277147167506 0 0.019571940952161127 -0.024052885317817348 0 0.018656883418738991 -0.024052077872800202 0 0.019127696451659605 -0.023670456118653444 0 0.019571940952161127 -0.024052885317817348 0 0.018656883418738991 -0.024052077872800202 0 0.01875331941429401 -0.024529125043199724 0 0.018656883418738991 -0.024052077872800202 0 0.018019112891629465 -0.023981273339567417 0 0.01811837520551644 -0.024528178430760363 0 0.018408696426212075 -0.023820814782827136 0 0.018081220025160952 -0.023918905037097135 0 0.018019112891629465 -0.023981273339567417 0 0.018656883418738991 -0.024052077872800202 0 0.018408696426212075 -0.023820814782827136 0 0.018019112891629465 -0.023981273339567417 0 0.018656883418738991 -0.024052077872800202 0 0.019127696451659605 -0.023670456118653444 0 0.018408696426212075 -0.023820814782827136 0 0.019127696451659605 -0.023670456118653444 0 0.018408696426212075 -0.023820814782827136 0 0.018714944796244526 -0.023809362104109801 0 0.018408696426212075 -0.023820814782827136 0 0.018070115835300275 -0.024016997716572397 0 0.018081220025160952 -0.023918905037097135 0 0.018408696426212075 -0.023820814782827136 0 0.018070115835300275 -0.024016997716572397 0 0.018714944796244526 -0.023809362104109801 0 0.018070115835300275 -0.024016997716572397 0 0.018714944796244526 -0.023809362104109801 0 0.018192305986236657 -0.024164771053160283 0 0.018714944796244526 -0.023809362104109801 0 0.019682577336872772 -0.023532484587906317 0 0.018975128974096814 -0.023897417444560587 0 0.019127696451659605 -0.023670456118653444 0 0.018714944796244526 -0.023809362104109801 0 0.019682577336872772 -0.023532484587906317 0 0.020284304643388418 -0.023338848406997792 0 0.019127696451659605 -0.023670456118653444 0 0.019682577336872772 -0.023532484587906317 0 0.020763173589299477 -0.023221840176103074 0 0.021761503929342337 -0.022898605634281376 0 0.020284304643388418 -0.023338848406997792 0 0.020763173589299477 -0.023221840176103074 0 0.020284304643388418 -0.023338848406997792 0 0.019682577336872772 -0.023532484587906317 0 0.019682577336872772 -0.023532484587906317 0 0.020161604275388274 -0.023600229462648475 0 0.018975128974096814 -0.023897417444560587 0 0.020763173589299477 -0.023221840176103074 0 0.019682577336872772 -0.023532484587906317 0 0.020161604275388274 -0.023600229462648475 0 0.018975128974096814 -0.023897417444560587 0 0.018864433172619922 -0.024229102309599525 0 0.018192305986236657 -0.024164771053160283 0 0.020161604275388274 -0.023600229462648475 0 0.018975128974096814 -0.023897417444560587 0 0.018864433172619922 -0.024229102309599525 0 0.018864433172619922 -0.024229102309599525 0 0.019461561635221263 -0.024386240351630142 0 0.018164350318708423 -0.024681398635625806 0 0.018864433172619922 -0.024229102309599525 0 0.018164350318708423 -0.024681398635625806 0 0.01753357486079998 -0.024541880833881567 0 0.020161604275388274 -0.023600229462648475 0 0.018864433172619922 -0.024229102309599525 0 0.019461561635221263 -0.024386240351630142 0 0.019461561635221263 -0.024386240351630142 0 0.018164350318708423 -0.024681398635625806 0 0.018884937263130414 -0.024829998428302375 0 0.018164350318708423 -0.024681398635625806 0 0.017784123290858173 -0.02499911598099917 0 0.016377362982245749 -0.024999213567148831 0 0.018164350318708423 -0.024681398635625806 0 0.017784123290858173 -0.02499911598099917 0 0.018884937263130414 -0.024829998428302375 0 0.019189639484646311 -0.024999164227837919 0 0.017784123290858173 -0.02499911598099917 0 0.018884937263130414 -0.024829998428302375 0 0.016377362982245749 -0.024999213567148831 0 0.01753357486079998 -0.024541880833881567 0 0.016425592670037809 -0.024752870065769289 0 0.018164350318708423 -0.024681398635625806 0 0.016377362982245749 -0.024999213567148831 0 0.01753357486079998 -0.024541880833881567 0 0.01753357486079998 -0.024541880833881567 0 0.017457742205334113 -0.024360317055106159 0 0.016425592670037809 -0.024752870065769289 0 0.01753357486079998 -0.024541880833881567 0 0.018192305986236657 -0.024164771053160283 0 0.017457742205334113 -0.024360317055106159 0 0.018864433172619922 -0.024229102309599525 0 0.01753357486079998 -0.024541880833881567 0 0.018192305986236657 -0.024164771053160283 0 0.018714944796244526 -0.023809362104109801 0 0.018975128974096814 -0.023897417444560587 0 0.018192305986236657 -0.024164771053160283 0 0.018070115835300275 -0.024016997716572397 0 0.018192305986236657 -0.024164771053160283 0 0.017457742205334113 -0.024360317055106159 0 0.018070115835300275 -0.024016997716572397 0 0.017716992614603591 -0.024167364948612196 0 0.017457742205334113 -0.024360317055106159 0 0.017716992614603591 -0.024167364948612196 0 0.017040223154514738 -0.024445236768085139 0 0.017457742205334113 -0.024360317055106159 0 0.017081528500268575 -0.021639162334501083 0 0.016642336448415878 -0.020470961123460776 0 0.015639585739353996 -0.021625409604298471 0 0.017383320783264749 -0.022948121822438723 0 0.016893776144459739 -0.022076305157804541 0 0.017040223154514738 -0.024445236768085139 0 0.017457742205334113 -0.024360317055106159 0 0.016425592670037809 -0.024752870065769289 0 0.016893776144459739 -0.022076305157804541 0 0.015177210172922229 -0.023945510452100124 0 0.017040223154514738 -0.024445236768085139 0 0.016425592670037809 -0.024752870065769289 0 0.016382790478946387 -0.024759717919633193 0 0.015177210172922229 -0.023945510452100124 0 0.014971071656507623 -0.025001001412765005 0 0.014245260586669974 -0.025804637938093389 0 0.014971266119745601 -0.024999999477008292 0 0.014004295100540902 -0.024999975609518534 0 0.015177210172922229 -0.023945510452100124 0 0.014004632864622181 -0.025001426912702122 0 0.016425592670037809 -0.024752870065769289 0 0.016382790478946387 -0.024759717919633193 0 0.014976191351861153 -0.024999441882135338 0 0.016377362982245749 -0.024999213567148831 0 0.016425592670037809 -0.024752870065769289 0 0.014976191351861153 -0.024999441882135338 0 0.013221885020001468 -0.025545577458576219 0 0.012520213530308376 -0.024999741570989352 0 0.012662093154506502 -0.025994864659238368 0 0.013221885020001468 -0.025545577458576219 0 0.012520213530308376 -0.024999741570989352 0 0.014004163936636723 -0.024999937258400263 0 0.014140219855843664 -0.025701541856482255 0 0.013221885020001468 -0.025545577458576219 0 0.014004163936636723 -0.024999937258400263 0 0.015177210172922229 -0.023945510452100124 0 0.014416321578684244 -0.023306028153550411 0 0.014140219855843664 -0.025701541856482255 0 0.013221885020001468 -0.025545577458576219 0 0.013254333580794496 -0.026573149543370766 0 0.016642336448415878 -0.020470961123460776 0 0.016287178053268896 -0.019405731222920445 0 0.01537167822942161 -0.020347530535181561 0 0.013221885020001468 -0.025545577458576219 0 0.012662093154506502 -0.025994864659238368 0 0.013254333580794496 -0.026573149543370766 0 0.012219712307584611 -0.026575899890999625 0 0.012662093154506502 -0.025994864659238368 0 0.013254333580794496 -0.026573149543370766 0 0.012418200940371318 -0.027445715380140033 0 0.012219712307584611 -0.026575899890999625 0 0.013254333580794496 -0.026573149543370766 0 0.016642336448415878 -0.020470961123460776 0 0.01537167822942161 -0.020347530535181561 0 0.015639585739353996 -0.021625409604298471 0 0.012976192340798439 -0.023806726019149134 0 0.014416321578684244 -0.023306028153550411 0 0.014320389907369807 -0.021381175218378914 0 0.01537167822942161 -0.020347530535181561 0 0.015639585739353996 -0.021625409604298471 0 0.015639585739353996 -0.021625409604298471 0 0.014428434676090245 -0.022347334385640297 0 0.01531645729144112 -0.022751709219641567 0 0.012976192340798439 -0.023806726019149134 0 0.013986531053087684 -0.022543603890552221 0 0.014320389907369807 -0.021381175218378914 0 0.015639585739353996 -0.021625409604298471 0 0.014428434676090245 -0.022347334385640297 0 0.014428434676090245 -0.022347334385640297 0 0.014349225823419154 -0.023578392178527668 0 0.01531645729144112 -0.022751709219641567 0 0.013986531053087684 -0.022543603890552221 0 0.01430194815598248 -0.023704865073383215 0 0.014349225823419154 -0.023578392178527668 0 0.01531645729144112 -0.022751709219641567 0 0.015700161099971133 -0.023761924746728235 0 0.01531645729144112 -0.022751709219641567 0 0.016322047420325256 -0.022686797671957505 0 0.015700161099971133 -0.023761924746728235 0 0.015639585739353996 -0.021625409604298471 0 0.01531645729144112 -0.022751709219641567 0 0.016322047420325256 -0.022686797671957505 0 0.017081528500268575 -0.021639162334501083 0 0.015639585739353996 -0.021625409604298471 0 0.016322047420325256 -0.022686797671957505 0 0.017081528500268575 -0.021639162334501083 0 0.017553527946279276 -0.022862342922426525 0 0.016322047420325256 -0.022686797671957505 0 0.017383320783264749 -0.022948121822438723 0 0.017794659433225203 -0.023391708527015009 0 0.018070115835300275 -0.024016997716572397 0 0.017716992614603591 -0.024167364948612196 0 0.018081220025160952 -0.023918905037097135 0 0.017553527946279276 -0.022862342922426525 0 0.016322047420325256 -0.022686797671957505 0 0.016917541784341097 -0.023755041242483527 0 0.016322047420325256 -0.022686797671957505 0 0.016917541784341097 -0.023755041242483527 0 0.015700161099971133 -0.023761924746728235 0 0.016917541784341097 -0.023755041242483527 0 0.016552857285656693 -0.024348826060338204 0 0.015700161099971133 -0.023761924746728235 0 0.017794659433225203 -0.023391708527015009 0 0.01801042982561022 -0.023962362023899828 0 0.017553527946279276 -0.022862342922426525 0 0.016917541784341097 -0.023755041242483527 0 0.018019112891629465 -0.023981273339567417 0 0.016917541784341097 -0.023755041242483527 0 0.018019112891629465 -0.023981273339567417 0 0.017282295865812994 -0.024546670069841757 0 0.018019112891629465 -0.023981273339567417 0 0.017282295865812994 -0.024546670069841757 0 0.01811837520551644 -0.024528178430760363 0 0.016917541784341097 -0.023755041242483527 0 0.017282295865812994 -0.024546670069841757 0 0.016552857285656693 -0.024348826060338204 0 0.017282295865812994 -0.024546670069841757 0 0.016552857285656693 -0.024348826060338204 0 0.01635483199542628 -0.025010957240787213 0 0.016552857285656693 -0.024348826060338204 0 0.015797863090934942 -0.024581889918227937 0 0.015700161099971133 -0.023761924746728235 0 0.016552857285656693 -0.024348826060338204 0 0.015797863090934942 -0.024581889918227937 0 0.01635483199542628 -0.025010957240787213 0 0.015797863090934942 -0.024581889918227937 0 0.015268975386411969 -0.024606564192716941 0 0.01635483199542628 -0.025010957240787213 0 0.015633714478022136 -0.024574903302593466 0 0.014785648358728344 -0.024016610106614201 0 0.015797863090934942 -0.024581889918227937 0 0.014394251934649807 -0.024933128215439998 0 0.014748893441250587 -0.024142700735473231 0 0.013539161941228365 -0.023891302195031154 0 0.014394251934649807 -0.024933128215439998 0 0.014748893441250587 -0.024142700735473231 0 0.013539161941228365 -0.023891302195031154 0 0.014349225823419154 -0.023578392178527668 0 0.014748893441250587 -0.024142700735473231 0 0.014349225823419154 -0.023578392178527668 0 0.014748893441250587 -0.024142700735473231 0 0.015700161099971133 -0.023761924746728235 0 0.015797863090934942 -0.024581889918227937 0 0.014748893441250587 -0.024142700735473231 0 0.015700161099971133 -0.023761924746728235 0 0.016563194966040567 -0.023708417529094142 0 0.016728220689718732 -0.023271231597613292 0 0.017321459342772141 -0.023776382054796236 0 0.016563194966040567 -0.023708417529094142 0 0.016057315385804519 -0.023690262896302876 0 0.016330486884601265 -0.024009578322362203 0 0.016563194966040567 -0.023708417529094142 0 0.016057315385804519 -0.023690262896302876 0 0.016153737614771603 -0.023289257575158154 0 0.015805952091807424 -0.023028933997945686 0 0.016097339349023361 -0.022716894750033419 0 0.016153737614771603 -0.023289257575158154 0 0.016097339349023361 -0.022716894750033419 0 0.016153737614771603 -0.023289257575158154 0 0.016728220689718732 -0.023271231597613292 0 0.014785648358728344 -0.024016610106614201 0 0.016677710679148403 -0.024090228721482747 0 0.016563194966040567 -0.023708417529094142 0 0.016153737614771603 -0.023289257575158154 0 0.016728220689718732 -0.023271231597613292 0 0.017282295865812994 -0.024546670069841757 0 0.01635483199542628 -0.025010957240787213 0 0.01758390412195647 -0.025102018435934677 0 0.017282295865812994 -0.024546670069841757 0 0.01758390412195647 -0.025102018435934677 0 0.01811837520551644 -0.024528178430760363 0 0.01758390412195647 -0.025102018435934677 0 0.018206077934101093 -0.024771271389442202 0 0.01811837520551644 -0.024528178430760363 0 0.016677710679148403 -0.024090228721482747 0 0.01739469033802615 -0.0244165740562058 0 0.017321459342772141 -0.023776382054796236 0 0.017296779365331753 -0.024403273239096596 0 0.016798467278004998 -0.024157993175873943 0 0.016563194966040567 -0.023708417529094142 0 0.017321459342772141 -0.023776382054796236 0 0.016798467278004998 -0.024157993175873943 0 0.017321459342772141 -0.023776382054796236 0 0.017296779365331753 -0.024403273239096596 0 0.018081021100997779 -0.024648081947270854 0 0.01758390412195647 -0.025102018435934677 0 0.018081021100997779 -0.024648081947270854 0 0.018206077934101093 -0.024771271389442202 0 0.01739469033802615 -0.0244165740562058 0 0.018016302626962948 -0.024639014151081006 0 0.017296779365331753 -0.024403273239096596 0 0.017598781459399943 -0.024735754499038948 0 0.018081021100997779 -0.024648081947270854 0 0.017296779365331753 -0.024403273239096596 0 0.01687537949604773 -0.024535881113275197 0 0.016798467278004998 -0.024157993175873943 0 0.017296779365331753 -0.024403273239096596 0 0.01687537949604773 -0.024535881113275197 0 0.017598781459399943 -0.024735754499038948 0 0.01687537949604773 -0.024535881113275197 0 0.016798467278004998 -0.024157993175873943 0 0.016464555312242678 -0.02436705239748925 0 0.01687537949604773 -0.024535881113275197 0 0.016464555312242678 -0.02436705239748925 0 0.016451506165648094 -0.024639189231261592 0 0.016563194966040567 -0.023708417529094142 0 0.016798467278004998 -0.024157993175873943 0 0.016330486884601265 -0.024009578322362203 0 0.016798467278004998 -0.024157993175873943 0 0.016330486884601265 -0.024009578322362203 0 0.016464555312242678 -0.02436705239748925 0 0.016232320017014527 -0.024222615981327612 0 0.016330486884601265 -0.024009578322362203 0 0.016464555312242678 -0.02436705239748925 0 0.016003597982045776 -0.02404373112086125 0 0.016232320017014527 -0.024222615981327612 0 0.016330486884601265 -0.024009578322362203 0 0.015736304956246568 -0.024064457874530265 0 0.016057315385804519 -0.023690262896302876 0 0.016330486884601265 -0.024009578322362203 0 0.014077135054793553 -0.024420534067510925 0 0.016922034456402505 -0.023971758179555026 0 0.016146866131682498 -0.024467637657153412 0 0.016464555312242678 -0.02436705239748925 0 0.016451506165648094 -0.024639189231261592 0 0.016146866131682498 -0.024467637657153412 0 0.016232320017014527 -0.024222615981327612 0 0.016464555312242678 -0.02436705239748925 0 0.016146866131682498 -0.024467637657153412 0 0.016451506165648094 -0.024639189231261592 0 0.016259963967206571 -0.02473130899505958 0 0.01687537949604773 -0.024535881113275197 0 0.016451506165648094 -0.024639189231261592 0 0.016854425620147807 -0.024773149817839974 0 0.016266131966448938 -0.024710820391851733 0 0.016747281726859541 -0.025002815866288743 0 0.016854425620147807 -0.024773149817839974 0 0.016451506165648094 -0.024639189231261592 0 0.016266131966448938 -0.024710820391851733 0 0.016854425620147807 -0.024773149817839974 0 0.016266131966448938 -0.024710820391851733 0 0.015837523048462136 -0.024480042370972954 0 0.015704690095564487 -0.024706388707257713 0 0.016451506165648094 -0.024639189231261592 0 0.016266131966448938 -0.024710820391851733 0 0.016259963967206571 -0.02473130899505958 0 0.015297158815183639 -0.024066386009699917 0 0.015725857600250755 -0.024593899615897766 0 0.016491747228843182 -0.024796017576221234 0 0.015297158815183639 -0.024066386009699917 0 0.014641501351455387 -0.024237696961737894 0 0.015366472520392345 -0.023264252179026994 0 0.015704690095564487 -0.024706388707257713 0 0.016266131966448938 -0.024710820391851733 0 0.015704690095564487 -0.024706388707257713 0 0.016261808119850139 -0.0250118280643837 0 0.016261808119850139 -0.0250118280643837 0 0.01662870034295489 -0.025419443353403553 0 0.016747281726859541 -0.025002815866288743 0 0.016266131966448938 -0.024710820391851733 0 0.016261808119850139 -0.0250118280643837 0 0.016747281726859541 -0.025002815866288743 0 0.016261808119850139 -0.0250118280643837 0 0.015878666661505968 -0.025410265426506075 0 0.01662870034295489 -0.025419443353403553 0 0.015878666661505968 -0.025410265426506075 0 0.01662870034295489 -0.025419443353403553 0 0.01639239449345279 -0.025939178966938828 0 0.015704690095564487 -0.024706388707257713 0 0.016261808119850139 -0.0250118280643837 0 0.015878666661505968 -0.025410265426506075 0 0.01470828129821198 -0.02529615076071209 0 0.015704690095564487 -0.024706388707257713 0 0.015878666661505968 -0.025410265426506075 0 0.017312536190113623 -0.025357786299418438 0 0.017755542241003123 -0.025769929876833988 0 0.017111967295773557 -0.026044948772933115 0 0.01662870034295489 -0.025419443353403553 0 0.017312536190113623 -0.025357786299418438 0 0.017111967295773557 -0.026044948772933115 0 0.01662870034295489 -0.025419443353403553 0 0.016747281726859541 -0.025002815866288743 0 0.017312536190113623 -0.025357786299418438 0 0.016747281726859541 -0.025002815866288743 0 0.017312536190113623 -0.025357786299418438 0 0.017455594851024162 -0.025004235791053622 0 0.017312536190113623 -0.025357786299418438 0 0.017455594851024162 -0.025004235791053622 0 0.017941339902818251 -0.025281518271990697 0 0.016747281726859541 -0.025002815866288743 0 0.017455594851024162 -0.025004235791053622 0 0.016854425620147807 -0.024773149817839974 0 0.01687537949604773 -0.024535881113275197 0 0.016854425620147807 -0.024773149817839974 0 0.017598781459399943 -0.024735754499038948 0 0.017455594851024162 -0.025004235791053622 0 0.016854425620147807 -0.024773149817839974 0 0.017598781459399943 -0.024735754499038948 0 0.017455594851024162 -0.025004235791053622 0 0.017598781459399943 -0.024735754499038948 0 0.018127638180400855 -0.024965601623622227 0 0.017598781459399943 -0.024735754499038948 0 0.018127638180400855 -0.024965601623622227 0 0.018328657919640449 -0.024798456027114817 0 0.018127638180400855 -0.024965601623622227 0 0.018621249535649937 -0.024948719039210639 0 0.018328657919640449 -0.024798456027114817 0 0.018127638180400855 -0.024965601623622227 0 0.018621249535649937 -0.024948719039210639 0 0.018605627017457271 -0.025128608205684071 0 0.018127638180400855 -0.024965601623622227 0 0.017941339902818251 -0.025281518271990697 0 0.018605627017457271 -0.025128608205684071 0 0.017455594851024162 -0.025004235791053622 0 0.018127638180400855 -0.024965601623622227 0 0.017941339902818251 -0.025281518271990697 0 0.017312536190113623 -0.025357786299418438 0 0.017941339902818251 -0.025281518271990697 0 0.017755542241003123 -0.025769929876833988 0 0.017941339902818251 -0.025281518271990697 0 0.018376471640234697 -0.025537709625167777 0 0.017755542241003123 -0.025769929876833988 0 0.017941339902818251 -0.025281518271990697 0 0.018376471640234697 -0.025537709625167777 0 0.018605627017457271 -0.025128608205684071 0 0.018490654405232003 -0.025367079251499825 0 0.017827650742244367 -0.025647158276040097 0 0.018600659626991874 -0.02518978813048927 0 0.017912919873086464 -0.025506710761381848 0 0.018583544249845471 -0.025880520926394916 0 0.018600659626991874 -0.02518978813048927 0 0.01887340318252332 -0.025530441169435331 0 0.018583544249845471 -0.025880520926394916 0 0.01911116474883898 -0.025526563976027223 0 0.018952305455469162 -0.025317011718891679 0 0.01914983460296512 -0.025352132037350344 0 0.01911116474883898 -0.025526563976027223 0 0.019434528766302854 -0.025063126119070644 0 0.019671478250049793 -0.025411918161560031 0 0.019134391065677488 -0.025472013224777514 0 0.019255704970153845 -0.025281284430526338 0 0.01911116474883898 -0.025526563976027223 0 0.01887340318252332 -0.025530441169435331 0 0.018952305455469162 -0.025317011718891679 0 0.018600659626991874 -0.02518978813048927 0 0.01887340318252332 -0.025530441169435331 0 0.018952305455469162 -0.025317011718891679 0 0.018600659626991874 -0.02518978813048927 0 0.018952305455469162 -0.025317011718891679 0 0.018970050794782537 -0.025227335880616424 0 0.018490654405232003 -0.025367079251499825 0 0.018921002256003152 -0.025220196078865238 0 0.018952305455469162 -0.025317011718891679 0 0.019068638077804786 -0.025277312367849233 0 0.01914983460296512 -0.025352132037350344 0 0.018952305455469162 -0.025317011718891679 0 0.019068638077804786 -0.025277312367849233 0 0.018970050794782537 -0.025227335880616424 0 0.019068638077804786 -0.025277312367849233 0 0.019092974588939552 -0.025205658032897687 0 0.01922438960611272 -0.025231329162502862 0 0.019068638077804786 -0.025277312367849233 0 0.019092974588939552 -0.025205658032897687 0 0.018970050794782537 -0.025227335880616424 0 0.019092974588939552 -0.025205658032897687 0 0.018970050794782537 -0.025227335880616424 0 0.018968710746714967 -0.025127083551170808 0 0.019092974588939552 -0.025205658032897687 0 0.018968710746714967 -0.025127083551170808 0 0.019135439506715847 -0.025080254051547547 0 0.019092974588939552 -0.025205658032897687 0 0.019229827585590813 -0.025119813556496784 0 0.019333444118427839 -0.025166649555026104 0 0.019092974588939552 -0.025205658032897687 0 0.019229827585590813 -0.025119813556496784 0 0.019135439506715847 -0.025080254051547547 0 0.018376471640234697 -0.025537709625167777 0 0.018970050794782537 -0.025227335880616424 0 0.018605627017457271 -0.025128608205684071 0 0.018970050794782537 -0.025227335880616424 0 0.018968710746714967 -0.025127083551170808 0 0.018605627017457271 -0.025128608205684071 0 0.018968710746714967 -0.025127083551170808 0 0.018605627017457271 -0.025128608205684071 0 0.018966366005146389 -0.024993248272973563 0 0.018621249535649937 -0.024948719039210639 0 0.018605627017457271 -0.025128608205684071 0 0.018966366005146389 -0.024993248272973563 0 0.018621249535649937 -0.024948719039210639 0 0.018966366005146389 -0.024993248272973563 0 0.018846421107901985 -0.024860448564056066 0 0.019258147759757271 -0.025049817629052677 0 0.019135439506715847 -0.025080254051547547 0 0.019232463662490606 -0.024969437433609774 0 0.019258147759757271 -0.025049817629052677 0 0.019232463662490606 -0.024969437433609774 0 0.019300233205423078 -0.024999831783261334 0 0.019229827585590813 -0.025119813556496784 0 0.019258147759757271 -0.025049817629052677 0 0.019135439506715847 -0.025080254051547547 0 0.018966366005146389 -0.024993248272973563 0 0.019135439506715847 -0.025080254051547547 0 0.019232463662490606 -0.024969437433609774 0 0.018968710746714967 -0.025127083551170808 0 0.018966366005146389 -0.024993248272973563 0 0.019135439506715847 -0.025080254051547547 0 0.018966366005146389 -0.024993248272973563 0 0.019232463662490606 -0.024969437433609774 0 0.019154409503909765 -0.024885785581721338 0 0.019232463662490606 -0.024969437433609774 0 0.019300233205423078 -0.024999831783261334 0 0.019364171641515469 -0.024968258122432783 0 0.019232463662490606 -0.024969437433609774 0 0.019392050777846712 -0.024893161418314561 0 0.019364171641515469 -0.024968258122432783 0 0.019154409503909765 -0.024885785581721338 0 0.01932077300266927 -0.024741714880349815 0 0.019392050777846712 -0.024893161418314561 0 0.019232463662490606 -0.024969437433609774 0 0.019154409503909765 -0.024885785581721338 0 0.019392050777846712 -0.024893161418314561 0 0.01932077300266927 -0.024741714880349815 0 0.019642799526351819 -0.02477389044688114 0 0.019392050777846712 -0.024893161418314561 0 0.01932077300266927 -0.024741714880349815 0 0.018846421107901985 -0.024860448564056066 0 0.018579992111787961 -0.024752122279247925 0 0.019154409503909765 -0.024885785581721338 0 0.01932077300266927 -0.024741714880349815 0 0.018846421107901985 -0.024860448564056066 0 0.018966366005146389 -0.024993248272973563 0 0.019154409503909765 -0.024885785581721338 0 0.018846421107901985 -0.024860448564056066 0 0.018846421107901985 -0.024860448564056066 0 0.018328657919640449 -0.024798456027114817 0 0.018579992111787961 -0.024752122279247925 0 0.018621249535649937 -0.024948719039210639 0 0.018846421107901985 -0.024860448564056066 0 0.018328657919640449 -0.024798456027114817 0 0.017598781459399943 -0.024735754499038948 0 0.018328657919640449 -0.024798456027114817 0 0.018081021100997779 -0.024648081947270854 0 0.018328657919640449 -0.024798456027114817 0 0.018081021100997779 -0.024648081947270854 0 0.018579992111787961 -0.024752122279247925 0 0.018081021100997779 -0.024648081947270854 0 0.018579992111787961 -0.024752122279247925 0 0.018206077934101093 -0.024771271389442202 0 0.018579992111787961 -0.024752122279247925 0 0.018206077934101093 -0.024771271389442202 0 0.01875331941429401 -0.024529125043199724 0 0.018206077934101093 -0.024771271389442202 0 0.01811837520551644 -0.024528178430760363 0 0.01875331941429401 -0.024529125043199724 0 0.018656883418738991 -0.024052077872800202 0 0.01811837520551644 -0.024528178430760363 0 0.01875331941429401 -0.024529125043199724 0 0.019571940952161127 -0.024052885317817348 0 0.01932077300266927 -0.024741714880349815 0 0.020175692922173281 -0.024460277147167506 0 0.019571940952161127 -0.024052885317817348 0 0.01932077300266927 -0.024741714880349815 0 0.01875331941429401 -0.024529125043199724 0 0.01932077300266927 -0.024741714880349815 0 0.020175692922173281 -0.024460277147167506 0 0.019642799526351819 -0.02477389044688114 0 0.01932077300266927 -0.024741714880349815 0 0.018579992111787961 -0.024752122279247925 0 0.01875331941429401 -0.024529125043199724 0 0.023602859645272607 -0.020924099402271329 0 0.023574198742374573 -0.021496347043651148 0 0.024317733726970586 -0.019842870468938675 0 0.021796503851301344 -0.022846235646667379 0 0.021971998631175601 -0.02229964733238466 0 0.0213292104506431 -0.023048095899613864 0 0.021796503851301344 -0.022846235646667379 0 0.02283986118662952 -0.022251642089613607 0 0.023602859645272607 -0.020924099402271329 0 0.02369509055858781 -0.020878182123229217 0 0.02283986118662952 -0.022251642089613607 0 0.023602859645272607 -0.020924099402271329 0 0.023574198742374573 -0.021496347043651148 0 0.02369509055858781 -0.020878182123229217 0 0.024121162386537203 -0.019613813442668479 0 0.024112810668389169 -0.020482778058779023 0 0.023683103760662086 -0.021576533083949155 0 0.02369509055858781 -0.020878182123229217 0 0.024112810668389169 -0.020482778058779023 0 0.023602859645272607 -0.020924099402271329 0 0.02369509055858781 -0.020878182123229217 0 0.023929175288356645 -0.019959771338086702 0 0.02369509055858781 -0.020878182123229217 0 0.024121162386537203 -0.019613813442668479 0 0.023929175288356645 -0.019959771338086702 0 0.024121162386537203 -0.019613813442668479 0 0.023929175288356645 -0.019959771338086702 0 0.024241324681307113 -0.019062148181056664 0 0.024121162386537203 -0.019613813442668479 0 0.024241324681307113 -0.019062148181056664 0 0.024470248035056295 -0.018455125030211364 0 0.024241324681307113 -0.019062148181056664 0 0.024433680466726684 -0.018192930076871363 0 0.024470248035056295 -0.018455125030211364 0 0.023929175288356645 -0.019959771338086702 0 0.024241324681307113 -0.019062148181056664 0 0.024222847180449592 -0.019434362729440345 0 0.024241324681307113 -0.019062148181056664 0 0.024222847180449592 -0.019434362729440345 0 0.024258153901246558 -0.01924690650306821 0 0.024222847180449592 -0.019434362729440345 0 0.024317733726970586 -0.019842870468938675 0 0.024258153901246558 -0.01924690650306821 0 0.023929175288356645 -0.019959771338086702 0 0.024222847180449592 -0.019434362729440345 0 0.024317733726970586 -0.019842870468938675 0 0.023602859645272607 -0.020924099402271329 0 0.023929175288356645 -0.019959771338086702 0 0.024317733726970586 -0.019842870468938675 0 0.021971998631175601 -0.02229964733238466 0 0.021778153969821405 -0.022082841041954127 0 0.019642799526351819 -0.02477389044688114 0 0.019392050777846712 -0.024893161418314561 0 0.019495937981118816 -0.024971097450050557 0 0.019392050777846712 -0.024893161418314561 0 0.019364171641515469 -0.024968258122432783 0 0.019424019755552781 -0.024975133249801471 0 0.019300233205423078 -0.024999831783261334 0 0.019364171641515469 -0.024968258122432783 0 0.019343523691531705 -0.02502232041221919 0 0.019364171641515469 -0.024968258122432783 0 0.019424019755552781 -0.024975133249801471 0 0.01939517958890501 -0.025008152191132331 0 0.019392050777846712 -0.024893161418314561 0 0.019495937981118816 -0.024971097450050557 0 0.019424019755552781 -0.024975133249801471 0 0.019495937981118816 -0.024971097450050557 0 0.019424019755552781 -0.024975133249801471 0 0.01947450479263679 -0.025007411945513026 0 0.019424019755552781 -0.024975133249801471 0 0.019432306248215476 -0.025025413507308015 0 0.01939517958890501 -0.025008152191132331 0 0.019424019755552781 -0.024975133249801471 0 0.019432306248215476 -0.025025413507308015 0 0.01947450479263679 -0.025007411945513026 0 0.019432306248215476 -0.025025413507308015 0 0.01947450479263679 -0.025007411945513026 0 0.019512769053183845 -0.025047160386218417 0 0.019495937981118816 -0.024971097450050557 0 0.01947450479263679 -0.025007411945513026 0 0.019512769053183845 -0.025047160386218417 0 0.019432306248215476 -0.025025413507308015 0 0.019380152326532684 -0.025050420559609782 0 0.019410129319614708 -0.025088827159400594 0 0.019432306248215476 -0.025025413507308015 0 0.019512769053183845 -0.025047160386218417 0 0.019410129319614708 -0.025088827159400594 0 0.019380152326532684 -0.025050420559609782 0 0.019327269764330492 -0.025087396863651357 0 0.019410129319614708 -0.025088827159400594 0 0.019380152326532684 -0.025050420559609782 0 0.019343523691531705 -0.02502232041221919 0 0.019327269764330492 -0.025087396863651357 0 0.019229827585590813 -0.025119813556496784 0 0.019258147759757271 -0.025049817629052677 0 0.019327269764330492 -0.025087396863651357 0 0.019258147759757271 -0.025049817629052677 0 0.019343523691531705 -0.02502232041221919 0 0.019327269764330492 -0.025087396863651357 0 0.019258147759757271 -0.025049817629052677 0 0.019300233205423078 -0.024999831783261334 0 0.019343523691531705 -0.02502232041221919 0 0.019364171641515469 -0.024968258122432783 0 0.019343523691531705 -0.02502232041221919 0 0.01939517958890501 -0.025008152191132331 0 0.019432306248215476 -0.025025413507308015 0 0.019380152326532684 -0.025050420559609782 0 0.01939517958890501 -0.025008152191132331 0 0.019380152326532684 -0.025050420559609782 0 0.019343523691531705 -0.02502232041221919 0 0.01939517958890501 -0.025008152191132331 0 0.024921096856910119 -0.018189634999948408 0 0.022876402822332536 -0.020864038087222512 0 0.024241324681307113 -0.019062148181056664 0 0.024258153901246558 -0.01924690650306821 0 0.02426958328783016 -0.019283808165122786 0 0.019495937981118816 -0.024971097450050557 0 0.019512769053183845 -0.025047160386218417 0 0.019604607646527397 -0.025082453411817744 0 0.021778153969821405 -0.022082841041954127 0 0.022876402822332536 -0.020864038087222512 0 0.021849853251910689 -0.02135133708330969 0 0.021245071049678318 -0.022162302279695855 0 0.022455017417547525 -0.022553721792636428 0 0.022876402822332536 -0.020864038087222512 0 0.023113288925584584 -0.020786303200559932 0 0.019512769053183845 -0.025047160386218417 0 0.019604607646527397 -0.025082453411817744 0 0.019460686446507759 -0.025148631432627928 0 0.022876402822332536 -0.020864038087222512 0 0.019518866004414243 -0.024594159451626581 0 0.019109979443978398 -0.025282977695375925 0 0.019518866004414243 -0.024594159451626581 0 0.019092974588939552 -0.025205658032897687 0 0.019333444118427839 -0.025166649555026104 0 0.019452657074212076 -0.025324016104228755 0 0.019229827585590813 -0.025119813556496784 0 0.019333444118427839 -0.025166649555026104 0 0.019327269764330492 -0.025087396863651357 0 0.019333444118427839 -0.025166649555026104 0 0.019327269764330492 -0.025087396863651357 0 0.019410129319614708 -0.025088827159400594 0 0.019333444118427839 -0.025166649555026104 0 0.019410129319614708 -0.025088827159400594 0 0.019460686446507759 -0.025148631432627928 0 0.019604607646527397 -0.025082453411817744 0 0.019460686446507759 -0.025148631432627928 0 0.019452657074212076 -0.025324016104228755 0 0.019512769053183845 -0.025047160386218417 0 0.019410129319614708 -0.025088827159400594 0 0.019460686446507759 -0.025148631432627928 0 0.019333444118427839 -0.025166649555026104 0 0.019460686446507759 -0.025148631432627928 0 0.019452657074212076 -0.025324016104228755 0 0.019068638077804786 -0.025277312367849233 0 0.01914983460296512 -0.025352132037350344 0 0.01922438960611272 -0.025231329162502862 0 0.019255704970153845 -0.025281284430526338 0 0.019518866004414243 -0.024594159451626581 0 0.019434528766302854 -0.025063126119070644 0 0.019709314841151158 -0.024738006777951269 0 0.019778782218773567 -0.025041898455052496 0 0.019518866004414243 -0.024594159451626581 0 0.023113288925584584 -0.020786303200559932 0 0.019778782218773567 -0.025041898455052496 0 0.019949858648178578 -0.025238195148850125 0 0.02013037028090401 -0.024927001135004449 0 0.019709314841151158 -0.024738006777951269 0 0.019778782218773567 -0.025041898455052496 0 0.02013037028090401 -0.024927001135004449 0 0.019949858648178578 -0.025238195148850125 0 0.020105977964588052 -0.025290707732623052 0 0.02013037028090401 -0.024927001135004449 0 0.019949858648178578 -0.025238195148850125 0 0.020105977964588052 -0.025290707732623052 0 0.019953507755969258 -0.025444730471582581 0 0.019949858648178578 -0.025238195148850125 0 0.019671478250049793 -0.025411918161560031 0 0.019953507755969258 -0.025444730471582581 0 0.019778782218773567 -0.025041898455052496 0 0.019949858648178578 -0.025238195148850125 0 0.019671478250049793 -0.025411918161560031 0 0.019434528766302854 -0.025063126119070644 0 0.019778782218773567 -0.025041898455052496 0 0.019671478250049793 -0.025411918161560031 0 0.025065908887429319 -0.018214308023920944 0 0.025058594092196011 -0.018209862976881503 0 0.025101770580184021 -0.018180200704972393 0 0.025065908887429319 -0.018214308023920944 0 0.025047460181825611 -0.018223947196271743 0 0.025058594092196011 -0.018209862976881503 0 0.025065908887429319 -0.018214308023920944 0 0.025048872052036899 -0.018232431801663417 0 0.025047460181825611 -0.018223947196271743 0 0.025065908887429319 -0.018214308023920944 0 0.025048872052036899 -0.018232431801663417 0 0.025063995041126573 -0.018224177828117839 0 0.020125035607672297 -0.025346932763576805 0 0.020105977964588052 -0.025290707732623052 0 0.02013037028090401 -0.024927001135004449 0 0.022850434146446094 -0.021776659318958381 0 0.023113288925584584 -0.020786303200559932 0 0.025048872052036899 -0.018232431801663417 0 0.025047460181825611 -0.018223947196271743 0 0.025015737405694675 -0.018239018306942446 0 0.024374834813601153 -0.018419709465893098 0 0.024410421577063014 -0.018594134444415902 0 0.024401293699330803 -0.018418804513460719 0 0.025047460181825611 -0.018223947196271743 0 0.025015737405694675 -0.018239018306942446 0 0.025058594092196011 -0.018209862976881503 0 0.023113288925584584 -0.020786303200559932 0 0.024952585728901792 -0.018202480240584459 0 0.024410421577063014 -0.018594134444415902 0 0.024401293699330803 -0.018418804513460719 0 0.024663434215730196 -0.018420060664986918 0 0.024401293699330803 -0.018418804513460719 0 0.024433680466726684 -0.018192930076871363 0 0.024663434215730196 -0.018420060664986918 0 0.024401293699330803 -0.018418804513460719 0 0.024356089502603536 -0.018429677821783595 0 0.024433680466726684 -0.018192930076871363 0 0.024589937060049343 -0.018484185462948933 0 0.024374834813601153 -0.018419709465893098 0 0.024356089502603536 -0.018429677821783595 0 0.024374834813601153 -0.018419709465893098 0 0.024401293699330803 -0.018418804513460719 0 0.024356089502603536 -0.018429677821783595 0 0.024241324681307113 -0.019062148181056664 0 0.024589937060049343 -0.018484185462948933 0 0.024356089502603536 -0.018429677821783595 0 0.024241324681307113 -0.019062148181056664 0 0.024356089502603536 -0.018429677821783595 0 0.024433680466726684 -0.018192930076871363 0 0.024433680466726684 -0.018192930076871363 0 0.025348853697816545 -0.017044878537304152 0 0.024470248035056295 -0.018455125030211364 0 0.025348853697816545 -0.017044878537304152 0 0.024663434215730196 -0.018420060664986918 0 0.025492006376615424 -0.018299274641930204 0 0.025429685025612499 -0.016912548083269297 0 0.025773261689164471 -0.016409258970064275 0 0.024433680466726684 -0.018192930076871363 0 0.025348853697816545 -0.017044878537304152 0 0.024663434215730196 -0.018420060664986918 0 0.024410421577063014 -0.018594134444415902 0 0.024663434215730196 -0.018420060664986918 0 0.02485275679768972 -0.018883364403947646 0 0.024663434215730196 -0.018420060664986918 0 0.02485275679768972 -0.018883364403947646 0 0.025492006376615424 -0.018299274641930204 0 0.024990359456885779 -0.01880767913198881 0 0.025722293635556875 -0.015652034567395393 0 0.02485275679768972 -0.018883364403947646 0 0.025545336841728737 -0.019085949110539357 0 0.025492006376615424 -0.018299274641930204 0 0.025101770580184021 -0.018180200704972393 0 0.025141494865796227 -0.018151034203457265 0 0.025118457638685251 -0.018183470641670453 0 0.025065908887429319 -0.018214308023920944 0 0.025101770580184021 -0.018180200704972393 0 0.025080589376942193 -0.018211515443971541 0 0.024952585728901792 -0.018202480240584459 0 0.024990359456885779 -0.01880767913198881 0 0.025618545417179301 -0.013550043744088696 0 0.02500003137602055 -0.013371385827123777 0 0.024999785791183216 -0.01212963476739019 0 0.026221977085688252 -0.012797175452006216 0 0.025618545417179301 -0.013550043744088696 0 0.024999785791183216 -0.01212963476739019 0 0.025722293635556875 -0.015652034567395393 0 0.025773261689164471 -0.016409258970064275 0 0.026221977085688252 -0.012797175452006216 0 0.026100419698944607 -0.014411342288588886 0 0.025618545417179301 -0.013550043744088696 0 0.026100419698944607 -0.014411342288588886 0 0.025618545417179301 -0.013550043744088696 0 0.024999191003999527 -0.014614207145454777 0 0.025618545417179301 -0.013550043744088696 0 0.02500003137602055 -0.013371385827123777 0 0.024999191003999527 -0.014614207145454777 0 0.026100419698944607 -0.014411342288588886 0 0.024999191003999527 -0.014614207145454777 0 0.025143368074224164 -0.016057407089070001 0 0.025348853697816545 -0.017044878537304152 0 0.026100419698944607 -0.014411342288588886 0 0.025143368074224164 -0.016057407089070001 0 0.024999191003999527 -0.014614207145454777 0 0.025143368074224164 -0.016057407089070001 0 0.024999198467533838 -0.015856818067813666 0 0.024999801455112707 -0.015855605879870324 0 0.024704476504936186 -0.017690637789324077 0 0.025143368074224164 -0.016057407089070001 0 0.024999198467533838 -0.015856818067813666 0 0.02475204251347142 -0.01771252176248065 0 0.024996794991323987 -0.016795065842211913 0 0.024680278572519095 -0.01763350369567036 0 0.024082401215463921 -0.018654477512381914 0 0.025001496303137992 -0.015855602838712336 0 0.024996794991323987 -0.016795065842211913 0 0.024680278572519095 -0.01763350369567036 0 0.025348853697816545 -0.017044878537304152 0 0.025143368074224164 -0.016057407089070001 0 0.02475204251347142 -0.01771252176248065 0 0.025348853697816545 -0.017044878537304152 0 0.02475204251347142 -0.01771252176248065 0 0.024836316925191934 -0.017835521844658156 0 0.025348853697816545 -0.017044878537304152 0 0.024836316925191934 -0.017835521844658156 0 0.024470248035056295 -0.018455125030211364 0 0.024121162386537203 -0.019613813442668479 0 0.024470248035056295 -0.018455125030211364 0 0.024315806040996171 -0.01923338561811596 0 0.024836316925191934 -0.017835521844658156 0 0.024470248035056295 -0.018455125030211364 0 0.024315806040996171 -0.01923338561811596 0 0.024704476504936186 -0.017690637789324077 0 0.0244291450776737 -0.019027583604593251 0 0.02475204251347142 -0.01771252176248065 0 0.024836316925191934 -0.017835521844658156 0 0.024315806040996171 -0.01923338561811596 0 0.024680278572519095 -0.01763350369567036 0 0.024315806040996171 -0.01923338561811596 0 0.024157308573746976 -0.019295202784234418 0 0.024121162386537203 -0.019613813442668479 0 0.024315806040996171 -0.01923338561811596 0 0.024112810668389169 -0.020482778058779023 0 0.02383849727977053 -0.020281152480852261 0 0.024112810668389169 -0.020482778058779023 0 0.024157308573746976 -0.019295202784234418 0 0.024315806040996171 -0.01923338561811596 0 0.024112810668389169 -0.020482778058779023 0 0.024157308573746976 -0.019295202784234418 0 0.025202478489442209 -0.019450014100223203 0 0.025482358002960448 -0.019891024795216945 0 0.02551529269068677 -0.018025640937378871 0 0.024615619293806269 -0.02005587231429155 0 0.024836733463743838 -0.018397749800430241 0 0.02383849727977053 -0.020281152480852261 0 0.024157308573746976 -0.019295202784234418 0 0.024082401215463921 -0.018654477512381914 0 0.025202478489442209 -0.019450014100223203 0 0.025155133063624567 -0.018650945942126199 0 0.02551529269068677 -0.018025640937378871 0 0.024970978997610433 -0.019018078464361581 0 0.024999516023032912 -0.017989991934575768 0 0.025155133063624567 -0.018650945942126199 0 0.024999516023032912 -0.017989991934575768 0 0.025155133063624567 -0.018650945942126199 0 0.02551529269068677 -0.018025640937378871 0 0.024999243663895727 -0.019186085623170739 0 0.024970978997610433 -0.019018078464361581 0 0.024999516023032912 -0.017989991934575768 0 0.024970978997610433 -0.019018078464361581 0 0.025202478489442209 -0.019450014100223203 0 0.025155133063624567 -0.018650945942126199 0 0.024999957701211873 -0.016794286055628736 0 0.024836733463743838 -0.018397749800430241 0 0.025000193881355621 -0.016793607243823526 0 0.024999516023032912 -0.017989991934575768 0 0.02551529269068677 -0.018025640937378871 0 0.024680278572519095 -0.01763350369567036 0 0.024157308573746976 -0.019295202784234418 0 0.024082401215463921 -0.018654477512381914 0 0.026164150940022914 -0.0075082557344217891 0 0.024999920725275675 -0.0077901069523038787 0 0.025557005661205359 -0.0069159610860958639 0 0.024999920725275675 -0.0077901069523038787 0 0.025557005661205359 -0.0069159610860958639 0 0.024999949155899398 -0.0063712905609931382 0 0.025557005661205359 -0.0069159610860958639 0 0.024999949155899398 -0.0063712905609931382 0 0.025601584105060103 -0.006148263999549341 0 0.026571894160910992 -0.0063259473496705488 0 0.02567389255710617 -0.006130650026732647 0 0.026071799107149414 -0.0067714764835046194 0 0.026955341891920743 -0.0064951791824111879 0 0.025601584105060103 -0.006148263999549341 0 0.026164150940022914 -0.0075082557344217891 0 0.026071799107149414 -0.0067714764835046194 0 0.026955341891920743 -0.0064951791824111879 0 0.025557005661205359 -0.0069159610860958639 0 0.026071799107149414 -0.0067714764835046194 0 0.025601584105060103 -0.006148263999549341 0 0.026164150940022914 -0.0075082557344217891 0 0.025557005661205359 -0.0069159610860958639 0 0.026071799107149414 -0.0067714764835046194 0 0.026411604543951538 -0.0060294842574989379 0 0.026981361417256145 -0.0060758272544447437 0 0.026688440558933466 -0.0057396342240826782 0 0.026571894160910992 -0.0063259473496705488 0 0.028036997093400448 -0.005928381256789044 0 0.026955341891920743 -0.0064951791824111879 0 0.027312389391894745 -0.0077025766799193205 0 0.028308740811547696 -0.0067684413380684908 0 0.027312389391894745 -0.0077025766799193205 0 0.028344197696268145 -0.0081073000555840994 0 0.028308740811547696 -0.0067684413380684908 0 0.026164150940022914 -0.0075082557344217891 0 0.026955341891920743 -0.0064951791824111879 0 0.027312389391894745 -0.0077025766799193205 0 0.026164150940022914 -0.0075082557344217891 0 0.027312389391894745 -0.0077025766799193205 0 0.026650811697006789 -0.0083479293946597134 0 0.027312389391894745 -0.0077025766799193205 0 0.026650811697006789 -0.0083479293946597134 0 0.027528817521094325 -0.0090463735467515398 0 0.027312389391894745 -0.0077025766799193205 0 0.027528817521094325 -0.0090463735467515398 0 0.028344197696268145 -0.0081073000555840994 0 0.026650811697006789 -0.0083479293946597134 0 0.027528817521094325 -0.0090463735467515398 0 0.026609644137983588 -0.0091769571732911934 0 0.027528817521094325 -0.0090463735467515398 0 0.026609644137983588 -0.0091769571732911934 0 0.027056875462127372 -0.01029929431642556 0 0.026609644137983588 -0.0091769571732911934 0 0.025830250513303683 -0.0086364550011831919 0 0.025846519082235744 -0.0098433677695214435 0 0.026650811697006789 -0.0083479293946597134 0 0.026609644137983588 -0.0091769571732911934 0 0.025830250513303683 -0.0086364550011831919 0 0.025830116605031331 -0.0087158668460088264 0 0.025929567947651212 -0.0097869782589647663 0 0.026164150940022914 -0.0075082557344217891 0 0.026650811697006789 -0.0083479293946597134 0 0.025830250513303683 -0.0086364550011831919 0 0.026164150940022914 -0.0075082557344217891 0 0.024999920725275675 -0.0077901069523038787 0 0.025830250513303683 -0.0086364550011831919 0 0.024999920725275675 -0.0077901069523038787 0 0.025830250513303683 -0.0086364550011831919 0 0.02499998094945536 -0.0092084701583381688 0 0.025830250513303683 -0.0086364550011831919 0 0.02499998094945536 -0.0092084701583381688 0 0.025998355682524656 -0.0096225713066574268 0 0.02499998094945536 -0.0092084701583381688 0 0.025998355682524656 -0.0096225713066574268 0 0.024999981882421491 -0.010626974254203295 0 0.025929567947651212 -0.0097869782589647663 0 0.026054769272466586 -0.010524595085914813 0 0.025846519082235744 -0.0098433677695214435 0 0.025944022353941575 -0.011004231001033571 0 0.027056875462127372 -0.01029929431642556 0 0.025998355682524656 -0.0096225713066574268 0 0.026139085248061852 -0.010673654702534693 0 0.024999981882421491 -0.010626974254203295 0 0.026139085248061852 -0.010673654702534693 0 0.024999981882421491 -0.010626974254203295 0 0.02560032886631625 -0.011267788241610384 0 0.02560032886631625 -0.011267788241610384 0 0.026263296790358773 -0.011725620713178527 0 0.024999987538367817 -0.012045485593719787 0 0.024999981882421491 -0.010626974254203295 0 0.02560032886631625 -0.011267788241610384 0 0.024999987538367817 -0.012045485593719787 0 0.026139085248061852 -0.010673654702534693 0 0.02560032886631625 -0.011267788241610384 0 0.026263296790358773 -0.011725620713178527 0 0.026054769272466586 -0.010524595085914813 0 0.025543675227197256 -0.013594690288574837 0 0.026211199531393756 -0.012618332740615367 0 0.026120036351492962 -0.011832930423681533 0 0.025000052001464927 -0.012129104598190964 0 0.025722293635556875 -0.015652034567395393 0 0.025543675227197256 -0.013594690288574837 0 0.026120036351492962 -0.011832930423681533 0 0.024999935133234664 -0.012045782654192498 0 0.025000052001464927 -0.012129104598190964 0 0.025722293635556875 -0.015652034567395393 0 0.024999953626912715 -0.012127395599613343 0 0.025543675227197256 -0.013594690288574837 0 0.025001648582771662 -0.012044249978066079 0 0.025101770580184021 -0.018180200704972393 0 0.025098524938430015 -0.018205226179105114 0 0.025080589376942193 -0.018211515443971541 0 0.025101770580184021 -0.018180200704972393 0 0.025098524938430015 -0.018205226179105114 0 0.025118457638685251 -0.018183470641670453 0 0.025098524938430015 -0.018205226179105114 0 0.025118457638685251 -0.018183470641670453 0 0.025098163487161356 -0.018221133391204233 0 0.025098524938430015 -0.018205226179105114 0 0.025083670498652122 -0.018220319550406903 0 0.025080589376942193 -0.018211515443971541 0 0.025151742369219774 -0.018163026637785212 0 0.025118457638685251 -0.018183470641670453 0 0.025098163487161356 -0.018221133391204233 0 0.025141494865796227 -0.018151034203457265 0 0.025151742369219774 -0.018163026637785212 0 0.025118457638685251 -0.018183470641670453 0 0.025543675227197256 -0.013594690288574837 0 0.026932274912952445 -0.014630391134470636 0 0.025944022353941575 -0.011004231001033571 0 0.026062401296863134 -0.012140212518010557 0 0.027570195027787153 -0.01175987423977713 0 0.025083670498652122 -0.018220319550406903 0 0.025098163487161356 -0.018221133391204233 0 0.025077186063366605 -0.018239542302638547 0 0.025098524938430015 -0.018205226179105114 0 0.025083670498652122 -0.018220319550406903 0 0.025098163487161356 -0.018221133391204233 0 0.027570195027787153 -0.01175987423977713 0 0.027056875462127372 -0.01029929431642556 0 0.028193636106968525 -0.010384852178516939 0 0.025944022353941575 -0.011004231001033571 0 0.027570195027787153 -0.01175987423977713 0 0.027056875462127372 -0.01029929431642556 0 0.026609644137983588 -0.0091769571732911934 0 0.025846519082235744 -0.0098433677695214435 0 0.027056875462127372 -0.01029929431642556 0 0.027528817521094325 -0.0090463735467515398 0 0.027056875462127372 -0.01029929431642556 0 0.028193636106968525 -0.010384852178516939 0 0.028193636106968525 -0.010384852178516939 0 0.029322649775548115 -0.0099841916239541521 0 0.028563679418761662 -0.0091722684207478002 0 0.021367965928918344 -0.020632037545452342 0 0.021163817489351189 -0.020872182985999674 0 0.021413307797552576 -0.020352591413880943 0 0.021294209978676714 -0.020855474562898435 0 0.021367965928918344 -0.020632037545452342 0 0.021163817489351189 -0.020872182985999674 0 0.021338351821527414 -0.020971440029618402 0 0.021425197274290243 -0.020842191929502669 0 0.021492748876812916 -0.021046572984827254 0 0.021338351821527414 -0.020971440029618402 0 0.021294209978676714 -0.020855474562898435 0 0.021425197274290243 -0.020842191929502669 0 0.021338351821527414 -0.020971440029618402 0 0.021294209978676714 -0.020855474562898435 0 0.021163817489351189 -0.020872182985999674 0 0.021294209978676714 -0.020855474562898435 0 0.021425197274290243 -0.020842191929502669 0 0.021366433597402423 -0.020746711078916562 0 0.021425197274290243 -0.020842191929502669 0 0.021366433597402423 -0.020746711078916562 0 0.021367965928918344 -0.020632037545452342 0 0.021425197274290243 -0.020842191929502669 0 0.021367965928918344 -0.020632037545452342 0 0.021584571931165839 -0.020717633175440155 0 0.021294209978676714 -0.020855474562898435 0 0.021366433597402423 -0.020746711078916562 0 0.021367965928918344 -0.020632037545452342 0 0.021163817489351189 -0.020872182985999674 0 0.021367546620908801 -0.021195803684813511 0 0.021359479086077597 -0.021591492890964171 0 0.021367546620908801 -0.021195803684813511 0 0.021359479086077597 -0.021591492890964171 0 0.021680807283485488 -0.021294730584246139 0 0.021338351821527414 -0.020971440029618402 0 0.021163817489351189 -0.020872182985999674 0 0.021367546620908801 -0.021195803684813511 0 0.021338351821527414 -0.020971440029618402 0 0.021367546620908801 -0.021195803684813511 0 0.021492748876812916 -0.021046572984827254 0 0.021163817489351189 -0.020872182985999674 0 0.021359479086077597 -0.021591492890964171 0 0.02091939278492003 -0.022392524219206702 0 0.024502715143861063 -0.018549541251521362 0 0.020815336579930347 -0.022539495822160822 0 0.028193636106968525 -0.010384852178516939 0 0.029322649775548115 -0.0099841916239541521 0 0.029026931734073634 -0.011423711904760291 0 0.025049113296865027 -0.014969671943002858 0 0.024502715143861063 -0.018549541251521362 0 0.021359479086077597 -0.021591492890964171 0 0.02091939278492003 -0.022392524219206702 0 0.021766945755789087 -0.022210596113669493 0 0.027570195027787153 -0.01175987423977713 0 0.028193636106968525 -0.010384852178516939 0 0.029026931734073634 -0.011423711904760291 0 0.025098163487161356 -0.018221133391204233 0 0.025077186063366605 -0.018239542302638547 0 0.025066072600420524 -0.018251471605068448 0 0.025077186063366605 -0.018239542302638547 0 0.025066072600420524 -0.018251471605068448 0 0.025065165931644012 -0.018300566663281604 0 0.026932274912952445 -0.014630391134470636 0 0.024502715143861063 -0.018549541251521362 0 0.019999518135939906 -0.023047993968312756 0 0.02070764977785957 -0.024001532092136419 0 0.021395640866833359 -0.022613925461302239 0 0.02070764977785957 -0.024001532092136419 0 0.020238278058010276 -0.025131540778443959 0 0.021822269164082798 -0.023787671632066208 0 0.024502715143861063 -0.018549541251521362 0 0.023308318101178477 -0.021409485577691793 0 0.019999518135939906 -0.023047993968312756 0 0.02070764977785957 -0.024001532092136419 0 0.020238278058010276 -0.025131540778443959 0 0.019999518135939906 -0.023047993968312756 0 0.020238278058010276 -0.025131540778443959 0 0.019883276494591422 -0.025406645433847859 0 0.020125035607672297 -0.025346932763576805 0 0.020105977964588052 -0.025290707732623052 0 0.02018362321426222 -0.025294002011790627 0 0.020238278058010276 -0.025131540778443959 0 0.02018362321426222 -0.025294002011790627 0 0.02011430985890382 -0.025352908654539635 0 0.020105977964588052 -0.025290707732623052 0 0.02018362321426222 -0.025294002011790627 0 0.02011430985890382 -0.025352908654539635 0 0.020238278058010276 -0.025131540778443959 0 0.02018362321426222 -0.025294002011790627 0 0.019883276494591422 -0.025406645433847859 0 0.020125035607672297 -0.025346932763576805 0 0.02018362321426222 -0.025294002011790627 0 0.019883276494591422 -0.025406645433847859 0 0.022850434146446094 -0.021776659318958381 0 0.023308318101178477 -0.021409485577691793 0 0.025077186063366605 -0.018239542302638547 0 0.02505345618089622 -0.018230542690087767 0 0.025063995041126573 -0.018224177828117839 0 0.025083670498652122 -0.018220319550406903 0 0.025077186063366605 -0.018239542302638547 0 0.025063995041126573 -0.018224177828117839 0 0.025048872052036899 -0.018232431801663417 0 0.02505345618089622 -0.018230542690087767 0 0.025063995041126573 -0.018224177828117839 0 0.02508549795736624 -0.017354931107392356 0 0.023308318101178477 -0.021409485577691793 0 0.025083670498652122 -0.018220319550406903 0 0.025063995041126573 -0.018224177828117839 0 0.025080589376942193 -0.018211515443971541 0 0.025065908887429319 -0.018214308023920944 0 0.025063995041126573 -0.018224177828117839 0 0.025080589376942193 -0.018211515443971541 0 0.019671478250049793 -0.025411918161560031 0 0.019748795562901236 -0.025697721670307073 0 0.019483815897017646 -0.02578365011188204 0 0.019671478250049793 -0.025411918161560031 0 0.019748795562901236 -0.025697721670307073 0 0.019953507755969258 -0.025444730471582581 0 0.020238278058010276 -0.025131540778443959 0 0.02011430985890382 -0.025352908654539635 0 0.019971913533289455 -0.025870593786417272 0 0.02026088690444482 -0.025156843791857054 0 0.020869158344463973 -0.024813951877043713 0 0.020105977964588052 -0.025290707732623052 0 0.019953507755969258 -0.025444730471582581 0 0.02011430985890382 -0.025352908654539635 0 0.019953507755969258 -0.025444730471582581 0 0.02011430985890382 -0.025352908654539635 0 0.019971913533289455 -0.025870593786417272 0 0.019748795562901236 -0.025697721670307073 0 0.019953507755969258 -0.025444730471582581 0 0.019971913533289455 -0.025870593786417272 0 0.02070764977785957 -0.024001532092136419 0 0.021822269164082798 -0.023787671632066208 0 0.021395640866833359 -0.022613925461302239 0 0.021822269164082798 -0.023787671632066208 0 0.022305140549772874 -0.022743157768472116 0 0.021395640866833359 -0.022613925461302239 0 0.021822269164082798 -0.023787671632066208 0 0.023275524505028809 -0.022433934273950389 0 0.022305140549772874 -0.022743157768472116 0 0.020869158344463973 -0.024813951877043713 0 0.02126974895130718 -0.024434250262025409 0 0.019971913533289455 -0.025870593786417272 0 0.01960273796550694 -0.02594621062841267 0 0.019490882443422571 -0.026292429023517722 0 0.019748795562901236 -0.025697721670307073 0 0.019971913533289455 -0.025870593786417272 0 0.01960273796550694 -0.02594621062841267 0 0.019483815897017646 -0.02578365011188204 0 0.01960273796550694 -0.02594621062841267 0 0.019338248699071289 -0.026079242053699443 0 0.019748795562901236 -0.025697721670307073 0 0.019483815897017646 -0.02578365011188204 0 0.01960273796550694 -0.02594621062841267 0 0.01960273796550694 -0.02594621062841267 0 0.019490882443422571 -0.026292429023517722 0 0.019338248699071289 -0.026079242053699443 0 0.023275524505028809 -0.022433934273950389 0 0.022696173951354644 -0.022123407221041932 0 0.023099633623269115 -0.02197008503528074 0 0.023275524505028809 -0.022433934273950389 0 0.022305140549772874 -0.022743157768472116 0 0.022696173951354644 -0.022123407221041932 0 0.022696173951354644 -0.022123407221041932 0 0.022536894251802605 -0.021571513607655725 0 0.023076167760998155 -0.021528358595079632 0 0.022696173951354644 -0.022123407221041932 0 0.022536894251802605 -0.021571513607655725 0 0.022063221523970566 -0.02166600563072385 0 0.023076167760998155 -0.021528358595079632 0 0.023099633623269115 -0.02197008503528074 0 0.023598986793061699 -0.02166039644469276 0 0.023076167760998155 -0.021528358595079632 0 0.023495834339889676 -0.021372520531476598 0 0.023598986793061699 -0.02166039644469276 0 0.022696173951354644 -0.022123407221041932 0 0.023076167760998155 -0.021528358595079632 0 0.023099633623269115 -0.02197008503528074 0 0.023275524505028809 -0.022433934273950389 0 0.023099633623269115 -0.02197008503528074 0 0.023598986793061699 -0.02166039644469276 0 0.022305140549772874 -0.022743157768472116 0 0.022696173951354644 -0.022123407221041932 0 0.021395640866833359 -0.022613925461302239 0 0.022696173951354644 -0.022123407221041932 0 0.021766945755789087 -0.022210596113669493 0 0.022063221523970566 -0.02166600563072385 0 0.022820849165203213 -0.022091065951561038 0 0.020815336579930347 -0.022539495822160822 0 0.022536894251802605 -0.021571513607655725 0 0.022063221523970566 -0.02166600563072385 0 0.022341447875285921 -0.021308470323192514 0 0.021359479086077597 -0.021591492890964171 0 0.021766945755789087 -0.022210596113669493 0 0.021717188261944943 -0.021693235225586003 0 0.021766945755789087 -0.022210596113669493 0 0.022063221523970566 -0.02166600563072385 0 0.021717188261944943 -0.021693235225586003 0 0.022063221523970566 -0.02166600563072385 0 0.021717188261944943 -0.021693235225586003 0 0.021680807283485488 -0.021294730584246139 0 0.021359479086077597 -0.021591492890964171 0 0.021717188261944943 -0.021693235225586003 0 0.021680807283485488 -0.021294730584246139 0 0.021367546620908801 -0.021195803684813511 0 0.021492748876812916 -0.021046572984827254 0 0.021680807283485488 -0.021294730584246139 0 0.021492748876812916 -0.021046572984827254 0 0.021680807283485488 -0.021294730584246139 0 0.02165382492992142 -0.020927044243695847 0 0.022063221523970566 -0.02166600563072385 0 0.021680807283485488 -0.021294730584246139 0 0.022050951527192796 -0.02120803070552878 0 0.021680807283485488 -0.021294730584246139 0 0.021883800648111483 -0.021011884499311358 0 0.02165382492992142 -0.020927044243695847 0 0.021680807283485488 -0.021294730584246139 0 0.022050951527192796 -0.02120803070552878 0 0.021883800648111483 -0.021011884499311358 0 0.022050951527192796 -0.02120803070552878 0 0.022094758112059087 -0.020867020080688897 0 0.021883800648111483 -0.021011884499311358 0 0.022063221523970566 -0.02166600563072385 0 0.022050951527192796 -0.02120803070552878 0 0.022341447875285921 -0.021308470323192514 0 0.022050951527192796 -0.02120803070552878 0 0.02236847231397816 -0.020992640423635186 0 0.022094758112059087 -0.020867020080688897 0 0.022050951527192796 -0.02120803070552878 0 0.022341447875285921 -0.021308470323192514 0 0.02236847231397816 -0.020992640423635186 0 0.02236847231397816 -0.020992640423635186 0 0.02237884521489767 -0.020655792553974945 0 0.022094758112059087 -0.020867020080688897 0 0.02237884521489767 -0.020655792553974945 0 0.022061171677288518 -0.020545826286570971 0 0.022094758112059087 -0.020867020080688897 0 0.022061171677288518 -0.020545826286570971 0 0.022094758112059087 -0.020867020080688897 0 0.021833205724443722 -0.020725848531501383 0 0.022094758112059087 -0.020867020080688897 0 0.021883800648111483 -0.021011884499311358 0 0.021833205724443722 -0.020725848531501383 0 0.021883800648111483 -0.021011884499311358 0 0.021833205724443722 -0.020725848531501383 0 0.02165382492992142 -0.020927044243695847 0 0.021833205724443722 -0.020725848531501383 0 0.021685262934122641 -0.020572119878990779 0 0.021584571931165839 -0.020717633175440155 0 0.022061171677288518 -0.020545826286570971 0 0.021833205724443722 -0.020725848531501383 0 0.021821866922532275 -0.020436140933874788 0 0.021833205724443722 -0.020725848531501383 0 0.021685262934122641 -0.020572119878990779 0 0.021821866922532275 -0.020436140933874788 0 0.021367965928918344 -0.020632037545452342 0 0.021464102809840811 -0.020563854125964134 0 0.021584571931165839 -0.020717633175440155 0 0.021464102809840811 -0.020563854125964134 0 0.021685262934122641 -0.020572119878990779 0 0.021584571931165839 -0.020717633175440155 0 0.021833205724443722 -0.020725848531501383 0 0.021584571931165839 -0.020717633175440155 0 0.02165382492992142 -0.020927044243695847 0 0.021425197274290243 -0.020842191929502669 0 0.021492748876812916 -0.021046572984827254 0 0.02165382492992142 -0.020927044243695847 0 0.021425197274290243 -0.020842191929502669 0 0.021584571931165839 -0.020717633175440155 0 0.02165382492992142 -0.020927044243695847 0 0.023076167760998155 -0.021528358595079632 0 0.023042546669628003 -0.021163031131651862 0 0.02270402522970643 -0.021093769456409284 0 0.023042546669628003 -0.021163031131651862 0 0.023348409962814291 -0.021192772537479882 0 0.023083056732100191 -0.020766083976780477 0 0.023076167760998155 -0.021528358595079632 0 0.023042546669628003 -0.021163031131651862 0 0.023348409962814291 -0.021192772537479882 0 0.023076167760998155 -0.021528358595079632 0 0.023348409962814291 -0.021192772537479882 0 0.023495834339889676 -0.021372520531476598 0 0.022536894251802605 -0.021571513607655725 0 0.023076167760998155 -0.021528358595079632 0 0.02270402522970643 -0.021093769456409284 0 0.022536894251802605 -0.021571513607655725 0 0.022341447875285921 -0.021308470323192514 0 0.02270402522970643 -0.021093769456409284 0 0.022341447875285921 -0.021308470323192514 0 0.02236847231397816 -0.020992640423635186 0 0.02270402522970643 -0.021093769456409284 0 0.02270402522970643 -0.021093769456409284 0 0.022672501916272996 -0.020767537498498422 0 0.023083056732100191 -0.020766083976780477 0 0.02236847231397816 -0.020992640423635186 0 0.02270402522970643 -0.021093769456409284 0 0.022672501916272996 -0.020767537498498422 0 0.02236847231397816 -0.020992640423635186 0 0.02237884521489767 -0.020655792553974945 0 0.022672501916272996 -0.020767537498498422 0 0.02237884521489767 -0.020655792553974945 0 0.022672501916272996 -0.020767537498498422 0 0.022664752781898553 -0.020427127108006607 0 0.022672501916272996 -0.020767537498498422 0 0.023083056732100191 -0.020766083976780477 0 0.022664752781898553 -0.020427127108006607 0 0.023083056732100191 -0.020766083976780477 0 0.023149092398406124 -0.020273045355680842 0 0.023500723119749503 -0.020759479615692997 0 0.023042546669628003 -0.021163031131651862 0 0.02270402522970643 -0.021093769456409284 0 0.023083056732100191 -0.020766083976780477 0 0.023348409962814291 -0.021192772537479882 0 0.023083056732100191 -0.020766083976780477 0 0.023500723119749503 -0.020759479615692997 0 0.023083056732100191 -0.020766083976780477 0 0.023149092398406124 -0.020273045355680842 0 0.022664752781898553 -0.020427127108006607 0 0.023149092398406124 -0.020273045355680842 0 0.022664752781898553 -0.020427127108006607 0 0.022539114774279403 -0.020008631825105146 0 0.02237884521489767 -0.020655792553974945 0 0.022664752781898553 -0.020427127108006607 0 0.022293316893134001 -0.020321279254811576 0 0.022664752781898553 -0.020427127108006607 0 0.022539114774279403 -0.020008631825105146 0 0.022293316893134001 -0.020321279254811576 0 0.022539114774279403 -0.020008631825105146 0 0.02253243504316892 -0.019395762987204617 0 0.022194959801167417 -0.019719303458916947 0 0.022539114774279403 -0.020008631825105146 0 0.022965595892512548 -0.019752266854492717 0 0.02253243504316892 -0.019395762987204617 0 0.023149092398406124 -0.020273045355680842 0 0.022539114774279403 -0.020008631825105146 0 0.022965595892512548 -0.019752266854492717 0 0.023149092398406124 -0.020273045355680842 0 0.022965595892512548 -0.019752266854492717 0 0.023517538897140693 -0.019786154769045061 0 0.022965595892512548 -0.019752266854492717 0 0.023155367669651927 -0.019099942210357535 0 0.02253243504316892 -0.019395762987204617 0 0.022965595892512548 -0.019752266854492717 0 0.023155367669651927 -0.019099942210357535 0 0.023517538897140693 -0.019786154769045061 0 0.02253243504316892 -0.019395762987204617 0 0.022579909975226568 -0.018699634889676752 0 0.022192917887065955 -0.019042107925719139 0 0.023155367669651927 -0.019099942210357535 0 0.02253243504316892 -0.019395762987204617 0 0.022579909975226568 -0.018699634889676752 0 0.022579909975226568 -0.018699634889676752 0 0.022269516750201588 -0.018663093226211423 0 0.022267073844688332 -0.018388807994662162 0 0.023155367669651927 -0.019099942210357535 0 0.02300000677432339 -0.018389330977450533 0 0.023677556545510754 -0.018282435976943713 0 0.023155367669651927 -0.019099942210357535 0 0.022579909975226568 -0.018699634889676752 0 0.02300000677432339 -0.018389330977450533 0 0.021902289255157376 -0.01916428006715418 0 0.021537942098335924 -0.019153050811014882 0 0.02203958076741638 -0.018520456762088303 0 0.022192917887065955 -0.019042107925719139 0 0.021902289255157376 -0.01916428006715418 0 0.02203958076741638 -0.018520456762088303 0 0.022269516750201588 -0.018663093226211423 0 0.022192917887065955 -0.019042107925719139 0 0.02203958076741638 -0.018520456762088303 0 0.022579909975226568 -0.018699634889676752 0 0.022269516750201588 -0.018663093226211423 0 0.022192917887065955 -0.019042107925719139 0 0.022192917887065955 -0.019042107925719139 0 0.021902289255157376 -0.01916428006715418 0 0.022120560896470801 -0.019378079062761688 0 0.02253243504316892 -0.019395762987204617 0 0.022192917887065955 -0.019042107925719139 0 0.022120560896470801 -0.019378079062761688 0 0.02253243504316892 -0.019395762987204617 0 0.022120560896470801 -0.019378079062761688 0 0.022194959801167417 -0.019719303458916947 0 0.022120560896470801 -0.019378079062761688 0 0.021810866783890832 -0.019502246787033176 0 0.022194959801167417 -0.019719303458916947 0 0.021902289255157376 -0.01916428006715418 0 0.022120560896470801 -0.019378079062761688 0 0.021810866783890832 -0.019502246787033176 0 0.021810866783890832 -0.019502246787033176 0 0.021537942098335924 -0.019153050811014882 0 0.021577406027744803 -0.019823450436874251 0 0.021902289255157376 -0.01916428006715418 0 0.021810866783890832 -0.019502246787033176 0 0.021537942098335924 -0.019153050811014882 0 0.021537942098335924 -0.019153050811014882 0 0.021577406027744803 -0.019823450436874251 0 0.021413307797552576 -0.020352591413880943 0 0.021810866783890832 -0.019502246787033176 0 0.021846021356321174 -0.019820982759666466 0 0.021577406027744803 -0.019823450436874251 0 0.021846021356321174 -0.019820982759666466 0 0.02171797589793285 -0.020023067159329954 0 0.021577406027744803 -0.019823450436874251 0 0.021846021356321174 -0.019820982759666466 0 0.02171797589793285 -0.020023067159329954 0 0.021859463093075304 -0.020059889297549285 0 0.02171797589793285 -0.020023067159329954 0 0.021577406027744803 -0.019823450436874251 0 0.021573570539463439 -0.020177790003489869 0 0.021810866783890832 -0.019502246787033176 0 0.021846021356321174 -0.019820982759666466 0 0.022194959801167417 -0.019719303458916947 0 0.021846021356321174 -0.019820982759666466 0 0.02211290192046661 -0.020033470420031556 0 0.021859463093075304 -0.020059889297549285 0 0.021846021356321174 -0.019820982759666466 0 0.022194959801167417 -0.019719303458916947 0 0.02211290192046661 -0.020033470420031556 0 0.022539114774279403 -0.020008631825105146 0 0.022194959801167417 -0.019719303458916947 0 0.02211290192046661 -0.020033470420031556 0 0.022539114774279403 -0.020008631825105146 0 0.02211290192046661 -0.020033470420031556 0 0.022293316893134001 -0.020321279254811576 0 0.02211290192046661 -0.020033470420031556 0 0.021983695426044617 -0.020270870303371966 0 0.022293316893134001 -0.020321279254811576 0 0.02211290192046661 -0.020033470420031556 0 0.021983695426044617 -0.020270870303371966 0 0.021859463093075304 -0.020059889297549285 0 0.022061171677288518 -0.020545826286570971 0 0.021983695426044617 -0.020270870303371966 0 0.022293316893134001 -0.020321279254811576 0 0.022061171677288518 -0.020545826286570971 0 0.021983695426044617 -0.020270870303371966 0 0.021821866922532275 -0.020436140933874788 0 0.02237884521489767 -0.020655792553974945 0 0.022061171677288518 -0.020545826286570971 0 0.022293316893134001 -0.020321279254811576 0 0.021577406027744803 -0.019823450436874251 0 0.021573570539463439 -0.020177790003489869 0 0.021413307797552576 -0.020352591413880943 0 0.021573570539463439 -0.020177790003489869 0 0.021756437599609102 -0.020225772714731732 0 0.021618703148445644 -0.020390095601725156 0 0.02171797589793285 -0.020023067159329954 0 0.021859463093075304 -0.020059889297549285 0 0.021756437599609102 -0.020225772714731732 0 0.02171797589793285 -0.020023067159329954 0 0.021573570539463439 -0.020177790003489869 0 0.021756437599609102 -0.020225772714731732 0 0.021983695426044617 -0.020270870303371966 0 0.021859463093075304 -0.020059889297549285 0 0.021756437599609102 -0.020225772714731732 0 0.021756437599609102 -0.020225772714731732 0 0.021821866922532275 -0.020436140933874788 0 0.021618703148445644 -0.020390095601725156 0 0.021983695426044617 -0.020270870303371966 0 0.021756437599609102 -0.020225772714731732 0 0.021821866922532275 -0.020436140933874788 0 0.021685262934122641 -0.020572119878990779 0 0.021821866922532275 -0.020436140933874788 0 0.021618703148445644 -0.020390095601725156 0 0.021464102809840811 -0.020563854125964134 0 0.021685262934122641 -0.020572119878990779 0 0.021618703148445644 -0.020390095601725156 0 0.021573570539463439 -0.020177790003489869 0 0.021618703148445644 -0.020390095601725156 0 0.021413307797552576 -0.020352591413880943 0 0.021464102809840811 -0.020563854125964134 0 0.021618703148445644 -0.020390095601725156 0 0.021413307797552576 -0.020352591413880943 0 0.021367965928918344 -0.020632037545452342 0 0.021464102809840811 -0.020563854125964134 0 0.021413307797552576 -0.020352591413880943 0 0.021163817489351189 -0.020872182985999674 0 0.021537942098335924 -0.019153050811014882 0 0.021413307797552576 -0.020352591413880943 0 0.029322649775548115 -0.0099841916239541521 0 0.028563679418761662 -0.0091722684207478002 0 0.029485246380717988 -0.008425562134463634 0 0.025049113296865027 -0.014969671943002858 0 0.027680695398712978 -0.010383895405622491 0 0.024944427039457619 -0.014709804861831295 0 0.025153169295251895 -0.01380483367253855 0 0.02500830847656375 -0.013762728434087882 0 0.025049113296865027 -0.014969671943002858 0 0.023142895189069985 -0.017066742652981071 0 0.027528817521094325 -0.0090463735467515398 0 0.028193636106968525 -0.010384852178516939 0 0.028563679418761662 -0.0091722684207478002 0 0.027528817521094325 -0.0090463735467515398 0 0.028563679418761662 -0.0091722684207478002 0 0.028344197696268145 -0.0081073000555840994 0 0.028563679418761662 -0.0091722684207478002 0 0.028344197696268145 -0.0081073000555840994 0 0.029485246380717988 -0.008425562134463634 0 0.028344197696268145 -0.0081073000555840994 0 0.029485246380717988 -0.008425562134463634 0 0.02890684242256724 -0.007508604911779849 0 0.029485246380717988 -0.008425562134463634 0 0.02890684242256724 -0.007508604911779849 0 0.029669245967138283 -0.0070276906799388757 0 0.028344197696268145 -0.0081073000555840994 0 0.02890684242256724 -0.007508604911779849 0 0.028308740811547696 -0.0067684413380684908 0 0.02890684242256724 -0.007508604911779849 0 0.028308740811547696 -0.0067684413380684908 0 0.029669245967138283 -0.0070276906799388757 0 0.028036997093400448 -0.005928381256789044 0 0.026625572187317027 -0.010527756730333151 0 0.026981361417256145 -0.0060758272544447437 0 0.027532833571964219 -0.006202057245173689 0 0.027334205347845177 -0.0059126630669818934 0 0.022688959761331333 -0.01520267572101597 0 0.022045119802188574 -0.015803500221715405 0 0.027532833571964219 -0.006202057245173689 0 0.027595000899867723 -0.0057476607628751224 0 0.027334205347845177 -0.0059126630669818934 0 0.021597329048312221 -0.0160121248701884 0 0.021991133041346426 -0.0160914928749709 0 0.021675315111319243 -0.015028332447820416 0 0.026625572187317027 -0.010527756730333151 0 0.024478515992145004 -0.010684108211244337 0 0.026625572187317027 -0.010527756730333151 0 0.022688959761331333 -0.01520267572101597 0 0.022688959761331333 -0.01520267572101597 0 0.022437364623385296 -0.01619131509457717 0 0.02171839442778872 -0.01716514966607385 0 0.023083911961605835 -0.016592153074480587 0 0.02231600870577093 -0.015110523135463518 0 0.023083911961605835 -0.016592153074480587 0 0.022487756401520637 -0.01729129733736174 0 0.023104816889246312 -0.017715546270142751 0 0.023083911961605835 -0.016592153074480587 0 0.023104816889246312 -0.017715546270142751 0 0.023717929324479255 -0.017378233492295864 0 0.02171839442778872 -0.01716514966607385 0 0.023083911961605835 -0.016592153074480587 0 0.022487756401520637 -0.01729129733736174 0 0.022487756401520637 -0.01729129733736174 0 0.022606646809017278 -0.018060184583669717 0 0.022211168710284473 -0.01794868105569062 0 0.022487756401520637 -0.01729129733736174 0 0.023104816889246312 -0.017715546270142751 0 0.022606646809017278 -0.018060184583669717 0 0.023104816889246312 -0.017715546270142751 0 0.02300000677432339 -0.018389330977450533 0 0.022606646809017278 -0.018060184583669717 0 0.023104816889246312 -0.017715546270142751 0 0.02300000677432339 -0.018389330977450533 0 0.023677556545510754 -0.018282435976943713 0 0.022579909975226568 -0.018699634889676752 0 0.022606646809017278 -0.018060184583669717 0 0.022267073844688332 -0.018388807994662162 0 0.022579909975226568 -0.018699634889676752 0 0.02300000677432339 -0.018389330977450533 0 0.022606646809017278 -0.018060184583669717 0 0.022606646809017278 -0.018060184583669717 0 0.022267073844688332 -0.018388807994662162 0 0.022211168710284473 -0.01794868105569062 0 0.027680695398712978 -0.010383895405622491 0 0.026625572187317027 -0.010527756730333151 0 0.025153169295251895 -0.01380483367253855 0 0.02500830847656375 -0.013762728434087882 0 0.025122081953801317 -0.012891333454271752 0 0.022269516750201588 -0.018663093226211423 0 0.022267073844688332 -0.018388807994662162 0 0.02203958076741638 -0.018520456762088303 0 0.021952193287694009 -0.017237832603976978 0 0.02203958076741638 -0.018520456762088303 0 0.022211168710284473 -0.01794868105569062 0 0.022267073844688332 -0.018388807994662162 0 0.02203958076741638 -0.018520456762088303 0 0.022211168710284473 -0.01794868105569062 0 0.025153169295251895 -0.01380483367253855 0 0.025122081953801317 -0.012891333454271752 0 0.02537430960497589 -0.012939771953786323 0 0.023142895189069985 -0.017066742652981071 0 0.022688959761331333 -0.01520267572101597 0 0.021537942098335924 -0.019153050811014882 0 0.021952193287694009 -0.017237832603976978 0 0.02203958076741638 -0.018520456762088303 0 0.021952193287694009 -0.017237832603976978 0 0.022487756401520637 -0.01729129733736174 0 0.022211168710284473 -0.01794868105569062 0 0.024439807514620163 -0.017732158747863609 0 0.025204290871515093 -0.017684283126187261 0 0.024973132790092636 -0.018384905777950121 0 0.025204290871515093 -0.017684283126187261 0 0.024973132790092636 -0.018384905777950121 0 0.025587524117333414 -0.018161553107285212 0 0.024439807514620163 -0.017732158747863609 0 0.024973132790092636 -0.018384905777950121 0 0.024344413732152726 -0.018583894903390262 0 0.024439807514620163 -0.017732158747863609 0 0.023677556545510754 -0.018282435976943713 0 0.024344413732152726 -0.018583894903390262 0 0.023104816889246312 -0.017715546270142751 0 0.023677556545510754 -0.018282435976943713 0 0.023717929324479255 -0.017378233492295864 0 0.024439807514620163 -0.017732158747863609 0 0.023677556545510754 -0.018282435976943713 0 0.023717929324479255 -0.017378233492295864 0 0.024439807514620163 -0.017732158747863609 0 0.023717929324479255 -0.017378233492295864 0 0.024256053208494825 -0.016716418117486732 0 0.023083911961605835 -0.016592153074480587 0 0.023717929324479255 -0.017378233492295864 0 0.024661565933783231 -0.016190704695524839 0 0.023083911961605835 -0.016592153074480587 0 0.024661565933783231 -0.016190704695524839 0 0.023583074245825855 -0.015378570999784711 0 0.023783809852150048 -0.017302844164595786 0 0.024549743416527735 -0.01628823496878325 0 0.024439807514620163 -0.017732158747863609 0 0.024256053208494825 -0.016716418117486732 0 0.024865002157434788 -0.016978405120555526 0 0.024439807514620163 -0.017732158747863609 0 0.025204290871515093 -0.017684283126187261 0 0.024865002157434788 -0.016978405120555526 0 0.025204290871515093 -0.017684283126187261 0 0.024865002157434788 -0.016978405120555526 0 0.025614067015291085 -0.016796126111387248 0 0.020451638460262392 -0.018071112461885117 0 0.020352033073003113 -0.018086028787947642 0 0.02036446465530041 -0.01806629954254723 0 0.025614067015291085 -0.016796126111387248 0 0.026418841423677269 -0.017655402333052295 0 0.025734627715022471 -0.017605597359328616 0 0.022899680138987442 -0.017201616332982738 0 0.02146202514276177 -0.021626326922787556 0 0.025204290871515093 -0.017684283126187261 0 0.025614067015291085 -0.016796126111387248 0 0.025734627715022471 -0.017605597359328616 0 0.020352033073003113 -0.018086028787947642 0 0.02036446465530041 -0.01806629954254723 0 0.020335840237326624 -0.01808665187686858 0 0.02146202514276177 -0.021626326922787556 0 0.017650751486868552 -0.021582371454977156 0 0.02036446465530041 -0.01806629954254723 0 0.020311285335645673 -0.018093677564953017 0 0.020335840237326624 -0.01808665187686858 0 0.016539434815682083 -0.027097064995524747 0 0.016579732838070654 -0.027081309656048685 0 0.016463842980439191 -0.027120795627660493 0 0.016539434815682083 -0.027097064995524747 0 0.01646423224587136 -0.027118534392155638 0 0.016463842980439191 -0.027120795627660493 0 0.016539434815682083 -0.027097064995524747 0 0.016499805852918013 -0.027125060000387436 0 0.01646423224587136 -0.027118534392155638 0 0.016643931907545557 -0.027213588001670588 0 0.016709635196919887 -0.027017569616167407 0 0.017020814031880792 -0.026765794125376923 0 0.016499805852918013 -0.027125060000387436 0 0.016532315276894929 -0.02711854931440447 0 0.016455623927854646 -0.027118113115445753 0 0.016499805852918013 -0.027125060000387436 0 0.016545875761548701 -0.027124958472189761 0 0.016532315276894929 -0.02711854931440447 0 0.016539434815682083 -0.027097064995524747 0 0.016499805852918013 -0.027125060000387436 0 0.016545875761548701 -0.027124958472189761 0 0.016545875761548701 -0.027124958472189761 0 0.016586511677942804 -0.027145332743517908 0 0.016532315276894929 -0.02711854931440447 0 0.016545875761548701 -0.027124958472189761 0 0.016586511677942804 -0.027145332743517908 0 0.016551036586279877 -0.027126762845100665 0 0.018694806306791864 -0.024780731094967434 0 0.018913005906050655 -0.024311447728770766 0 0.016539434815682083 -0.027097064995524747 0 0.016564754306304313 -0.027051337986890599 0 0.016579732838070654 -0.027081309656048685 0 0.016539434815682083 -0.027097064995524747 0 0.016545875761548701 -0.027124958472189761 0 0.016551036586279877 -0.027126762845100665 0 0.017266433819690185 -0.027104166736569381 0 0.018913005906050655 -0.024311447728770766 0 0.018913005906050655 -0.024311447728770766 0 0.02146202514276177 -0.021626326922787556 0 0.016586511677942804 -0.027145332743517908 0 0.016643931907545557 -0.027213588001670588 0 0.016709635196919887 -0.027017569616167407 0 0.016586511677942804 -0.027145332743517908 0 0.016709635196919887 -0.027017569616167407 0 0.01658925952432537 -0.027033298724514779 0 0.01658925952432537 -0.027033298724514779 0 0.016509825478400096 -0.02696824367354398 0 0.016455623927854646 -0.027118113115445753 0 0.016586511677942804 -0.027145332743517908 0 0.01658925952432537 -0.027033298724514779 0 0.016532315276894929 -0.02711854931440447 0 0.01658925952432537 -0.027033298724514779 0 0.016532315276894929 -0.02711854931440447 0 0.016455623927854646 -0.027118113115445753 0 0.02146202514276177 -0.021626326922787556 0 0.025826658283441134 -0.019035461897463392 0 0.024349543014394133 -0.020843343323733245 0 0.02442590921026272 -0.020928035618838541 0 0.024742554124250585 -0.020481591060882012 0 0.026418841423677269 -0.017655402333052295 0 0.025587524117333414 -0.018161553107285212 0 0.025676572745705104 -0.018862039199675038 0 0.025204290871515093 -0.017684283126187261 0 0.025734627715022471 -0.017605597359328616 0 0.025587524117333414 -0.018161553107285212 0 0.026418841423677269 -0.017655402333052295 0 0.025734627715022471 -0.017605597359328616 0 0.025587524117333414 -0.018161553107285212 0 0.024973132790092636 -0.018384905777950121 0 0.025587524117333414 -0.018161553107285212 0 0.025676572745705104 -0.018862039199675038 0 0.024742554124250585 -0.020481591060882012 0 0.024663381468158798 -0.020387145735166888 0 0.024696826807898614 -0.020284587092052272 0 0.024349543014394133 -0.020843343323733245 0 0.024742554124250585 -0.020481591060882012 0 0.024663381468158798 -0.020387145735166888 0 0.018913005906050655 -0.024311447728770766 0 0.0212474885695818 -0.023127226042873886 0 0.01658925952432537 -0.027033298724514779 0 0.016509825478400096 -0.02696824367354398 0 0.016664703456970902 -0.026816314510142217 0 0.016709635196919887 -0.027017569616167407 0 0.017020814031880792 -0.026765794125376923 0 0.016732665272049058 -0.026921275155857634 0 0.01658925952432537 -0.027033298724514779 0 0.016732665272049058 -0.026921275155857634 0 0.016664703456970902 -0.026816314510142217 0 0.016709635196919887 -0.027017569616167407 0 0.01658925952432537 -0.027033298724514779 0 0.016732665272049058 -0.026921275155857634 0 0.017020814031880792 -0.026765794125376923 0 0.016664703456970902 -0.026816314510142217 0 0.016611913833592933 -0.026544196066777492 0 0.017020814031880792 -0.026765794125376923 0 0.016732665272049058 -0.026921275155857634 0 0.016664703456970902 -0.026816314510142217 0 0.016509825478400096 -0.02696824367354398 0 0.016664703456970902 -0.026816314510142217 0 0.016611913833592933 -0.026544196066777492 0 0.016321222194479738 -0.027391959018342193 0 0.016305887250107162 -0.027293640202415141 0 0.016487971633893251 -0.027226885217690813 0 0.015904835015860198 -0.027374555316392379 0 0.019575872357254259 -0.024788491644753857 0 0.017020814031880792 -0.026765794125376923 0 0.016611913833592933 -0.026544196066777492 0 0.017386807685870899 -0.025964690710404286 0 0.016321222194479738 -0.027391959018342193 0 0.016708639287801873 -0.027226025224467057 0 0.016487971633893251 -0.027226885217690813 0 0.0212474885695818 -0.023127226042873886 0 0.019575872357254259 -0.024788491644753857 0 0.024663381468158798 -0.020387145735166888 0 0.024696826807898614 -0.020284587092052272 0 0.024864302752241978 -0.020569051261111169 0 0.024696826807898614 -0.020284587092052272 0 0.024522944391717677 -0.020777228108525295 0 0.024864302752241978 -0.020569051261111169 0 0.024696826807898614 -0.020284587092052272 0 0.024278417232477343 -0.020531332252062891 0 0.024522944391717677 -0.020777228108525295 0 0.024696826807898614 -0.020284587092052272 0 0.024125428413917047 -0.019934920111049519 0 0.024278417232477343 -0.020531332252062891 0 0.024696826807898614 -0.020284587092052272 0 0.024619853592333572 -0.019245204479054819 0 0.024125428413917047 -0.019934920111049519 0 0.025826658283441134 -0.019035461897463392 0 0.024516758787965991 -0.020533605902381701 0 0.025676572745705104 -0.018862039199675038 0 0.024696826807898614 -0.020284587092052272 0 0.024619853592333572 -0.019245204479054819 0 0.024973132790092636 -0.018384905777950121 0 0.024619853592333572 -0.019245204479054819 0 0.024344413732152726 -0.018583894903390262 0 0.024973132790092636 -0.018384905777950121 0 0.025676572745705104 -0.018862039199675038 0 0.024619853592333572 -0.019245204479054819 0 0.023155367669651927 -0.019099942210357535 0 0.023677556545510754 -0.018282435976943713 0 0.023936659149799769 -0.019204009072990059 0 0.023677556545510754 -0.018282435976943713 0 0.024344413732152726 -0.018583894903390262 0 0.023936659149799769 -0.019204009072990059 0 0.024619853592333572 -0.019245204479054819 0 0.024344413732152726 -0.018583894903390262 0 0.023936659149799769 -0.019204009072990059 0 0.024619853592333572 -0.019245204479054819 0 0.023936659149799769 -0.019204009072990059 0 0.024125428413917047 -0.019934920111049519 0 0.023155367669651927 -0.019099942210357535 0 0.023936659149799769 -0.019204009072990059 0 0.023517538897140693 -0.019786154769045061 0 0.023517538897140693 -0.019786154769045061 0 0.024125428413917047 -0.019934920111049519 0 0.023773404259105721 -0.020383523098266257 0 0.023936659149799769 -0.019204009072990059 0 0.023517538897140693 -0.019786154769045061 0 0.024125428413917047 -0.019934920111049519 0 0.024125428413917047 -0.019934920111049519 0 0.024278417232477343 -0.020531332252062891 0 0.023773404259105721 -0.020383523098266257 0 0.024278417232477343 -0.020531332252062891 0 0.023773404259105721 -0.020383523098266257 0 0.023965036401312284 -0.020858123765909991 0 0.023149092398406124 -0.020273045355680842 0 0.023773404259105721 -0.020383523098266257 0 0.023500723119749503 -0.020759479615692997 0 0.023149092398406124 -0.020273045355680842 0 0.023517538897140693 -0.019786154769045061 0 0.023773404259105721 -0.020383523098266257 0 0.023773404259105721 -0.020383523098266257 0 0.023500723119749503 -0.020759479615692997 0 0.023965036401312284 -0.020858123765909991 0 0.023348409962814291 -0.021192772537479882 0 0.023500723119749503 -0.020759479615692997 0 0.023662450518401653 -0.021113740732734525 0 0.023500723119749503 -0.020759479615692997 0 0.023965036401312284 -0.020858123765909991 0 0.023662450518401653 -0.021113740732734525 0 0.024278417232477343 -0.020531332252062891 0 0.024233859658606107 -0.020934174067114043 0 0.023965036401312284 -0.020858123765909991 0 0.024233859658606107 -0.020934174067114043 0 0.023965036401312284 -0.020858123765909991 0 0.024072332842869876 -0.021158595235074577 0 0.024233859658606107 -0.020934174067114043 0 0.024072332842869876 -0.021158595235074577 0 0.024324131578349187 -0.021391984119088679 0 0.023965036401312284 -0.020858123765909991 0 0.024072332842869876 -0.021158595235074577 0 0.023662450518401653 -0.021113740732734525 0 0.024072332842869876 -0.021158595235074577 0 0.024324131578349187 -0.021391984119088679 0 0.023944904333786852 -0.021394241002651901 0 0.024072332842869876 -0.021158595235074577 0 0.023944904333786852 -0.021394241002651901 0 0.023779207825636545 -0.021379109030842659 0 0.023779207825636545 -0.021379109030842659 0 0.023495834339889676 -0.021372520531476598 0 0.023662450518401653 -0.021113740732734525 0 0.023944904333786852 -0.021394241002651901 0 0.023779207825636545 -0.021379109030842659 0 0.023598986793061699 -0.02166039644469276 0 0.023779207825636545 -0.021379109030842659 0 0.023495834339889676 -0.021372520531476598 0 0.023598986793061699 -0.02166039644469276 0 0.023348409962814291 -0.021192772537479882 0 0.023495834339889676 -0.021372520531476598 0 0.023662450518401653 -0.021113740732734525 0 0.024072332842869876 -0.021158595235074577 0 0.023779207825636545 -0.021379109030842659 0 0.023662450518401653 -0.021113740732734525 0 0.022190931737153485 -0.023615298941589345 0 0.019575872357254259 -0.024788491644753857 0 0.024324131578349187 -0.021391984119088679 0 0.024522944391717677 -0.020777228108525295 0 0.024864302752241978 -0.020569051261111169 0 0.019114164040111525 -0.026451219875195581 0 0.019113945459036955 -0.026438457892418037 0 0.019182897957771946 -0.026312444958426967 0 0.024278417232477343 -0.020531332252062891 0 0.024233859658606107 -0.020934174067114043 0 0.024522944391717677 -0.020777228108525295 0 0.024233859658606107 -0.020934174067114043 0 0.024324131578349187 -0.021391984119088679 0 0.024522944391717677 -0.020777228108525295 0 0.019164674640320865 -0.026420033654737714 0 0.019113945459036955 -0.026438457892418037 0 0.019182897957771946 -0.026312444958426967 0 0.018780883708591208 -0.027122430892651272 0 0.019015520931169719 -0.026249541841888494 0 0.018648931263804975 -0.026411163090207732 0 0.01830372969718241 -0.026818425224416739 0 0.019137110717322246 -0.026232793218464674 0 0.019022000326336375 -0.026449699349797288 0 0.019092918015646269 -0.026383423678396498 0 0.019015520931169719 -0.026249541841888494 0 0.01830372969718241 -0.026818425224416739 0 0.019158033446171716 -0.02656960053861979 0 0.019022000326336375 -0.026449699349797288 0 0.019113945459036955 -0.026438457892418037 0 0.019092918015646269 -0.026383423678396498 0 0.019114164040111525 -0.026451219875195581 0 0.019113945459036955 -0.026438457892418037 0 0.019092918015646269 -0.026383423678396498 0 0.019092918015646269 -0.026383423678396498 0 0.019215760669029098 -0.026303239246058513 0 0.019015520931169719 -0.026249541841888494 0 0.019490882443422571 -0.026292429023517722 0 0.019114164040111525 -0.026451219875195581 0 0.019215760669029098 -0.026303239246058513 0 0.02126974895130718 -0.024434250262025409 0 0.022190931737153485 -0.023615298941589345 0 0.023275524505028809 -0.022433934273950389 0 0.024324131578349187 -0.021391984119088679 0 0.023598986793061699 -0.02166039644469276 0 0.019114164040111525 -0.026451219875195581 0 0.019092918015646269 -0.026383423678396498 0 0.019215760669029098 -0.026303239246058513 0 0.024324131578349187 -0.021391984119088679 0 0.023944904333786852 -0.021394241002651901 0 0.023598986793061699 -0.02166039644469276 0 0.019490882443422571 -0.026292429023517722 0 0.019215760669029098 -0.026303239246058513 0 0.019338248699071289 -0.026079242053699443 0 0.019483815897017646 -0.02578365011188204 0 0.019338248699071289 -0.026079242053699443 0 0.01906786385372734 -0.025833532731775501 0 0.019215760669029098 -0.026303239246058513 0 0.019338248699071289 -0.026079242053699443 0 0.019015520931169719 -0.026249541841888494 0 0.019338248699071289 -0.026079242053699443 0 0.019015520931169719 -0.026249541841888494 0 0.01906786385372734 -0.025833532731775501 0 0.019015520931169719 -0.026249541841888494 0 0.018583544249845471 -0.025880520926394916 0 0.018648931263804975 -0.026411163090207732 0 0.019015520931169719 -0.026249541841888494 0 0.01906786385372734 -0.025833532731775501 0 0.018583544249845471 -0.025880520926394916 0 0.01887340318252332 -0.025530441169435331 0 0.01906786385372734 -0.025833532731775501 0 0.018583544249845471 -0.025880520926394916 0 0.01911116474883898 -0.025526563976027223 0 0.01887340318252332 -0.025530441169435331 0 0.01906786385372734 -0.025833532731775501 0 0.01911116474883898 -0.025526563976027223 0 0.019671478250049793 -0.025411918161560031 0 0.019483815897017646 -0.02578365011188204 0 0.01911116474883898 -0.025526563976027223 0 0.019483815897017646 -0.02578365011188204 0 0.01906786385372734 -0.025833532731775501 0 0.017912919873086464 -0.025506710761381848 0 0.018011605285850139 -0.026024095408848875 0 0.017111967295773557 -0.026044948772933115 0 0.017912919873086464 -0.025506710761381848 0 0.018011605285850139 -0.026024095408848875 0 0.018583544249845471 -0.025880520926394916 0 0.018011605285850139 -0.026024095408848875 0 0.018583544249845471 -0.025880520926394916 0 0.018230393237900155 -0.026496045883980416 0 0.018583544249845471 -0.025880520926394916 0 0.018648931263804975 -0.026411163090207732 0 0.018230393237900155 -0.026496045883980416 0 0.018011605285850139 -0.026024095408848875 0 0.018230393237900155 -0.026496045883980416 0 0.017632178794557453 -0.026492296322501198 0 0.018230393237900155 -0.026496045883980416 0 0.017632178794557453 -0.026492296322501198 0 0.017796840637845611 -0.027323232067094846 0 0.018780883708591208 -0.027122430892651272 0 0.018648931263804975 -0.026411163090207732 0 0.018230393237900155 -0.026496045883980416 0 0.018780883708591208 -0.027122430892651272 0 0.018230393237900155 -0.026496045883980416 0 0.017796840637845611 -0.027323232067094846 0 0.01830372969718241 -0.026818425224416739 0 0.016960924944781328 -0.027257087937269608 0 0.01678449915404465 -0.027028748595593292 0 0.016708639287801873 -0.027226025224467057 0 0.016487971633893251 -0.027226885217690813 0 0.01678449915404465 -0.027028748595593292 0 0.016373493595721929 -0.027114278245780474 0 0.016487971633893251 -0.027226885217690813 0 0.01830372969718241 -0.026818425224416739 0 0.019575872357254259 -0.024788491644753857 0 0.016305887250107162 -0.027293640202415141 0 0.016373493595721929 -0.027114278245780474 0 0.016487971633893251 -0.027226885217690813 0 0.016305887250107162 -0.027293640202415141 0 0.016373493595721929 -0.027114278245780474 0 0.016210716472834074 -0.027287992160551073 0 0.016373493595721929 -0.027114278245780474 0 0.016210716472834074 -0.027287992160551073 0 0.016040916673783885 -0.027133614265391365 0 0.016960924944781328 -0.027257087937269608 0 0.016400118526954534 -0.027344127996561388 0 0.016040916673783885 -0.027133614265391365 0 0.015421478015464276 -0.027627290316365592 0 0.016023877956620344 -0.027507054277289042 0 0.016210716472834074 -0.027287992160551073 0 0.016040916673783885 -0.027133614265391365 0 0.016023877956620344 -0.027507054277289042 0 0.016731691223435485 -0.027560607407570523 0 0.016973871457823544 -0.026792445858461734 0 0.016171999847728238 -0.027114358216654533 0 0.016973871457823544 -0.026792445858461734 0 0.016190959752769008 -0.026596666846808507 0 0.016171999847728238 -0.027114358216654533 0 0.017796840637845611 -0.027323232067094846 0 0.016731691223435485 -0.027560607407570523 0 0.016973871457823544 -0.026792445858461734 0 0.017632178794557453 -0.026492296322501198 0 0.017796840637845611 -0.027323232067094846 0 0.016973871457823544 -0.026792445858461734 0 0.017632178794557453 -0.026492296322501198 0 0.016973871457823544 -0.026792445858461734 0 0.017111967295773557 -0.026044948772933115 0 0.018011605285850139 -0.026024095408848875 0 0.017632178794557453 -0.026492296322501198 0 0.017111967295773557 -0.026044948772933115 0 0.017111967295773557 -0.026044948772933115 0 0.01639239449345279 -0.025939178966938828 0 0.016190959752769008 -0.026596666846808507 0 0.016973871457823544 -0.026792445858461734 0 0.017111967295773557 -0.026044948772933115 0 0.016190959752769008 -0.026596666846808507 0 0.01662870034295489 -0.025419443353403553 0 0.017111967295773557 -0.026044948772933115 0 0.01639239449345279 -0.025939178966938828 0 0.017827650742244367 -0.025647158276040097 0 0.017169998920916373 -0.026027751913477341 0 0.01470828129821198 -0.02529615076071209 0 0.015878666661505968 -0.025410265426506075 0 0.015295572226322853 -0.026208539784536695 0 0.015878666661505968 -0.025410265426506075 0 0.01639239449345279 -0.025939178966938828 0 0.015295572226322853 -0.026208539784536695 0 0.01639239449345279 -0.025939178966938828 0 0.016190959752769008 -0.026596666846808507 0 0.015295572226322853 -0.026208539784536695 0 0.016190959752769008 -0.026596666846808507 0 0.015295572226322853 -0.026208539784536695 0 0.01547887051752494 -0.026909321981979411 0 0.015295572226322853 -0.026208539784536695 0 0.01547887051752494 -0.026909321981979411 0 0.014543006762080101 -0.026960097239790606 0 0.01547887051752494 -0.026909321981979411 0 0.015444913502045349 -0.027757487810592261 0 0.014543006762080101 -0.026960097239790606 0 0.01547887051752494 -0.026909321981979411 0 0.016171999847728238 -0.027114358216654533 0 0.015444913502045349 -0.027757487810592261 0 0.016190959752769008 -0.026596666846808507 0 0.01547887051752494 -0.026909321981979411 0 0.016171999847728238 -0.027114358216654533 0 0.016400118526954534 -0.027344127996561388 0 0.015190572850581379 -0.027540020348367472 0 0.016040916673783885 -0.027133614265391365 0 0.014951707937783524 -0.02732543929633267 0 0.015421478015464276 -0.027627290316365592 0 0.016731691223435485 -0.027560607407570523 0 0.016171999847728238 -0.027114358216654533 0 0.015444913502045349 -0.027757487810592261 0 0.014951707937783524 -0.02732543929633267 0 0.014764910513697637 -0.028171228630224723 0 0.01430161988375072 -0.028058793199789427 0 0.014951707937783524 -0.02732543929633267 0 0.014764910513697637 -0.028171228630224723 0 0.015421478015464276 -0.027627290316365592 0 0.014764910513697637 -0.028171228630224723 0 0.014988414173154406 -0.02860058680314799 0 0.014581622390639164 -0.028704274569885415 0 0.014764910513697637 -0.028171228630224723 0 0.014988414173154406 -0.02860058680314799 0 0.015343102504829237 -0.028091458189952876 0 0.015371469502106239 -0.028524772312970993 0 0.015343102504829237 -0.028091458189952876 0 0.015811748872708416 -0.028519541173172267 0 0.014988414173154406 -0.02860058680314799 0 0.015371469502106239 -0.028524772312970993 0 0.015343102504829237 -0.028091458189952876 0 0.014764910513697637 -0.028171228630224723 0 0.015343102504829237 -0.028091458189952876 0 0.015421478015464276 -0.027627290316365592 0 0.015343102504829237 -0.028091458189952876 0 0.015421478015464276 -0.027627290316365592 0 0.016023877956620344 -0.027507054277289042 0 0.016038524472433469 -0.0275786387370053 0 0.016073238027558289 -0.027629543450722882 0 0.015343102504829237 -0.028091458189952876 0 0.016023877956620344 -0.027507054277289042 0 0.015811748872708416 -0.028519541173172267 0 0.016023877956620344 -0.027507054277289042 0 0.016224772952770226 -0.027360482744088178 0 0.016213613191036085 -0.02731585435970911 0 0.016321222194479738 -0.027391959018342193 0 0.016305887250107162 -0.027293640202415141 0 0.016224772952770226 -0.027360482744088178 0 0.016305887250107162 -0.027293640202415141 0 0.016210716472834074 -0.027287992160551073 0 0.016224772952770226 -0.027360482744088178 0 0.016210716472834074 -0.027287992160551073 0 0.016023877956620344 -0.027507054277289042 0 0.016224772952770226 -0.027360482744088178 0 0.016224772952770226 -0.027360482744088178 0 0.016260195978647023 -0.027168122637530906 0 0.016213613191036085 -0.02731585435970911 0 0.015904835015860198 -0.027374555316392379 0 0.016535101187488806 -0.026962785938615615 0 0.016321222194479738 -0.027391959018342193 0 0.016224772952770226 -0.027360482744088178 0 0.016260195978647023 -0.027168122637530906 0 0.016509825478400096 -0.02696824367354398 0 0.016611913833592933 -0.026544196066777492 0 0.016260195978647023 -0.027168122637530906 0 0.016509825478400096 -0.02696824367354398 0 0.016260195978647023 -0.027168122637530906 0 0.016382389723438171 -0.027107504824340628 0 0.016023877956620344 -0.027507054277289042 0 0.016213613191036085 -0.02731585435970911 0 0.016353833137077261 -0.027179519378298354 0 0.016260195978647023 -0.027168122637530906 0 0.016353833137077261 -0.027179519378298354 0 0.016351356776991396 -0.027131522927541722 0 0.016260195978647023 -0.027168122637530906 0 0.016213613191036085 -0.02731585435970911 0 0.016353833137077261 -0.027179519378298354 0 0.015811748872708416 -0.028519541173172267 0 0.015629801728119636 -0.029154803137649149 0 0.015342116228857791 -0.028856412399296479 0 0.016351356776991396 -0.027131522927541722 0 0.016420322730502413 -0.027128901660148797 0 0.016411226714772142 -0.027120981482711647 0 0.016073238027558289 -0.027629543450722882 0 0.015984646989131181 -0.029002796894959101 0 0.016353833137077261 -0.027179519378298354 0 0.016351356776991396 -0.027131522927541722 0 0.016411226714772142 -0.027120981482711647 0 0.016509825478400096 -0.02696824367354398 0 0.016382389723438171 -0.027107504824340628 0 0.016455623927854646 -0.027118113115445753 0 0.016382389723438171 -0.027107504824340628 0 0.016455623927854646 -0.027118113115445753 0 0.016351356776991396 -0.027131522927541722 0 0.016260195978647023 -0.027168122637530906 0 0.016382389723438171 -0.027107504824340628 0 0.016351356776991396 -0.027131522927541722 0 0.016455623927854646 -0.027118113115445753 0 0.016351356776991396 -0.027131522927541722 0 0.016420322730502413 -0.027128901660148797 0 0.016499805852918013 -0.027125060000387436 0 0.016455623927854646 -0.027118113115445753 0 0.016420322730502413 -0.027128901660148797 0 0.016499805852918013 -0.027125060000387436 0 0.016420322730502413 -0.027128901660148797 0 0.01646423224587136 -0.027118534392155638 0 0.016420322730502413 -0.027128901660148797 0 0.016435439914573084 -0.027118402247217597 0 0.01646423224587136 -0.027118534392155638 0 0.016435439914573084 -0.027118402247217597 0 0.01646423224587136 -0.027118534392155638 0 0.016463842980439191 -0.027120795627660493 0 0.016420322730502413 -0.027128901660148797 0 0.016435439914573084 -0.027118402247217597 0 0.016411226714772142 -0.027120981482711647 0 0.016435439914573084 -0.027118402247217597 0 0.016411226714772142 -0.027120981482711647 0 0.016429911002505817 -0.027104392225532431 0 0.015629801728119636 -0.029154803137649149 0 0.015047331900115328 -0.029286395750117548 0 0.015345380904376517 -0.029474786460675969 0 0.015629801728119636 -0.029154803137649149 0 0.015047331900115328 -0.029286395750117548 0 0.015342116228857791 -0.028856412399296479 0 0.015047331900115328 -0.029286395750117548 0 0.014796616185792852 -0.029544351988794862 0 0.01454666421953428 -0.029315877140568457 0 0.015047331900115328 -0.029286395750117548 0 0.014760900175887277 -0.028997966304503527 0 0.01454666421953428 -0.029315877140568457 0 0.014988414173154406 -0.02860058680314799 0 0.014760900175887277 -0.028997966304503527 0 0.015342116228857791 -0.028856412399296479 0 0.014988414173154406 -0.02860058680314799 0 0.014760900175887277 -0.028997966304503527 0 0.014581622390639164 -0.028704274569885415 0 0.014988414173154406 -0.02860058680314799 0 0.015371469502106239 -0.028524772312970993 0 0.015342116228857791 -0.028856412399296479 0 0.015047331900115328 -0.029286395750117548 0 0.014760900175887277 -0.028997966304503527 0 0.015342116228857791 -0.028856412399296479 0 0.015371469502106239 -0.028524772312970993 0 0.015811748872708416 -0.028519541173172267 0 0.015342116228857791 -0.028856412399296479 0 0.018296184976639873 -0.020510277402124799 0 0.016513465586545571 -0.018833589082146732 0 0.017868094354878624 -0.016038940985898739 0 0.013887671336666048 -0.021260130175750069 0 0.014448184133482991 -0.016025946169753034 0 0.018296184976639873 -0.020510277402124799 0 0.016513465586545571 -0.018833589082146732 0 0.016873730942682432 -0.020797966407039237 0 0.016513465586545571 -0.018833589082146732 0 0.016873730942682432 -0.020797966407039237 0 0.014689539846093967 -0.021310346358624069 0 0.011621585304452687 -0.019454862174801146 0 0.011293798330806855 -0.016245684670369742 0 0.013382523493640436 -0.017009477334237036 0 0.011917509746829405 -0.019542383956938789 0 0.015589915331169879 -0.018601496390367882 0 0.014694067990070895 -0.020097996374024846 0 0.013887671336666048 -0.021260130175750069 0 0.014588340367673253 -0.018213717135702561 0 0.011621585304452687 -0.019454862174801146 0 0.013382523493640436 -0.017009477334237036 0 0.015589915331169879 -0.018601496390367882 0 0.015047331900115328 -0.029286395750117548 0 0.014796616185792852 -0.029544351988794862 0 0.01504668675166212 -0.02977917774094118 0 0.014796616185792852 -0.029544351988794862 0 0.01504668675166212 -0.02977917774094118 0 0.014472562471767716 -0.029718108734913876 0 0.011917509746829405 -0.019542383956938789 0 0.011949337200180892 -0.0198452958756914 0 0.014694067990070895 -0.020097996374024846 0 0.014796616185792852 -0.029544351988794862 0 0.01454666421953428 -0.029315877140568457 0 0.014472562471767716 -0.029718108734913876 0 0.014035368498017007 -0.025247556350918115 0 0.0144023686887658 -0.024861078537849659 0 0.015279307409172474 -0.031003631892953961 0 0.014035368498017007 -0.025247556350918115 0 0.015047331900115328 -0.029286395750117548 0 0.015146104392926197 -0.029671986103343633 0 0.015345380904376517 -0.029474786460675969 0 0.014035368498017007 -0.025247556350918115 0 0.015323457513484724 -0.023922468107626226 0 0.012658801622821368 -0.024199038950267995 0 0.012563280088713626 -0.023243922929776676 0 0.01565649203990821 -0.02360083527965855 0 0.013887671336666048 -0.021260130175750069 0 0.015323457513484724 -0.023922468107626226 0 0.013887671336666048 -0.021260130175750069 0 0.014035368498017007 -0.025247556350918115 0 0.015310175533767513 -0.029687400788671062 0 0.015345380904376517 -0.029474786460675969 0 0.01555282748194139 -0.029635311003113785 0 0.015323457513484724 -0.023922468107626226 0 0.016378331532729041 -0.024259059853703382 0 0.015146104392926197 -0.029671986103343633 0 0.015310175533767513 -0.029687400788671062 0 0.015345380904376517 -0.029474786460675969 0 0.015984646989131181 -0.029002796894959101 0 0.016378331532729041 -0.024259059853703382 0 0.015629801728119636 -0.029154803137649149 0 0.015345380904376517 -0.029474786460675969 0 0.01555282748194139 -0.029635311003113785 0 0.016435439914573084 -0.027118402247217597 0 0.016429911002505817 -0.027104392225532431 0 0.016463842980439191 -0.027120795627660493 0 0.016378331532729041 -0.024259059853703382 0 0.017650751486868552 -0.021582371454977156 0 0.019851150578185862 -0.020011033095540771 0 0.016011767670342614 -0.020844955940662876 0 0.017355432121489954 -0.018863387024699606 0 0.017650751486868552 -0.021582371454977156 0 0.019506082632010435 -0.016952181184420659 0 0.020492708780090102 -0.017987291647493742 0 0.020653477103909829 -0.017727128063417426 0 0.020380338419128403 -0.017880774064834355 0 0.019506082632010435 -0.016952181184420659 0 0.019924802969805935 -0.015230642228933165 0 0.020653477103909829 -0.017727128063417426 0 0.020347775964871462 -0.017677637795154067 0 0.020380338419128403 -0.017880774064834355 0 0.020397566667046518 -0.012769446098761142 0 0.020067915872532212 -0.011830255738256839 0 0.019466671215433187 -0.012637691966806723 0 0.016378331532729041 -0.024259059853703382 0 0.019635142252470844 -0.012875835280234196 0 0.019851150578185862 -0.020011033095540771 0 0.019286789004007168 -0.019088551591002249 0 0.019916699011909827 -0.015020537552377694 0 0.016513465586545571 -0.018833589082146732 0 0.014689539846093967 -0.021310346358624069 0 0.014760524914082496 -0.015499097594952754 0 0.019506082632010435 -0.016952181184420659 0 0.019635142252470844 -0.012875835280234196 0 0.017313924947564334 -0.018841136027059061 0 0.019286789004007168 -0.019088551591002249 0 0.019916699011909827 -0.015020537552377694 0 0.019506082632010435 -0.016952181184420659 0 0.018590972979464156 -0.018423398973763647 0 0.019851150578185862 -0.020011033095540771 0 0.017355432121489954 -0.018863387024699606 0 0.019286789004007168 -0.019088551591002249 0 0.020397566667046518 -0.012769446098761142 0 0.021342554729030967 -0.011346123952914636 0 0.020067915872532212 -0.011830255738256839 0 0.021342554729030967 -0.011346123952914636 0 0.020067915872532212 -0.011830255738256839 0 0.020300300316092503 -0.011068969539126864 0 0.020067915872532212 -0.011830255738256839 0 0.020300300316092503 -0.011068969539126864 0 0.019607781641562325 -0.01127318409311792 0 0.020300300316092503 -0.011068969539126864 0 0.019798951798224291 -0.010682559346080745 0 0.019607781641562325 -0.01127318409311792 0 0.020300300316092503 -0.011068969539126864 0 0.019798951798224291 -0.010682559346080745 0 0.020331891217832302 -0.010144153004198592 0 0.020300300316092503 -0.011068969539126864 0 0.020331891217832302 -0.010144153004198592 0 0.020828229247518867 -0.010579372597026831 0 0.020331891217832302 -0.010144153004198592 0 0.020828229247518867 -0.010579372597026831 0 0.020858424310387893 -0.0098213490990862948 0 0.019798951798224291 -0.010682559346080745 0 0.020331891217832302 -0.010144153004198592 0 0.019772380120975725 -0.01004384330510665 0 0.021342554729030967 -0.011346123952914636 0 0.020828229247518867 -0.010579372597026831 0 0.021298187621186425 -0.010033413436721192 0 0.021247459375475831 -0.011189941883060987 0 0.021971371467683295 -0.010105581659269711 0 0.021298187621186425 -0.010033413436721192 0 0.019635142252470844 -0.012875835280234196 0 0.021522774811435122 -0.0095071273994804337 0 0.021342554729030967 -0.011346123952914636 0 0.020300300316092503 -0.011068969539126864 0 0.020828229247518867 -0.010579372597026831 0 0.020828229247518867 -0.010579372597026831 0 0.020858424310387893 -0.0098213490990862948 0 0.021298187621186425 -0.010033413436721192 0 0.016754898071994293 -0.01151529346285418 0 0.014448184133482991 -0.016025946169753034 0 0.019635142252470844 -0.012875835280234196 0 0.016754898071994293 -0.01151529346285418 0 0.014760524914082496 -0.015499097594952754 0 0.017426566639274225 -0.011584241350971306 0 0.017868094354878624 -0.016038940985898739 0 0.010974849386884873 -0.013014322294837562 0 0.011293798330806855 -0.016245684670369742 0 0.013457585280942045 -0.014872578903952756 0 0.016513465586545571 -0.018833589082146732 0 0.014760524914082496 -0.015499097594952754 0 0.017868094354878624 -0.016038940985898739 0 0.011293798330806855 -0.016245684670369742 0 0.013382523493640436 -0.017009477334237036 0 0.013457585280942045 -0.014872578903952756 0 0.013382523493640436 -0.017009477334237036 0 0.013457585280942045 -0.014872578903952756 0 0.015059595158415382 -0.016313800307767908 0 0.010974849386884873 -0.013014322294837562 0 0.013457585280942045 -0.014872578903952756 0 0.014340025034391543 -0.012414004368573685 0 0.010974849386884873 -0.013014322294837562 0 0.01283980385395273 -0.010229841993527127 0 0.014340025034391543 -0.012414004368573685 0 0.016754898071994293 -0.01151529346285418 0 0.015036875249648531 -0.0098844992232740257 0 0.021971371467683295 -0.010105581659269711 0 0.021549647223798509 -0.0097175513739945468 0 0.021859682378496621 -0.0090792259955386791 0 0.016754898071994293 -0.01151529346285418 0 0.020197223928398275 -0.0086488187982353398 0 0.016994661010494488 -0.010559563421044058 0 0.016840205657351809 -0.0089265928269513985 0 0.018057074576950834 -0.00897735318421773 0 0.021971371467683295 -0.010105581659269711 0 0.021549647223798509 -0.0097175513739945468 0 0.021298187621186425 -0.010033413436721192 0 0.020261448923924265 -0.0063458929887101135 0 0.020249206189357133 -0.0062153197076296194 0 0.020490231227073493 -0.0061358536313517714 0 0.022230617249768145 -0.0087207761800979673 0 0.022162347186105456 -0.0079210669419218019 0 0.021735785649375217 -0.0086487012566499911 0 0.020197223928398275 -0.0086488187982353398 0 0.02134452039987678 -0.0048486274163171469 0 0.015036875249648531 -0.0098844992232740257 0 0.017019272458979155 -0.0068653492569221075 0 0.020197223928398275 -0.0086488187982353398 0 0.01966937303904074 -0.0053069516276562229 0 0.016840205657351809 -0.0089265928269513985 0 0.018057074576950834 -0.00897735318421773 0 0.018578509461049105 -0.0075369094898506293 0 0.018057074576950834 -0.00897735318421773 0 0.018578509461049105 -0.0075369094898506293 0 0.0191106430939114 -0.0073908722732215831 0 0.021303680115013379 -0.0020526561146792959 0 0.021084360998471278 -0.0019913089970942321 0 0.021142299010939742 -0.0019005926368191623 0 0.02134452039987678 -0.0048486274163171469 0 0.01966937303904074 -0.0053069516276562229 0 0.021303680115013379 -0.0020526561146792959 0 0.021371795085067622 -0.0018792362192485334 0 0.021142299010939742 -0.0019005926368191623 0 0.020993523254776335 -0.002069924329317891 0 0.021303680115013379 -0.0020526561146792959 0 0.021084360998471278 -0.0019913089970942321 0 0.020994240492045218 -0.0020263559219138587 0 0.020999417017518181 -0.0019183425790537966 0 0.020976919893469337 -0.0019908271416888045 0 0.020993523254776335 -0.002069924329317891 0 0.020994240492045218 -0.0020263559219138587 0 0.021084360998471278 -0.0019913089970942321 0 0.02099253058664351 -0.0020244065705964788 0 0.020994240492045218 -0.0020263559219138587 0 0.020976919893469337 -0.0019908271416888045 0 0.02134452039987678 -0.0048486274163171469 0 0.02125847978055596 -0.0040448363679792621 0 0.020999417017518181 -0.0019183425790537966 0 0.021084360998471278 -0.0019913089970942321 0 0.021142299010939742 -0.0019005926368191623 0 0.020994240492045218 -0.0020263559219138587 0 0.020999417017518181 -0.0019183425790537966 0 0.021084360998471278 -0.0019913089970942321 0 0.024212021954632922 0.0018864696242950829 0 0.024013355729790815 0.0014992199762212976 0 0.020999417017518181 -0.0019183425790537966 0 0.020954832490860879 -0.0019344972761889802 0 0.020898203924030415 -0.0016084263263653916 0 0.020999417017518181 -0.0019183425790537966 0 0.021142299010939742 -0.0019005926368191623 0 0.020898203924030415 -0.0016084263263653916 0 0.021346308150995707 -0.0018567097321314969 0 0.021142299010939742 -0.0019005926368191623 0 0.020898203924030415 -0.0016084263263653916 0 0.021346308150995707 -0.0018567097321314969 0 0.021371795085067622 -0.0018792362192485334 0 0.021142299010939742 -0.0019005926368191623 0 0.027523991945808152 0.0046965928924714191 0 0.027445130251598001 0.0047236127248970559 0 0.027522207481781486 0.0046727509655844603 0 0.027523991945808152 0.0046965928924714191 0 0.027522207481781486 0.0046727509655844603 0 0.027567504319042053 0.0046719035308796153 0 0.027445130251598001 0.0047236127248970559 0 0.027391652102849589 0.004707970431663335 0 0.02716999474443205 0.004753456947967743 0 0.027523991945808152 0.0046965928924714191 0 0.027445130251598001 0.0047236127248970559 0 0.027391652102849589 0.004707970431663335 0 0.020954832490860879 -0.0019344972761889802 0 0.020976919893469337 -0.0019908271416888045 0 0.020974088200611817 -0.0020063508047054252 0 0.020999417017518181 -0.0019183425790537966 0 0.020954832490860879 -0.0019344972761889802 0 0.020976919893469337 -0.0019908271416888045 0 0.020954832490860879 -0.0019344972761889802 0 0.020983053875660972 -0.0020056876040805932 0 0.020974088200611817 -0.0020063508047054252 0 0.027445130251598001 0.0047236127248970559 0 0.027522207481781486 0.0046727509655844603 0 0.027520243518504042 0.0046099740382941259 0 0.024212021954632922 0.0018864696242950829 0 0.024765710675220286 -0.0014034279302348488 0 0.023175081816696079 -0.0048062176516280829 0 0.022011458471103657 -0.0046224198186943692 0 0.023804367285424909 -0.0041666249271321868 0 0.024765710675220286 -0.0014034279302348488 0 0.021026367018626466 -0.0055304684000658695 0 0.020391453577833216 -0.0084970948280340027 0 0.020989544479519669 -0.0089944115617154163 0 0.020613095609447074 -0.0093702342949740208 0 0.020391453577833216 -0.0084970948280340027 0 0.020091749659734738 -0.0093802109783 0 0.019692706976292249 -0.0086984900780052235 0 0.021026367018626466 -0.0055304684000658695 0 0.022602348627648736 -0.0049792240432589546 0 0.024765710675220286 -0.0014034279302348488 0 0.022602348627648736 -0.0049792240432589546 0 0.021026367018626466 -0.0055304684000658695 0 0.021491967597423015 -0.0089520233444273147 0 0.02134452039987678 -0.0048486274163171469 0 0.021026367018626466 -0.0055304684000658695 0 0.02099253058664351 -0.0020244065705964788 0 0.020976919893469337 -0.0019908271416888045 0 0.020974088200611817 -0.0020063508047054252 0 0.022162347186105456 -0.0079210669419218019 0 0.020280400601166652 -0.0083774543129591025 0 0.021735785649375217 -0.0086487012566499911 0 0.020391453577833216 -0.0084970948280340027 0 0.020989544479519669 -0.0089944115617154163 0 0.021735785649375217 -0.0086487012566499911 0 0.022230617249768145 -0.0087207761800979673 0 0.021735785649375217 -0.0086487012566499911 0 0.020858424310387893 -0.0098213490990862948 0 0.020197223928398275 -0.0086488187982353398 0 0.021529460109666766 -0.0096681578743945413 0 0.021549647223798509 -0.0097175513739945468 0 0.021859682378496621 -0.0090792259955386791 0 0.020858424310387893 -0.0098213490990862948 0 0.020989544479519669 -0.0089944115617154163 0 0.021735785649375217 -0.0086487012566499911 0 0.020858424310387893 -0.0098213490990862948 0 0.020989544479519669 -0.0089944115617154163 0 0.020858424310387893 -0.0098213490990862948 0 0.020613095609447074 -0.0093702342949740208 0 0.021549647223798509 -0.0097175513739945468 0 0.020858424310387893 -0.0098213490990862948 0 0.021298187621186425 -0.010033413436721192 0 0.020091749659734738 -0.0093802109783 0 0.01960492412942233 -0.009482319655397739 0 0.019692706976292249 -0.0086984900780052235 0 0.020391453577833216 -0.0084970948280340027 0 0.020091749659734738 -0.0093802109783 0 0.020613095609447074 -0.0093702342949740208 0 0.020331891217832302 -0.010144153004198592 0 0.020091749659734738 -0.0093802109783 0 0.020613095609447074 -0.0093702342949740208 0 0.020331891217832302 -0.010144153004198592 0 0.020858424310387893 -0.0098213490990862948 0 0.020613095609447074 -0.0093702342949740208 0 0.020331891217832302 -0.010144153004198592 0 0.020091749659734738 -0.0093802109783 0 0.019772380120975725 -0.01004384330510665 0 0.020091749659734738 -0.0093802109783 0 0.019772380120975725 -0.01004384330510665 0 0.01960492412942233 -0.009482319655397739 0 0.019772380120975725 -0.01004384330510665 0 0.01960492412942233 -0.009482319655397739 0 0.0191653972867999 -0.010120948640141193 0 0.01902638761321588 -0.0094177069599323624 0 0.01960492412942233 -0.009482319655397739 0 0.0191653972867999 -0.010120948640141193 0 0.01902638761321588 -0.0094177069599323624 0 0.01836587941985875 -0.010115815652965437 0 0.0191653972867999 -0.010120948640141193 0 0.02358569576656638 -0.004906571741253446 0 0.022828303096072384 -0.0045938512596478817 0 0.023491858642279869 -0.004172600888798084 0 0.021110444735946445 -0.0073837395906678309 0 0.022602348627648736 -0.0049792240432589546 0 0.01902638761321588 -0.0094177069599323624 0 0.01960492412942233 -0.009482319655397739 0 0.019692706976292249 -0.0086984900780052235 0 0.024206058147573303 -0.004770211229202577 0 0.021675821530835505 -0.0082938580413155025 0 0.021110444735946445 -0.0073837395906678309 0 0.021675821530835505 -0.0082938580413155025 0 0.02358569576656638 -0.004906571741253446 0 0.022828303096072384 -0.0045938512596478817 0 0.022592118046913804 -0.0059550343642443323 0 0.022828303096072384 -0.0045938512596478817 0 0.02191668259115483 -0.0047103924101385116 0 0.022592118046913804 -0.0059550343642443323 0 0.024206058147573303 -0.004770211229202577 0 0.025721985979719589 0.00093583752155177531 0 0.022828303096072384 -0.0045938512596478817 0 0.02191668259115483 -0.0047103924101385116 0 0.022654027012693402 -0.0031254232311538391 0 0.022828303096072384 -0.0045938512596478817 0 0.022654027012693402 -0.0031254232311538391 0 0.023491858642279869 -0.004172600888798084 0 0.022654027012693402 -0.0031254232311538391 0 0.024594160942321627 -0.0038711959771001404 0 0.023491858642279869 -0.004172600888798084 0 0.024962495976510228 -0.0034874946525407175 0 0.022654027012693402 -0.0031254232311538391 0 0.024594160942321627 -0.0038711959771001404 0 0.027520243518504042 0.0046099740382941259 0 0.027501561292379822 0.0045799943256801794 0 0.027528161914209096 0.0046298502275789822 0 0.024765710675220286 -0.0014034279302348488 0 0.025721985979719589 0.00093583752155177531 0 0.022602348627648736 -0.0049792240432589546 0 0.024164543626438769 -0.0041338275390973784 0 0.02358569576656638 -0.004906571741253446 0 0.024518990261761457 -0.003907634138187766 0 0.023491858642279869 -0.004172600888798084 0 0.027522207481781486 0.0046727509655844603 0 0.027520243518504042 0.0046099740382941259 0 0.027528161914209096 0.0046298502275789822 0 0.027522207481781486 0.0046727509655844603 0 0.027528161914209096 0.0046298502275789822 0 0.027567504319042053 0.0046719035308796153 0 0.027528161914209096 0.0046298502275789822 0 0.027516178916122187 0.0046001513603168686 0 0.027567504319042053 0.0046719035308796153 0 0.025721985979719589 0.00093583752155177531 0 0.02748150627740311 0.0046127549312622281 0 0.027501561292379822 0.0045799943256801794 0 0.027528161914209096 0.0046298502275789822 0 0.027516178916122187 0.0046001513603168686 0 0.027508663861768819 0.0045717518385657236 0 0.027516178916122187 0.0046001513603168686 0 0.027511755862997068 0.0045857125009667928 0 0.027508663861768819 0.0045717518385657236 0 0.027511755862997068 0.0045857125009667928 0 0.027507989922561239 0.0045652757661950507 0 0.027511755862997068 0.0045857125009667928 0 0.02752237188103639 0.0046114795278601305 0 0.027513024766665124 0.0045864649333647433 0 0.027516178916122187 0.0046001513603168686 0 0.02752237188103639 0.0046114795278601305 0 0.027567504319042053 0.0046719035308796153 0 0.027516178916122187 0.0046001513603168686 0 0.027511755862997068 0.0045857125009667928 0 0.02752237188103639 0.0046114795278601305 0 0.02752237188103639 0.0046114795278601305 0 0.027567504319042053 0.0046719035308796153 0 0.027507834684020981 0.0045497005911293142 0 0.027583369392493565 0.0046634415097861481 0 0.027673467745832674 0.0045888398420815615 0 0.02752237188103639 0.0046114795278601305 0 0.027517639617535311 0.0045831338645917225 0 0.027507834684020981 0.0045497005911293142 0 0.02752237188103639 0.0046114795278601305 0 0.027517639617535311 0.0045831338645917225 0 0.027513024766665124 0.0045864649333647433 0 0.027523991945808152 0.0046965928924714191 0 0.027567504319042053 0.0046719035308796153 0 0.027685157037042687 0.0046430837094866111 0 0.027303657808801878 0.0017224671603633913 0 0.027647961796641786 0.001544997183003431 0 0.027345934818184304 0.0021057234372503248 0 0.027539266875545788 0.0045455187815905598 0 0.02753331287546186 0.0045833137744603174 0 0.027576147649038971 0.0045218615073767624 0 0.027185539733871486 0.0027624094439871448 0 0.027636502660033122 0.0038400587912146931 0 0.027539266875545788 0.0045455187815905598 0 0.027524203878464125 0.0045718444987665943 0 0.02753331287546186 0.0045833137744603174 0 0.027539266875545788 0.0045455187815905598 0 0.027517639617535311 0.0045831338645917225 0 0.027524203878464125 0.0045718444987665943 0 0.027539266875545788 0.0045455187815905598 0 0.027517639617535311 0.0045831338645917225 0 0.027507834684020981 0.0045497005911293142 0 0.027517639617535311 0.0045831338645917225 0 0.027518242818717141 0.0045800600288186926 0 0.027513024766665124 0.0045864649333647433 0 0.027517639617535311 0.0045831338645917225 0 0.027518242818717141 0.0045800600288186926 0 0.027524203878464125 0.0045718444987665943 0 0.027518242818717141 0.0045800600288186926 0 0.027524203878464125 0.0045718444987665943 0 0.027523556917205341 0.0045789142087667442 0 0.027524203878464125 0.0045718444987665943 0 0.027523556917205341 0.0045789142087667442 0 0.02753331287546186 0.0045833137744603174 0 0.027523556917205341 0.0045789142087667442 0 0.027516585628898881 0.0045776945512051321 0 0.027517271219413147 0.0045725158037107491 0 0.027660194155053747 0.0034217800131355405 0 0.027185539733871486 0.0027624094439871448 0 0.027518242818717141 0.0045800600288186926 0 0.027523556917205341 0.0045789142087667442 0 0.027516585628898881 0.0045776945512051321 0 0.027518242818717141 0.0045800600288186926 0 0.027516585628898881 0.0045776945512051321 0 0.027513024766665124 0.0045864649333647433 0 0.027511755862997068 0.0045857125009667928 0 0.027513024766665124 0.0045864649333647433 0 0.027507989922561239 0.0045652757661950507 0 0.027516585628898881 0.0045776945512051321 0 0.027513024766665124 0.0045864649333647433 0 0.027507989922561239 0.0045652757661950507 0 0.027516585628898881 0.0045776945512051321 0 0.027507989922561239 0.0045652757661950507 0 0.027517271219413147 0.0045725158037107491 0 0.026124467414151628 0.00014978055270153658 0 0.027185539733871486 0.0027624094439871448 0 0.027185539733871486 0.0027624094439871448 0 0.025927646980604884 -0.00061085590970788963 0 0.026679840432117522 0.00039765522199154972 0 0.026439633296584969 0.00083595991881341375 0 0.025982342593467548 0.00050192759399351171 0 0.026124467414151628 0.00014978055270153658 0 0.025927646980604884 -0.00061085590970788963 0 0.027303657808801878 0.0017224671603633913 0 0.027647961796641786 0.001544997183003431 0 0.027372061365605448 0.0013388141785592037 0 0.024952341136074706 -0.0035545763646409284 0 0.024694462715689116 -0.0045589826265781978 0 0.023745776694010134 -0.003212250062178634 0 0.025647018627286775 -0.0028669390631939195 0 0.024469439160025475 -0.0026875470944161413 0 0.024952341136074706 -0.0035545763646409284 0 0.024469439160025475 -0.0026875470944161413 0 0.024952341136074706 -0.0035545763646409284 0 0.023745776694010134 -0.003212250062178634 0 0.025483232735894781 -0.0025896688274302669 0 0.026294690209032703 -0.00084804351742247242 0 0.024365237031392879 -0.00054690524838304632 0 0.025721985979719589 0.00093583752155177531 0 0.026124467414151628 0.00014978055270153658 0 0.026417964886836842 -0.0042821316440117213 0 0.025647018627286775 -0.0028669390631939195 0 0.024952341136074706 -0.0035545763646409284 0 0.024206058147573303 -0.004770211229202577 0 0.026124467414151628 0.00014978055270153658 0 0.024206058147573303 -0.004770211229202577 0 0.024673327984002319 -0.0073770285062555686 0 0.026417964886836842 -0.0042821316440117213 0 0.024694462715689116 -0.0045589826265781978 0 0.025658006597439852 -0.005921607368846258 0 0.026417964886836842 -0.0042821316440117213 0 0.024952341136074706 -0.0035545763646409284 0 0.024694462715689116 -0.0045589826265781978 0 0.025304118515973695 -0.0058612774309848067 0 0.02549088991081121 -0.007051198717437617 0 0.024759145904814338 -0.00694607976541193 0 0.024961689626576723 -0.0051393235652158666 0 0.024673327984002319 -0.0073770285062555686 0 0.025304118515973695 -0.0058612774309848067 0 0.02549088991081121 -0.007051198717437617 0 0.026181730743172146 -0.0071152846107801213 0 0.02549088991081121 -0.007051198717437617 0 0.025796551477944987 -0.0079338424634142618 0 0.024759145904814338 -0.00694607976541193 0 0.02549088991081121 -0.007051198717437617 0 0.025796551477944987 -0.0079338424634142618 0 0.026181730743172146 -0.0071152846107801213 0 0.025834408823229096 -0.0079987981400375524 0 0.024662404002708593 -0.0074400427397103112 0 0.024759145904814338 -0.00694607976541193 0 0.024562758260531076 -0.010542086247749782 0 0.024628553016924678 -0.0079078293011554789 0 0.024211726467781396 -0.0094527055956400742 0 0.025108930387683859 -0.0068101956687378574 0 0.025720127129433175 -0.0093307936231453031 0 0.025034363011970148 -0.0091002152039468594 0 0.024765461482221529 -0.0085309496379252208 0 0.025834408823229096 -0.0079987981400375524 0 0.025690503449833927 -0.0083073456594978667 0 0.024662404002708593 -0.0074400427397103112 0 0.024211726467781396 -0.0094527055956400742 0 0.024562758260531076 -0.010542086247749782 0 0.025720127129433175 -0.0093307936231453031 0 0.025034363011970148 -0.0091002152039468594 0 0.025339617719112653 -0.0097745358809297606 0 0.022545357734558368 -0.011121805838187707 0 0.022470392430897077 -0.010715942981916041 0 0.022864530010814225 -0.011295385824840609 0 0.024211726467781396 -0.0094527055956400742 0 0.022081819070377259 -0.013815912497176654 0 0.022154288223858759 -0.010967130160890451 0 0.022545357734558368 -0.011121805838187707 0 0.02265370531466392 -0.011470487531197716 0 0.02292667102701966 -0.0092573640178081201 0 0.020876250452527917 -0.012210998758264138 0 0.023175725886438452 -0.011639897507496055 0 0.023106474279505719 -0.011788022033855046 0 0.023333385961135097 -0.012077907503788175 0 0.024211726467781396 -0.0094527055956400742 0 0.024673327984002319 -0.0073770285062555686 0 0.022154288223858759 -0.010967130160890451 0 0.022545357734558368 -0.011121805838187707 0 0.022470392430897077 -0.010715942981916041 0 0.023905941140585141 -0.0091885734594106434 0 0.02438924431867627 -0.0088039217511969511 0 0.024202120765039917 -0.0085431225906972639 0 0.024211726467781396 -0.0094527055956400742 0 0.02292667102701966 -0.0092573640178081201 0 0.022978044255001068 -0.0081148759917106638 0 0.022728907377773496 -0.0077674170837462204 0 0.023945968872601291 -0.0071083028593563451 0 0.023450937677632507 -0.0062011919399728331 0 0.022728907377773496 -0.0077674170837462204 0 0.023945968872601291 -0.0071083028593563451 0 0.02292667102701966 -0.0092573640178081201 0 0.024673327984002319 -0.0073770285062555686 0 0.021675821530835505 -0.0082938580413155025 0 0.019603703410637972 -0.010885684979629977 0 0.020839789655193567 -0.01010169413880075 0 0.021433529916956864 -0.0094806862338659547 0 0.021812972639131904 -0.01018534141909515 0 0.02292667102701966 -0.0092573640178081201 0 0.021675821530835505 -0.0082938580413155025 0 0.01836587941985875 -0.010115815652965437 0 0.0191890790533416 -0.010832498111091935 0 0.018933873211834085 -0.011165890420202988 0 0.019772380120975725 -0.01004384330510665 0 0.019481314996177519 -0.010419764346674357 0 0.0191653972867999 -0.010120948640141193 0 0.019798951798224291 -0.010682559346080745 0 0.019772380120975725 -0.01004384330510665 0 0.019481314996177519 -0.010419764346674357 0 0.01836587941985875 -0.010115815652965437 0 0.0191653972867999 -0.010120948640141193 0 0.0191890790533416 -0.010832498111091935 0 0.019481314996177519 -0.010419764346674357 0 0.0191653972867999 -0.010120948640141193 0 0.0191890790533416 -0.010832498111091935 0 0.019316749312465149 -0.011042418575354358 0 0.019603703410637972 -0.010885684979629977 0 0.019798951798224291 -0.010682559346080745 0 0.019481314996177519 -0.010419764346674357 0 0.0191890790533416 -0.010832498111091935 0 0.019798951798224291 -0.010682559346080745 0 0.0191890790533416 -0.010832498111091935 0 0.019607781641562325 -0.01127318409311792 0 0.019607781641562325 -0.01127318409311792 0 0.018920660699837423 -0.011184321616185143 0 0.019305987739449668 -0.011867788910197382 0 0.0191890790533416 -0.010832498111091935 0 0.019607781641562325 -0.01127318409311792 0 0.018920660699837423 -0.011184321616185143 0 0.018974673872625619 -0.011266277597632804 0 0.019305987739449668 -0.011867788910197382 0 0.018926849874506727 -0.012076547063089284 0 0.019603703410637972 -0.010885684979629977 0 0.01939271339564224 -0.011644587057501949 0 0.020067915872532212 -0.011830255738256839 0 0.019607781641562325 -0.01127318409311792 0 0.019305987739449668 -0.011867788910197382 0 0.020839789655193567 -0.01010169413880075 0 0.021812972639131904 -0.01018534141909515 0 0.021338179187147241 -0.01081167311337086 0 0.018974673872625619 -0.011266277597632804 0 0.018318167171811353 -0.012131564652894647 0 0.018926849874506727 -0.012076547063089284 0 0.019603703410637972 -0.010885684979629977 0 0.020876250452527917 -0.012210998758264138 0 0.020723975036480897 -0.014480608761977449 0 0.020633499727668345 -0.014593105234646991 0 0.020529888711372672 -0.014459462151470244 0 0.022545357734558368 -0.011121805838187707 0 0.022864530010814225 -0.011295385824840609 0 0.02265370531466392 -0.011470487531197716 0 0.022724808171785009 -0.011480413662419699 0 0.022864530010814225 -0.011295385824840609 0 0.02265370531466392 -0.011470487531197716 0 0.021191389132974647 -0.014863422844876847 0 0.020876250452527917 -0.012210998758264138 0 0.021191389132974647 -0.014863422844876847 0 0.022081819070377259 -0.013815912497176654 0 0.018318167171811353 -0.012131564652894647 0 0.018585128158945217 -0.012512144790624869 0 0.018926849874506727 -0.012076547063089284 0 0.020876250452527917 -0.012210998758264138 0 0.019911346853164522 -0.015330172456040471 0 0.019726603150593231 -0.017480650667315231 0 0.01998200192334304 -0.017525212617660973 0 0.020018489819187368 -0.017843704839406248 0 0.019911346853164522 -0.015330172456040471 0 0.020583087980108425 -0.01837858491221598 0 0.021191389132974647 -0.014863422844876847 0 0.019911346853164522 -0.015330172456040471 0 0.020300229095054339 -0.017917284843478175 0 0.020337448878253148 -0.018003367299747251 0 0.020277081715809987 -0.017953013013600767 0 0.021191389132974647 -0.014863422844876847 0 0.020384427241858575 -0.018007542024621029 0 0.020067915872532212 -0.011830255738256839 0 0.019305987739449668 -0.011867788910197382 0 0.019466671215433187 -0.012637691966806723 0 0.019305987739449668 -0.011867788910197382 0 0.018926849874506727 -0.012076547063089284 0 0.019466671215433187 -0.012637691966806723 0 0.018585128158945217 -0.012512144790624869 0 0.018926849874506727 -0.012076547063089284 0 0.019466671215433187 -0.012637691966806723 0 0.019911346853164522 -0.015330172456040471 0 0.019924802969805935 -0.015230642228933165 0 0.020007856829627458 -0.01761619573303623 0 0.020347775964871462 -0.017677637795154067 0 0.020239538035334226 -0.017937155379554842 0 0.020347775964871462 -0.017677637795154067 0 0.020380338419128403 -0.017880774064834355 0 0.020239538035334226 -0.017937155379554842 0 0.020492708780090102 -0.017987291647493742 0 0.020380338419128403 -0.017880774064834355 0 0.020321657090782496 -0.018043006570056305 0 0.020380338419128403 -0.017880774064834355 0 0.020239538035334226 -0.017937155379554842 0 0.020321657090782496 -0.018043006570056305 0 0.020352033073003113 -0.018086028787947642 0 0.020335840237326624 -0.01808665187686858 0 0.020337448878253148 -0.018003367299747251 0 0.020267405400726388 -0.018008786191958878 0 0.020384427241858575 -0.018007542024621029 0 0.020239538035334226 -0.017937155379554842 0 0.020335840237326624 -0.01808665187686858 0 0.020018489819187368 -0.017843704839406248 0 0.020239538035334226 -0.017937155379554842 0 0.020321657090782496 -0.018043006570056305 0 0.020335840237326624 -0.01808665187686858 0 0.020311285335645673 -0.018093677564953017 0 0.020321657090782496 -0.018043006570056305 0 0.020335840237326624 -0.01808665187686858 0 0.017650751486868552 -0.021582371454977156 0 0.020760760613291889 -0.019296631810602136 0 0.020069977571009225 -0.018548478210850369 0 0.021561990845672927 -0.016450639698210309 0 0.020352033073003113 -0.018086028787947642 0 0.020337448878253148 -0.018003367299747251 0 0.020277081715809987 -0.017953013013600767 0 0.020352033073003113 -0.018086028787947642 0 0.020472146453312832 -0.018118599500855339 0 0.020523155665678715 -0.018183901989567815 0 0.020451638460262392 -0.018071112461885117 0 0.020352033073003113 -0.018086028787947642 0 0.020472146453312832 -0.018118599500855339 0 0.01998200192334304 -0.017525212617660973 0 0.020239538035334226 -0.017937155379554842 0 0.020018489819187368 -0.017843704839406248 0 0.024256053208494825 -0.016716418117486732 0 0.024865002157434788 -0.016978405120555526 0 0.024822607724126936 -0.015970953336026328 0 0.024865002157434788 -0.016978405120555526 0 0.025614067015291085 -0.016796126111387248 0 0.024822607724126936 -0.015970953336026328 0 0.022899680138987442 -0.017201616332982738 0 0.023793177149771676 -0.016149686369086123 0 0.020451638460262392 -0.018071112461885117 0 0.020472146453312832 -0.018118599500855339 0 0.020567110372190459 -0.018132869130585188 0 0.020472146453312832 -0.018118599500855339 0 0.020567110372190459 -0.018132869130585188 0 0.020523155665678715 -0.018183901989567815 0 0.023793177149771676 -0.016149686369086123 0 0.021561990845672927 -0.016450639698210309 0 0.024549743416527735 -0.01628823496878325 0 0.023793177149771676 -0.016149686369086123 0 0.024661565933783231 -0.016190704695524839 0 0.023583074245825855 -0.015378570999784711 0 0.024450931865530722 -0.015197629081193554 0 0.024661565933783231 -0.016190704695524839 0 0.025515979640502416 -0.015067497136081914 0 0.024450931865530722 -0.015197629081193554 0 0.025515979640502416 -0.015067497136081914 0 0.024450931865530722 -0.015197629081193554 0 0.024282930340389378 -0.01376485035367706 0 0.023583074245825855 -0.015378570999784711 0 0.024450931865530722 -0.015197629081193554 0 0.023928661890505135 -0.014531122109092815 0 0.024450931865530722 -0.015197629081193554 0 0.023928661890505135 -0.014531122109092815 0 0.024282930340389378 -0.01376485035367706 0 0.023793177149771676 -0.016149686369086123 0 0.024138790019727761 -0.013214331174832328 0 0.023928661890505135 -0.014531122109092815 0 0.024117910700879167 -0.013593134675685606 0 0.023062104684321332 -0.01460888219967558 0 0.023876762480794064 -0.014264256134146898 0 0.024138790019727761 -0.013214331174832328 0 0.024164441167308762 -0.012229370894323025 0 0.02291077911437751 -0.0147165073803234 0 0.023928661890505135 -0.014531122109092815 0 0.024117910700879167 -0.013593134675685606 0 0.024283870275652077 -0.013767399532949687 0 0.024164441167308762 -0.012229370894323025 0 0.024138790019727761 -0.013214331174832328 0 0.023118179443473302 -0.014607963254579401 0 0.023143519994670368 -0.014553632184082095 0 0.023494542694433913 -0.014603382569212668 0 0.023992064651492017 -0.012703161187649645 0 0.023284791468623858 -0.013478692704756285 0 0.023944398685973995 -0.012280169025214265 0 0.023877268788934713 -0.012425709654093703 0 0.024081873314681895 -0.012453675430107681 0 0.024164441167308762 -0.012229370894323025 0 0.023992064651492017 -0.012703161187649645 0 0.024432100319014168 -0.012488594767259545 0 0.024080360560286264 -0.012120686407805618 0 0.023935483460843086 -0.012430060269140477 0 0.024138790019727761 -0.013214331174832328 0 0.023992064651492017 -0.012703161187649645 0 0.024562758260531076 -0.010542086247749782 0 0.024164441167308762 -0.012229370894323025 0 0.024607572657645644 -0.010974735698904836 0 0.023658640075050807 -0.01208393493619379 0 0.024069815260820481 -0.012132489955394279 0 0.024562758260531076 -0.010542086247749782 0 0.023992064651492017 -0.012703161187649645 0 0.023175725886438452 -0.011639897507496055 0 0.023333385961135097 -0.012077907503788175 0 0.023652952884518935 -0.01212650249279971 0 0.024562758260531076 -0.010542086247749782 0 0.023284791468623858 -0.013478692704756285 0 0.023284791468623858 -0.013478692704756285 0 0.022081819070377259 -0.013815912497176654 0 0.023564712019189075 -0.015100731876446071 0 0.023494542694433913 -0.014603382569212668 0 0.023752034287102555 -0.014853204706680632 0 0.022478816301869421 -0.014629568963817065 0 0.022009285818244899 -0.014578673717562812 0 0.02211376270242536 -0.014306978295825556 0 0.023284791468623858 -0.013478692704756285 0 0.021561990845672927 -0.016450639698210309 0 0.021191389132974647 -0.014863422844876847 0 0.021561990845672927 -0.016450639698210309 0 0.02191004686907488 -0.014567142163202661 0 0.022009285818244899 -0.014578673717562812 0 0.02211376270242536 -0.014306978295825556 0 0.023564712019189075 -0.015100731876446071 0 0.023118179443473302 -0.014607963254579401 0 0.023494542694433913 -0.014603382569212668 0 0.021803425651790474 -0.013491296362515039 0 0.022359719987919777 -0.014298421521492371 0 0.021675315111319243 -0.015028332447820416 0 0.02764343033454501 -0.0052754527699352136 0 0.027595000899867723 -0.0057476607628751224 0 0.027414132270900282 -0.0052260918326947833 0 0.024619659441825554 -0.0085088932301547911 0 0.024478515992145004 -0.010684108211244337 0 0.024619659441825554 -0.0085088932301547911 0 0.027655442196156916 -0.0065056649194351404 0 0.024164441167308762 -0.012229370894323025 0 0.024619659441825554 -0.0085088932301547911 0 0.023971489663344822 -0.013722372902763 0 0.021803425651790474 -0.013491296362515039 0 0.022359719987919777 -0.014298421521492371 0 0.023971489663344822 -0.013722372902763 0 0.022359719987919777 -0.014298421521492371 0 0.023062104684321332 -0.01460888219967558 0 0.022359719987919777 -0.014298421521492371 0 0.02231600870577093 -0.015110523135463518 0 0.023062104684321332 -0.01460888219967558 0 0.023583074245825855 -0.015378570999784711 0 0.023928661890505135 -0.014531122109092815 0 0.023062104684321332 -0.01460888219967558 0 0.023583074245825855 -0.015378570999784711 0 0.02231600870577093 -0.015110523135463518 0 0.023062104684321332 -0.01460888219967558 0 0.023083911961605835 -0.016592153074480587 0 0.023583074245825855 -0.015378570999784711 0 0.02231600870577093 -0.015110523135463518 0 0.021991133041346426 -0.0160914928749709 0 0.02231600870577093 -0.015110523135463518 0 0.021675315111319243 -0.015028332447820416 0 0.022359719987919777 -0.014298421521492371 0 0.02231600870577093 -0.015110523135463518 0 0.021675315111319243 -0.015028332447820416 0 0.027595000899867723 -0.0057476607628751224 0 0.027334205347845177 -0.0059126630669818934 0 0.027260253212532101 -0.0055627228609273173 0 0.026981361417256145 -0.0060758272544447437 0 0.027334205347845177 -0.0059126630669818934 0 0.027260253212532101 -0.0055627228609273173 0 0.026981361417256145 -0.0060758272544447437 0 0.026908825490688709 -0.0054439686549994371 0 0.027260253212532101 -0.0055627228609273173 0 0.026908825490688709 -0.0054439686549994371 0 0.027260253212532101 -0.0055627228609273173 0 0.027160863783074089 -0.0052137241529421263 0 0.026908825490688709 -0.0054439686549994371 0 0.02691874183073209 -0.0050789300696008578 0 0.027160863783074089 -0.0052137241529421263 0 0.027595000899867723 -0.0057476607628751224 0 0.027260253212532101 -0.0055627228609273173 0 0.027414132270900282 -0.0052260918326947833 0 0.027260253212532101 -0.0055627228609273173 0 0.027414132270900282 -0.0052260918326947833 0 0.027160863783074089 -0.0052137241529421263 0 0.027414132270900282 -0.0052260918326947833 0 0.02733381904149285 -0.0050376228437140902 0 0.027160863783074089 -0.0052137241529421263 0 0.02733381904149285 -0.0050376228437140902 0 0.027160863783074089 -0.0052137241529421263 0 0.027112102746518263 -0.0049457464636342811 0 0.02733381904149285 -0.0050376228437140902 0 0.027112102746518263 -0.0049457464636342811 0 0.027256672159024612 -0.0048646469827927606 0 0.027414132270900282 -0.0052260918326947833 0 0.02733381904149285 -0.0050376228437140902 0 0.027468772424914103 -0.0049849322024650951 0 0.02733381904149285 -0.0050376228437140902 0 0.027391308790111705 -0.0048927378297189718 0 0.027256672159024612 -0.0048646469827927606 0 0.02733381904149285 -0.0050376228437140902 0 0.027391308790111705 -0.0048927378297189718 0 0.027468772424914103 -0.0049849322024650951 0 0.02691874183073209 -0.0050789300696008578 0 0.027160863783074089 -0.0052137241529421263 0 0.027112102746518263 -0.0049457464636342811 0 0.02691874183073209 -0.0050789300696008578 0 0.027112102746518263 -0.0049457464636342811 0 0.026817944825993308 -0.0047818371476865476 0 0.027253215681838576 -0.004407760971134168 0 0.02673733871901347 -0.0043566680483639051 0 0.026817944825993308 -0.0047818371476865476 0 0.027112102746518263 -0.0049457464636342811 0 0.027144391393417431 -0.0046810266775913975 0 0.026817944825993308 -0.0047818371476865476 0 0.027152072119611622 -0.0045696242874885039 0 0.026856950608918861 -0.0047638155262815247 0 0.027112102746518263 -0.0049457464636342811 0 0.027144391393417431 -0.0046810266775913975 0 0.027256672159024612 -0.0048646469827927606 0 0.027391308790111705 -0.0048927378297189718 0 0.027256672159024612 -0.0048646469827927606 0 0.027378128326120996 -0.0047016850515127218 0 0.027144391393417431 -0.0046810266775913975 0 0.027256672159024612 -0.0048646469827927606 0 0.027378128326120996 -0.0047016850515127218 0 0.027391308790111705 -0.0048927378297189718 0 0.027378128326120996 -0.0047016850515127218 0 0.027481070913803571 -0.0047902241403569856 0 0.027378128326120996 -0.0047016850515127218 0 0.027473475012640115 -0.0046888507495756286 0 0.027481070913803571 -0.0047902241403569856 0 0.027473475012640115 -0.0046888507495756286 0 0.027481070913803571 -0.0047902241403569856 0 0.027547250696850198 -0.0046719117079592675 0 0.027481070913803571 -0.0047902241403569856 0 0.027610229907193092 -0.0047236355116257421 0 0.027547250696850198 -0.0046719117079592675 0 0.02547906726948625 -0.0058739075504450544 0 0.026067717510699678 -0.0058291949352878483 0 0.027481070913803571 -0.0047902241403569856 0 0.027610229907193092 -0.0047236355116257421 0 0.027468772424914103 -0.0049849322024650951 0 0.027391308790111705 -0.0048927378297189718 0 0.027481070913803571 -0.0047902241403569856 0 0.027468772424914103 -0.0049849322024650951 0 0.027569871496477966 -0.0052473090985945452 0 0.027610229907193092 -0.0047236355116257421 0 0.027468772424914103 -0.0049849322024650951 0 0.023583113690289655 -0.0095162389117821738 0 0.023873793996345795 -0.0076826584888575744 0 0.024398370109235928 -0.0087280629065328297 0 0.024619659441825554 -0.0085088932301547911 0 0.02547906726948625 -0.0058739075504450544 0 0.027569871496477966 -0.0052473090985945452 0 0.027414132270900282 -0.0052260918326947833 0 0.027468772424914103 -0.0049849322024650951 0 0.025034363011970148 -0.0091002152039468594 0 0.025339617719112653 -0.0097745358809297606 0 0.024398370109235928 -0.0087280629065328297 0 0.025347077431124718 -0.0097550085724209101 0 0.023583113690289655 -0.0095162389117821738 0 0.024398370109235928 -0.0087280629065328297 0 0.024164441167308762 -0.012229370894323025 0 0.02449182505804523 -0.008238816416730738 0 0.025034363011970148 -0.0091002152039468594 0 0.024398370109235928 -0.0087280629065328297 0 0.024765461482221529 -0.0085309496379252208 0 0.023722718604202418 -0.0065356383379464381 0 0.024662404002708593 -0.0074400427397103112 0 0.024759145904814338 -0.00694607976541193 0 0.023873793996345795 -0.0076826584888575744 0 0.024398370109235928 -0.0087280629065328297 0 0.024765461482221529 -0.0085309496379252208 0 0.023722718604202418 -0.0065356383379464381 0 0.024759145904814338 -0.00694607976541193 0 0.024438009252589876 -0.0057709046323940688 0 0.02547906726948625 -0.0058739075504450544 0 0.024628553016924678 -0.0079078293011554789 0 0.025304118515973695 -0.0058612774309848067 0 0.024759145904814338 -0.00694607976541193 0 0.024438009252589876 -0.0057709046323940688 0 0.023722718604202418 -0.0065356383379464381 0 0.024438009252589876 -0.0057709046323940688 0 0.023987718732722176 -0.0049115367289293459 0 0.025304118515973695 -0.0058612774309848067 0 0.024438009252589876 -0.0057709046323940688 0 0.024418524045697478 -0.0046013850165832421 0 0.02748634072237445 -0.0045985596785102804 0 0.027414306051354358 -0.0045385081540327337 0 0.02762532221381719 -0.0043889808972771413 0 0.02547906726948625 -0.0058739075504450544 0 0.026837658135707449 -0.0042965288882854027 0 0.027587901103686051 -0.0047134807081281992 0 0.027547250696850198 -0.0046719117079592675 0 0.02762532221381719 -0.0043889808972771413 0 0.02748634072237445 -0.0045985596785102804 0 0.027547250696850198 -0.0046719117079592675 0 0.02762532221381719 -0.0043889808972771413 0 0.027378128326120996 -0.0047016850515127218 0 0.02748634072237445 -0.0045985596785102804 0 0.027414306051354358 -0.0045385081540327337 0 0.027378128326120996 -0.0047016850515127218 0 0.027473475012640115 -0.0046888507495756286 0 0.02748634072237445 -0.0045985596785102804 0 0.027473475012640115 -0.0046888507495756286 0 0.02748634072237445 -0.0045985596785102804 0 0.027547250696850198 -0.0046719117079592675 0 0.02759292422213059 -0.0040895840728502747 0 0.027695718188080583 -0.003750345250886712 0 0.027507384638346965 -0.003816956712959394 0 0.027649503889627065 -0.0042367210102734632 0 0.026837658135707449 -0.0042965288882854027 0 0.02759292422213059 -0.0040895840728502747 0 0.027695718188080583 -0.003750345250886712 0 0.027874238886513709 -0.0038403177266693933 0 0.027695718188080583 -0.003750345250886712 0 0.027874238886513709 -0.0038403177266693933 0 0.027890283717829908 -0.0036645466694764516 0 0.024438009252589876 -0.0057709046323940688 0 0.023987718732722176 -0.0049115367289293459 0 0.024418524045697478 -0.0046013850165832421 0 0.024961689626576723 -0.0051393235652158666 0 0.025459963058468597 -0.0034351708461043406 0 0.026837658135707449 -0.0042965288882854027 0 0.027486919847633892 -0.0036160274294108515 0 0.026837658135707449 -0.0042965288882854027 0 0.025459963058468597 -0.0034351708461043406 0 0.027851765355115528 -0.0038349639672463427 0 0.027971222593381421 -0.0037480696700465522 0 0.027890283717829908 -0.0036645466694764516 0 0.025927646980604884 -0.00061085590970788963 0 0.025459963058468597 -0.0034351708461043406 0 0.027372061365605448 0.0013388141785592037 0 0.026939746433175142 0.0014027674978698646 0 0.02703705380350797 0.0016797570570772974 0 0.026043990794133377 -0.0015681890614967732 0 0.026266164427572319 -0.0014156931369079229 0 0.026429549479255979 -0.0016307531858637864 0 0.025927646980604884 -0.00061085590970788963 0 0.027216465888464263 -0.0012236742130645587 0 0.027303657808801878 0.0017224671603633913 0 0.027372061365605448 0.0013388141785592037 0 0.02703705380350797 0.0016797570570772974 0 0.025459963058468597 -0.0034351708461043406 0 0.027216465888464263 -0.0012236742130645587 0 0.027971222593381421 -0.0037480696700465522 0 0.02785356474165742 -0.0035632872621428496 0 0.027890283717829908 -0.0036645466694764516 0 0.027695718188080583 -0.003750345250886712 0 0.02785356474165742 -0.0035632872621428496 0 0.027890283717829908 -0.0036645466694764516 0 0.027216465888464263 -0.0012236742130645587 0 0.027374856514217692 0.0016175262309457903 0 0.027695718188080583 -0.003750345250886712 0 0.02785356474165742 -0.0035632872621428496 0 0.027451543223284015 -0.0034911641591814108 0 0.027216465888464263 -0.0012236742130645587 0 0.027466249774199775 -0.0023882242389303182 0 0.027728064049501639 -0.00089218978599461991 0 0.027382110489254746 -0.00040485226463702641 0 0.027101275742165538 -0.00079639962364212345 0 0.026637557632924698 0.0018321515585205742 0 0.026989679857378612 0.0019672765615318384 0 0.02703705380350797 0.0016797570570772974 0 0.026939746433175142 0.0014027674978698646 0 0.026637557632924698 0.0018321515585205742 0 0.02703705380350797 0.0016797570570772974 0 0.027374856514217692 0.0016175262309457903 0 0.027942958122306027 0.00024369958832177522 0 0.027374856514217692 0.0016175262309457903 0 0.02789138338501734 0.0021115172867970673 0 0.028084899615054639 0.0011933025158759219 0 0.027907424119230733 0.0014389711718403406 0 0.027783410171337741 0.001082734377166753 0 0.027364850539653002 0.0041985462746743285 0 0.027401161768321025 0.0042704982581724601 0 0.027327722484101275 0.004251031642269293 0 0.027364850539653002 0.0041985462746743285 0 0.027401161768321025 0.0042704982581724601 0 0.027497750012335457 0.0042650648609019771 0 0.027374856514217692 0.0016175262309457903 0 0.027223016489580237 0.0030723657394708345 0 0.027303657808801878 0.0017224671603633913 0 0.026989679857378612 0.0019672765615318384 0 0.027345934818184304 0.0021057234372503248 0 0.027303657808801878 0.0017224671603633913 0 0.026989679857378612 0.0019672765615318384 0 0.02703705380350797 0.0016797570570772974 0 0.028206652181492216 -0.00075834117384491432 0 0.027852251500420099 -0.00025395102993454912 0 0.028401783560599227 0.00011046606202624117 0 0.028856669777175822 -1.0918317842193911e-05 0 0.028206652181492216 -0.00075834117384491432 0 0.028401783560599227 0.00011046606202624117 0 0.028856669777175822 -1.0918317842193911e-05 0 0.029302661278241143 -0.00033685671195454752 0 0.028206652181492216 -0.00075834117384491432 0 0.027942958122306027 0.00024369958832177522 0 0.027746034114543662 -0.0014680502760707633 0 0.029416934511405927 -5.1697355082275896e-06 0 0.028856669777175822 -1.0918317842193911e-05 0 0.029302661278241143 -0.00033685671195454752 0 0.02789138338501734 0.0021115172867970673 0 0.027942958122306027 0.00024369958832177522 0 0.027942958122306027 0.00024369958832177522 0 0.027466249774199775 -0.0023882242389303182 0 0.027382110489254746 -0.00040485226463702641 0 0.027214083536488527 -0.00046773969145582717 0 0.027101275742165538 -0.00079639962364212345 0 0.027887888875276566 -0.00099885191973513271 0 0.027813278024557492 -0.0012167562124499095 0 0.027455642588500671 -0.0011643300900015239 0 0.027466249774199775 -0.0023882242389303182 0 0.027746034114543662 -0.0014680502760707633 0 0.027518443819508458 -0.0033298051098026144 0 0.027022962264127093 -0.0032560581565319133 0 0.027022309106819499 -0.0036611190918705719 0 0.027022309106819499 -0.0036611190918705719 0 0.027020336248813719 -0.0041219962834183029 0 0.026726268067188756 -0.0039499558576400933 0 0.027518443819508458 -0.0033298051098026144 0 0.027022309106819499 -0.0036611190918705719 0 0.027291913585594154 -0.0039483456750355203 0 0.027022309106819499 -0.0036611190918705719 0 0.027291913585594154 -0.0039483456750355203 0 0.027020336248813719 -0.0041219962834183029 0 0.027466249774199775 -0.0023882242389303182 0 0.027243729245481307 -0.0043220411110843583 0 0.027451543223284015 -0.0034911641591814108 0 0.027507384638346965 -0.003816956712959394 0 0.027291913585594154 -0.0039483456750355203 0 0.027695718188080583 -0.003750345250886712 0 0.027451543223284015 -0.0034911641591814108 0 0.027507384638346965 -0.003816956712959394 0 0.02759292422213059 -0.0040895840728502747 0 0.027507384638346965 -0.003816956712959394 0 0.027291913585594154 -0.0039483456750355203 0 0.027144391393417431 -0.0046810266775913975 0 0.027378128326120996 -0.0047016850515127218 0 0.027414306051354358 -0.0045385081540327337 0 0.027253215681838576 -0.004407760971134168 0 0.02759292422213059 -0.0040895840728502747 0 0.027291913585594154 -0.0039483456750355203 0 0.027152072119611622 -0.0045696242874885039 0 0.027649503889627065 -0.0042367210102734632 0 0.027253215681838576 -0.004407760971134168 0 0.027020336248813719 -0.0041219962834183029 0 0.02673733871901347 -0.0043566680483639051 0 0.027253215681838576 -0.004407760971134168 0 0.027291913585594154 -0.0039483456750355203 0 0.027020336248813719 -0.0041219962834183029 0 0.02673733871901347 -0.0043566680483639051 0 0.026307411274115039 -0.0042653430606918955 0 0.026726268067188756 -0.0039499558576400933 0 0.027020336248813719 -0.0041219962834183029 0 0.02673733871901347 -0.0043566680483639051 0 0.026726268067188756 -0.0039499558576400933 0 0.026307411274115039 -0.0042653430606918955 0 0.026346021824854047 -0.0038686389991270105 0 0.025971517926372773 -0.0040956132410674331 0 0.026307411274115039 -0.0042653430606918955 0 0.026346021824854047 -0.0038686389991270105 0 0.026726268067188756 -0.0039499558576400933 0 0.026346021824854047 -0.0038686389991270105 0 0.026530304857766352 -0.0034439058413487812 0 0.026048888602166743 -0.0036255245009286308 0 0.026346021824854047 -0.0038686389991270105 0 0.026726268067188756 -0.0039499558576400933 0 0.026530304857766352 -0.0034439058413487812 0 0.027022309106819499 -0.0036611190918705719 0 0.026726268067188756 -0.0039499558576400933 0 0.026530304857766352 -0.0034439058413487812 0 0.028071475497972578 -0.00086822499999663824 0 0.027213617864869956 -0.0011718196048034761 0 0.027159309220628758 -0.00071058558894590486 0 0.027022962264127093 -0.0032560581565319133 0 0.027022309106819499 -0.0036611190918705719 0 0.026530304857766352 -0.0034439058413487812 0 0.027746034114543662 -0.0014680502760707633 0 0.027233703314887205 -0.00063171666731619454 0 0.027746034114543662 -0.0014680502760707633 0 0.026807793573154319 -0.002362963423516243 0 0.027213617864869956 -0.0011718196048034761 0 0.026647892246619162 -0.0010002250179217849 0 0.026311437636463562 -0.001511268744038604 0 0.026647892246619162 -0.0010002250179217849 0 0.027159309220628758 -0.00071058558894590486 0 0.026201517875291694 -0.00052416450749599112 0 0.026807793573154319 -0.002362963423516243 0 0.026206607221020965 -0.0025786921843400923 0 0.027213617864869956 -0.0011718196048034761 0 0.026647892246619162 -0.0010002250179217849 0 0.027159309220628758 -0.00071058558894590486 0 0.027217452007221379 -0.00063272681669461603 0 0.026752690855490032 5.6329290333419391e-05 0 0.026201517875291694 -0.00052416450749599112 0 0.027233703314887205 -0.00063171666731619454 0 0.026253698535373186 -0.00053690256074831987 0 0.027217452007221379 -0.00063272681669461603 0 0.026752690855490032 5.6329290333419391e-05 0 0.027579517519722464 0.00026455414345355309 0 0.027852251500420099 -0.00025395102993454912 0 0.027579517519722464 0.00026455414345355309 0 0.028401783560599227 0.00011046606202624117 0 0.027217452007221379 -0.00063272681669461603 0 0.027852251500420099 -0.00025395102993454912 0 0.027579517519722464 0.00026455414345355309 0 0.028206652181492216 -0.00075834117384491432 0 0.027217452007221379 -0.00063272681669461603 0 0.027852251500420099 -0.00025395102993454912 0 0.025113215545157472 -0.00029008119100826945 0 0.024999998766890161 -0.00082994803600531955 0 0.024999963891104197 0.0004560109864780392 0 0.025113215545157472 -0.00029008119100826945 0 0.024999998766890161 -0.00082994803600531955 0 0.025256761946201602 -0.0011361704840926767 0 0.025113215545157472 -0.00029008119100826945 0 0.02561471001502515 -0.00059053746523978368 0 0.025246022860419916 -0.0010589030289572174 0 0.025135839091699287 -0.00041979292619028906 0 0.025230450836962483 -0.00098399613341121177 0 0.025113215545157472 -0.00029008119100826945 0 0.02561471001502515 -0.00059053746523978368 0 0.025822398870562143 0.00021016063202571752 0 0.02561471001502515 -0.00059053746523978368 0 0.026201517875291694 -0.00052416450749599112 0 0.025822398870562143 0.00021016063202571752 0 0.026752690855490032 5.6329290333419391e-05 0 0.026201517875291694 -0.00052416450749599112 0 0.025822398870562143 0.00021016063202571752 0 0.026647892246619162 -0.0010002250179217849 0 0.026201517875291694 -0.00052416450749599112 0 0.026311437636463562 -0.001511268744038604 0 0.02561471001502515 -0.00059053746523978368 0 0.026201517875291694 -0.00052416450749599112 0 0.025742437163397334 -0.0012424468097686431 0 0.026201517875291694 -0.00052416450749599112 0 0.025742437163397334 -0.0012424468097686431 0 0.026311437636463562 -0.001511268744038604 0 0.025230450836962483 -0.00098399613341121177 0 0.025317416535255904 -0.0025080958191923556 0 0.025742437163397334 -0.0012424468097686431 0 0.025246022860419916 -0.0010589030289572174 0 0.025376108983535404 -0.0018519505437541183 0 0.024999998766890161 -0.00082994803600531955 0 0.025256761946201602 -0.0011361704840926767 0 0.024999998543063708 -0.0021159158473867561 0 0.02561471001502515 -0.00059053746523978368 0 0.025742437163397334 -0.0012424468097686431 0 0.025246022860419916 -0.0010589030289572174 0 0.025256761946201602 -0.0011361704840926767 0 0.025396160409235483 -0.0019746708024235629 0 0.024999998543063708 -0.0021159158473867561 0 0.025317416535255904 -0.0025080958191923556 0 0.025000371271177713 -0.0021162215343845173 0 0.025317416535255904 -0.0025080958191923556 0 0.026206607221020965 -0.0025786921843400923 0 0.025742437163397334 -0.0012424468097686431 0 0.025376108983535404 -0.0018519505437541183 0 0.026311437636463562 -0.001511268744038604 0 0.026346021824854047 -0.0038686389991270105 0 0.026048888602166743 -0.0036255245009286308 0 0.025971517926372773 -0.0040956132410674331 0 0.025566762389997777 -0.0037987046822014663 0 0.026048888602166743 -0.0036255245009286308 0 0.025971517926372773 -0.0040956132410674331 0 0.025971517926372773 -0.0040956132410674331 0 0.02571321605674888 -0.0045140742291386567 0 0.026052036087116499 -0.0044602550672177303 0 0.026307411274115039 -0.0042653430606918955 0 0.025971517926372773 -0.0040956132410674331 0 0.026052036087116499 -0.0044602550672177303 0 0.025317416535255904 -0.0025080958191923556 0 0.025708137542383692 -0.004069043547926492 0 0.025566762389997777 -0.0037987046822014663 0 0.025971517926372773 -0.0040956132410674331 0 0.02571321605674888 -0.0045140742291386567 0 0.025395819717462135 -0.0019764168184780427 0 0.025000023613421036 -0.0021158941445036492 0 0.025652356437454057 -0.0034191097666808425 0 0.025000023613421036 -0.0021158941445036492 0 0.025652356437454057 -0.0034191097666808425 0 0.024999962263148368 -0.0035344223276262045 0 0.025652356437454057 -0.0034191097666808425 0 0.024999962263148368 -0.0035344223276262045 0 0.025355025258626828 -0.004246062905196424 0 0.024999962263148368 -0.0035344223276262045 0 0.025355025258626828 -0.004246062905196424 0 0.024999973127627896 -0.0049532110810901206 0 0.025355025258626828 -0.004246062905196424 0 0.024999973127627896 -0.0049532110810901206 0 0.025815377969208044 -0.0050494034427259107 0 0.025652356437454057 -0.0034191097666808425 0 0.025355025258626828 -0.004246062905196424 0 0.025815377969208044 -0.0050494034427259107 0 0.025708137542383692 -0.004069043547926492 0 0.02580390249772594 -0.0049513039544890544 0 0.025972120352652547 -0.0047703273895272538 0 0.026162779976788095 -0.0050607920470900547 0 0.025815377969208044 -0.0050494034427259107 0 0.02571321605674888 -0.0045140742291386567 0 0.025972120352652547 -0.0047703273895272538 0 0.025815377969208044 -0.0050494034427259107 0 0.025972120352652547 -0.0047703273895272538 0 0.026197706958227762 -0.0047479300685173594 0 0.026162779976788095 -0.0050607920470900547 0 0.025972120352652547 -0.0047703273895272538 0 0.026052036087116499 -0.0044602550672177303 0 0.026197706958227762 -0.0047479300685173594 0 0.02571321605674888 -0.0045140742291386567 0 0.025972120352652547 -0.0047703273895272538 0 0.026052036087116499 -0.0044602550672177303 0 0.026052036087116499 -0.0044602550672177303 0 0.026436868318327186 -0.004606287995872654 0 0.026197706958227762 -0.0047479300685173594 0 0.02673733871901347 -0.0043566680483639051 0 0.026307411274115039 -0.0042653430606918955 0 0.026436868318327186 -0.004606287995872654 0 0.026307411274115039 -0.0042653430606918955 0 0.026052036087116499 -0.0044602550672177303 0 0.026436868318327186 -0.004606287995872654 0 0.02673733871901347 -0.0043566680483639051 0 0.026436868318327186 -0.004606287995872654 0 0.026817944825993308 -0.0047818371476865476 0 0.026436868318327186 -0.004606287995872654 0 0.026817944825993308 -0.0047818371476865476 0 0.026551805016612355 -0.0050237299526075347 0 0.02691874183073209 -0.0050789300696008578 0 0.026817944825993308 -0.0047818371476865476 0 0.026551805016612355 -0.0050237299526075347 0 0.026551805016612355 -0.0050237299526075347 0 0.026197706958227762 -0.0047479300685173594 0 0.026162779976788095 -0.0050607920470900547 0 0.026436868318327186 -0.004606287995872654 0 0.026551805016612355 -0.0050237299526075347 0 0.026197706958227762 -0.0047479300685173594 0 0.026551805016612355 -0.0050237299526075347 0 0.026162779976788095 -0.0050607920470900547 0 0.026416433858560434 -0.0053880740072751393 0 0.026162779976788095 -0.0050607920470900547 0 0.026416433858560434 -0.0053880740072751393 0 0.026023811004913668 -0.0055218103858459709 0 0.026908825490688709 -0.0054439686549994371 0 0.026416433858560434 -0.0053880740072751393 0 0.026688440558933466 -0.0057396342240826782 0 0.026908825490688709 -0.0054439686549994371 0 0.026551805016612355 -0.0050237299526075347 0 0.026416433858560434 -0.0053880740072751393 0 0.026908825490688709 -0.0054439686549994371 0 0.02691874183073209 -0.0050789300696008578 0 0.026551805016612355 -0.0050237299526075347 0 0.026981361417256145 -0.0060758272544447437 0 0.026908825490688709 -0.0054439686549994371 0 0.026688440558933466 -0.0057396342240826782 0 0.026411604543951538 -0.0060294842574989379 0 0.026416433858560434 -0.0053880740072751393 0 0.026023811004913668 -0.0055218103858459709 0 0.026411604543951538 -0.0060294842574989379 0 0.026416433858560434 -0.0053880740072751393 0 0.026688440558933466 -0.0057396342240826782 0 0.026411604543951538 -0.0060294842574989379 0 0.026023811004913668 -0.0055218103858459709 0 0.025601584105060103 -0.006148263999549341 0 0.026023811004913668 -0.0055218103858459709 0 0.025601584105060103 -0.006148263999549341 0 0.025524576915297921 -0.0055939454623182691 0 0.024999949155899398 -0.0063712905609931382 0 0.025601584105060103 -0.006148263999549341 0 0.025524576915297921 -0.0055939454623182691 0 0.024999949155899398 -0.0063712905609931382 0 0.025524576915297921 -0.0055939454623182691 0 0.024999973127627896 -0.0049532110810901206 0 0.025524576915297921 -0.0055939454623182691 0 0.024999973127627896 -0.0049532110810901206 0 0.025815377969208044 -0.0050494034427259107 0 0.026162779976788095 -0.0050607920470900547 0 0.026023811004913668 -0.0055218103858459709 0 0.025815377969208044 -0.0050494034427259107 0 0.026023811004913668 -0.0055218103858459709 0 0.025524576915297921 -0.0055939454623182691 0 0.025815377969208044 -0.0050494034427259107 0 0.006524199573599546 -0.027596268040210405 0 0.007420247556266372 -0.027624329495413501 0 0.0063035148493404101 -0.026840363748823221 0 0.0061695809125170238 -0.02805009131199112 0 0.006524199573599546 -0.027596268040210405 0 0.0068894441765130305 -0.027977436947175492 0 0.0061695809125170238 -0.02805009131199112 0 0.006524199573599546 -0.027596268040210405 0 0.0057929980726016154 -0.027478651150820141 0 0.0061695809125170238 -0.02805009131199112 0 0.0055388886731643164 -0.028273830609663504 0 0.0057929980726016154 -0.027478651150820141 0 0.006524199573599546 -0.027596268040210405 0 0.0057929980726016154 -0.027478651150820141 0 0.0063035148493404101 -0.026840363748823221 0 0.0057929980726016154 -0.027478651150820141 0 0.0056098249551476461 -0.026793176340127969 0 0.0063035148493404101 -0.026840363748823221 0 0.007420247556266372 -0.027624329495413501 0 0.0076294828325396673 -0.02850591268375045 0 0.0083808822861851148 -0.02788653954935584 0 0.0076294828325396673 -0.02850591268375045 0 0.0082982589474001178 -0.028888962259706868 0 0.0083808822861851148 -0.02788653954935584 0 0.006524199573599546 -0.027596268040210405 0 0.007420247556266372 -0.027624329495413501 0 0.0068894441765130305 -0.027977436947175492 0 0.0073473715164547064 -0.027648283236039791 0 0.0067440004656537308 -0.028263896536261192 0 0.0076294828325396673 -0.02850591268375045 0 0.0065456746787204406 -0.028556690093750538 0 0.0071555771794452865 -0.029008959819283642 0 0.007420247556266372 -0.027624329495413501 0 0.0076294828325396673 -0.02850591268375045 0 0.0065456746787204406 -0.028556690093750538 0 0.0065456746787204406 -0.028556690093750538 0 0.0071555771794452865 -0.029008959819283642 0 0.006552469395750703 -0.029221242594313031 0 0.0071555771794452865 -0.029008959819283642 0 0.006552469395750703 -0.029221242594313031 0 0.007142030889631586 -0.029444721502104056 0 0.0076294828325396673 -0.02850591268375045 0 0.0077297960507307145 -0.029191846930511311 0 0.0082982589474001178 -0.028888962259706868 0 0.0076294828325396673 -0.02850591268375045 0 0.0071555771794452865 -0.029008959819283642 0 0.0077297960507307145 -0.029191846930511311 0 0.0071555771794452865 -0.029008959819283642 0 0.0077297960507307145 -0.029191846930511311 0 0.007142030889631586 -0.029444721502104056 0 0.0077297960507307145 -0.029191846930511311 0 0.007815995746657577 -0.029619682825668955 0 0.007142030889631586 -0.029444721502104056 0 0.0077297960507307145 -0.029191846930511311 0 0.007815995746657577 -0.029619682825668955 0 0.0082397155310079111 -0.02939557618424702 0 0.007815995746657577 -0.029619682825668955 0 0.0075834519245869545 -0.030122655634806324 0 0.0082163722882764075 -0.029802724514025759 0 0.007815995746657577 -0.029619682825668955 0 0.0075834519245869545 -0.030122655634806324 0 0.007142030889631586 -0.029444721502104056 0 0.006552469395750703 -0.029221242594313031 0 0.007142030889631586 -0.029444721502104056 0 0.0060891504214590766 -0.029533942808798484 0 0.0054294656346609198 -0.029452976873852097 0 0.0060891504214590766 -0.029533942808798484 0 0.0057248159334430471 -0.029238277487168351 0 0.0066086738367557209 -0.029823763783583722 0 0.0060971678863398146 -0.029570731543965202 0 0.0075834519245869545 -0.030122655634806324 0 0.007142030889631586 -0.029444721502104056 0 0.0060891504214590766 -0.029533942808798484 0 0.0060891504214590766 -0.029533942808798484 0 0.0059981439926975006 -0.02933655252178393 0 0.0060069070696524077 -0.029218769534345424 0 0.006552469395750703 -0.029221242594313031 0 0.0060891504214590766 -0.029533942808798484 0 0.0059981439926975006 -0.02933655252178393 0 0.0061695809125170238 -0.02805009131199112 0 0.0068894441765130305 -0.027977436947175492 0 0.0063751756855951192 -0.028484150202530981 0 0.0065456746787204406 -0.028556690093750538 0 0.006552469395750703 -0.029221242594313031 0 0.0059981439926975006 -0.02933655252178393 0 0.0067440004656537308 -0.028263896536261192 0 0.0061947691396390678 -0.028886709145091189 0 0.0061695809125170238 -0.02805009131199112 0 0.0058938417681407389 -0.028538470916555658 0 0.0055388886731643164 -0.028273830609663504 0 0.0061695809125170238 -0.02805009131199112 0 0.0063751756855951192 -0.028484150202530981 0 0.0058938417681407389 -0.028538470916555658 0 0.0061947691396390678 -0.028886709145091189 0 0.0059422578674692009 -0.029039730914818509 0 0.0063751756855951192 -0.028484150202530981 0 0.0058938417681407389 -0.028538470916555658 0 0.005892758086040591 -0.028869624906172699 0 0.0058938417681407389 -0.028538470916555658 0 0.0054835410928430403 -0.028798231458652162 0 0.0055388886731643164 -0.028273830609663504 0 0.0058938417681407389 -0.028538470916555658 0 0.0054835410928430403 -0.028798231458652162 0 0.005892758086040591 -0.028869624906172699 0 0.0054835410928430403 -0.028798231458652162 0 0.0048725695239784034 -0.028596254066911384 0 0.0055388886731643164 -0.028273830609663504 0 0.0054835410928430403 -0.028798231458652162 0 0.0048725695239784034 -0.028596254066911384 0 0.0051193387207474359 -0.028850105875070926 0 0.0048725695239784034 -0.028596254066911384 0 0.0055388886731643164 -0.028273830609663504 0 0.0049754042788365191 -0.027763044491118966 0 0.0015854848758544246 -0.02848042752021308 0 0.0022010472004892669 -0.027809598926090019 0 0.002710826039180042 -0.028779893900197213 0 0.002604520063023032 -0.02827022143907371 0 0.0043838511432234984 -0.028915196845286234 0 0.0048725695239784034 -0.028596254066911384 0 0.0032848703007398341 -0.02861614860890193 0 0.0042304746609044715 -0.030160925643164797 0 0.0049161387288431807 -0.028840975302444002 0 0.0043838511432234984 -0.028915196845286234 0 0.0048725695239784034 -0.028596254066911384 0 0.0032848703007398341 -0.02861614860890193 0 0.0041455570572763323 -0.027948198693436656 0 0.0048725695239784034 -0.028596254066911384 0 0.0041455570572763323 -0.027948198693436656 0 0.0049754042788365191 -0.027763044491118966 0 0.0032848703007398341 -0.02861614860890193 0 0.0032972942206305998 -0.027496785116343639 0 0.0041455570572763323 -0.027948198693436656 0 0.002108929954181217 -0.026992523292291615 0 0.002604520063023032 -0.02827022143907371 0 0.0020556185580290487 -0.026984962537456733 0 0.0032848703007398341 -0.02861614860890193 0 0.0032972942206305998 -0.027496785116343639 0 0.0020556185580290487 -0.026984962537456733 0 0.0032972942206305998 -0.027496785116343639 0 0.0028776976619662321 -0.026757408183922145 0 0.0041455570572763323 -0.027948198693436656 0 0.0040454020499338141 -0.027170479901505167 0 0.0049754042788365191 -0.027763044491118966 0 0.0032972942206305998 -0.027496785116343639 0 0.0041455570572763323 -0.027948198693436656 0 0.0040454020499338141 -0.027170479901505167 0 0.004236853744732468 -0.026638198647357298 0 0.0040454020499338141 -0.027170479901505167 0 0.0049436165428784259 -0.026826345814214007 0 0.004236853744732468 -0.026638198647357298 0 0.0040454020499338141 -0.027170479901505167 0 0.0035244588580740405 -0.026548378530706851 0 0.0040454020499338141 -0.027170479901505167 0 0.0035244588580740405 -0.026548378530706851 0 0.0028776976619662321 -0.026757408183922145 0 0.0032972942206305998 -0.027496785116343639 0 0.0040454020499338141 -0.027170479901505167 0 0.0028776976619662321 -0.026757408183922145 0 0.0022808251432595893 -0.026172396011571317 0 0.0035244588580740405 -0.026548378530706851 0 0.0028776976619662321 -0.026757408183922145 0 0.0055388886731643164 -0.028273830609663504 0 0.0049754042788365191 -0.027763044491118966 0 0.0057929980726016154 -0.027478651150820141 0 0.0040454020499338141 -0.027170479901505167 0 0.0049754042788365191 -0.027763044491118966 0 0.0049436165428784259 -0.026826345814214007 0 0.0049436165428784259 -0.026826345814214007 0 0.0057929980726016154 -0.027478651150820141 0 0.0056098249551476461 -0.026793176340127969 0 0.0049754042788365191 -0.027763044491118966 0 0.0049436165428784259 -0.026826345814214007 0 0.0057929980726016154 -0.027478651150820141 0 0.0034114471101789443 -0.027048543109036711 0 0.002616029240001397 -0.026920698328991632 0 0.0025040039558414788 -0.026562452356331454 0 0.0056098249551476461 -0.026793176340127969 0 0.0053866916548616335 -0.026060673000976423 0 0.0063035148493404101 -0.026840363748823221 0 0.0049436165428784259 -0.026826345814214007 0 0.0056098249551476461 -0.026793176340127969 0 0.0053866916548616335 -0.026060673000976423 0 0.0049436165428784259 -0.026826345814214007 0 0.0053866916548616335 -0.026060673000976423 0 0.0041548430709492292 -0.026048875533367724 0 0.0044051072644828567 -0.026549588991226683 0 0.003375361595416806 -0.026471509542052206 0 0.0018156924938069528 -0.026512498107546398 0 0.0021863399268323724 -0.026670809450253574 0 0.002616029240001397 -0.026920698328991632 0 0.0022808251432595893 -0.026172396011571317 0 0.0035244588580740405 -0.026548378530706851 0 0.0041548430709492292 -0.026048875533367724 0 0.0021863399268323724 -0.026670809450253574 0 0.002616029240001397 -0.026920698328991632 0 0.0022729699747446206 -0.026671594518147594 0 0.0020408964611973103 -0.026364074657152327 0 0.003375361595416806 -0.026471509542052206 0 0.0020862075647266991 -0.026662480139011204 0 0.0021863399268323724 -0.026670809450253574 0 0.0022729699747446206 -0.026671594518147594 0 0.004236853744732468 -0.026638198647357298 0 0.0049436165428784259 -0.026826345814214007 0 0.0041548430709492292 -0.026048875533367724 0 0.004236853744732468 -0.026638198647357298 0 0.0035244588580740405 -0.026548378530706851 0 0.0041548430709492292 -0.026048875533367724 0 0.002616029240001397 -0.026920698328991632 0 0.0025040039558414788 -0.026562452356331454 0 0.0022729699747446206 -0.026671594518147594 0 0.0025040039558414788 -0.026562452356331454 0 0.0022729699747446206 -0.026671594518147594 0 0.0021521607796797168 -0.026520753493875584 0 0.0020862075647266991 -0.026662480139011204 0 0.0022729699747446206 -0.026671594518147594 0 0.0021521607796797168 -0.026520753493875584 0 0.0025040039558414788 -0.026562452356331454 0 0.0022329724797730604 -0.026296115347298372 0 0.0024608678883003376 -0.026164846487819089 0 0.0025040039558414788 -0.026562452356331454 0 0.0021521607796797168 -0.026520753493875584 0 0.0022329724797730604 -0.026296115347298372 0 0.0025040039558414788 -0.026562452356331454 0 0.0024608678883003376 -0.026164846487819089 0 0.0029859382116512595 -0.026394838320835244 0 0.0024075391106146158 -0.025745656178415632 0 0.0024608678883003376 -0.026164846487819089 0 0.0027425867671757947 -0.025954581471669357 0 0.0024608678883003376 -0.026164846487819089 0 0.0029859382116512595 -0.026394838320835244 0 0.0027425867671757947 -0.025954581471669357 0 0.0020997657120991314 -0.026111918212947761 0 0.0021982683019423441 -0.025836479856600463 0 0.0022692446589388754 -0.02602271754556628 0 0.0024075391106146158 -0.025745656178415632 0 0.0024608678883003376 -0.026164846487819089 0 0.0022692446589388754 -0.02602271754556628 0 0.0022329724797730604 -0.026296115347298372 0 0.0024608678883003376 -0.026164846487819089 0 0.0022692446589388754 -0.02602271754556628 0 0.0020997657120991314 -0.026111918212947761 0 0.0022329724797730604 -0.026296115347298372 0 0.0022692446589388754 -0.02602271754556628 0 0.0034114471101789443 -0.027048543109036711 0 0.0025040039558414788 -0.026562452356331454 0 0.0029859382116512595 -0.026394838320835244 0 0.0034114471101789443 -0.027048543109036711 0 0.0037503297369248876 -0.026505760216340223 0 0.0029859382116512595 -0.026394838320835244 0 0.0029859382116512595 -0.026394838320835244 0 0.0027425867671757947 -0.025954581471669357 0 0.0034572351206394636 -0.025792889041082994 0 0.0037503297369248876 -0.026505760216340223 0 0.0029859382116512595 -0.026394838320835244 0 0.0034572351206394636 -0.025792889041082994 0 0.0037503297369248876 -0.026505760216340223 0 0.0034572351206394636 -0.025792889041082994 0 0.0048502569049535017 -0.025722248178760281 0 0.0048502569049535017 -0.025722248178760281 0 0.0047898116883744422 -0.026983772023505669 0 0.006557376322967181 -0.026486633522306992 0 0.0055981444657819783 -0.026443233741383548 0 0.0070291657307996764 -0.026063349679424145 0 0.006395648635993823 -0.025929456298527456 0 0.0070477126679494165 -0.026542371428135973 0 0.0074872591163668489 -0.025667734887084289 0 0.0037503297369248876 -0.026505760216340223 0 0.0048502569049535017 -0.025722248178760281 0 0.0047898116883744422 -0.026983772023505669 0 0.0034114471101789443 -0.027048543109036711 0 0.0037503297369248876 -0.026505760216340223 0 0.0047898116883744422 -0.026983772023505669 0 0.0053866916548616335 -0.026060673000976423 0 0.006395648635993823 -0.025929456298527456 0 0.0063035148493404101 -0.026840363748823221 0 0.0044051072644828567 -0.026549588991226683 0 0.0055981444657819783 -0.026443233741383548 0 0.006395648635993823 -0.025929456298527456 0 0.0063035148493404101 -0.026840363748823221 0 0.0070477126679494165 -0.026542371428135973 0 0.007420247556266372 -0.027624329495413501 0 0.0063035148493404101 -0.026840363748823221 0 0.0070477126679494165 -0.026542371428135973 0 0.007420247556266372 -0.027624329495413501 0 0.0079046622378801772 -0.026728603940403467 0 0.0083808822861851148 -0.02788653954935584 0 0.007420247556266372 -0.027624329495413501 0 0.0070477126679494165 -0.026542371428135973 0 0.0079046622378801772 -0.026728603940403467 0 0.0070477126679494165 -0.026542371428135973 0 0.0079046622378801772 -0.026728603940403467 0 0.0074872591163668489 -0.025667734887084289 0 0.0079046622378801772 -0.026728603940403467 0 0.0074872591163668489 -0.025667734887084289 0 0.008600638007142206 -0.026187089314036339 0 0.0069105357148671167 -0.024690874496238458 0 0.0048502569049535017 -0.025722248178760281 0 0.006557376322967181 -0.026486633522306992 0 0.0070291657307996764 -0.026063349679424145 0 0.0084460776556065514 -0.025511889587555618 0 0.0069105357148671167 -0.024690874496238458 0 0.006557376322967181 -0.026486633522306992 0 0.0085341542183759635 -0.025479077945882941 0 0.0074872591163668489 -0.025667734887084289 0 0.0085341542183759635 -0.025479077945882941 0 0.008600638007142206 -0.026187089314036339 0 0.0085341542183759635 -0.025479077945882941 0 0.008600638007142206 -0.026187089314036339 0 0.0097843193834072292 -0.026137156470113457 0 0.0096688035126126677 -0.024936716648311898 0 0.0085341542183759635 -0.025479077945882941 0 0.0097843193834072292 -0.026137156470113457 0 0.0096688035126126677 -0.024936716648311898 0 0.0097843193834072292 -0.026137156470113457 0 0.010787450892040281 -0.025286208755933022 0 0.010787450892040281 -0.025286208755933022 0 0.010869841852644932 -0.02607837670680669 0 0.011881202306693766 -0.026057407812720496 0 0.011809835445953518 -0.025078344778109513 0 0.010787450892040281 -0.025286208755933022 0 0.011881202306693766 -0.026057407812720496 0 0.010869841852644932 -0.02607837670680669 0 0.011022225817256447 -0.026819263510467414 0 0.011881202306693766 -0.026057407812720496 0 0.0097843193834072292 -0.026137156470113457 0 0.010869841852644932 -0.02607837670680669 0 0.011022225817256447 -0.026819263510467414 0 0.0097843193834072292 -0.026137156470113457 0 0.010787450892040281 -0.025286208755933022 0 0.010869841852644932 -0.02607837670680669 0 0.0097843193834072292 -0.026137156470113457 0 0.011022225817256447 -0.026819263510467414 0 0.010104790340102036 -0.02726326567626253 0 0.011022225817256447 -0.026819263510467414 0 0.011350710243945782 -0.027778895049119231 0 0.012014425274581643 -0.027085118942966131 0 0.011022225817256447 -0.026819263510467414 0 0.011350710243945782 -0.027778895049119231 0 0.010104790340102036 -0.02726326567626253 0 0.011350710243945782 -0.027778895049119231 0 0.010104790340102036 -0.02726326567626253 0 0.010431415885915406 -0.028129162301348477 0 0.010104790340102036 -0.02726326567626253 0 0.0090017082054871019 -0.026984222574152943 0 0.0094439679153593692 -0.027972680504742813 0 0.0079046622378801772 -0.026728603940403467 0 0.0090017082054871019 -0.026984222574152943 0 0.0083808822861851148 -0.02788653954935584 0 0.0079046622378801772 -0.026728603940403467 0 0.008600638007142206 -0.026187089314036339 0 0.0090017082054871019 -0.026984222574152943 0 0.008600638007142206 -0.026187089314036339 0 0.0097843193834072292 -0.026137156470113457 0 0.0090017082054871019 -0.026984222574152943 0 0.0097843193834072292 -0.026137156470113457 0 0.010104790340102036 -0.02726326567626253 0 0.0090017082054871019 -0.026984222574152943 0 0.015295572226322853 -0.026208539784536695 0 0.013826555430134875 -0.026146189520140785 0 0.014543006762080101 -0.026960097239790606 0 0.01470828129821198 -0.02529615076071209 0 0.015295572226322853 -0.026208539784536695 0 0.013826555430134875 -0.026146189520140785 0 0.013681801200190453 -0.025130523691949892 0 0.013826555430134875 -0.026146189520140785 0 0.012867531877859537 -0.025482910366320034 0 0.013681801200190453 -0.025130523691949892 0 0.01470828129821198 -0.02529615076071209 0 0.013826555430134875 -0.026146189520140785 0 0.01285382551825442 -0.026111197125061138 0 0.011881202306693766 -0.026057407812720496 0 0.012834386580931804 -0.026750925744701452 0 0.013826555430134875 -0.026146189520140785 0 0.01285382551825442 -0.026111197125061138 0 0.012834386580931804 -0.026750925744701452 0 0.01285382551825442 -0.026111197125061138 0 0.012867531877859537 -0.025482910366320034 0 0.011881202306693766 -0.026057407812720496 0 0.013826555430134875 -0.026146189520140785 0 0.01285382551825442 -0.026111197125061138 0 0.012867531877859537 -0.025482910366320034 0 0.011809835445953518 -0.025078344778109513 0 0.012867531877859537 -0.025482910366320034 0 0.011881202306693766 -0.026057407812720496 0 0.011022225817256447 -0.026819263510467414 0 0.011881202306693766 -0.026057407812720496 0 0.012014425274581643 -0.027085118942966131 0 0.011881202306693766 -0.026057407812720496 0 0.012014425274581643 -0.027085118942966131 0 0.012834386580931804 -0.026750925744701452 0 0.011350710243945782 -0.027778895049119231 0 0.012014425274581643 -0.027085118942966131 0 0.012812439382205118 -0.027772119903433624 0 0.012014425274581643 -0.027085118942966131 0 0.012812439382205118 -0.027772119903433624 0 0.012834386580931804 -0.026750925744701452 0 0.012812439382205118 -0.027772119903433624 0 0.012834386580931804 -0.026750925744701452 0 0.013649031370660262 -0.027076420430131677 0 0.013826555430134875 -0.026146189520140785 0 0.012834386580931804 -0.026750925744701452 0 0.013649031370660262 -0.027076420430131677 0 0.013649031370660262 -0.027076420430131677 0 0.013968907350043649 -0.027699046528900172 0 0.014543006762080101 -0.026960097239790606 0 0.013826555430134875 -0.026146189520140785 0 0.013649031370660262 -0.027076420430131677 0 0.014543006762080101 -0.026960097239790606 0 0.012812439382205118 -0.027772119903433624 0 0.013649031370660262 -0.027076420430131677 0 0.013968907350043649 -0.027699046528900172 0 0.014951707937783524 -0.02732543929633267 0 0.013968907350043649 -0.027699046528900172 0 0.01430161988375072 -0.028058793199789427 0 0.015190572850581379 -0.027540020348367472 0 0.014056247114977431 -0.027684853555897112 0 0.015444913502045349 -0.027757487810592261 0 0.013968907350043649 -0.027699046528900172 0 0.014543006762080101 -0.026960097239790606 0 0.014764910513697637 -0.028171228630224723 0 0.0142504648684593 -0.028546038003834769 0 0.01430161988375072 -0.028058793199789427 0 0.0142504648684593 -0.028546038003834769 0 0.01430161988375072 -0.028058793199789427 0 0.013580451642700138 -0.028488917743417948 0 0.014764910513697637 -0.028171228630224723 0 0.014581622390639164 -0.028704274569885415 0 0.0142504648684593 -0.028546038003834769 0 0.012812439382205118 -0.027772119903433624 0 0.013968907350043649 -0.027699046528900172 0 0.013580451642700138 -0.028488917743417948 0 0.013968907350043649 -0.027699046528900172 0 0.01430161988375072 -0.028058793199789427 0 0.013580451642700138 -0.028488917743417948 0 0.013591464200492514 -0.028522888514266095 0 0.013390145707830273 -0.029188518131354358 0 0.0142504648684593 -0.028546038003834769 0 0.013580451642700138 -0.028488917743417948 0 0.013914024093573755 -0.028766313053281041 0 0.013580451642700138 -0.028488917743417948 0 0.013648691930794089 -0.028791100210824854 0 0.013914024093573755 -0.028766313053281041 0 0.013580451642700138 -0.028488917743417948 0 0.012712002380578499 -0.028856297207449835 0 0.013192223850593201 -0.02946227623779539 0 0.012712002380578499 -0.028856297207449835 0 0.012670850696109792 -0.029624292080748644 0 0.013192223850593201 -0.02946227623779539 0 0.012812439382205118 -0.027772119903433624 0 0.012712002380578499 -0.028856297207449835 0 0.011924389720400049 -0.028625337888337127 0 0.012812439382205118 -0.027772119903433624 0 0.013580451642700138 -0.028488917743417948 0 0.012712002380578499 -0.028856297207449835 0 0.011350710243945782 -0.027778895049119231 0 0.012812439382205118 -0.027772119903433624 0 0.011924389720400049 -0.028625337888337127 0 0.012712002380578499 -0.028856297207449835 0 0.011924389720400049 -0.028625337888337127 0 0.012017180042946806 -0.02961319165322078 0 0.011924389720400049 -0.028625337888337127 0 0.012017180042946806 -0.02961319165322078 0 0.01145556188314288 -0.029270810609432825 0 0.012017180042946806 -0.02961319165322078 0 0.01145556188314288 -0.029270810609432825 0 0.011363389355625234 -0.029860377496570788 0 0.013036250269460732 -0.02913349723250986 0 0.012222280503685817 -0.028416403690186602 0 0.01384855645080346 -0.026336777986994592 0 0.012727082839047067 -0.026498372141139551 0 0.013590021083072914 -0.027056837924676572 0 0.012017180042946806 -0.02961319165322078 0 0.012842720708401045 -0.030338745474041945 0 0.011313821690395274 -0.030555881130500839 0 0.013577284673793412 -0.029137524692707816 0 0.013724283580323621 -0.029301888325018892 0 0.013455755565403009 -0.029498101730033401 0 0.013036250269460732 -0.02913349723250986 0 0.015337029323944181 -0.024245055160297169 0 0.013577284673793412 -0.029137524692707816 0 0.013724283580323621 -0.029301888325018892 0 0.013639111083096912 -0.029128519593723517 0 0.013724283580323621 -0.029301888325018892 0 0.013639111083096912 -0.029128519593723517 0 0.013810851296707977 -0.029182905851576235 0 0.013036250269460732 -0.02913349723250986 0 0.013238873524727373 -0.029109905870404067 0 0.013036250269460732 -0.02913349723250986 0 0.013390145707830273 -0.029188518131354358 0 0.012842720708401045 -0.030338745474041945 0 0.012670850696109792 -0.029624292080748644 0 0.013192223850593201 -0.02946227623779539 0 0.013571861964627339 -0.029140831002046442 0 0.013639111083096912 -0.029128519593723517 0 0.013648691930794089 -0.028791100210824854 0 0.012017180042946806 -0.02961319165322078 0 0.012842720708401045 -0.030338745474041945 0 0.012670850696109792 -0.029624292080748644 0 0.012712002380578499 -0.028856297207449835 0 0.012017180042946806 -0.02961319165322078 0 0.012670850696109792 -0.029624292080748644 0 0.013639111083096912 -0.029128519593723517 0 0.013648691930794089 -0.028791100210824854 0 0.013901391955217854 -0.028997484045496753 0 0.013648691930794089 -0.028791100210824854 0 0.013914024093573755 -0.028766313053281041 0 0.013901391955217854 -0.028997484045496753 0 0.013914024093573755 -0.028766313053281041 0 0.013901391955217854 -0.028997484045496753 0 0.014265614248060976 -0.02900603776384874 0 0.013639111083096912 -0.029128519593723517 0 0.013901391955217854 -0.028997484045496753 0 0.013810851296707977 -0.029182905851576235 0 0.013901391955217854 -0.028997484045496753 0 0.013810851296707977 -0.029182905851576235 0 0.013986051262737827 -0.029306847624233773 0 0.013724283580323621 -0.029301888325018892 0 0.013810851296707977 -0.029182905851576235 0 0.013986051262737827 -0.029306847624233773 0 0.013724283580323621 -0.029301888325018892 0 0.013986051262737827 -0.029306847624233773 0 0.013910558681069381 -0.029612029835458579 0 0.013901391955217854 -0.028997484045496753 0 0.013986051262737827 -0.029306847624233773 0 0.014265614248060976 -0.02900603776384874 0 0.013986051262737827 -0.029306847624233773 0 0.01454666421953428 -0.029315877140568457 0 0.014265614248060976 -0.02900603776384874 0 0.014760900175887277 -0.028997966304503527 0 0.01454666421953428 -0.029315877140568457 0 0.014265614248060976 -0.02900603776384874 0 0.0142504648684593 -0.028546038003834769 0 0.013914024093573755 -0.028766313053281041 0 0.014265614248060976 -0.02900603776384874 0 0.014760900175887277 -0.028997966304503527 0 0.014581622390639164 -0.028704274569885415 0 0.014265614248060976 -0.02900603776384874 0 0.014581622390639164 -0.028704274569885415 0 0.0142504648684593 -0.028546038003834769 0 0.014265614248060976 -0.02900603776384874 0 0.0090483332791421109 -0.028727282550162766 0 0.010064548295919722 -0.029031787296799665 0 0.0093740708076076804 -0.029879385184705037 0 0.0090483332791421109 -0.028727282550162766 0 0.0094439679153593692 -0.027972680504742813 0 0.010064548295919722 -0.029031787296799665 0 0.0090483332791421109 -0.028727282550162766 0 0.0082982589474001178 -0.028888962259706868 0 0.0086977444946495751 -0.029190129329521104 0 0.0090483332791421109 -0.028727282550162766 0 0.0082982589474001178 -0.028888962259706868 0 0.0083808822861851148 -0.02788653954935584 0 0.0090017082054871019 -0.026984222574152943 0 0.0083808822861851148 -0.02788653954935584 0 0.0094439679153593692 -0.027972680504742813 0 0.0090483332791421109 -0.028727282550162766 0 0.0083808822861851148 -0.02788653954935584 0 0.0094439679153593692 -0.027972680504742813 0 0.0094439679153593692 -0.027972680504742813 0 0.010431415885915406 -0.028129162301348477 0 0.010064548295919722 -0.029031787296799665 0 0.010104790340102036 -0.02726326567626253 0 0.0094439679153593692 -0.027972680504742813 0 0.010431415885915406 -0.028129162301348477 0 0.011350710243945782 -0.027778895049119231 0 0.010431415885915406 -0.028129162301348477 0 0.01104296128197022 -0.028718974593744857 0 0.011350710243945782 -0.027778895049119231 0 0.011924389720400049 -0.028625337888337127 0 0.01104296128197022 -0.028718974593744857 0 0.01104296128197022 -0.028718974593744857 0 0.01145556188314288 -0.029270810609432825 0 0.010883398379059727 -0.029550070902232196 0 0.011924389720400049 -0.028625337888337127 0 0.01104296128197022 -0.028718974593744857 0 0.01145556188314288 -0.029270810609432825 0 0.010431415885915406 -0.028129162301348477 0 0.01104296128197022 -0.028718974593744857 0 0.010064548295919722 -0.029031787296799665 0 0.01104296128197022 -0.028718974593744857 0 0.010064548295919722 -0.029031787296799665 0 0.010883398379059727 -0.029550070902232196 0 0.010064548295919722 -0.029031787296799665 0 0.010883398379059727 -0.029550070902232196 0 0.010272524362434499 -0.030222182623116083 0 0.010064548295919722 -0.029031787296799665 0 0.010272524362434499 -0.030222182623116083 0 0.0093740708076076804 -0.029879385184705037 0 0.010867096768985432 -0.02956383178131872 0 0.010115036248327051 -0.030390982941949155 0 0.010883398379059727 -0.029550070902232196 0 0.011363389355625234 -0.029860377496570788 0 0.0103801034625101 -0.030159576613636357 0 0.012017180042946806 -0.02961319165322078 0 0.011363389355625234 -0.029860377496570788 0 0.011313821690395274 -0.030555881130500839 0 0.01145556188314288 -0.029270810609432825 0 0.010883398379059727 -0.029550070902232196 0 0.011363389355625234 -0.029860377496570788 0 0.012727082839047067 -0.026498372141139551 0 0.011630634837364073 -0.02671225525237687 0 0.01261405615718997 -0.02695545401398261 0 0.011363389355625234 -0.029860377496570788 0 0.011313821690395274 -0.030555881130500839 0 0.0103801034625101 -0.030159576613636357 0 0.011313821690395274 -0.030555881130500839 0 0.0103801034625101 -0.030159576613636357 0 0.0098484190330190985 -0.030755289689333241 0 0.012222280503685817 -0.028416403690186602 0 0.010093099959151884 -0.028649720274224317 0 0.012727082839047067 -0.026498372141139551 0 0.011630634837364073 -0.02671225525237687 0 0.011489266507022264 -0.02667982286926689 0 0.010115036248327051 -0.030390982941949155 0 0.010093099959151884 -0.028649720274224317 0 0.011630634837364073 -0.02671225525237687 0 0.011489266507022264 -0.02667982286926689 0 0.011551644834152733 -0.026838959046201198 0 0.009355567834992062 -0.030124128526034601 0 0.0090570783947817365 -0.029887654829536241 0 0.00913289831410336 -0.029343956930471302 0 0.010518118574308628 -0.026255056462480011 0 0.010339091444727567 -0.026457272744349159 0 0.010614360279139742 -0.026485929018532865 0 0.010272524362434499 -0.030222182623116083 0 0.0096606983887265515 -0.030910518337137108 0 0.0093740708076076804 -0.029879385184705037 0 0.010093099959151884 -0.028649720274224317 0 0.0093104453880928518 -0.029901698903491852 0 0.011150581887111263 -0.025568378649093979 0 0.011272016126153094 -0.025121147253181653 0 0.010093099959151884 -0.028649720274224317 0 0.011272016126153094 -0.025121147253181653 0 0.010093099959151884 -0.028649720274224317 0 0.00825565693679353 -0.027588547994314223 0 0.009355567834992062 -0.030124128526034601 0 0.0088037150002430835 -0.030238147275390183 0 0.0090570783947817365 -0.029887654829536241 0 0.0088037150002430835 -0.030238147275390183 0 0.0090570783947817365 -0.029887654829536241 0 0.0087041958542322315 -0.029631393856695682 0 0.0065895182421456316 -0.02925304760806113 0 0.00825565693679353 -0.027588547994314223 0 0.010093099959151884 -0.028649720274224317 0 0.0065895182421456316 -0.02925304760806113 0 0.0094292487056005878 -0.028499598457601652 0 0.0068288064757888395 -0.0289383120280398 0 0.0088513201834605135 -0.029167892025014394 0 0.0090570783947817365 -0.029887654829536241 0 0.00913289831410336 -0.029343956930471302 0 0.0087041958542322315 -0.029631393856695682 0 0.0090299014915342611 -0.028711446302678988 0 0.0093104453880928518 -0.029901698903491852 0 0.0090483332791421109 -0.028727282550162766 0 0.00913289831410336 -0.029343956930471302 0 0.0086977444946495751 -0.029190129329521104 0 0.00913289831410336 -0.029343956930471302 0 0.0086977444946495751 -0.029190129329521104 0 0.0087041958542322315 -0.029631393856695682 0 0.0077297960507307145 -0.029191846930511311 0 0.0082982589474001178 -0.028888962259706868 0 0.0082397155310079111 -0.02939557618424702 0 0.0082982589474001178 -0.028888962259706868 0 0.0086977444946495751 -0.029190129329521104 0 0.0082397155310079111 -0.02939557618424702 0 0.0086977444946495751 -0.029190129329521104 0 0.0082397155310079111 -0.02939557618424702 0 0.0087041958542322315 -0.029631393856695682 0 0.0066086738367557209 -0.029823763783583722 0 0.0065895182421456316 -0.02925304760806113 0 0.0075834519245869545 -0.030122655634806324 0 0.0088037150002430835 -0.030238147275390183 0 0.0082163722882764075 -0.029802724514025759 0 0.0054294656346609198 -0.029452976873852097 0 0.0051435220808467566 -0.029375239948133007 0 0.0053560754018144871 -0.029358287110687647 0 0.007815995746657577 -0.029619682825668955 0 0.0082397155310079111 -0.02939557618424702 0 0.0082163722882764075 -0.029802724514025759 0 0.0082397155310079111 -0.02939557618424702 0 0.0082163722882764075 -0.029802724514025759 0 0.0087041958542322315 -0.029631393856695682 0 0.0088037150002430835 -0.030238147275390183 0 0.0082163722882764075 -0.029802724514025759 0 0.0087041958542322315 -0.029631393856695682 0 0.0052619887643363282 -0.02912859845462527 0 0.00525081167742069 -0.028987641126901227 0 0.0051540117082411315 -0.029180346976333361 0 0.0065895182421456316 -0.02925304760806113 0 0.0051145589667939469 -0.029317554033675978 0 0.0052619887643363282 -0.02912859845462527 0 0.0053341225593339604 -0.029066778558096161 0 0.0053728504573143003 -0.029215188866265281 0 0.0052144189632264623 -0.029187098484848347 0 0.0052619887643363282 -0.02912859845462527 0 0.0053728504573143003 -0.029215188866265281 0 0.0052619887643363282 -0.02912859845462527 0 0.0053341225593339604 -0.029066778558096161 0 0.00525081167742069 -0.028987641126901227 0 0.0053341225593339604 -0.029066778558096161 0 0.00525081167742069 -0.028987641126901227 0 0.0053668936716001559 -0.028980839324640413 0 0.0063382703087912886 -0.026765566699617105 0 0.0067105348695338414 -0.027046528031848555 0 0.0062186657714025304 -0.027297543605751966 0 0.0063382703087912886 -0.026765566699617105 0 0.0067105348695338414 -0.027046528031848555 0 0.0071885246694201451 -0.025825800815235 0 0.011000611195252518 -0.021193089648132411 0 0.0099528536160583877 -0.023424144062430728 0 0.0093326024644426221 -0.021244615722202619 0 0.0067105348695338414 -0.027046528031848555 0 0.0071885246694201451 -0.025825800815235 0 0.0073912350607931035 -0.025846828411065864 0 0.0084410520208549784 -0.024137117563770873 0 0.011272016126153094 -0.025121147253181653 0 0.0052144189632264623 -0.029187098484848347 0 0.0052619887643363282 -0.02912859845462527 0 0.0051540117082411315 -0.029180346976333361 0 0.0054570056385338014 -0.027958594252811574 0 0.00825565693679353 -0.027588547994314223 0 0.00825565693679353 -0.027588547994314223 0 0.011272016126153094 -0.025121147253181653 0 0.011272016126153094 -0.025121147253181653 0 0.013985339141374566 -0.023962260045666629 0 0.016852606420985922 -0.021493558957418672 0 0.015185451498928594 -0.020522720000483 0 0.016336726116391115 -0.019232774995141755 0 0.016852606420985922 -0.021493558957418672 0 0.014921087436434151 -0.02118031724105018 0 0.015185451498928594 -0.020522720000483 0 0.011272016126153094 -0.025121147253181653 0 0.013101446422207124 -0.019607131700381544 0 0.011630634837364073 -0.02671225525237687 0 0.011555043686088184 -0.026837017638330601 0 0.01261405615718997 -0.02695545401398261 0 0.014921087436434151 -0.02118031724105018 0 0.015185451498928594 -0.020522720000483 0 0.014366603403016421 -0.020443806467338843 0 0.015185451498928594 -0.020522720000483 0 0.014423828811694139 -0.019361234221063395 0 0.016336726116391115 -0.019232774995141755 0 0.014423828811694139 -0.019361234221063395 0 0.016336726116391115 -0.019232774995141755 0 0.01489932863089072 -0.017955920144210175 0 0.015117455383057768 -0.020389328517344381 0 0.014664315306235737 -0.019363995224519464 0 0.015185451498928594 -0.020522720000483 0 0.014663153267953918 -0.019679736676945343 0 0.014366603403016421 -0.020443806467338843 0 0.016336726116391115 -0.019232774995141755 0 0.01489932863089072 -0.017955920144210175 0 0.015728058630669089 -0.016761603277166814 0 0.013101446422207124 -0.019607131700381544 0 0.011713999243253576 -0.018591314086926908 0 0.0093326024644426221 -0.021244615722202619 0 0.0087694644482263061 -0.019124032817877126 0 0.01024387234848451 -0.019639109796044281 0 0.01489932863089072 -0.017955920144210175 0 0.014322309769315172 -0.016205870733455575 0 0.013652788260013596 -0.018153890072195349 0 0.014423828811694139 -0.019361234221063395 0 0.01489932863089072 -0.017955920144210175 0 0.013652788260013596 -0.018153890072195349 0 0.01489932863089072 -0.017955920144210175 0 0.014322309769315172 -0.016205870733455575 0 0.015728058630669089 -0.016761603277166814 0 0.0087694644482263061 -0.019124032817877126 0 0.01024387234848451 -0.019639109796044281 0 0.010085663922928291 -0.017624636499878422 0 0.012008844291743797 -0.019044660463887454 0 0.01024387234848451 -0.019639109796044281 0 0.010085663922928291 -0.017624636499878422 0 0.0067105348695338414 -0.027046528031848555 0 0.0060772943637619307 -0.027833143383318774 0 0.0062186657714025304 -0.027297543605751966 0 0.0063382703087912886 -0.026765566699617105 0 0.0062186657714025304 -0.027297543605751966 0 0.0058231475952083252 -0.027548397011360085 0 0.0084410520208549784 -0.024137117563770873 0 0.0090998359467202566 -0.023229480846641611 0 0.011000611195252518 -0.021193089648132411 0 0.012008844291743797 -0.019044660463887454 0 0.01024387234848451 -0.019639109796044281 0 0.011000611195252518 -0.021193089648132411 0 0.0093326024644426221 -0.021244615722202619 0 0.01024387234848451 -0.019639109796044281 0 0.015589915331169879 -0.018601496390367882 0 0.014694067990070895 -0.020097996374024846 0 0.017560147639830305 -0.020454474198141323 0 0.013986051262737827 -0.029306847624233773 0 0.01454666421953428 -0.029315877140568457 0 0.014472562471767716 -0.029718108734913876 0 0.0144023686887658 -0.024861078537849659 0 0.016108825008352701 -0.025125677767694442 0 0.013986051262737827 -0.029306847624233773 0 0.014472562471767716 -0.029718108734913876 0 0.013910558681069381 -0.029612029835458579 0 0.017560147639830305 -0.020454474198141323 0 0.017427058762801852 -0.018438759505509241 0 0.019046374621589458 -0.018727195388027511 0 0.015589915331169879 -0.018601496390367882 0 0.017560147639830305 -0.020454474198141323 0 0.017427058762801852 -0.018438759505509241 0 0.015589915331169879 -0.018601496390367882 0 0.017427058762801852 -0.018438759505509241 0 0.016735571379275338 -0.016676651109423044 0 0.017427058762801852 -0.018438759505509241 0 0.019046374621589458 -0.018727195388027511 0 0.01859858684134371 -0.016950805466650485 0 0.019046374621589458 -0.018727195388027511 0 0.021313791942111329 -0.018608018491106562 0 0.020212142267282705 -0.017276018651579142 0 0.019046374621589458 -0.018727195388027511 0 0.020493423876528104 -0.020813934765405197 0 0.021313791942111329 -0.018608018491106562 0 0.019046374621589458 -0.018727195388027511 0 0.020212142267282705 -0.017276018651579142 0 0.01859858684134371 -0.016950805466650485 0 0.017560147639830305 -0.020454474198141323 0 0.019046374621589458 -0.018727195388027511 0 0.020493423876528104 -0.020813934765405197 0 0.013724283580323621 -0.029301888325018892 0 0.013910558681069381 -0.029612029835458579 0 0.013455755565403009 -0.029498101730033401 0 0.016108825008352701 -0.025125677767694442 0 0.015337029323944181 -0.024245055160297169 0 0.013985339141374566 -0.023962260045666629 0 0.015337029323944181 -0.024245055160297169 0 0.015337029323944181 -0.024245055160297169 0 0.017686667093147673 -0.018770045070884082 0 0.013351636186531778 -0.020961711396478625 0 0.014366603403016421 -0.020443806467338843 0 0.013734066905053377 -0.019882752101801467 0 0.012727082839047067 -0.026498372141139551 0 0.01261405615718997 -0.02695545401398261 0 0.013590021083072914 -0.027056837924676572 0 0.014921087436434151 -0.02118031724105018 0 0.013351636186531778 -0.020961711396478625 0 0.014366603403016421 -0.020443806467338843 0 0.014663153267953918 -0.019679736676945343 0 0.013734066905053377 -0.019882752101801467 0 0.014139863317887687 -0.018788678857592597 0 0.017686667093147673 -0.018770045070884082 0 0.017657287587229748 -0.01676193740413319 0 0.021313791942111329 -0.018608018491106562 0 0.022123406407012308 -0.016397997300432562 0 0.020212142267282705 -0.017276018651579142 0 0.014663153267953918 -0.019679736676945343 0 0.014366603403016421 -0.020443806467338843 0 0.013734066905053377 -0.019882752101801467 0 0.022123406407012308 -0.016397997300432562 0 0.019975836804241837 -0.015695924165876961 0 0.020212142267282705 -0.017276018651579142 0 0.014664315306235737 -0.019363995224519464 0 0.017657287587229748 -0.01676193740413319 0 0.021052321100959174 -0.011394947954443601 0 0.020336654478401751 -0.01338363676772571 0 0.019079015752752893 -0.011256809646978177 0 0.022123406407012308 -0.016397997300432562 0 0.020280159027190454 -0.013363254709584374 0 0.019975836804241837 -0.015695924165876961 0 0.017875604024879217 -0.013438374989320752 0 0.017657287587229748 -0.01676193740413319 0 0.017657287587229748 -0.01676193740413319 0 0.020103918271025766 -0.012140373106432989 0 0.020280159027190454 -0.013363254709584374 0 0.019975836804241837 -0.015695924165876961 0 0.018141206554089184 -0.014932936986770505 0 0.020280159027190454 -0.013363254709584374 0 0.018141206554089184 -0.014932936986770505 0 0.017144629775982533 -0.012534676078653592 0 0.019975836804241837 -0.015695924165876961 0 0.01859858684134371 -0.016950805466650485 0 0.018141206554089184 -0.014932936986770505 0 0.019975836804241837 -0.015695924165876961 0 0.020212142267282705 -0.017276018651579142 0 0.01859858684134371 -0.016950805466650485 0 0.016735571379275338 -0.016676651109423044 0 0.018141206554089184 -0.014932936986770505 0 0.015785078910548343 -0.014425885453723091 0 0.017427058762801852 -0.018438759505509241 0 0.01859858684134371 -0.016950805466650485 0 0.016735571379275338 -0.016676651109423044 0 0.01859858684134371 -0.016950805466650485 0 0.016735571379275338 -0.016676651109423044 0 0.018141206554089184 -0.014932936986770505 0 0.018141206554089184 -0.014932936986770505 0 0.015785078910548343 -0.014425885453723091 0 0.017144629775982533 -0.012534676078653592 0 0.013457585280942045 -0.014872578903952756 0 0.015785078910548343 -0.014425885453723091 0 0.014340025034391543 -0.012414004368573685 0 0.015785078910548343 -0.014425885453723091 0 0.014340025034391543 -0.012414004368573685 0 0.017144629775982533 -0.012534676078653592 0 0.015589915331169879 -0.018601496390367882 0 0.016735571379275338 -0.016676651109423044 0 0.015059595158415382 -0.016313800307767908 0 0.013382523493640436 -0.017009477334237036 0 0.015589915331169879 -0.018601496390367882 0 0.015059595158415382 -0.016313800307767908 0 0.013457585280942045 -0.014872578903952756 0 0.015785078910548343 -0.014425885453723091 0 0.015059595158415382 -0.016313800307767908 0 0.016735571379275338 -0.016676651109423044 0 0.015785078910548343 -0.014425885453723091 0 0.015059595158415382 -0.016313800307767908 0 0.01283980385395273 -0.010229841993527127 0 0.015883193011567032 -0.0097443442542547165 0 0.014735334794707325 -0.0074065813401449571 0 0.015883193011567032 -0.0097443442542547165 0 0.014340025034391543 -0.012414004368573685 0 0.017144629775982533 -0.012534676078653592 0 0.01283980385395273 -0.010229841993527127 0 0.015883193011567032 -0.0097443442542547165 0 0.014340025034391543 -0.012414004368573685 0 0.015883193011567032 -0.0097443442542547165 0 0.017144629775982533 -0.012534676078653592 0 0.01841469663717557 -0.010290963816878392 0 0.015883193011567032 -0.0097443442542547165 0 0.01841469663717557 -0.010290963816878392 0 0.0164658200473594 -0.0071769994105835124 0 0.018060669658670408 -0.0097408270031137806 0 0.016582623503629036 -0.0073228001994658908 0 0.017878364405205724 -0.0092315303734071871 0 0.018614263683800987 -0.0079832813449895786 0 0.017622395676384191 -0.0072926100475330735 0 0.017878364405205724 -0.0092315303734071871 0 0.019650815488853134 -0.0085681747080531331 0 0.018614263683800987 -0.0079832813449895786 0 0.020103918271025766 -0.012140373106432989 0 0.018060669658670408 -0.0097408270031137806 0 0.020280159027190454 -0.013363254709584374 0 0.017144629775982533 -0.012534676078653592 0 0.01841469663717557 -0.010290963816878392 0 0.019079015752752893 -0.011256809646978177 0 0.017878364405205724 -0.0092315303734071871 0 0.019650815488853134 -0.0085681747080531331 0 0.019079015752752893 -0.011256809646978177 0 0.020376126023871198 -0.010031323637163643 0 0.019650815488853134 -0.0085681747080531331 0 0.021052321100959174 -0.011394947954443601 0 0.019079015752752893 -0.011256809646978177 0 0.020376126023871198 -0.010031323637163643 0 0.020376126023871198 -0.010031323637163643 0 0.019650815488853134 -0.0085681747080531331 0 0.02123722388812227 -0.0079959757516496616 0 0.019650815488853134 -0.0085681747080531331 0 0.020510170600296182 -0.0075262921462542895 0 0.020126672194475718 -0.0069447277087179545 0 0.019650815488853134 -0.0085681747080531331 0 0.020510170600296182 -0.0075262921462542895 0 0.02123722388812227 -0.0079959757516496616 0 0.019650815488853134 -0.0085681747080531331 0 0.020126672194475718 -0.0069447277087179545 0 0.019255034121745562 -0.0073114503726627372 0 0.020126672194475718 -0.0069447277087179545 0 0.019322558799909389 -0.0061477887062069067 0 0.019255034121745562 -0.0073114503726627372 0 0.020510170600296182 -0.0075262921462542895 0 0.020126672194475718 -0.0069447277087179545 0 0.020526693689647268 -0.0070137991938510839 0 0.020126672194475718 -0.0069447277087179545 0 0.020526693689647268 -0.0070137991938510839 0 0.02062181779856178 -0.0069256127070014108 0 0.019999573775948343 -0.0070404856122650772 0 0.021736275796130699 -0.0057040719542058556 0 0.020126672194475718 -0.0069447277087179545 0 0.020359756895515196 -0.005370464367147487 0 0.02183120823284659 -0.0049692308391469601 0 0.020359756895515196 -0.005370464367147487 0 0.02183120823284659 -0.0049692308391469601 0 0.020967270158097344 -0.0039207440969931317 0 0.020359756895515196 -0.005370464367147487 0 0.019472307441638036 -0.0049988376554490222 0 0.020967270158097344 -0.0039207440969931317 0 0.020359756895515196 -0.005370464367147487 0 0.019322558799909389 -0.0061477887062069067 0 0.019472307441638036 -0.0049988376554490222 0 0.020126672194475718 -0.0069447277087179545 0 0.020359756895515196 -0.005370464367147487 0 0.019322558799909389 -0.0061477887062069067 0 0.019472307441638036 -0.0049988376554490222 0 0.018306165379302002 -0.0056601437922827701 0 0.017635640007443547 -0.0048962267784811225 0 0.019322558799909389 -0.0061477887062069067 0 0.019472307441638036 -0.0049988376554490222 0 0.018306165379302002 -0.0056601437922827701 0 0.018306165379302002 -0.0056601437922827701 0 0.018494300281411483 -0.0067183036048610242 0 0.017834999412557558 -0.0063648333209698855 0 0.018306165379302002 -0.0056601437922827701 0 0.017834999412557558 -0.0063648333209698855 0 0.017753737432544915 -0.0057233976535725015 0 0.019322558799909389 -0.0061477887062069067 0 0.018306165379302002 -0.0056601437922827701 0 0.018494300281411483 -0.0067183036048610242 0 0.018494300281411483 -0.0067183036048610242 0 0.017622395676384191 -0.0072926100475330735 0 0.017834999412557558 -0.0063648333209698855 0 0.019322558799909389 -0.0061477887062069067 0 0.018494300281411483 -0.0067183036048610242 0 0.019255034121745562 -0.0073114503726627372 0 0.019650815488853134 -0.0085681747080531331 0 0.019255034121745562 -0.0073114503726627372 0 0.018614263683800987 -0.0079832813449895786 0 0.018494300281411483 -0.0067183036048610242 0 0.019255034121745562 -0.0073114503726627372 0 0.018614263683800987 -0.0079832813449895786 0 0.018494300281411483 -0.0067183036048610242 0 0.018614263683800987 -0.0079832813449895786 0 0.017622395676384191 -0.0072926100475330735 0 0.017878364405205724 -0.0092315303734071871 0 0.017622395676384191 -0.0072926100475330735 0 0.0164658200473594 -0.0071769994105835124 0 0.017622395676384191 -0.0072926100475330735 0 0.0164658200473594 -0.0071769994105835124 0 0.016773970950792617 -0.006851837971250458 0 0.016773970950792617 -0.006851837971250458 0 0.017218222370369657 -0.0065372786387912236 0 0.015801508892559053 -0.0064924356794238284 0 0.017622395676384191 -0.0072926100475330735 0 0.017218222370369657 -0.0065372786387912236 0 0.017834999412557558 -0.0063648333209698855 0 0.017622395676384191 -0.0072926100475330735 0 0.016773970950792617 -0.006851837971250458 0 0.017218222370369657 -0.0065372786387912236 0 0.019622805060692267 -0.0034578529756437919 0 0.021634748789857342 -0.001336408954748593 0 0.020724236112116191 -0.0019195527869301321 0 0.021305251200313912 -0.0014926092373246671 0 0.020932816680768709 -0.0021554106909563221 0 0.017241425523709147 -0.0059657121393534782 0 0.017635640007443547 -0.0048962267784811225 0 0.015801508892559053 -0.0064924356794238284 0 0.019002668892036924 -0.0035674881666216264 0 0.019622805060692267 -0.0034578529756437919 0 0.017218222370369657 -0.0065372786387912236 0 0.017834999412557558 -0.0063648333209698855 0 0.017241425523709147 -0.0059657121393534782 0 0.017834999412557558 -0.0063648333209698855 0 0.017241425523709147 -0.0059657121393534782 0 0.017753737432544915 -0.0057233976535725015 0 0.017241425523709147 -0.0059657121393534782 0 0.017753737432544915 -0.0057233976535725015 0 0.017635640007443547 -0.0048962267784811225 0 0.018306165379302002 -0.0056601437922827701 0 0.017753737432544915 -0.0057233976535725015 0 0.017635640007443547 -0.0048962267784811225 0 0.017218222370369657 -0.0065372786387912236 0 0.017241425523709147 -0.0059657121393534782 0 0.015801508892559053 -0.0064924356794238284 0 0.021510925006118158 -0.0018590144801379103 0 0.021495288987133442 -0.0017756820179072889 0 0.020932816680768709 -0.0021554106909563221 0 0.021346308150995707 -0.0018567097321314969 0 0.021510925006118158 -0.0018590144801379103 0 0.021622762439952727 -0.0018655575978347159 0 0.021371795085067622 -0.0018792362192485334 0 0.021510925006118158 -0.0018590144801379103 0 0.021495288987133442 -0.0017756820179072889 0 0.021346308150995707 -0.0018567097321314969 0 0.021371795085067622 -0.0018792362192485334 0 0.021510925006118158 -0.0018590144801379103 0 0.021303680115013379 -0.0020526561146792959 0 0.021371795085067622 -0.0018792362192485334 0 0.021495288987133442 -0.0017756820179072889 0 0.018301289658003653 -0.0054186014159831467 0 0.019306003259484165 -0.0046047901521126533 0 0.018873965084675912 -0.0052590560509751926 0 0.015883193011567032 -0.0097443442542547165 0 0.0164658200473594 -0.0071769994105835124 0 0.014735334794707325 -0.0074065813401449571 0 0.01966937303904074 -0.0053069516276562229 0 0.019622805060692267 -0.0034578529756437919 0 0.019622805060692267 -0.0034578529756437919 0 0.017019272458979155 -0.0068653492569221075 0 0.0164658200473594 -0.0071769994105835124 0 0.016773970950792617 -0.006851837971250458 0 0.014735334794707325 -0.0074065813401449571 0 0.015951372517191646 -0.0070726362175402334 0 0.017019272458979155 -0.0068653492569221075 0 0.016773970950792617 -0.006851837971250458 0 0.015801508892559053 -0.0064924356794238284 0 0.015313288276209664 -0.0072169364445011956 0 0.01966937303904074 -0.0053069516276562229 0 0.017019272458979155 -0.0068653492569221075 0 0.010085663922928291 -0.017624636499878422 0 0.0090185099739869285 -0.014870953219532974 0 0.010986652670651532 -0.015873765628847361 0 0.010085663922928291 -0.017624636499878422 0 0.010986652670651532 -0.015873765628847361 0 0.013006055227688313 -0.016938809185851899 0 0.012008844291743797 -0.019044660463887454 0 0.010085663922928291 -0.017624636499878422 0 0.013006055227688313 -0.016938809185851899 0 0.010986652670651532 -0.015873765628847361 0 0.01243259119228172 -0.015592363849165588 0 0.013006055227688313 -0.016938809185851899 0 0.0087694644482263061 -0.019124032817877126 0 0.010085663922928291 -0.017624636499878422 0 0.008235949773537022 -0.017028680217367066 0 0.010085663922928291 -0.017624636499878422 0 0.008235949773537022 -0.017028680217367066 0 0.0090185099739869285 -0.014870953219532974 0 0.017875604024879217 -0.013438374989320752 0 0.016237095825881748 -0.012516027437724661 0 0.014322309769315172 -0.016205870733455575 0 0.015728058630669089 -0.016761603277166814 0 0.01504513413119607 -0.014198895478940888 0 0.011713999243253576 -0.018591314086926908 0 0.016237095825881748 -0.012516027437724661 0 0.021052321100959174 -0.011394947954443601 0 0.020376126023871198 -0.010031323637163643 0 0.021698991378417444 -0.0094493577897429674 0 0.016237095825881748 -0.012516027437724661 0 0.015033977816664885 -0.011020041694391001 0 0.020526098453351266 -0.0075741159723515215 0 0.020651783089753836 -0.0070523388216142029 0 0.020471060613955129 -0.0072678921060256741 0 0.020376126023871198 -0.010031323637163643 0 0.021698991378417444 -0.0094493577897429674 0 0.02123722388812227 -0.0079959757516496616 0 0.016237095825881748 -0.012516027437724661 0 0.020534526168656073 -0.0073404146113791357 0 0.020651783089753836 -0.0070523388216142029 0 0.020471060613955129 -0.0072678921060256741 0 0.020610455803567948 -0.0069851566220677577 0 0.020471060613955129 -0.0072678921060256741 0 0.020526693689647268 -0.0070137991938510839 0 0.020610455803567948 -0.0069851566220677577 0 0.020510170600296182 -0.0075262921462542895 0 0.02123722388812227 -0.0079959757516496616 0 0.020526693689647268 -0.0070137991938510839 0 0.020534526168656073 -0.0073404146113791357 0 0.020635136944571641 -0.0072504256446524985 0 0.020526693689647268 -0.0070137991938510839 0 0.020610455803567948 -0.0069851566220677577 0 0.02062181779856178 -0.0069256127070014108 0 0.015033977816664885 -0.011020041694391001 0 0.011979812084214217 -0.0092352083627925963 0 0.0090185099739869285 -0.014870953219532974 0 0.010284807532149966 -0.013780646830034464 0 0.0098062166576555893 -0.012709602243516509 0 0.020651783089753836 -0.0070523388216142029 0 0.020610455803567948 -0.0069851566220677577 0 0.020550225018588442 -0.0069543747723199876 0 0.020610455803567948 -0.0069851566220677577 0 0.02062181779856178 -0.0069256127070014108 0 0.020550225018588442 -0.0069543747723199876 0 0.0090185099739869285 -0.014870953219532974 0 0.010284807532149966 -0.013780646830034464 0 0.01047647131036022 -0.01457191460835537 0 0.010284807532149966 -0.013780646830034464 0 0.010811751783019808 -0.014063913364536704 0 0.011251666021037599 -0.013646627511469004 0 0.010284807532149966 -0.013780646830034464 0 0.010811751783019808 -0.014063913364536704 0 0.01047647131036022 -0.01457191460835537 0 0.010811751783019808 -0.014063913364536704 0 0.01047647131036022 -0.01457191460835537 0 0.011358024683765533 -0.014351725394165587 0 0.01047647131036022 -0.01457191460835537 0 0.010986652670651532 -0.015873765628847361 0 0.011542655455986204 -0.014982729374351857 0 0.0090185099739869285 -0.014870953219532974 0 0.01047647131036022 -0.01457191460835537 0 0.010986652670651532 -0.015873765628847361 0 0.010986652670651532 -0.015873765628847361 0 0.011542655455986204 -0.014982729374351857 0 0.01243259119228172 -0.015592363849165588 0 0.011119850883991748 -0.010056251655894482 0 0.010151718917711629 -0.009964123165534548 0 0.0089155509201190742 -0.006586484384557582 0 0.0092841086827743381 -0.0073299806055028465 0 0.0099814830162280183 -0.0069768696096980214 0 0.010998098241684606 -0.013332319691597348 0 0.012696474090074001 -0.0144880628292441 0 0.012567195941412167 -0.014024033019638886 0 0.011358024683765533 -0.014351725394165587 0 0.011251666021037599 -0.013646627511469004 0 0.012696474090074001 -0.0144880628292441 0 0.010998098241684606 -0.013332319691597348 0 0.012567195941412167 -0.014024033019638886 0 0.010946531858625966 -0.013062252872181762 0 0.011542655455986204 -0.014982729374351857 0 0.011358024683765533 -0.014351725394165587 0 0.012696474090074001 -0.0144880628292441 0 0.010933333885677247 -0.013725787838067787 0 0.012644653943317975 -0.014380832535917763 0 0.01047647131036022 -0.01457191460835537 0 0.011542655455986204 -0.014982729374351857 0 0.011358024683765533 -0.014351725394165587 0 0.010811751783019808 -0.014063913364536704 0 0.011358024683765533 -0.014351725394165587 0 0.011251666021037599 -0.013646627511469004 0 0.011119850883991748 -0.010056251655894482 0 0.0071054127955623853 -0.016484765593078248 0 0.012696474090074001 -0.0144880628292441 0 0.012567195941412167 -0.014024033019638886 0 0.014019557380368287 -0.014833290157314286 0 0.0089155509201190742 -0.006586484384557582 0 0.0080512163689948294 -0.0069328288356955269 0 0.0086494086785890833 -0.0072997700796540157 0 0.0080512163689948294 -0.0069328288356955269 0 0.0079565433704021932 -0.0062641345525377163 0 0.0074113535792706634 -0.0073615244669552882 0 0.0089155509201190742 -0.006586484384557582 0 0.0080512163689948294 -0.0069328288356955269 0 0.0079565433704021932 -0.0062641345525377163 0 0.0071054127955623853 -0.016484765593078248 0 0.003003606788681403 -0.0086464038259491654 0 0.0071054127955623853 -0.016484765593078248 0 0.0096366566681658581 -0.023367256457371807 0 0.014019557380368287 -0.014833290157314286 0 0.01243259119228172 -0.015592363849165588 0 0.013006055227688313 -0.016938809185851899 0 0.012696474090074001 -0.0144880628292441 0 0.014019557380368287 -0.014833290157314286 0 0.01243259119228172 -0.015592363849165588 0 0.011542655455986204 -0.014982729374351857 0 0.012696474090074001 -0.0144880628292441 0 0.01243259119228172 -0.015592363849165588 0 -0.0019231600632650166 -0.012447846405395235 0 0.003003606788681403 -0.0086464038259491654 0 0.001954168863702057 -0.015722145838930893 0 0.0020326089785410958 -0.015703106386841807 0 0.0019807551284961988 -0.01554403192223462 0 0.0071054127955623853 -0.016484765593078248 0 0.0034254031277479611 -0.022513944543049624 0 0.0056799995114861189 -0.027606792700912198 0 0.0058814321476740273 -0.027744758841791853 0 0.0057276396620331406 -0.027913751125026483 0 0.001954168863702057 -0.015722145838930893 0 0.0020326089785410958 -0.015703106386841807 0 0.0020295037310096233 -0.015816331892672474 0 0.0020326089785410958 -0.015703106386841807 0 0.0020295037310096233 -0.015816331892672474 0 0.0019690010226371089 -0.015844809872003526 0 0.0058814321476740273 -0.027744758841791853 0 0.0058698863330573867 -0.028070328864208766 0 0.0062218245905753932 -0.027881538720151571 0 0.0058814321476740273 -0.027744758841791853 0 0.0057276396620331406 -0.027913751125026483 0 0.0058698863330573867 -0.028070328864208766 0 0.0057276396620331406 -0.027913751125026483 0 0.0058698863330573867 -0.028070328864208766 0 0.0056288615319679087 -0.028098701087862481 0 0.0058698863330573867 -0.028070328864208766 0 0.0056288615319679087 -0.028098701087862481 0 0.0058711573216793838 -0.028419645696230757 0 0.0056799995114861189 -0.027606792700912198 0 0.0057276396620331406 -0.027913751125026483 0 0.0057095566335345592 -0.027975532679041664 0 0.0057276396620331406 -0.027913751125026483 0 0.0057095566335345592 -0.027975532679041664 0 0.0056288615319679087 -0.028098701087862481 0 0.0090998359467202566 -0.023229480846641611 0 0.0096366566681658581 -0.023367256457371807 0 0.0060772943637619307 -0.027833143383318774 0 0.0057095566335345592 -0.027975532679041664 0 0.0056288615319679087 -0.028098701087862481 0 0.0060772943637619307 -0.027833143383318774 0 0.0058231475952083252 -0.027548397011360085 0 0.0056288615319679087 -0.028098701087862481 0 0.0060772943637619307 -0.027833143383318774 0 0.0062186657714025304 -0.027297543605751966 0 0.0058231475952083252 -0.027548397011360085 0 0.0053864540682973926 -0.028648022209823591 0 0.0056079761220631493 -0.028774048527450875 0 0.0054322476358172203 -0.028864119356631267 0 0.0053864540682973926 -0.028648022209823591 0 0.0056079761220631493 -0.028774048527450875 0 0.0057363797452146736 -0.028556867683427797 0 0.0053864540682973926 -0.028648022209823591 0 0.0056288615319679087 -0.028098701087862481 0 0.0057363797452146736 -0.028556867683427797 0 0.0056855232893834717 -0.028047031045305426 0 0.0056118473688101791 -0.028103148251878578 0 0.0056288615319679087 -0.028098701087862481 0 0.0058711573216793838 -0.028419645696230757 0 0.0057363797452146736 -0.028556867683427797 0 0.0058698863330573867 -0.028070328864208766 0 0.0058711573216793838 -0.028419645696230757 0 0.0060367150646415523 -0.028396345696184822 0 0.0058711573216793838 -0.028419645696230757 0 0.0059003408126455529 -0.028753653109048927 0 0.0060367150646415523 -0.028396345696184822 0 0.0059003408126455529 -0.028753653109048927 0 0.0059646466565774301 -0.028930623887731592 0 0.0060367150646415523 -0.028396345696184822 0 0.0059003408126455529 -0.028753653109048927 0 0.0059363022628034275 -0.028978340068350896 0 0.0059646466565774301 -0.028930623887731592 0 0.0056079761220631493 -0.028774048527450875 0 0.0057363797452146736 -0.028556867683427797 0 0.005826957196061364 -0.028871751731768661 0 0.0058711573216793838 -0.028419645696230757 0 0.0059003408126455529 -0.028753653109048927 0 0.0057363797452146736 -0.028556867683427797 0 0.0059003408126455529 -0.028753653109048927 0 0.0057363797452146736 -0.028556867683427797 0 0.005826957196061364 -0.028871751731768661 0 0.005826957196061364 -0.028871751731768661 0 0.0059259484822042924 -0.029134744266860552 0 0.0056745280672844496 -0.028974643184756288 0 0.005826957196061364 -0.028871751731768661 0 0.0059363022628034275 -0.028978340068350896 0 0.0059259484822042924 -0.029134744266860552 0 0.0059363022628034275 -0.028978340068350896 0 0.0060069070696524077 -0.029218769534345424 0 0.0057976444692577137 -0.028963917645973909 0 0.0059003408126455529 -0.028753653109048927 0 0.005826957196061364 -0.028871751731768661 0 0.0059363022628034275 -0.028978340068350896 0 0.0059363022628034275 -0.028978340068350896 0 0.0060069070696524077 -0.029218769534345424 0 0.0059259484822042924 -0.029134744266860552 0 0.0060891504214590766 -0.029533942808798484 0 0.0059259484822042924 -0.029134744266860552 0 0.0057248159334430471 -0.029238277487168351 0 0.0060891504214590766 -0.029533942808798484 0 0.0060069070696524077 -0.029218769534345424 0 0.0059259484822042924 -0.029134744266860552 0 0.0057248159334430471 -0.029238277487168351 0 0.0054789708289647724 -0.029045203508725081 0 0.0056745280672844496 -0.028974643184756288 0 0.0059259484822042924 -0.029134744266860552 0 0.0057248159334430471 -0.029238277487168351 0 0.0056745280672844496 -0.028974643184756288 0 0.0054294656346609198 -0.029452976873852097 0 0.0057248159334430471 -0.029238277487168351 0 0.0053560754018144871 -0.029358287110687647 0 0.0057944543047823488 -0.029224011241295929 0 0.0051145589667939469 -0.029317554033675978 0 0.0057248159334430471 -0.029238277487168351 0 0.0053728504573143003 -0.029215188866265281 0 0.0054789708289647724 -0.029045203508725081 0 0.0053341225593339604 -0.029066778558096161 0 0.0053728504573143003 -0.029215188866265281 0 0.0054789708289647724 -0.029045203508725081 0 0.00525081167742069 -0.028987641126901227 0 0.0053668936716001559 -0.028980839324640413 0 0.0054322476358172203 -0.028864119356631267 0 0.00525081167742069 -0.028987641126901227 0 0.0053864540682973926 -0.028648022209823591 0 0.0054322476358172203 -0.028864119356631267 0 0.0054570056385338014 -0.027958594252811574 0 0.0056855232893834717 -0.028047031045305426 0 0.0054789708289647724 -0.029045203508725081 0 0.0054322476358172203 -0.028864119356631267 0 0.0056745280672844496 -0.028974643184756288 0 0.0054789708289647724 -0.029045203508725081 0 0.0053668936716001559 -0.028980839324640413 0 0.0054322476358172203 -0.028864119356631267 0 0.0053341225593339604 -0.029066778558096161 0 0.0054789708289647724 -0.029045203508725081 0 0.0053668936716001559 -0.028980839324640413 0 0.0056079761220631493 -0.028774048527450875 0 0.0054322476358172203 -0.028864119356631267 0 0.0056745280672844496 -0.028974643184756288 0 0.0056079761220631493 -0.028774048527450875 0 0.005826957196061364 -0.028871751731768661 0 0.0056745280672844496 -0.028974643184756288 0 0.0052618655054846707 -0.028600122473651759 0 0.0054764211504786742 -0.028963659526474422 0 0.0050879140478956959 -0.029008580423956095 0 0.0043838511432234984 -0.028915196845286234 0 0.0056538366677988065 -0.028934941017153059 0 0.0043838511432234984 -0.028915196845286234 0 0.0038702950854220398 -0.030184110140972928 0 0.0018561724144479127 -0.029197627317421135 0 0.002710826039180042 -0.028779893900197213 0 0.0022318816570352732 -0.029876970621652205 0 0.001418738379066221 -0.029975199353496733 0 0.0018561724144479127 -0.029197627317421135 0 0.0022318816570352732 -0.029876970621652205 0 0.0015854848758544246 -0.02848042752021308 0 0.0018561724144479127 -0.029197627317421135 0 0.002710826039180042 -0.028779893900197213 0 0.0054835410928430403 -0.028798231458652162 0 0.0051193387207474359 -0.028850105875070926 0 0.0054860437974822993 -0.028901972145878127 0 0.0051193387207474359 -0.028850105875070926 0 0.0054860437974822993 -0.028901972145878127 0 0.0054764211504786742 -0.028963659526474422 0 0.0054835410928430403 -0.028798231458652162 0 0.005892758086040591 -0.028869624906172699 0 0.0057976444692577137 -0.028963917645973909 0 0.0059422578674692009 -0.029039730914818509 0 0.0058165692527644619 -0.029002514918764884 0 0.0054835410928430403 -0.028798231458652162 0 0.0054860437974822993 -0.028901972145878127 0 0.0057976444692577137 -0.028963917645973909 0 0.0054860437974822993 -0.028901972145878127 0 0.0057976444692577137 -0.028963917645973909 0 0.005708076342932529 -0.028971313331019013 0 0.0059363022628034275 -0.028978340068350896 0 0.0057976444692577137 -0.028963917645973909 0 0.0059646466565774301 -0.028930623887731592 0 0.0057976444692577137 -0.028963917645973909 0 0.005708076342932529 -0.028971313331019013 0 0.0059646466565774301 -0.028930623887731592 0 0.0054860437974822993 -0.028901972145878127 0 0.005708076342932529 -0.028971313331019013 0 0.0054764211504786742 -0.028963659526474422 0 0.005708076342932529 -0.028971313331019013 0 0.0054764211504786742 -0.028963659526474422 0 0.0055453531991084366 -0.029310697301748286 0 0.0059799517645518071 -0.028740639466925694 0 0.0061293642328926756 -0.029534869537308651 0 0.005708076342932529 -0.028971313331019013 0 0.0059646466565774301 -0.028930623887731592 0 0.0055453531991084366 -0.029310697301748286 0 0.0059646466565774301 -0.028930623887731592 0 0.0060367150646415523 -0.028396345696184822 0 0.0064028035957442659 -0.028441435472875132 0 0.0061293642328926756 -0.029534869537308651 0 0.0031877030575079889 -0.023731682356575856 0 0.0055453531991084366 -0.029310697301748286 0 0.0051793400297117662 -0.029258808493780736 0 0.0052352813568352034 -0.029512010815855208 0 0.0054764211504786742 -0.028963659526474422 0 0.0055453531991084366 -0.029310697301748286 0 0.0051793400297117662 -0.029258808493780736 0 0.0054764211504786742 -0.028963659526474422 0 0.0051793400297117662 -0.029258808493780736 0 0.0050879140478956959 -0.029008580423956095 0 0.001418738379066221 -0.029975199353496733 0 0.0017378756893270363 -0.030953532342004039 0 0.0022318816570352732 -0.029876970621652205 0 0.00084045429145335898 -0.026085858618369224 0 0.0038702950854220398 -0.030184110140972928 0 0.0048929843097196297 -0.029355412496246257 0 0.0051793400297117662 -0.029258808493780736 0 0.0050879140478956959 -0.029008580423956095 0 0.0048929843097196297 -0.029355412496246257 0 0.0051793400297117662 -0.029258808493780736 0 0.0052352813568352034 -0.029512010815855208 0 -0.0011485901260331554 -0.020436082063711614 0 -0.0012173234322004317 -0.020470976463451338 0 -0.0011814682709665588 -0.02036785344946003 0 0.00084045429145335898 -0.026085858618369224 0 0.0031877030575079889 -0.023731682356575856 0 -0.0011088923994552727 -0.020540219313678963 0 -0.0011485901260331554 -0.020436082063711614 0 -0.0012173234322004317 -0.020470976463451338 0 0.0012655530858323154 -0.015644780164529307 0 0.0013162875537964694 -0.015887231639839666 0 0.0016055389118356503 -0.015837171936133168 0 0.0012655530858323154 -0.015644780164529307 0 0.0013162875537964694 -0.015887231639839666 0 0.00086843281014283415 -0.015909683591363053 0 0.0031877030575079889 -0.023731682356575856 0 -0.00011744901118219707 -0.018139310583034612 0 -0.0040044495920861893 -0.0091547500730579309 0 -0.0043736113946150736 -0.0092291643099115476 0 -0.0042294918629970178 -0.0090286193978389561 0 0.0013162875537964694 -0.015887231639839666 0 0.0011177278304488622 -0.016111907845126339 0 0.00086843281014283415 -0.015909683591363053 0 -0.0013109923593047086 -0.012417265181300905 0 -0.0013692338446187615 -0.013602766750491532 0 0.0013162875537964694 -0.015887231639839666 0 0.0011177278304488622 -0.016111907845126339 0 0.001692970616464133 -0.015920153887342699 0 -0.0018113329559598318 -0.014600913660575593 0 -0.0013109923593047086 -0.012417265181300905 0 0.0004534082848396609 -0.016257200366974554 0 0.0011177278304488622 -0.016111907845126339 0 0.00086843281014283415 -0.015909683591363053 0 -0.0018113329559598318 -0.014600913660575593 0 -0.00011744901118219707 -0.018139310583034612 0 -0.0011309037355366901 -0.020240195683052371 0 -0.0011264839307462647 -0.020357179342512979 0 -0.0011814682709665588 -0.02036785344946003 0 -0.0011264839307462647 -0.020357179342512979 0 -0.0011485901260331554 -0.020436082063711614 0 -0.0011814682709665588 -0.02036785344946003 0 0.0060367150646415523 -0.028396345696184822 0 0.0064028035957442659 -0.028441435472875132 0 0.0062218245905753932 -0.027881538720151571 0 0.0058698863330573867 -0.028070328864208766 0 0.0060367150646415523 -0.028396345696184822 0 0.0062218245905753932 -0.027881538720151571 0 0.0064028035957442659 -0.028441435472875132 0 0.0066698386258101927 -0.028084464191063346 0 0.0062218245905753932 -0.027881538720151571 0 0.0031877030575079889 -0.023731682356575856 0 0.0042549152957996996 -0.021509035826788741 0 0.0012655530858323154 -0.015644780164529307 0 0.0016055389118356503 -0.015837171936133168 0 0.0019169133077804024 -0.015842322301965091 0 0.0013162875537964694 -0.015887231639839666 0 0.0016055389118356503 -0.015837171936133168 0 0.001692970616464133 -0.015920153887342699 0 0.00015725589951413803 -0.01494770760009817 0 -0.0013692338446187615 -0.013602766750491532 0 -0.0043736113946150736 -0.0092291643099115476 0 -0.0043990094899462769 -0.0089502254817990963 0 -0.0042294918629970178 -0.0090286193978389561 0 -0.0013692338446187615 -0.013602766750491532 0 -0.0013185030894267348 -0.012260113289082731 0 -0.0043736113946150736 -0.0092291643099115476 0 -0.0046138673905024947 -0.0089244501738507485 0 -0.0043990094899462769 -0.0089502254817990963 0 0.0016055389118356503 -0.015837171936133168 0 0.0017137745239382822 -0.015881692160622112 0 0.0019169133077804024 -0.015842322301965091 0 0.0020295037310096233 -0.015816331892672474 0 0.0019169133077804024 -0.015842322301965091 0 0.0019690010226371089 -0.015844809872003526 0 0.0034254031277479611 -0.022513944543049624 0 0.0042549152957996996 -0.021509035826788741 0 0.0017137745239382822 -0.015881692160622112 0 0.0019169133077804024 -0.015842322301965091 0 0.0019690010226371089 -0.015844809872003526 0 -0.0019231600632650166 -0.012447846405395235 0 -0.0013185030894267348 -0.012260113289082731 0 -0.0046138673905024947 -0.0089244501738507485 0 -0.0044591638681590771 -0.0087570280169525609 0 -0.0045781805930140886 -0.0085460736187634376 0 -0.0046138673905024947 -0.0089244501738507485 0 -0.0044591638681590771 -0.0087570280169525609 0 -0.0043990094899462769 -0.0089502254817990963 0 -0.0043990094899462769 -0.0089502254817990963 0 -0.0042294918629970178 -0.0090286193978389561 0 -0.0042673499984666957 -0.0088373670274462038 0 -0.0044591638681590771 -0.0087570280169525609 0 -0.0043990094899462769 -0.0089502254817990963 0 -0.0042673499984666957 -0.0088373670274462038 0 -0.0044591638681590771 -0.0087570280169525609 0 -0.0043480044355261541 -0.0085750934331698288 0 -0.0045781805930140886 -0.0085460736187634376 0 -0.0043480044355261541 -0.0085750934331698288 0 -0.0045781805930140886 -0.0085460736187634376 0 -0.0045736834504780709 -0.0081716618243602036 0 -0.0044591638681590771 -0.0087570280169525609 0 -0.0043480044355261541 -0.0085750934331698288 0 -0.0042673499984666957 -0.0088373670274462038 0 -0.0047901909290438251 -0.0086242204123493389 0 -0.0046138673905024947 -0.0089244501738507485 0 -0.0045781805930140886 -0.0085460736187634376 0 -0.0047901909290438251 -0.0086242204123493389 0 -0.0045781805930140886 -0.0085460736187634376 0 -0.0046518361094119018 -0.0083836440680091755 0 -0.00361086920833172 -0.0090923230113814004 0 -0.0040044495920861893 -0.0091547500730579309 0 -0.0038630917389327435 -0.008956055039815617 0 -0.0036672717324653411 -0.0088300388001522848 0 -0.0038630917389327435 -0.008956055039815617 0 -0.0039608966206404602 -0.0087413802164161402 0 -0.0038630917389327435 -0.008956055039815617 0 -0.0040639668834613046 -0.0089558540689643959 0 -0.0039608966206404602 -0.0087413802164161402 0 -0.00361086920833172 -0.0090923230113814004 0 -0.0036672717324653411 -0.0088300388001522848 0 -0.0038630917389327435 -0.008956055039815617 0 -0.0040044495920861893 -0.0091547500730579309 0 -0.0038630917389327435 -0.008956055039815617 0 -0.0040639668834613046 -0.0089558540689643959 0 -0.0040044495920861893 -0.0091547500730579309 0 -0.0040639668834613046 -0.0089558540689643959 0 -0.0042294918629970178 -0.0090286193978389561 0 -0.0040639668834613046 -0.0089558540689643959 0 -0.0042673499984666957 -0.0088373670274462038 0 -0.0039608966206404602 -0.0087413802164161402 0 -0.0040639668834613046 -0.0089558540689643959 0 -0.0042294918629970178 -0.0090286193978389561 0 -0.0042673499984666957 -0.0088373670274462038 0 -0.0043480044355261541 -0.0085750934331698288 0 -0.0042673499984666957 -0.0088373670274462038 0 -0.0039608966206404602 -0.0087413802164161402 0 -0.0043480044355261541 -0.0085750934331698288 0 -0.0039608966206404602 -0.0087413802164161402 0 -0.0040428900984719922 -0.0083497290454686447 0 -0.0036437150300507632 -0.0085507815363414959 0 -0.0039608966206404602 -0.0087413802164161402 0 -0.0040428900984719922 -0.0083497290454686447 0 -0.0044909317409934776 -0.0083144415686759142 0 -0.0044922352669908268 -0.0082380491215053517 0 -0.0036437150300507632 -0.0085507815363414959 0 -0.0036672717324653411 -0.0088300388001522848 0 -0.0039608966206404602 -0.0087413802164161402 0 -0.0052220794531211449 -0.0081994056143182819 0 -0.0051304133289662903 -0.0081734021986195823 0 -0.0049860549927113239 -0.0080719701129048638 0 -0.0051304133289662903 -0.0081734021986195823 0 -0.0049860549927113239 -0.0080719701129048638 0 -0.0049531402122295403 -0.0082258023834662058 0 -0.0051304133289662903 -0.0081734021986195823 0 -0.0051667337075482203 -0.0082180857500013908 0 -0.0052370763494042419 -0.0082304362746131871 0 -0.0049860549927113239 -0.0080719701129048638 0 -0.0049531402122295403 -0.0082258023834662058 0 -0.0045736834504780709 -0.0081716618243602036 0 -0.0043480044355261541 -0.0085750934331698288 0 -0.0040428900984719922 -0.0083497290454686447 0 -0.0045736834504780709 -0.0081716618243602036 0 -0.0044922352669908268 -0.0082380491215053517 0 -0.0045681170947642754 -0.0081752349547926477 0 -0.0051304133289662903 -0.0081734021986195823 0 -0.0049531402122295403 -0.0082258023834662058 0 -0.0051667337075482203 -0.0082180857500013908 0 -0.0051667337075482203 -0.0082180857500013908 0 -0.0050882674004898284 -0.0082520216310108894 0 -0.0052575455220965307 -0.0082206540075277224 0 -0.0049531402122295403 -0.0082258023834662058 0 -0.0051667337075482203 -0.0082180857500013908 0 -0.0050882674004898284 -0.0082520216310108894 0 -0.0045781805930140886 -0.0085460736187634376 0 -0.0045736834504780709 -0.0081716618243602036 0 -0.0046518361094119018 -0.0083836440680091755 0 -0.0045736834504780709 -0.0081716618243602036 0 -0.0045100691385171459 -0.0081663750948713712 0 -0.0046518361094119018 -0.0083836440680091755 0 -0.0045736834504780709 -0.0081716618243602036 0 -0.0045100691385171459 -0.0081663750948713712 0 -0.0047196905202072422 -0.0083121529265648714 0 -0.0049531402122295403 -0.0082258023834662058 0 -0.0045736834504780709 -0.0081716618243602036 0 -0.0047196905202072422 -0.0083121529265648714 0 -0.0044780280796223289 -0.0081732854828922043 0 -0.0039508120596724317 -0.0076339509251384108 0 -0.0045100691385171459 -0.0081663750948713712 0 -0.0040941304961079443 -0.0071583188380951977 0 -0.0032060452300806245 -0.0071266680721054718 0 -0.0045100691385171459 -0.0081663750948713712 0 -0.0040941304961079443 -0.0071583188380951977 0 -0.0045898679314205571 -0.0073991438707135771 0 -0.0040941304961079443 -0.0071583188380951977 0 -0.0045707416676180421 -0.006815965202666298 0 -0.0045898679314205571 -0.0073991438707135771 0 -0.0040941304961079443 -0.0071583188380951977 0 -0.0032060452300806245 -0.0071266680721054718 0 -0.0038072445925523557 -0.0063829060064179753 0 -0.0032060452300806245 -0.0071266680721054718 0 -0.0020607676396163593 -0.0058552846904509001 0 -0.0030925277938152634 -0.0057746664749552057 0 -0.0032060452300806245 -0.0071266680721054718 0 -0.0038072445925523557 -0.0063829060064179753 0 -0.0030925277938152634 -0.0057746664749552057 0 -0.0038072445925523557 -0.0063829060064179753 0 -0.0042876555857200233 -0.0058389805493691853 0 -0.0045707416676180421 -0.006815965202666298 0 -0.0040941304961079443 -0.0071583188380951977 0 -0.0038072445925523557 -0.0063829060064179753 0 -0.0045707416676180421 -0.006815965202666298 0 -0.0049531402122295403 -0.0082258023834662058 0 -0.0047196905202072422 -0.0083121529265648714 0 -0.0050882674004898284 -0.0082520216310108894 0 -0.0047196905202072422 -0.0083121529265648714 0 -0.0050882674004898284 -0.0082520216310108894 0 -0.0050073970378255537 -0.0083318818692114487 0 -0.0039508120596724317 -0.0076339509251384108 0 -0.0035591176628236047 -0.0074362486832558368 0 -0.0050882674004898284 -0.0082520216310108894 0 -0.0051673184972262321 -0.0082544055392210856 0 -0.0050073970378255537 -0.0083318818692114487 0 -0.0050882674004898284 -0.0082520216310108894 0 -0.0051673184972262321 -0.0082544055392210856 0 -0.005280604710435211 -0.0081964691063389095 0 -0.0051673184972262321 -0.0082544055392210856 0 -0.0051762056392799368 -0.0084121276815228418 0 -0.0050073970378255537 -0.0083318818692114487 0 -0.0033717429923468449 -0.0046807266636483408 0 -0.0035591176628236047 -0.0074362486832558368 0 -0.0028415730479471862 -0.00019435354298401333 0 -0.002293927805897203 -0.00028319020994582473 0 -0.0026388877239314477 -0.00060816639699213073 0 -0.001023469818259685 -0.0046639339422196906 0 -0.0022020215670048387 -0.0043904976650590956 0 -0.0020607676396163593 -0.0058552846904509001 0 -0.0033717429923468449 -0.0046807266636483408 0 -0.0026989770314490894 -0.0022436363689235773 0 -0.0022020215670048387 -0.0043904976650590956 0 -0.0020607676396163593 -0.0058552846904509001 0 -0.0027537005345379889 -0.0050475012491581622 0 -0.0020607676396163593 -0.0058552846904509001 0 -0.0030925277938152634 -0.0057746664749552057 0 -0.0027537005345379889 -0.0050475012491581622 0 -0.0038072445925523557 -0.0063829060064179753 0 -0.0030925277938152634 -0.0057746664749552057 0 -0.0036370790437556945 -0.0055481102135514371 0 -0.0030925277938152634 -0.0057746664749552057 0 -0.0032860104744011614 -0.0051122680458240135 0 -0.0036370790437556945 -0.0055481102135514371 0 -0.0030925277938152634 -0.0057746664749552057 0 -0.0032860104744011614 -0.0051122680458240135 0 -0.0027537005345379889 -0.0050475012491581622 0 -0.00054419176523046295 -0.0048325385510854923 0 0.001378214610353946 -0.002827779999922253 0 -0.0042876555857200233 -0.0058389805493691853 0 -0.0036370790437556945 -0.0055481102135514371 0 -0.0037761344126446927 -0.004848581888207794 0 0.0036248161111045937 -0.0034193661924681296 0 0.002960911459477029 -0.004609043859987034 0 0.0045571738841974248 -0.0032584883102320171 0 0.001378214610353946 -0.002827779999922253 0 0.0074350057974667105 0.0009991068919689588 0 -0.0038072445925523557 -0.0063829060064179753 0 -0.0042876555857200233 -0.0058389805493691853 0 -0.0036370790437556945 -0.0055481102135514371 0 -0.0032860104744011614 -0.0051122680458240135 0 -0.0036370790437556945 -0.0055481102135514371 0 -0.0037761344126446927 -0.004848581888207794 0 0.0072576516652829428 0.0017836976325080679 0 0.00678253434577654 0.00089784245289366033 0 0.0081369059976324244 0.0015342224558104118 0 0.00678253434577654 0.00089784245289366033 0 0.0081280729432891604 0.00066643161413129182 0 0.0081369059976324244 0.0015342224558104118 0 0.001378214610353946 -0.002827779999922253 0 -0.0038638594025577305 -0.0054984046591749023 0 0.001378214610353946 -0.002827779999922253 0 0.0011798249178111972 -0.00047378451510744166 0 -0.0022020215670048387 -0.0043904976650590956 0 -0.0031813060671348945 -0.0043511323467616513 0 -0.0033090750893614547 -0.004146321306109626 0 -0.0022020215670048387 -0.0043904976650590956 0 -0.0027537005345379889 -0.0050475012491581622 0 -0.0031813060671348945 -0.0043511323467616513 0 -0.0026989770314490894 -0.0022436363689235773 0 0.0011798249178111972 -0.00047378451510744166 0 -0.0032860104744011614 -0.0051122680458240135 0 -0.0027537005345379889 -0.0050475012491581622 0 -0.0031813060671348945 -0.0043511323467616513 0 -0.0032860104744011614 -0.0051122680458240135 0 -0.0037761344126446927 -0.004848581888207794 0 -0.0031813060671348945 -0.0043511323467616513 0 -0.0034322400602547678 -0.0046441422856069716 0 -0.0031813060671348945 -0.0043511323467616513 0 -0.0033090750893614547 -0.004146321306109626 0 -6.330518309668269e-05 3.2139790347740668e-05 0 0.0020364449023922908 -0.00091863587229334943 0 -0.002293927805897203 -0.00028319020994582473 0 -0.001752440455945444 -0.00038708261629242862 0 -0.0018177001014577322 -0.00049954976737652101 0 0.0051841941222369268 0.001796731701824928 0 0.0049377720397038548 0.0013261103357386323 0 0.0058832554219857237 0.00071864924609598628 0 0.0011798249178111972 -0.00047378451510744166 0 -6.330518309668269e-05 3.2139790347740668e-05 0 0.0011798249178111972 -0.00047378451510744166 0 0.0084744957716080226 0.00097370764766011942 0 0.0051841941222369268 0.001796731701824928 0 0.0058832554219857237 0.00071864924609598628 0 0.0071597160126292622 0.0013753214432029764 0 0.0049377720397038548 0.0013261103357386323 0 0.0058832554219857237 0.00071864924609598628 0 0.0053569832654897969 -0.00025371010535405283 0 0.0058832554219857237 0.00071864924609598628 0 0.0068029877011696518 0.00033363528183744687 0 0.0071597160126292622 0.0013753214432029764 0 0.0020364449023922908 -0.00091863587229334943 0 0.0022651659223002548 0.0015911605486684278 0 0.0061285023622910202 -0.00062830372022299721 0 0.0053569832654897969 -0.00025371010535405283 0 0.0057430100763753043 -0.0017769672564062378 0 0.0058832554219857237 0.00071864924609598628 0 0.0068029877011696518 0.00033363528183744687 0 0.0063596748181910696 -0.00011459980217298058 0 0.0063596748181910696 -0.00011459980217298058 0 0.0066849532859509699 -0.00074180301210251764 0 0.0070083020671314264 -0.00024001044233294827 0 0.0068029877011696518 0.00033363528183744687 0 0.0063596748181910696 -0.00011459980217298058 0 0.0070083020671314264 -0.00024001044233294827 0 0.0058832554219857237 0.00071864924609598628 0 0.0063596748181910696 -0.00011459980217298058 0 0.0053569832654897969 -0.00025371010535405283 0 0.0063596748181910696 -0.00011459980217298058 0 0.0061285023622910202 -0.00062830372022299721 0 0.0053569832654897969 -0.00025371010535405283 0 0.0066849532859509699 -0.00074180301210251764 0 0.0074100633158531793 -0.00080694234161749053 0 0.0066239855564431691 -0.0013857897255496019 0 0.0063596748181910696 -0.00011459980217298058 0 0.0061285023622910202 -0.00062830372022299721 0 0.0066849532859509699 -0.00074180301210251764 0 0.0066849532859509699 -0.00074180301210251764 0 0.0063022784734602577 -0.0012185405654619261 0 0.0066239855564431691 -0.0013857897255496019 0 0.0061285023622910202 -0.00062830372022299721 0 0.0066849532859509699 -0.00074180301210251764 0 0.0063022784734602577 -0.0012185405654619261 0 -6.330518309668269e-05 3.2139790347740668e-05 0 -0.0026226966055659657 -0.0012884225475850478 0 -0.0016123342916625608 -0.00011344863253238749 0 -0.0014800408226130679 -0.00070737176424517782 0 -0.0021060759402734279 -0.0010768601147410379 0 -0.0018177001014577322 -0.00049954976737652101 0 -0.002268060015629595 -0.00067970361897427161 0 -0.0021060759402734279 -0.0010768601147410379 0 -0.0014800408226130679 -0.00070737176424517782 0 -0.0021060759402734279 -0.0010768601147410379 0 -0.0013631507529319865 -0.0012479488297238745 0 -0.0024538779628243013 -0.00093427818015334437 0 -0.002268060015629595 -0.00067970361897427161 0 -0.0021060759402734279 -0.0010768601147410379 0 -0.0024538779628243013 -0.00093427818015334437 0 -0.0026388877239314477 -0.00060816639699213073 0 -0.002268060015629595 -0.00067970361897427161 0 -0.0024538779628243013 -0.00093427818015334437 0 -0.0028291942745808743 -0.0010615141805379192 0 -0.0026388877239314477 -0.00060816639699213073 0 -0.0024538779628243013 -0.00093427818015334437 0 -0.0028291942745808743 -0.0010615141805379192 0 -0.0023983667182592688 -0.0012522590401629094 0 -0.002293927805897203 -0.00028319020994582473 0 -0.0018177001014577322 -0.00049954976737652101 0 -0.002268060015629595 -0.00067970361897427161 0 -0.002293927805897203 -0.00028319020994582473 0 -0.0026388877239314477 -0.00060816639699213073 0 -0.002268060015629595 -0.00067970361897427161 0 0.010589849399142856 0.0003947479628313068 0 0.010087813938551723 0.001090146122462526 0 0.0094080726039694629 0.00049521854090770758 0 0.010511165262472737 0.00041225337553770018 0 0.00906450001931078 0.00071636042006410598 0 0.010589849399142856 0.0003947479628313068 0 0.010087813938551723 0.001090146122462526 0 0.010919800745259918 0.0011569372476358405 0 0.011454198488589064 0.00050342917174312342 0 0.011960182968276549 0.0012386157081382089 0 0.012264085876726068 0.0002061515176569844 0 0.011454198488589064 0.00050342917174312342 0 0.010919800745259918 0.0011569372476358405 0 0.011960182968276549 0.0012386157081382089 0 0.010589849399142856 0.0003947479628313068 0 0.011454198488589064 0.00050342917174312342 0 0.010919800745259918 0.0011569372476358405 0 0.011454198488589064 0.00050342917174312342 0 0.011263450373278807 -0.00063132100005562099 0 0.012264085876726068 0.0002061515176569844 0 0.010589849399142856 0.0003947479628313068 0 0.011454198488589064 0.00050342917174312342 0 0.011263450373278807 -0.00063132100005562099 0 0.012006180016725296 -0.00024805855080063893 0 0.0098198865924501427 2.5414045992355114e-05 0 0.010589849399142856 0.0003947479628313068 0 0.011263450373278807 -0.00063132100005562099 0 0.0091936225028424329 -0.00067648394082184629 0 0.010589849399142856 0.0003947479628313068 0 0.0091936225028424329 -0.00067648394082184629 0 0.0091089070966317905 -0.00015674690071214602 0 0.0098198865924501427 2.5414045992355114e-05 0 0.0081344048987230105 2.9765021490080586e-05 0 0.0091834733268561421 -0.00086106806698882203 0 0.0091089070966317905 -0.00015674690071214602 0 0.0082691000020941353 -0.00060322978990026515 0 0.0098198865924501427 2.5414045992355114e-05 0 0.0095726788709230466 -0.00026958674991330869 0 0.0091089070966317905 -0.00015674690071214602 0 0.0082691000020941353 -0.00060322978990026515 0 0.0084273299673274706 0.00011918721015989483 0 0.0091089070966317905 -0.00015674690071214602 0 0.0084273299673274706 0.00011918721015989483 0 0.0090540396040282786 0.00088059477474793405 0 0.0081344048987230105 2.9765021490080586e-05 0 0.0078146868889197741 0.0013000158744280925 0 0.0074100633158531793 -0.00080694234161749053 0 0.0078232597076632882 -0.00082233435405079484 0 0.0076010595844984066 -6.8118078650212862e-05 0 0.0074100633158531793 -0.00080694234161749053 0 0.0078247033278025201 -0.00082677722492883121 0 0.0066239855564431691 -0.0013857897255496019 0 0.0066849532859509699 -0.00074180301210251764 0 0.0074100633158531793 -0.00080694234161749053 0 0.0070083020671314264 -0.00024001044233294827 0 0.0078651733978845843 -9.512055465734475e-05 0 0.0081344048987230105 2.9765021490080586e-05 0 0.0078232597076632882 -0.00082233435405079484 0 0.0082691000020941353 -0.00060322978990026515 0 0.0076010595844984066 -6.8118078650212862e-05 0 0.0091834733268561421 -0.00086106806698882203 0 0.0078314420782547543 -0.0008149202932094525 0 0.0082691000020941353 -0.00060322978990026515 0 0.0081344048987230105 2.9765021490080586e-05 0 0.0080206488171573644 -0.00017584416451521464 0 0.0082691000020941353 -0.00060322978990026515 0 0.0084273299673274706 0.00011918721015989483 0 0.0076010595844984066 -6.8118078650212862e-05 0 0.0068029877011696518 0.00033363528183744687 0 0.0076010595844984066 -6.8118078650212862e-05 0 0.0070083020671314264 -0.00024001044233294827 0 0.0074100633158531793 -0.00080694234161749053 0 0.0076010595844984066 -6.8118078650212862e-05 0 0.0070083020671314264 -0.00024001044233294827 0 0.0084273299673274706 0.00011918721015989483 0 0.0071597160126292622 0.0013753214432029764 0 0.0090540396040282786 0.00088059477474793405 0 0.0084744957716080226 0.00097370764766011942 0 0.00906450001931078 0.00071636042006410598 0 0.0081280729432891604 0.00066643161413129182 0 0.0094080726039694629 0.00049521854090770758 0 0.0092103741530862784 0.0015755477542881632 0 0.0068029877011696518 0.00033363528183744687 0 0.0076010595844984066 -6.8118078650212862e-05 0 0.0071597160126292622 0.0013753214432029764 0 0.0084273299673274706 0.00011918721015989483 0 0.0076010595844984066 -6.8118078650212862e-05 0 0.0071597160126292622 0.0013753214432029764 0 0.010589849399142856 0.0003947479628313068 0 0.0091089070966317905 -0.00015674690071214602 0 0.0090540396040282786 0.00088059477474793405 0 0.010087813938551723 0.001090146122462526 0 0.0094080726039694629 0.00049521854090770758 0 0.0092103741530862784 0.0015755477542881632 0 0.0092103741530862784 0.0015755477542881632 0 0.0096337139517856073 0.0024747656498392921 0 0.010262097565226523 0.0018779509696687186 0 0.010087813938551723 0.001090146122462526 0 0.0092103741530862784 0.0015755477542881632 0 0.010262097565226523 0.0018779509696687186 0 0.0081280729432891604 0.00066643161413129182 0 0.0092103741530862784 0.0015755477542881632 0 0.0081369059976324244 0.0015342224558104118 0 0.0072576516652829428 0.0017836976325080679 0 0.0081369059976324244 0.0015342224558104118 0 0.0086758841615443248 0.0029650198745269098 0 0.0092103741530862784 0.0015755477542881632 0 0.0081369059976324244 0.0015342224558104118 0 0.0086758841615443248 0.0029650198745269098 0 0.0092103741530862784 0.0015755477542881632 0 0.0096337139517856073 0.0024747656498392921 0 0.0086758841615443248 0.0029650198745269098 0 0.010262097565226523 0.0018779509696687186 0 0.011098242640410217 0.0019602687428655978 0 0.010485261918475725 0.0029594648322319641 0 0.0096337139517856073 0.0024747656498392921 0 0.010262097565226523 0.0018779509696687186 0 0.010485261918475725 0.0029594648322319641 0 0.010262097565226523 0.0018779509696687186 0 0.010919800745259918 0.0011569372476358405 0 0.011098242640410217 0.0019602687428655978 0 0.010087813938551723 0.001090146122462526 0 0.010262097565226523 0.0018779509696687186 0 0.010919800745259918 0.0011569372476358405 0 0.010919800745259918 0.0011569372476358405 0 0.011098242640410217 0.0019602687428655978 0 0.011960182968276549 0.0012386157081382089 0 0.011098242640410217 0.0019602687428655978 0 0.011960182968276549 0.0012386157081382089 0 0.012349418864201898 0.002077130727436944 0 0.011098242640410217 0.0019602687428655978 0 0.011634053685610646 0.0025919204080996536 0 0.010485261918475725 0.0029594648322319641 0 0.011098242640410217 0.0019602687428655978 0 0.011634053685610646 0.0025919204080996536 0 0.012349418864201898 0.002077130727436944 0 0.011634053685610646 0.0025919204080996536 0 0.011285984224102494 0.0033537703002079807 0 0.011959436479217137 0.0036374733862178108 0 0.011634053685610646 0.0025919204080996536 0 0.011285984224102494 0.0033537703002079807 0 0.010485261918475725 0.0029594648322319641 0 0.011285984224102494 0.0033537703002079807 0 0.010485261918475725 0.0029594648322319641 0 0.01106086793436609 0.0042263531591797627 0 0.011285984224102494 0.0033537703002079807 0 0.01106086793436609 0.0042263531591797627 0 0.011959436479217137 0.0036374733862178108 0 0.010485261918475725 0.0029594648322319641 0 0.01106086793436609 0.0042263531591797627 0 0.0099659059573009891 0.0040414438142889432 0 0.0096337139517856073 0.0024747656498392921 0 0.010485261918475725 0.0029594648322319641 0 0.0099659059573009891 0.0040414438142889432 0 0.0085803026238186163 -0.0033920139072065821 0 0.0077626793279652346 -0.0093378826106823576 0 0.0099994322368223872 -0.00133243871675262 0 0.0085803026238186163 -0.0033920139072065821 0 0.0074513733923259216 -0.0088307091273132961 0 0.0082832010435304887 -0.0079316680695115278 0 0.0078029607845698208 -0.0080903695526696913 0 0.0083502011077808795 -0.0072373193617965821 0 0.0093117414743891409 -0.0070111938526187575 0 0.0082832010435304887 -0.0079316680695115278 0 0.0074513733923259216 -0.0088307091273132961 0 0.0073921578040055981 -0.0081754190022974623 0 0.0078029607845698208 -0.0080903695526696913 0 0.0083502011077808795 -0.0072373193617965821 0 0.0081415277108295749 -0.0075821096802961615 0 0.0075491612131563853 -0.0074270061240434117 0 0.0099994322368223872 -0.00133243871675262 0 0.010030447918130608 -0.0046021749221648858 0 0.0083502011077808795 -0.0072373193617965821 0 0.0081415277108295749 -0.0075821096802961615 0 0.0082832010435304887 -0.0079316680695115278 0 0.01106086793436609 0.0042263531591797627 0 0.011959436479217137 0.0036374733862178108 0 0.012135274351657352 0.0044011748959088132 0 -0.0042876555857200233 -0.0058389805493691853 0 -0.0045707416676180421 -0.006815965202666298 0 -0.0047573817068244833 -0.0068543259790338337 0 0.0036248161111045937 -0.0034193661924681296 0 0.0045571738841974248 -0.0032584883102320171 0 0.0042699340578191223 -0.0021940199540428796 0 -0.00054419176523046295 -0.0048325385510854923 0 0.0016630427089711769 -0.0065666337613208958 0 -0.00054352918959775336 -0.006883590327090976 0 0.0016630427089711769 -0.0065666337613208958 0 0.0074350057974667105 0.0009991068919689588 0 0.0085803026238186163 -0.0033920139072065821 0 0.0096337139517856073 0.0024747656498392921 0 0.0086758841615443248 0.0029650198745269098 0 0.0099659059573009891 0.0040414438142889432 0 0.0045571738841974248 -0.0032584883102320171 0 0.0042699340578191223 -0.0021940199540428796 0 0.0061734587384908845 -0.0018576201554334636 0 0.0016630427089711769 -0.0065666337613208958 0 0.0085803026238186163 -0.0033920139072065821 0 0.0061263708192785572 -0.0090661317253224426 0 0.0074513733923259216 -0.0088307091273132961 0 0.0066903471461160335 -0.0080767125724731121 0 0.0074513733923259216 -0.0088307091273132961 0 0.0066903471461160335 -0.0080767125724731121 0 0.0073921578040055981 -0.0081754190022974623 0 0.0016630427089711769 -0.0065666337613208958 0 0.00051550802544160859 -0.0081850951069640659 0 -0.0047341233138752346 -0.0068754962337610366 0 -0.0045898679314205571 -0.0073991438707135771 0 -0.005022507575168869 -0.0078717374013974242 0 -0.0045707416676180421 -0.006815965202666298 0 -0.0047341233138752346 -0.0068754962337610366 0 -0.0045898679314205571 -0.0073991438707135771 0 -0.0045100691385171459 -0.0081663750948713712 0 -0.005022507575168869 -0.0078717374013974242 0 -0.0048419886619940587 -0.0082750007108219822 0 -0.0045100691385171459 -0.0081663750948713712 0 -0.0045898679314205571 -0.0073991438707135771 0 -0.005022507575168869 -0.0078717374013974242 0 0.0066903471461160335 -0.0080767125724731121 0 0.0073921578040055981 -0.0081754190022974623 0 0.0072102124040875999 -0.0071388144901346293 0 0.00051550802544160859 -0.0081850951069640659 0 0.003003606788681403 -0.0086464038259491654 0 -0.0047901909290438251 -0.0086242204123493389 0 -0.0050809800729836501 -0.0083660413237990356 0 -0.0048419886619940587 -0.0082750007108219822 0 -0.005022507575168869 -0.0078717374013974242 0 -0.0050809800729836501 -0.0083660413237990356 0 -0.0048419886619940587 -0.0082750007108219822 0 -0.0047901909290438251 -0.0086242204123493389 0 -0.0048419886619940587 -0.0082750007108219822 0 -0.0046518361094119018 -0.0083836440680091755 0 -0.0045100691385171459 -0.0081663750948713712 0 -0.0048419886619940587 -0.0082750007108219822 0 -0.0046518361094119018 -0.0083836440680091755 0 0.0087946142775723341 -0.007984354232830752 0 0.0086608651475970529 -0.0082754034547324867 0 0.0085018266199242739 -0.0077357890506042611 0 0.0087946142775723341 -0.007984354232830752 0 0.0085018266199242739 -0.0077357890506042611 0 0.0089465364093526383 -0.0077566959291387001 0 0.0087946142775723341 -0.007984354232830752 0 0.0090664259682640084 -0.0081719952152061841 0 0.0089465364093526383 -0.0077566959291387001 0 0.0090664259682640084 -0.0081719952152061841 0 0.0089465364093526383 -0.0077566959291387001 0 0.009387951229096466 -0.0078599940565739473 0 0.0087946142775723341 -0.007984354232830752 0 0.0090664259682640084 -0.0081719952152061841 0 0.0086608651475970529 -0.0082754034547324867 0 0.0085037990427680333 -0.0082677727117606136 0 0.010030447918130608 -0.0046021749221648858 0 0.0081415277108295749 -0.0075821096802961615 0 0.0082834899392560425 -0.0079289210354145587 0 0.0075491612131563853 -0.0074270061240434117 0 0.0090664259682640084 -0.0081719952152061841 0 0.0086608651475970529 -0.0082754034547324867 0 0.0095375642109148742 -0.0088954242906385452 0 0.0082832010435304887 -0.0079316680695115278 0 0.0082834899392560425 -0.0079289210354145587 0 0.0080236768052709996 -0.0078402064119029516 0 0.0081415277108295749 -0.0075821096802961615 0 0.0082832010435304887 -0.0079316680695115278 0 0.0082834899392560425 -0.0079289210354145587 0 0.0082832010435304887 -0.0079316680695115278 0 0.0078029607845698208 -0.0080903695526696913 0 0.0080236768052709996 -0.0078402064119029516 0 0.0073921578040055981 -0.0081754190022974623 0 0.0072102124040875999 -0.0071388144901346293 0 0.0078541779426958731 -0.007719459691627217 0 0.0073921578040055981 -0.0081754190022974623 0 0.0078029607845698208 -0.0080903695526696913 0 0.0078541779426958731 -0.007719459691627217 0 0.0082834899392560425 -0.0079289210354145587 0 0.0080236768052709996 -0.0078402064119029516 0 0.0078162819667041018 -0.0075631425117914921 0 0.0085037990427680333 -0.0082677727117606136 0 0.0078444252789912523 -0.0075904805443168201 0 0.0078029607845698208 -0.0080903695526696913 0 0.0078541779426958731 -0.007719459691627217 0 0.0080236768052709996 -0.0078402064119029516 0 0.0086608651475970529 -0.0082754034547324867 0 0.0078162819667041018 -0.0075631425117914921 0 0.0085018266199242739 -0.0077357890506042611 0 0.0078541779426958731 -0.007719459691627217 0 0.0080236768052709996 -0.0078402064119029516 0 0.0078162819667041018 -0.0075631425117914921 0 0.0078162819667041018 -0.0075631425117914921 0 0.0081744069854641499 -0.0073511921772469865 0 0.0085018266199242739 -0.0077357890506042611 0 0.0078162819667041018 -0.0075631425117914921 0 0.0078552170735040425 -0.0073032924931139172 0 0.0081744069854641499 -0.0073511921772469865 0 0.0074113535792706634 -0.0073615244669552882 0 0.0078162819667041018 -0.0075631425117914921 0 0.0078552170735040425 -0.0073032924931139172 0 0.003003606788681403 -0.0086464038259491654 0 0.0081758964956924335 -0.0082384061869148466 0 0.0074113535792706634 -0.0073615244669552882 0 0.0078541779426958731 -0.007719459691627217 0 0.0078162819667041018 -0.0075631425117914921 0 0.0080512163689948294 -0.0069328288356955269 0 0.0074113535792706634 -0.0073615244669552882 0 0.0078552170735040425 -0.0073032924931139172 0 0.0080512163689948294 -0.0069328288356955269 0 0.0078552170735040425 -0.0073032924931139172 0 0.0081744069854641499 -0.0073511921772469865 0 0.0080512163689948294 -0.0069328288356955269 0 0.0081744069854641499 -0.0073511921772469865 0 0.0086494086785890833 -0.0072997700796540157 0 0.0086494086785890833 -0.0072997700796540157 0 0.0085018266199242739 -0.0077357890506042611 0 0.0089465364093526383 -0.0077566959291387001 0 0.0081744069854641499 -0.0073511921772469865 0 0.0086494086785890833 -0.0072997700796540157 0 0.0085018266199242739 -0.0077357890506042611 0 0.0086494086785890833 -0.0072997700796540157 0 0.0089465364093526383 -0.0077566959291387001 0 0.0092841086827743381 -0.0073299806055028465 0 0.0089465364093526383 -0.0077566959291387001 0 0.0092841086827743381 -0.0073299806055028465 0 0.009387951229096466 -0.0078599940565739473 0 0.0089155509201190742 -0.006586484384557582 0 0.0086494086785890833 -0.0072997700796540157 0 0.0092841086827743381 -0.0073299806055028465 0 0.0092841086827743381 -0.0073299806055028465 0 0.0099814830162280183 -0.0069768696096980214 0 0.009812247502814106 -0.0076132271916905655 0 0.0099814830162280183 -0.0069768696096980214 0 0.009812247502814106 -0.0076132271916905655 0 0.010305177513869709 -0.0075715543834830043 0 0.009812247502814106 -0.0076132271916905655 0 0.010144617573369203 -0.0079057057300615519 0 0.010305177513869709 -0.0075715543834830043 0 0.0092841086827743381 -0.0073299806055028465 0 0.009812247502814106 -0.0076132271916905655 0 0.009387951229096466 -0.0078599940565739473 0 0.009812247502814106 -0.0076132271916905655 0 0.009387951229096466 -0.0078599940565739473 0 0.0097936566000649452 -0.0081263236692224149 0 0.0090664259682640084 -0.0081719952152061841 0 0.009387951229096466 -0.0078599940565739473 0 0.0094074520463522139 -0.0082538318466673314 0 0.009387951229096466 -0.0078599940565739473 0 0.0097936566000649452 -0.0081263236692224149 0 0.0094074520463522139 -0.0082538318466673314 0 0.009812247502814106 -0.0076132271916905655 0 0.0097936566000649452 -0.0081263236692224149 0 0.010144617573369203 -0.0079057057300615519 0 0.010117863365552413 -0.0082038318638488275 0 0.0097936566000649452 -0.0081263236692224149 0 0.010144617573369203 -0.0079057057300615519 0 0.0097936566000649452 -0.0081263236692224149 0 0.0096911486413905068 -0.0084424346327339993 0 0.010026408974154261 -0.0084936542340326073 0 0.0096911486413905068 -0.0084424346327339993 0 0.010026408974154261 -0.0084936542340326073 0 0.0095375642109148742 -0.0088954242906385452 0 0.010117863365552413 -0.0082038318638488275 0 0.0097936566000649452 -0.0081263236692224149 0 0.010026408974154261 -0.0084936542340326073 0 0.011630025019015925 -0.007072201265509938 0 0.011594132674736354 -0.0051959452503185372 0 0.0090664259682640084 -0.0081719952152061841 0 0.0094074520463522139 -0.0082538318466673314 0 0.0095375642109148742 -0.0088954242906385452 0 0.0096911486413905068 -0.0084424346327339993 0 0.0094074520463522139 -0.0082538318466673314 0 0.0095375642109148742 -0.0088954242906385452 0 0.0097936566000649452 -0.0081263236692224149 0 0.0096911486413905068 -0.0084424346327339993 0 0.0094074520463522139 -0.0082538318466673314 0 0.015627369405778174 -0.0031847078585754193 0 0.014573095322927632 -0.0040677131839807852 0 0.015661239418366817 -0.0040112389060125084 0 0.012988013671066142 -0.0060438875270964008 0 0.011594132674736354 -0.0051959452503185372 0 0.010215928847314856 -0.0085832127910700183 0 0.010862912613391616 -0.0082664300132706398 0 0.010178033595425405 -0.0087826960851851398 0 0.010215928847314856 -0.0085832127910700183 0 0.010317820247200097 -0.0083337452395114732 0 0.010862912613391616 -0.0082664300132706398 0 0.010026408974154261 -0.0084936542340326073 0 0.010215928847314856 -0.0085832127910700183 0 0.010178033595425405 -0.0087826960851851398 0 0.010026408974154261 -0.0084936542340326073 0 0.010215928847314856 -0.0085832127910700183 0 0.010317820247200097 -0.0083337452395114732 0 0.010117863365552413 -0.0082038318638488275 0 0.010026408974154261 -0.0084936542340326073 0 0.010317820247200097 -0.0083337452395114732 0 0.010317820247200097 -0.0083337452395114732 0 0.010376691380888037 -0.0081248547104657461 0 0.010862912613391616 -0.0082664300132706398 0 0.010117863365552413 -0.0082038318638488275 0 0.010376691380888037 -0.0081248547104657461 0 0.010144617573369203 -0.0079057057300615519 0 0.010117863365552413 -0.0082038318638488275 0 0.010317820247200097 -0.0083337452395114732 0 0.010376691380888037 -0.0081248547104657461 0 0.010376691380888037 -0.0081248547104657461 0 0.010144617573369203 -0.0079057057300615519 0 0.010569948536228014 -0.0078768941562147744 0 0.010376691380888037 -0.0081248547104657461 0 0.010569948536228014 -0.0078768941562147744 0 0.010862912613391616 -0.0082664300132706398 0 0.010569948536228014 -0.0078768941562147744 0 0.010862912613391616 -0.0082664300132706398 0 0.010878934905314643 -0.0080173624819112194 0 0.010569948536228014 -0.0078768941562147744 0 0.010878934905314643 -0.0080173624819112194 0 0.011070066790321156 -0.0074376285609369314 0 0.010151718917711629 -0.009964123165534548 0 0.011979812084214217 -0.0092352083627925963 0 0.010998098241684606 -0.013332319691597348 0 0.010946531858625966 -0.013062252872181762 0 0.0094407327890373011 -0.012061322659602275 0 0.011439651300825792 -0.0077780382588317895 0 0.011979812084214217 -0.0092352083627925963 0 0.010284807532149966 -0.013780646830034464 0 0.011251666021037599 -0.013646627511469004 0 0.0098062166576555893 -0.012709602243516509 0 0.010933333885677247 -0.013725787838067787 0 0.011979812084214217 -0.0092352083627925963 0 0.010569948536228014 -0.0078768941562147744 0 0.010305177513869709 -0.0075715543834830043 0 0.011070066790321156 -0.0074376285609369314 0 0.0099814830162280183 -0.0069768696096980214 0 0.010305177513869709 -0.0075715543834830043 0 0.011070066790321156 -0.0074376285609369314 0 0.010144617573369203 -0.0079057057300615519 0 0.010569948536228014 -0.0078768941562147744 0 0.010305177513869709 -0.0075715543834830043 0 0.02062181779856178 -0.0069256127070014108 0 0.020564774242098089 -0.0069571958263989573 0 0.020550225018588442 -0.0069543747723199876 0 0.022499177412336237 -0.0037128314551151602 0 0.023007882986625254 -0.0035581569628442781 0 0.022296955340319526 -0.0032381690198326442 0 0.018154932769116117 -0.0054842406612459213 0 0.020337653156013321 -0.0028160144849689248 0 0.010878934905314643 -0.0080173624819112194 0 0.011828036125510234 -0.0074426174181010532 0 0.011224007630409693 -0.0071574690746669875 0 0.018154932769116117 -0.0054842406612459213 0 0.011979812084214217 -0.0092352083627925963 0 0.02183120823284659 -0.0049692308391469601 0 0.022499177412336237 -0.0037128314551151602 0 0.023007882986625254 -0.0035581569628442781 0 0.021736275796130699 -0.0057040719542058556 0 0.018154932769116117 -0.0054842406612459213 0 0.02183120823284659 -0.0049692308391469601 0 0.022089119576100522 -0.0038446987454102454 0 0.020967270158097344 -0.0039207440969931317 0 0.02183120823284659 -0.0049692308391469601 0 0.022499177412336237 -0.0037128314551151602 0 0.022089119576100522 -0.0038446987454102454 0 0.022089119576100522 -0.0038446987454102454 0 0.021446349556625124 -0.0032724593372759382 0 0.022297591769176815 -0.0031602885445781146 0 0.022499177412336237 -0.0037128314551151602 0 0.022089119576100522 -0.0038446987454102454 0 0.022296955340319526 -0.0032381690198326442 0 0.021149669569040606 -0.0032728671976711252 0 0.020337653156013321 -0.0028160144849689248 0 0.022089119576100522 -0.0038446987454102454 0 0.021446349556625124 -0.0032724593372759382 0 0.020967270158097344 -0.0039207440969931317 0 0.020337653156013321 -0.0028160144849689248 0 0.020373409667002407 -0.0015167896628202795 0 0.021446349556625124 -0.0032724593372759382 0 0.020967270158097344 -0.0039207440969931317 0 0.02091700213236514 -0.0026671259141332975 0 0.020273420597137375 -0.0017060440958483667 0 0.02019212870263248 -0.0018965420650635066 0 0.020377029237607053 -0.0018613919542946372 0 0.020354096709578738 -0.001821359557131863 0 0.020480503144058092 -0.0018296079268368588 0 0.02043266267507084 -0.0018195396049063624 0 0.020273420597137375 -0.0017060440958483667 0 0.020377029237607053 -0.0018613919542946372 0 0.020480503144058092 -0.0018296079268368588 0 0.020337653156013321 -0.0028160144849689248 0 0.020872411730002632 -0.0023411618057914371 0 0.021446349556625124 -0.0032724593372759382 0 0.022297591769176815 -0.0031602885445781146 0 0.02091700213236514 -0.0026671259141332975 0 0.020337653156013321 -0.0028160144849689248 0 0.018478897883535666 -0.0014109049620413695 0 0.017477956776959139 -0.0026173790350169763 0 0.016461829527443295 -0.0031585919424228634 0 0.01680072529184224 -0.0044984486426101781 0 0.015627369405778174 -0.0031847078585754193 0 0.016649174980465364 -0.0022323471432091845 0 0.016461829527443295 -0.0031585919424228634 0 0.010862912613391616 -0.0082664300132706398 0 0.010878934905314643 -0.0080173624819112194 0 0.011828036125510234 -0.0074426174181010532 0 0.012988013671066142 -0.0060438875270964008 0 0.018154932769116117 -0.0054842406612459213 0 0.016649174980465364 -0.0022323471432091845 0 0.017477956776959139 -0.0026173790350169763 0 0.016461829527443295 -0.0031585919424228634 0 0.015627369405778174 -0.0031847078585754193 0 0.016461829527443295 -0.0031585919424228634 0 0.015661239418366817 -0.0040112389060125084 0 0.016461829527443295 -0.0031585919424228634 0 0.01680072529184224 -0.0044984486426101781 0 0.015661239418366817 -0.0040112389060125084 0 0.020567102366284111 0.00098121742117168926 0 0.020802761467796103 0.00086087132829593994 0 0.020631782270923875 0.00074543715484446608 0 0.018478897883535666 -0.0014109049620413695 0 0.021047760985429109 -0.00029846262321456935 0 0.020567102366284111 0.00098121742117168926 0 0.020905851961947431 0.0010467787467995167 0 0.020802761467796103 0.00086087132829593994 0 0.020905851961947431 0.0010467787467995167 0 0.020802761467796103 0.00086087132829593994 0 0.021114886652591491 0.00088305343611438556 0 0.023664662984175466 0.0016677955088776739 0 0.023260758997119171 0.0013486566184576093 0 0.020802761467796103 0.00086087132829593994 0 0.020799698011202312 0.00065016845236188733 0 0.021114886652591491 0.00088305343611438556 0 0.020802761467796103 0.00086087132829593994 0 0.020799698011202312 0.00065016845236188733 0 0.020631782270923875 0.00074543715484446608 0 0.018478897883535666 -0.0014109049620413695 0 0.017440594347279525 0.00091418472596497787 0 0.016708563822450014 4.4387821430886546e-06 0 0.016447404001049184 -0.00070607748779985622 0 0.016073362715368505 -0.00044015584716772667 0 0.020567102366284111 0.00098121742117168926 0 0.020631782270923875 0.00074543715484446608 0 0.020453960457839513 0.00068159894136945065 0 0.020631782270923875 0.00074543715484446608 0 0.020561680891592941 0.0006130212011467973 0 0.020478585528352782 0.00066633821294911043 0 0.020799698011202312 0.00065016845236188733 0 0.020631782270923875 0.00074543715484446608 0 0.020561680891592941 0.0006130212011467973 0 0.020631782270923875 0.00074543715484446608 0 0.020478585528352782 0.00066633821294911043 0 0.020453960457839513 0.00068159894136945065 0 0.020561680891592941 0.0006130212011467973 0 0.020478585528352782 0.00066633821294911043 0 0.020410959599338245 0.00057630215393634154 0 0.017712163686451104 0.0007752173991571672 0 0.017440594347279525 0.00091418472596497787 0 0.017440594347279525 0.00091418472596497787 0 0.015710950819264081 0.0020480322420766864 0 0.020478585528352782 0.00066633821294911043 0 0.020452637490593509 0.00068410324403070204 0 0.020410959599338245 0.00057630215393634154 0 0.015649910473565291 0.0012870981940643423 0 0.015407742360322021 0.0014569296657078394 0 0.015590732848713705 0.001117894632774955 0 0.013290385295255034 0.003584413146843826 0 0.013152568949919365 0.0030297148773794904 0 0.013691838872674417 0.0028079551897602752 0 0.014338564876157853 0.0012129238629444866 0 0.015710950819264081 0.0020480322420766864 0 0.017440594347279525 0.00091418472596497787 0 0.014338564876157853 0.0012129238629444866 0 0.013290385295255034 0.003584413146843826 0 0.012802741293862963 0.003534139704740025 0 0.012759519149316138 0.003964239156171433 0 0.013290385295255034 0.003584413146843826 0 0.012802741293862963 0.003534139704740025 0 0.013152568949919365 0.0030297148773794904 0 0.012802741293862963 0.003534139704740025 0 0.013152568949919365 0.0030297148773794904 0 0.012495755590221889 0.003024231244331722 0 0.011634053685610646 0.0025919204080996536 0 0.012495755590221889 0.003024231244331722 0 0.011959436479217137 0.0036374733862178108 0 0.011959436479217137 0.0036374733862178108 0 0.01243044032805189 0.0036441295643691494 0 0.012306820494646212 0.003945670062904541 0 0.012495755590221889 0.003024231244331722 0 0.011959436479217137 0.0036374733862178108 0 0.01243044032805189 0.0036441295643691494 0 0.012802741293862963 0.003534139704740025 0 0.012495755590221889 0.003024231244331722 0 0.01243044032805189 0.0036441295643691494 0 0.012802741293862963 0.003534139704740025 0 0.01243044032805189 0.0036441295643691494 0 0.012759519149316138 0.003964239156171433 0 0.012306820494646212 0.003945670062904541 0 0.012481305148903957 0.004158294376210638 0 0.012135274351657352 0.0044011748959088132 0 0.01243044032805189 0.0036441295643691494 0 0.012306820494646212 0.003945670062904541 0 0.012759519149316138 0.003964239156171433 0 0.012661000895101181 -0.0022468326497417984 0 0.012395832228529571 -0.0020475097601504225 0 0.012377688433809085 -0.0022664515342585971 0 0.012306820494646212 0.003945670062904541 0 0.012481305148903957 0.004158294376210638 0 0.012759519149316138 0.003964239156171433 0 0.011512555600104796 -0.0016628957450811521 0 0.012691046022900363 -0.00010562018535768055 0 0.011959436479217137 0.0036374733862178108 0 0.012306820494646212 0.003945670062904541 0 0.012135274351657352 0.0044011748959088132 0 0.010026408974154261 -0.0084936542340326073 0 0.0095375642109148742 -0.0088954242906385452 0 0.010174004722754223 -0.0087730285555736674 0 0.010030447918130608 -0.0046021749221648858 0 0.011594132674736354 -0.0051959452503185372 0 0.011168726503696864 -0.004508779645088605 0 0.010853157724103578 -0.0042792140723194013 0 0.011459790212666843 -0.004169094058362118 0 0.012661000895101181 -0.0022468326497417984 0 0.012351955218207672 -0.0026231172003484374 0 0.012377688433809085 -0.0022664515342585971 0 0.011512555600104796 -0.0016628957450811521 0 0.011594132674736354 -0.0051959452503185372 0 0.011512555600104796 -0.0016628957450811521 0 0.010030447918130608 -0.0046021749221648858 0 0.012351955218207672 -0.0026231172003484374 0 0.012377688433809085 -0.0022664515342585971 0 0.012103291497941603 -0.0021064118815255694 0 0.014573095322927632 -0.0040677131839807852 0 0.015661239418366817 -0.0040112389060125084 0 0.0149828770869823 -0.0048606012324383671 0 0.018478897883535666 -0.0014109049620413695 0 0.014122392176777786 -0.0015616511909034162 0 0.016708563822450014 4.4387821430886546e-06 0 0.016073362715368505 -0.00044015584716772667 0 0.015918419990305209 -0.00014504636510082969 0 0.011594132674736354 -0.0051959452503185372 0 0.014122392176777786 -0.0015616511909034162 0 0.01680072529184224 -0.0044984486426101781 0 0.015661239418366817 -0.0040112389060125084 0 0.0149828770869823 -0.0048606012324383671 0 0.014338564876157853 0.0012129238629444866 0 0.014122392176777786 -0.0015616511909034162 0 0.014338564876157853 0.0012129238629444866 0 0.012691046022900363 -0.00010562018535768055 0 0.013891281133734699 0.00017729926629364689 0 0.014026467267244821 6.4036661923715243e-05 0 0.013948178840389021 4.8836194796678223e-05 0 0.012395832228529571 -0.0020475097601504225 0 0.012377688433809085 -0.0022664515342585971 0 0.012103291497941603 -0.0021064118815255694 0 0.012691046022900363 -0.00010562018535768055 0 0.014122392176777786 -0.0015616511909034162 0 0.021360735144476856 -0.00032781416478236928 0 0.021622762439952727 -0.0018655575978347159 0 0.022925687091826394 -0.00099239294937970911 0 0.021510925006118158 -0.0018590144801379103 0 0.021622762439952727 -0.0018655575978347159 0 0.020932816680768709 -0.0021554106909563221 0 0.021715213923370318 -0.0018704068899379742 0 0.021815875637542469 -0.0019438189886046681 0 0.021622762439952727 -0.0018655575978347159 0 0.020932816680768709 -0.0021554106909563221 0 0.020943250146579346 -0.0027636732625878936 0 0.020724236112116191 -0.0019195527869301321 0 0.020932816680768709 -0.0021554106909563221 0 0.02042648010395149 -0.0027372328302969146 0 0.020932816680768709 -0.0021554106909563221 0 0.020943250146579346 -0.0027636732625878936 0 0.02042648010395149 -0.0027372328302969146 0 0.021815875637542469 -0.0019438189886046681 0 0.022279826163270351 -0.00030709251405912477 0 0.021360735144476856 -0.00032781416478236928 0 0.022925687091826394 -0.00099239294937970911 0 0.02381779152946846 5.4872454412666626e-05 0 0.022925687091826394 -0.00099239294937970911 0 0.02381779152946846 5.4872454412666626e-05 0 0.024208730905444443 0.0001337137030087086 0 0.023150791502749308 -0.00012223423678042023 0 0.022279826163270351 -0.00030709251405912477 0 0.020220346362981867 -0.0030319380382553014 0 0.020080335794031158 -0.0029417938432305794 0 0.020224534119002199 -0.0027099166901510029 0 0.022279826163270351 -0.00030709251405912477 0 0.020670007716060833 -0.00094241647578181896 0 0.021422994909550647 0.0011129065689166784 0 0.021244579327000121 0.0010895676209098522 0 0.021272408975665423 0.0010764951884823894 0 0.020080335794031158 -0.0029417938432305794 0 0.02042648010395149 -0.0027372328302969146 0 0.019980999772122497 -0.0031197504476695387 0 0.020220346362981867 -0.0030319380382553014 0 0.020080335794031158 -0.0029417938432305794 0 0.02042648010395149 -0.0027372328302969146 0 0.020943250146579346 -0.0027636732625878936 0 0.020220346362981867 -0.0030319380382553014 0 0.02042648010395149 -0.0027372328302969146 0 0.019472307441638036 -0.0049988376554490222 0 0.017635640007443547 -0.0048962267784811225 0 0.019980999772122497 -0.0031197504476695387 0 0.019002668892036924 -0.0035674881666216264 0 0.020011142811420392 -0.0030243039953525485 0 0.020724236112116191 -0.0019195527869301321 0 0.02042648010395149 -0.0027372328302969146 0 0.019980999772122497 -0.0031197504476695387 0 0.019472307441638036 -0.0049988376554490222 0 0.019980999772122497 -0.0031197504476695387 0 0.020967270158097344 -0.0039207440969931317 0 0.019980999772122497 -0.0031197504476695387 0 0.020967270158097344 -0.0039207440969931317 0 0.02091700213236514 -0.0026671259141332975 0 0.020080335794031158 -0.0029417938432305794 0 0.019980999772122497 -0.0031197504476695387 0 0.02091700213236514 -0.0026671259141332975 0 0.020080335794031158 -0.0029417938432305794 0 0.020224534119002199 -0.0027099166901510029 0 0.02091700213236514 -0.0026671259141332975 0 0.020480503144058092 -0.0018296079268368588 0 0.020527508894188605 -0.0018226431536702405 0 0.02043266267507084 -0.0018195396049063624 0 0.020670007716060833 -0.00094241647578181896 0 0.020872411730002632 -0.0023411618057914371 0 0.020905851961947431 0.0010467787467995167 0 0.021243807734190524 0.0010911568825420208 0 0.021114886652591491 0.00088305343611438556 0 0.021047760985429109 -0.00029846262321456935 0 0.020670007716060833 -0.00094241647578181896 0 0.020377029237607053 -0.0018613919542946372 0 0.020480503144058092 -0.0018296079268368588 0 0.020527508894188605 -0.0018226431536702405 0 0.021243807734190524 0.0010911568825420208 0 0.021114886652591491 0.00088305343611438556 0 0.021272408975665423 0.0010764951884823894 0 0.025332313684487816 0.0016034452054402978 0 0.025350731704805288 0.0025802863745587202 0 0.024313054578599211 0.0015251977230509659 0 0.025756446595965637 0.002600334326393203 0 0.025332313684487816 0.0016034452054402978 0 0.025350731704805288 0.0025802863745587202 0 0.024529002055502062 0.0030277603321504634 0 0.024924474037783678 0.0032387621816679282 0 0.024313054578599211 0.0015251977230509659 0 0.02309255606115565 0.0017681540742159089 0 0.024970021430597827 0.0032200383917262571 0 0.025350731704805288 0.0025802863745587202 0 0.024313054578599211 0.0015251977230509659 0 0.024970021430597827 0.0032200383917262571 0 0.025936688257577587 0.004387761211579428 0 0.025670687742969506 0.0035827290530445455 0 0.024970021430597827 0.0032200383917262571 0 0.02381779152946846 5.4872454412666626e-05 0 0.024197737846375366 0.00017228909704022005 0 0.024313054578599211 0.0015251977230509659 0 0.022279826163270351 -0.00030709251405912477 0 0.023260758997119171 0.0013486566184576093 0 0.02381779152946846 5.4872454412666626e-05 0 0.024313054578599211 0.0015251977230509659 0 0.02309255606115565 0.0017681540742159089 0 0.024197737846375366 0.00017228909704022005 0 0.025332313684487816 0.0016034452054402978 0 0.024313054578599211 0.0015251977230509659 0 0.021422994909550647 0.0011129065689166784 0 0.021114886652591491 0.00088305343611438556 0 0.021272408975665423 0.0010764951884823894 0 0.020670007716060833 -0.00094241647578181896 0 0.0206628887256416 -0.00087230852982292373 0 0.021360735144476856 -0.00032781416478236928 0 0.02381779152946846 5.4872454412666626e-05 0 0.02309255606115565 0.0017681540742159089 0 0.025936688257577587 0.004387761211579428 0 0.02640017191097474 0.0041722446857958154 0 0.026094577267124532 0.0037338889187843649 0 0.025936688257577587 0.004387761211579428 0 0.025670687742969506 0.0035827290530445455 0 0.026094577267124532 0.0037338889187843649 0 0.025936688257577587 0.004387761211579428 0 0.02640017191097474 0.0041722446857958154 0 0.026615322749401552 0.0043885504876010921 0 0.02640017191097474 0.0041722446857958154 0 0.026540794328021602 0.0039022827309877074 0 0.026094577267124532 0.0037338889187843649 0 0.026754068300519723 0.0041931601791932883 0 0.026540794328021602 0.0039022827309877074 0 0.026911776403985264 0.0039299434615765938 0 0.02640017191097474 0.0041722446857958154 0 0.026754068300519723 0.0041931601791932883 0 0.026540794328021602 0.0039022827309877074 0 0.02640017191097474 0.0041722446857958154 0 0.026754068300519723 0.0041931601791932883 0 0.026615322749401552 0.0043885504876010921 0 0.024082673314309421 0.0022075822388986496 0 0.024529002055502062 0.0030277603321504634 0 0.026761238915173149 0.0046865447966859923 0 0.025936688257577587 0.004387761211579428 0 0.026615322749401552 0.0043885504876010921 0 0.026391189131934979 0.0068864670739632091 0 0.026493761557796022 0.0071258364150638027 0 0.025982964401787028 0.0072057448950220001 0 0.02646484008120319 0.0069078323578777873 0 0.027376782786491652 0.0058384182781281036 0 0.026391189131934979 0.0068864670739632091 0 0.026493761557796022 0.0071258364150638027 0 0.026845272994966512 0.0070310473771452268 0 0.026493761557796022 0.0071258364150638027 0 0.025982964401787028 0.0072057448950220001 0 0.026743789367182417 0.0073855747672445541 0 0.026543569608290036 0.0069525087994438085 0 0.026857360315985027 0.0065629038614198835 0 0.027146728473502395 0.0071460629435555678 0 0.025652933249990222 0.0051530758169232877 0 0.02674798170297512 0.0048408072797569762 0 0.02644275160211117 0.0035241461935081632 0 0.025678013717936793 0.0030498919244087881 0 0.027020103131865581 0.0034906647253314161 0 0.026707495632901836 0.0037282262230580948 0 0.02644275160211117 0.0035241461935081632 0 0.027020103131865581 0.0034906647253314161 0 0.026540794328021602 0.0039022827309877074 0 0.026707495632901836 0.0037282262230580948 0 0.02644275160211117 0.0035241461935081632 0 0.026540794328021602 0.0039022827309877074 0 0.026707495632901836 0.0037282262230580948 0 0.026911776403985264 0.0039299434615765938 0 0.026540794328021602 0.0039022827309877074 0 0.02644275160211117 0.0035241461935081632 0 0.026094577267124532 0.0037338889187843649 0 0.02644275160211117 0.0035241461935081632 0 0.026094577267124532 0.0037338889187843649 0 0.025678013717936793 0.0030498919244087881 0 0.025670687742969506 0.0035827290530445455 0 0.026094577267124532 0.0037338889187843649 0 0.025678013717936793 0.0030498919244087881 0 0.026391189131934979 0.0068864670739632091 0 0.025982964401787028 0.0072057448950220001 0 0.025908585095410153 0.0067218100301852475 0 0.025982964401787028 0.0072057448950220001 0 0.025509313223417755 0.0067171321721615357 0 0.025908585095410153 0.0067218100301852475 0 0.025678013717936793 0.0030498919244087881 0 0.024970021430597827 0.0032200383917262571 0 0.025109800712280275 0.003225474281415805 0 0.025982964401787028 0.0072057448950220001 0 0.02503295958915211 0.0069804174015547175 0 0.025509313223417755 0.0067171321721615357 0 0.025652933249990222 0.0051530758169232877 0 0.026139397143155094 0.0054753220264354705 0 0.025670687742969506 0.0035827290530445455 0 0.025678013717936793 0.0030498919244087881 0 0.024970021430597827 0.0032200383917262571 0 0.024970021430597827 0.0032200383917262571 0 0.025109800712280275 0.003225474281415805 0 0.025473343095342056 0.0030442361445512278 0 0.025350731704805288 0.0025802863745587202 0 0.024970021430597827 0.0032200383917262571 0 0.025473343095342056 0.0030442361445512278 0 0.02503295958915211 0.0069804174015547175 0 0.024673993856613279 0.0063878179245598745 0 0.025291001129031432 0.0062733502422429848 0 0.02503295958915211 0.0069804174015547175 0 0.024673993856613279 0.0063878179245598745 0 0.023982411764852038 0.0066484134163760263 0 0.024673993856613279 0.0063878179245598745 0 0.025291001129031432 0.0062733502422429848 0 0.025101942076820365 0.005658366437470491 0 0.024673993856613279 0.0063878179245598745 0 0.024454083721337515 0.0057989723867804873 0 0.025101942076820365 0.005658366437470491 0 0.025291001129031432 0.0062733502422429848 0 0.02578060059294867 0.0056903606811744877 0 0.025101942076820365 0.005658366437470491 0 0.025291001129031432 0.0062733502422429848 0 0.025946476894321564 0.0062431923851149398 0 0.02578060059294867 0.0056903606811744877 0 0.025291001129031432 0.0062733502422429848 0 0.025509313223417755 0.0067171321721615357 0 0.025946476894321564 0.0062431923851149398 0 0.02503295958915211 0.0069804174015547175 0 0.025291001129031432 0.0062733502422429848 0 0.025509313223417755 0.0067171321721615357 0 0.025946476894321564 0.0062431923851149398 0 0.026588106721745604 0.0061000805367676623 0 0.026368463647157218 0.0065135485305356485 0 0.026543569608290036 0.0069525087994438085 0 0.025908585095410153 0.0067218100301852475 0 0.026368463647157218 0.0065135485305356485 0 0.02646484008120319 0.0069078323578777873 0 0.025975225155817905 0.0067468160683825445 0 0.025509313223417755 0.0067171321721615357 0 0.025908585095410153 0.0067218100301852475 0 0.025946476894321564 0.0062431923851149398 0 0.025908585095410153 0.0067218100301852475 0 0.025946476894321564 0.0062431923851149398 0 0.026368463647157218 0.0065135485305356485 0 0.025946476894321564 0.0062431923851149398 0 0.026588106721745604 0.0061000805367676623 0 0.026310579699586407 0.0056356520262050829 0 0.025946476894321564 0.0062431923851149398 0 0.026310579699586407 0.0056356520262050829 0 0.02578060059294867 0.0056903606811744877 0 0.026588106721745604 0.0061000805367676623 0 0.026748031384642802 0.0055042378004401208 0 0.026310579699586407 0.0056356520262050829 0 0.026588106721745604 0.0061000805367676623 0 0.026857360315985027 0.0065629038614198835 0 0.026368463647157218 0.0065135485305356485 0 0.026543569608290036 0.0069525087994438085 0 0.026857360315985027 0.0065629038614198835 0 0.026368463647157218 0.0065135485305356485 0 0.0133759748023114 0.0018017601862748203 0 0.01288830006564909 0.0011604476758139955 0 0.012349418864201898 0.002077130727436944 0 0.0133759748023114 0.0018017601862748203 0 0.013714841697332666 0.0012323972140478256 0 0.01288830006564909 0.0011604476758139955 0 0.0133759748023114 0.0018017601862748203 0 0.013714841697332666 0.0012323972140478256 0 0.014036078563051361 0.0017395803410246802 0 0.01288830006564909 0.0011604476758139955 0 0.011960182968276549 0.0012386157081382089 0 0.012349418864201898 0.002077130727436944 0 0.011634053685610646 0.0025919204080996536 0 0.012495755590221889 0.003024231244331722 0 0.012349418864201898 0.002077130727436944 0 0.012495755590221889 0.003024231244331722 0 0.012349418864201898 0.002077130727436944 0 0.013032655412655728 0.0024716128990613338 0 0.0133759748023114 0.0018017601862748203 0 0.012349418864201898 0.002077130727436944 0 0.013032655412655728 0.0024716128990613338 0 0.013152568949919365 0.0030297148773794904 0 0.012495755590221889 0.003024231244331722 0 0.013032655412655728 0.0024716128990613338 0 0.0133759748023114 0.0018017601862748203 0 0.013032655412655728 0.0024716128990613338 0 0.013691838872674417 0.0028079551897602752 0 0.013263877760915832 0.0020042871153902811 0 0.015710950819264081 0.0020480322420766864 0 0.013152568949919365 0.0030297148773794904 0 0.013032655412655728 0.0024716128990613338 0 0.013691838872674417 0.0028079551897602752 0 0.023664662984175466 0.0016677955088776739 0 0.020178758961955468 0.0023828974916327225 0 0.020799698011202312 0.00065016845236188733 0 0.020561680891592941 0.0006130212011467973 0 0.020491441735992207 0.00042811189811351868 0 0.0133759748023114 0.0018017601862748203 0 0.013825296743434778 0.0029873672143314101 0 0.014117140740781348 0.0023886561542269566 0 0.020561680891592941 0.0006130212011467973 0 0.020410959599338245 0.00057630215393634154 0 0.020491441735992207 0.00042811189811351868 0 0.015710950819264081 0.0020480322420766864 0 0.020178758961955468 0.0023828974916327225 0 0.025756446595965637 0.002600334326393203 0 0.025978406555008368 0.0029930523636528266 0 0.025473343095342056 0.0030442361445512278 0 0.025756446595965637 0.002600334326393203 0 0.025350731704805288 0.0025802863745587202 0 0.025473343095342056 0.0030442361445512278 0 0.025978406555008368 0.0029930523636528266 0 0.025473343095342056 0.0030442361445512278 0 0.025660186017944227 0.0034824487688691489 0 0.026139397143155094 0.0054753220264354705 0 0.020186838113700815 0.0031372904874435955 0 0.025109800712280275 0.003225474281415805 0 0.025473343095342056 0.0030442361445512278 0 0.025660186017944227 0.0034824487688691489 0 0.020178758961955468 0.0023828974916327225 0 0.020186838113700815 0.0031372904874435955 0 0.013714841697332666 0.0012323972140478256 0 0.014036078563051361 0.0017395803410246802 0 0.014879766288863595 0.00090712655172157637 0 0.014117140740781348 0.0023886561542269566 0 0.014036078563051361 0.0017395803410246802 0 0.014879766288863595 0.00090712655172157637 0 0.0133759748023114 0.0018017601862748203 0 0.014117140740781348 0.0023886561542269566 0 0.014036078563051361 0.0017395803410246802 0 0.014749157179877419 0.00097554566878103877 0 0.014318102277153419 0.00043828202644318837 0 0.013632520335050163 0.00076750826698993827 0 0.020186838113700815 0.0031372904874435955 0 0.012354240343667579 0.00020319157557843582 0 0.013714841697332666 0.0012323972140478256 0 0.014879766288863595 0.00090712655172157637 0 0.013478025060975387 0.00051374136987279283 0 0.024673993856613279 0.0063878179245598745 0 0.023982411764852038 0.0066484134163760263 0 0.024454083721337515 0.0057989723867804873 0 0.014749157179877419 0.00097554566878103877 0 0.014894112603352437 0.00033109084858087747 0 0.014318102277153419 0.00043828202644318837 0 0.020186838113700815 0.0031372904874435955 0 0.019518715842166114 0.0033191843264466889 0 0.015001044215323949 0.0002691868393997224 0 0.014894112603352437 0.00033109084858087747 0 0.015051613946741062 0.0005552161134270196 0 0.014749157179877419 0.00097554566878103877 0 0.015001044215323949 0.0002691868393997224 0 0.014894112603352437 0.00033109084858087747 0 0.014894112603352437 0.00033109084858087747 0 0.014318102277153419 0.00043828202644318837 0 0.014583047137670646 -3.7044575507050083e-05 0 0.014318102277153419 0.00043828202644318837 0 0.013073545096789645 -0.00044887498688899228 0 0.014583047137670646 -3.7044575507050083e-05 0 0.014318102277153419 0.00043828202644318837 0 0.013073545096789645 -0.00044887498688899228 0 0.013632520335050163 0.00076750826698993827 0 0.013073545096789645 -0.00044887498688899228 0 0.013632520335050163 0.00076750826698993827 0 0.012264085876726068 0.0002061515176569844 0 0.012354240343667579 0.00020319157557843582 0 0.012847302515170444 0.00040614698747932831 0 0.01288830006564909 0.0011604476758139955 0 0.013478025060975387 0.00051374136987279283 0 0.012264085876726068 0.0002061515176569844 0 0.013714841697332666 0.0012323972140478256 0 0.01288830006564909 0.0011604476758139955 0 0.013478025060975387 0.00051374136987279283 0 0.01288830006564909 0.0011604476758139955 0 0.011960182968276549 0.0012386157081382089 0 0.012264085876726068 0.0002061515176569844 0 0.012006180016725296 -0.00024805855080063893 0 0.013282070819311258 -0.00016286181033009899 0 0.011263450373278807 -0.00063132100005562099 0 0.013073545096789645 -0.00044887498688899228 0 0.012264085876726068 0.0002061515176569844 0 0.012543204185943846 0.00019580037824690007 0 0.013564483860287139 8.835658922242616e-05 0 0.01306352006273692 -0.0002336256301325473 0 0.013564483860287139 8.835658922242616e-05 0 0.013490410508049635 -0.00035211873670746956 0 0.01306352006273692 -0.0002336256301325473 0 0.013490410508049635 -0.00035211873670746956 0 0.01306352006273692 -0.0002336256301325473 0 0.013203466132389584 -0.00059884025886597955 0 0.01306352006273692 -0.0002336256301325473 0 0.013203466132389584 -0.00059884025886597955 0 0.012696377976412454 -0.00040799202025895096 0 0.013203466132389584 -0.00059884025886597955 0 0.012696377976412454 -0.00040799202025895096 0 0.012938094902976168 -0.00072094027512761773 0 0.013490410508049635 -0.00035211873670746956 0 0.013203466132389584 -0.00059884025886597955 0 0.013665742204625712 -0.00064333758128053923 0 0.013203466132389584 -0.00059884025886597955 0 0.013470802181041311 -0.00089635219866822109 0 0.013665742204625712 -0.00064333758128053923 0 0.013203466132389584 -0.00059884025886597955 0 0.013470802181041311 -0.00089635219866822109 0 0.01316919940306638 -0.00081097864623842807 0 0.013470802181041311 -0.00089635219866822109 0 0.01316919940306638 -0.00081097864623842807 0 0.013059097506230039 -0.0010268473393995438 0 0.01316919940306638 -0.00081097864623842807 0 0.013059097506230039 -0.0010268473393995438 0 0.012938094902976168 -0.00072094027512761773 0 0.013203466132389584 -0.00059884025886597955 0 0.01316919940306638 -0.00081097864623842807 0 0.012938094902976168 -0.00072094027512761773 0 0.013774539739722721 -0.00088707138430857988 0 0.013968612101517196 -0.00074300503665155736 0 0.013904888259640796 -0.0012735001991203488 0 0.013774539739722721 -0.00088707138430857988 0 0.013665742204625712 -0.00064333758128053923 0 0.013968612101517196 -0.00074300503665155736 0 0.013470802181041311 -0.00089635219866822109 0 0.013774539739722721 -0.00088707138430857988 0 0.013665742204625712 -0.00064333758128053923 0 0.013665742204625712 -0.00064333758128053923 0 0.013968612101517196 -0.00074300503665155736 0 0.01394786389858498 -0.00036657346405146964 0 0.013564483860287139 8.835658922242616e-05 0 0.01394786389858498 -0.00036657346405146964 0 0.014583047137670646 -3.7044575507050083e-05 0 0.013564483860287139 8.835658922242616e-05 0 0.013490410508049635 -0.00035211873670746956 0 0.01394786389858498 -0.00036657346405146964 0 0.013490410508049635 -0.00035211873670746956 0 0.013665742204625712 -0.00064333758128053923 0 0.01394786389858498 -0.00036657346405146964 0 0.013282070819311258 -0.00016286181033009899 0 0.014508370921937682 -6.8598299100474094e-05 0 0.01394786389858498 -0.00036657346405146964 0 0.014583047137670646 -3.7044575507050083e-05 0 0.01437521781550407 -0.00055168689871051878 0 0.014894112603352437 0.00033109084858087747 0 0.014583047137670646 -3.7044575507050083e-05 0 0.01437521781550407 -0.00055168689871051878 0 0.014940487686481813 0.00050328855426918617 0 0.014881397499498981 -0.00038241001117028547 0 0.014894112603352437 0.00033109084858087747 0 0.015051613946741062 0.0005552161134270196 0 0.015361065523587529 0.0006872351319199266 0 0.015080355629475692 0.00085895777814748323 0 0.014986849436939996 0.0011700819880836029 0 0.014716697964643925 0.0007994183276431988 0 0.015051613946741062 0.0005552161134270196 0 0.015080355629475692 0.00085895777814748323 0 0.014716697964643925 0.0007994183276431988 0 0.015051613946741062 0.0005552161134270196 0 0.015080355629475692 0.00085895777814748323 0 0.015361065523587529 0.0006872351319199266 0 0.015080355629475692 0.00085895777814748323 0 0.015299422031233722 0.0010872324754219365 0 0.014986849436939996 0.0011700819880836029 0 0.013968612101517196 -0.00074300503665155736 0 0.01437521781550407 -0.00055168689871051878 0 0.013904888259640796 -0.0012735001991203488 0 0.015361065523587529 0.0006872351319199266 0 0.015299422031233722 0.0010872324754219365 0 0.015685449759435047 0.0012934896973422752 0 0.014881397499498981 -0.00038241001117028547 0 0.014023084072402681 0.0023637719242506064 0 0.015080355629475692 0.00085895777814748323 0 0.015361065523587529 0.0006872351319199266 0 0.015299422031233722 0.0010872324754219365 0 0.013968612101517196 -0.00074300503665155736 0 0.01394786389858498 -0.00036657346405146964 0 0.01437521781550407 -0.00055168689871051878 0 0.015299422031233722 0.0010872324754219365 0 0.01529332298400916 0.001418113567905442 0 0.015685449759435047 0.0012934896973422752 0 0.014065035268270435 0.0064542041424882832 0 0.014295346942280171 0.0064779334785770104 0 0.014249961748369884 0.0063827753949001901 0 0.014916401952106651 0.003853260900473283 0 0.014023084072402681 0.0023637719242506064 0 0.01529332298400916 0.001418113567905442 0 0.014986849436939996 0.0011700819880836029 0 0.014932989173597264 0.0015495193625472499 0 0.015299422031233722 0.0010872324754219365 0 0.01529332298400916 0.001418113567905442 0 0.014986849436939996 0.0011700819880836029 0 0.014916401952106651 0.003853260900473283 0 0.014117150461891121 0.0064234044636203779 0 0.014706338053348452 0.0087009151560903351 0 0.014958404856750276 0.0093056265676073266 0 0.015958027659361242 0.0091712508046663706 0 0.014065035268270435 0.0064542041424882832 0 0.013875313505863041 0.0065229541261349307 0 0.014067222666912436 0.0066094809570810655 0 0.014117150461891121 0.0064234044636203779 0 0.013868595684915356 0.00977063398825854 0 0.014065035268270435 0.0064542041424882832 0 0.014067222666912436 0.0066094809570810655 0 0.014295346942280171 0.0064779334785770104 0 0.012701732892324053 0.011266585757701184 0 0.013568409949905698 0.010816735663421284 0 0.01326075018487682 0.011513866033391737 0 0.013868595684915356 0.00977063398825854 0 0.013823733883102299 0.0081823195261058624 0 0.013868595684915356 0.00977063398825854 0 0.013133386053861737 0.01123149637482412 0 0.013568409949905698 0.010816735663421284 0 0.013952287982761795 0.011561508996457193 0 0.01326075018487682 0.011513866033391737 0 0.013823733883102299 0.0081823195261058624 0 0.013914273664684177 0.01170300901178678 0 0.013063190468371524 0.010098650162726191 0 0.014004937681265229 0.010440820647091767 0 0.013633111595990795 0.011153072187766374 0 0.014004937681265229 0.010440820647091767 0 0.014241534016274425 0.0094875041064577479 0 0.015005597563965323 0.010762424043933598 0 0.013470802181041311 -0.00089635219866822109 0 0.013059097506230039 -0.0010268473393995438 0 0.013904888259640796 -0.0012735001991203488 0 0.013063190468371524 0.010098650162726191 0 0.014004937681265229 0.010440820647091767 0 0.014241534016274425 0.0094875041064577479 0 0.013308967368283782 0.0013961751927150671 0 0.014023084072402681 0.0023637719242506064 0 0.013913574358052546 0.0045196898447142642 0 0.013915776993647225 0.004452754150089752 0 0.013634093532317463 0.0045543523652496667 0 0.013823733883102299 0.0081823195261058624 0 0.01406535181973583 0.0070217435084453852 0 0.013682749532323931 0.0046530788370302851 0 0.013913574358052546 0.0045196898447142642 0 0.013634093532317463 0.0045543523652496667 0 0.013470802181041311 -0.00089635219866822109 0 0.013774539739722721 -0.00088707138430857988 0 0.013904888259640796 -0.0012735001991203488 0 0.013823733883102299 0.0081823195261058624 0 0.014023084072402681 0.0023637719242506064 0 0.026657672345022199 0.0048811251736689022 0 0.026546238546260027 0.0046417662377853559 0 0.027074737361814774 0.0048025365534981488 0 0.026657672345022199 0.0048811251736689022 0 0.026347759106532205 0.0048691660909191119 0 0.026584654461955261 0.0046195175152628914 0 0.026657672345022199 0.0048811251736689022 0 0.026584654461955261 0.0046195175152628914 0 0.026546238546260027 0.0046417662377853559 0 0.026657672345022199 0.0048811251736689022 0 0.026353159084275428 0.0051650041793894451 0 0.026347759106532205 0.0048691660909191119 0 0.026657672345022199 0.0048811251736689022 0 0.026748031384642802 0.0055042378004401208 0 0.026353159084275428 0.0051650041793894451 0 0.026657672345022199 0.0048811251736689022 0 0.026748031384642802 0.0055042378004401208 0 0.02722298230703946 0.0051473706768068355 0 0.026748031384642802 0.0055042378004401208 0 0.026353159084275428 0.0051650041793894451 0 0.026310579699586407 0.0056356520262050829 0 0.026353159084275428 0.0051650041793894451 0 0.026014244626185547 0.0053550495655249443 0 0.025984487197291781 0.0049997383898261437 0 0.026353159084275428 0.0051650041793894451 0 0.026310579699586407 0.0056356520262050829 0 0.026014244626185547 0.0053550495655249443 0 0.026310579699586407 0.0056356520262050829 0 0.02578060059294867 0.0056903606811744877 0 0.026014244626185547 0.0053550495655249443 0 0.02578060059294867 0.0056903606811744877 0 0.026014244626185547 0.0053550495655249443 0 0.025531806086227123 0.0052375588927688742 0 0.026014244626185547 0.0053550495655249443 0 0.025984487197291781 0.0049997383898261437 0 0.025531806086227123 0.0052375588927688742 0 0.026353159084275428 0.0051650041793894451 0 0.025984487197291781 0.0049997383898261437 0 0.026347759106532205 0.0048691660909191119 0 0.026347759106532205 0.0048691660909191119 0 0.025967714360222365 0.0046587173618499143 0 0.026584654461955261 0.0046195175152628914 0 0.025984487197291781 0.0049997383898261437 0 0.026347759106532205 0.0048691660909191119 0 0.025967714360222365 0.0046587173618499143 0 0.025967714360222365 0.0046587173618499143 0 0.025609920207503155 0.0047164791758825143 0 0.026022420957865125 0.0043519085740147279 0 0.025984487197291781 0.0049997383898261437 0 0.025967714360222365 0.0046587173618499143 0 0.025609920207503155 0.0047164791758825143 0 0.025609920207503155 0.0047164791758825143 0 0.024887588265889098 0.004971646044938491 0 0.025303663113362421 0.004072586467946007 0 0.025609920207503155 0.0047164791758825143 0 0.025531806086227123 0.0052375588927688742 0 0.024887588265889098 0.004971646044938491 0 0.020146244114957218 0.0024219345671397962 0 0.018124738521748673 0.0044436679877103641 0 0.025984487197291781 0.0049997383898261437 0 0.025609920207503155 0.0047164791758825143 0 0.025531806086227123 0.0052375588927688742 0 0.02578060059294867 0.0056903606811744877 0 0.025531806086227123 0.0052375588927688742 0 0.025101942076820365 0.005658366437470491 0 0.025531806086227123 0.0052375588927688742 0 0.025101942076820365 0.005658366437470491 0 0.024887588265889098 0.004971646044938491 0 0.019518715842166114 0.0033191843264466889 0 0.020146244114957218 0.0024219345671397962 0 0.015001044215323949 0.0002691868393997224 0 0.015051613946741062 0.0005552161134270196 0 0.014716697964643925 0.0007994183276431988 0 0.024454083721337515 0.0057989723867804873 0 0.025101942076820365 0.005658366437470491 0 0.024887588265889098 0.004971646044938491 0 0.014986849436939996 0.0011700819880836029 0 0.014716697964643925 0.0007994183276431988 0 0.014479416698924826 0.0013576349312561032 0 0.014986849436939996 0.0011700819880836029 0 0.014932989173597264 0.0015495193625472499 0 0.014479416698924826 0.0013576349312561032 0 0.014117150461891121 0.0064234044636203779 0 0.013519894870108044 0.0094989481390313144 0 0.014117150461891121 0.0064234044636203779 0 0.018124738521748673 0.0044436679877103641 0 0.014706338053348452 0.0087009151560903351 0 0.01334371648058711 0.0091318461500224067 0 0.014297430497584585 0.0094514853428465072 0 0.014788082841713217 0.0086342218571354521 0 0.01334371648058711 0.0091318461500224067 0 0.013352581685524291 0.0080742186572739585 0 0.014706338053348452 0.0087009151560903351 0 0.014958404856750276 0.0093056265676073266 0 0.014297430497584585 0.0094514853428465072 0 0.018124738521748673 0.0044436679877103641 0 0.014614194379007172 0.0093926035239603502 0 0.01334371648058711 0.0091318461500224067 0 0.013352581685524291 0.0080742186572739585 0 0.012584478070651261 0.0096603222598503381 0 0.025609920207503155 0.0047164791758825143 0 0.025303663113362421 0.004072586467946007 0 0.026022420957865125 0.0043519085740147279 0 0.018124738521748673 0.0044436679877103641 0 0.024684563386483706 0.0055324953486214599 0 0.027098898417142817 0.0047859712557378441 0 0.027035091310372995 0.0055538009109930182 0 0.02667489872062315 0.0050853517469953658 0 0.024684563386483706 0.0055324953486214599 0 0.02344002181489685 0.0059924517911422483 0 0.020536908046959859 0.0062374110522282755 0 0.019985866923653922 0.0060005370731583832 0 0.019817923419082891 0.0065987405000858578 0 0.025370120224235196 0.0045366137159071262 0 0.024684563386483706 0.0055324953486214599 0 0.024684563386483706 0.0055324953486214599 0 0.026534842489653428 0.0051848873437096822 0 0.025967714360222365 0.0046587173618499143 0 0.026067109249273242 0.0043387168194640993 0 0.026584654461955261 0.0046195175152628914 0 0.027098898417142817 0.0047859712557378441 0 0.02667489872062315 0.0050853517469953658 0 0.026584654461955261 0.0046195175152628914 0 0.020536908046959859 0.0062374110522282755 0 0.019817923419082891 0.0065987405000858578 0 0.020089790829840439 0.0071360184829661047 0 0.02344002181489685 0.0059924517911422483 0 0.022375823251828079 0.0073285042943510986 0 0.027035091310372995 0.0055538009109930182 0 0.026401569670993514 0.0057626300469937443 0 0.02667489872062315 0.0050853517469953658 0 0.027035091310372995 0.0055538009109930182 0 0.026401569670993514 0.0057626300469937443 0 0.026857656625924802 0.0064170306842812512 0 0.026401569670993514 0.0057626300469937443 0 0.026266033430969057 0.0052225945839597734 0 0.02667489872062315 0.0050853517469953658 0 0.026266033430969057 0.0052225945839597734 0 0.02667489872062315 0.0050853517469953658 0 0.026546238546260027 0.0046417662377853559 0 0.02667489872062315 0.0050853517469953658 0 0.026584654461955261 0.0046195175152628914 0 0.026546238546260027 0.0046417662377853559 0 0.02321261910901028 0.0075186489329783605 0 0.023232079845150532 0.0074875722041929564 0 0.023267914073808217 0.007501000580267262 0 0.017543509149594794 0.0090334848950976154 0 0.017510487517123328 0.0091691527718185447 0 0.01746147069394921 0.0089681341464831373 0 0.018393171500323879 0.0094386280801346551 0 0.018725140733886449 0.0097646910159510259 0 0.018171584802435716 0.010323911213683921 0 0.019867571380180849 0.0090561121720018449 0 0.020805116420232569 0.0082728973288122287 0 0.019867571380180849 0.0090561121720018449 0 0.015154713360155211 0.010913406516963474 0 0.019867571380180849 0.0090561121720018449 0 0.02020761184647717 0.0091078422077520531 0 0.02321261910901028 0.0075186489329783605 0 0.023218633997048346 0.0075218520731087811 0 0.023267914073808217 0.007501000580267262 0 0.023218633997048346 0.0075218520731087811 0 0.023249364106290773 0.0075278977043846248 0 0.023267914073808217 0.007501000580267262 0 0.023249364106290773 0.0075278977043846248 0 0.023191175720221231 0.0075737540711612109 0 0.023314578240071462 0.0075244292873124525 0 0.026401569670993514 0.0057626300469937443 0 0.026857656625924802 0.0064170306842812512 0 0.025758247836327207 0.006663200942944804 0 0.022375823251828079 0.0073285042943510986 0 0.025088759511117813 0.0070144078891836098 0 0.019867571380180849 0.0090561121720018449 0 0.022375823251828079 0.0073285042943510986 0 0.023218633997048346 0.0075218520731087811 0 0.023249364106290773 0.0075278977043846248 0 0.023191175720221231 0.0075737540711612109 0 0.023205682375728457 0.007513623435068199 0 0.023218633997048346 0.0075218520731087811 0 0.023191175720221231 0.0075737540711612109 0 0.019817923419082891 0.0065987405000858578 0 0.019663397712859305 0.0072022090466820708 0 0.020089790829840439 0.0071360184829661047 0 0.014614194379007172 0.0093926035239603502 0 0.015154713360155211 0.010913406516963474 0 0.017510487517123328 0.0091691527718185447 0 0.017336064874363386 0.009194544133852527 0 0.01746147069394921 0.0089681341464831373 0 0.022375823251828079 0.0073285042943510986 0 0.014614194379007172 0.0093926035239603502 0 0.010910077169385718 0.010043063803483155 0 0.0099732244119579948 0.012328240535191836 0 0.010406376631177255 0.012351201998686358 0 0.0099732244119579948 0.012328240535191836 0 0.010406376631177255 0.012351201998686358 0 0.010862560959460366 0.013101113122166662 0 0.010534661429586027 0.012307556068868351 0 0.011864080424368824 0.01165289822347941 0 0.011206269564334782 0.012091592077719085 0 0.010981647707144755 0.012597093889386905 0 0.01144030495298049 0.01284230373665185 0 0.010910077169385718 0.010043063803483155 0 0.010406376631177255 0.012351201998686358 0 0.01261840913516451 0.011215084302077023 0 0.010406376631177255 0.012351201998686358 0 0.011206269564334782 0.012091592077719085 0 0.010981647707144755 0.012597093889386905 0 0.014614194379007172 0.0093926035239603502 0 0.012943806132906389 0.0096653822334241326 0 0.01334371648058711 0.0091318461500224067 0 0.012584478070651261 0.0096603222598503381 0 0.014297430497584585 0.0094514853428465072 0 0.010910077169385718 0.010043063803483155 0 0.01261840913516451 0.011215084302077023 0 0.014297430497584585 0.0094514853428465072 0 0.01261840913516451 0.011215084302077023 0 0.014693580196059064 0.0099661204355511353 0 0.014297430497584585 0.0094514853428465072 0 0.011206269564334782 0.012091592077719085 0 0.011944209305873043 0.011711588932641811 0 0.011705298526230725 0.012200741373965387 0 0.011864080424368824 0.01165289822347941 0 0.013353796764458206 0.010866262936939151 0 0.014958404856750276 0.0093056265676073266 0 0.014693580196059064 0.0099661204355511353 0 0.014297430497584585 0.0094514853428465072 0 0.011944209305873043 0.011711588932641811 0 0.011705298526230725 0.012200741373965387 0 0.012179386856928294 0.012105735292921182 0 0.011206269564334782 0.012091592077719085 0 0.011705298526230725 0.012200741373965387 0 0.01144030495298049 0.01284230373665185 0 0.011705298526230725 0.012200741373965387 0 0.011917642801032292 0.012636070989013749 0 0.012179386856928294 0.012105735292921182 0 0.011705298526230725 0.012200741373965387 0 0.011917642801032292 0.012636070989013749 0 0.01144030495298049 0.01284230373665185 0 0.01144030495298049 0.01284230373665185 0 0.011405396272109946 0.013722955373181016 0 0.012069878494948975 0.013209773881851234 0 0.011917642801032292 0.012636070989013749 0 0.01144030495298049 0.01284230373665185 0 0.012069878494948975 0.013209773881851234 0 0.013657101765633122 0.012489171146586568 0 0.013352490347769422 0.012237119701046182 0 0.013745704261990932 0.012315882861580635 0 0.011405396272109946 0.013722955373181016 0 0.012069878494948975 0.013209773881851234 0 0.012110471379053033 0.013854001089810912 0 0.011405396272109946 0.013722955373181016 0 0.012110471379053033 0.013854001089810912 0 0.011994872135071733 0.01440768085244078 0 0.012485381793066569 0.013000361133434311 0 0.012849222643168385 0.014233552874270368 0 0.013925158463967177 0.012496746191978544 0 0.01419160423994216 0.012407057243421721 0 0.013745704261990932 0.012315882861580635 0 0.013657101765633122 0.012489171146586568 0 0.013925158463967177 0.012496746191978544 0 0.013992945115781372 0.012789995797466293 0 0.013925158463967177 0.012496746191978544 0 0.013992945115781372 0.012789995797466293 0 0.01419160423994216 0.012407057243421721 0 0.01265356126736842 0.01393206947355744 0 0.013483802973120745 0.013928783335663036 0 0.012485381793066569 0.013000361133434311 0 0.012159264477164731 0.012990219325879146 0 0.013657101765633122 0.012489171146586568 0 0.013925158463967177 0.012496746191978544 0 0.013745704261990932 0.012315882861580635 0 0.01144030495298049 0.01284230373665185 0 0.011405396272109946 0.013722955373181016 0 0.010862560959460366 0.013101113122166662 0 0.010981647707144755 0.012597093889386905 0 0.01144030495298049 0.01284230373665185 0 0.010862560959460366 0.013101113122166662 0 0.010406376631177255 0.012351201998686358 0 0.010981647707144755 0.012597093889386905 0 0.010862560959460366 0.013101113122166662 0 0.014354687855470786 0.013101611384424621 0 0.013992945115781372 0.012789995797466293 0 0.014687055784271702 0.012532659541816621 0 0.015154713360155211 0.010913406516963474 0 0.012159264477164731 0.012990219325879146 0 0.013992945115781372 0.012789995797466293 0 0.01419160423994216 0.012407057243421721 0 0.014687055784271702 0.012532659541816621 0 0.012659158081103114 0.015468213067404361 0 0.012453917482262947 0.015448547756669989 0 0.012475312269904552 0.015391066137109754 0 0.01265356126736842 0.01393206947355744 0 0.017879111848454747 0.012019694970585356 0 0.012659158081103114 0.015468213067404361 0 0.012453917482262947 0.015448547756669989 0 0.012498793460615196 0.015596008966092697 0 0.015755101094547603 0.014095539037419317 0 0.017879111848454747 0.012019694970585356 0 0.018725140733886449 0.0097646910159510259 0 0.017954033043437043 0.011213155053740338 0 0.018171584802435716 0.010323911213683921 0 0.015154713360155211 0.010913406516963474 0 0.017879111848454747 0.012019694970585356 0 0.017879111848454747 0.012019694970585356 0 0.020805116420232569 0.0082728973288122287 0 0.023222917560081095 0.00747265364725095 0 0.023232079845150532 0.0074875722041929564 0 0.023279338926958833 0.0074810328993882621 0 0.023232079845150532 0.0074875722041929564 0 0.023267914073808217 0.007501000580267262 0 0.023279338926958833 0.0074810328993882621 0 0.013556518451016599 0.012473416248407872 0 0.014314096566947772 0.012222431517098266 0 0.013655785495364146 0.011965738168782393 0 0.013556518451016599 0.012473416248407872 0 0.013655785495364146 0.011965738168782393 0 0.013153017376889993 0.012040042822297797 0 0.013556518451016599 0.012473416248407872 0 0.01296265245453037 0.012524295129905315 0 0.013299292437052126 0.013066310959976549 0 0.013556518451016599 0.012473416248407872 0 0.014314096566947772 0.012222431517098266 0 0.014058764194723999 0.013205959071359758 0 0.014199298564574388 0.012025212871048989 0 0.013914273664684177 0.01170300901178678 0 0.014314096566947772 0.012222431517098266 0 0.013952287982761795 0.011561508996457193 0 0.013655785495364146 0.011965738168782393 0 0.014314096566947772 0.012222431517098266 0 0.013633111595990795 0.011153072187766374 0 0.014485920136938514 0.011377842683744921 0 0.014004937681265229 0.010440820647091767 0 0.013633111595990795 0.011153072187766374 0 0.014485920136938514 0.011377842683744921 0 0.013952287982761795 0.011561508996457193 0 0.013655785495364146 0.011965738168782393 0 0.01326075018487682 0.011513866033391737 0 0.013655785495364146 0.011965738168782393 0 0.01326075018487682 0.011513866033391737 0 0.013153017376889993 0.012040042822297797 0 0.012706992883042738 0.011295246580383701 0 0.01326075018487682 0.011513866033391737 0 0.012851012507116354 0.011715934202492588 0 0.012706992883042738 0.011295246580383701 0 0.012851012507116354 0.011715934202492588 0 0.012466526925982435 0.01178331833662364 0 0.012851012507116354 0.011715934202492588 0 0.012466526925982435 0.01178331833662364 0 0.01265353964685564 0.012099845577998834 0 0.012851012507116354 0.011715934202492588 0 0.013153017376889993 0.012040042822297797 0 0.01265353964685564 0.012099845577998834 0 0.01326075018487682 0.011513866033391737 0 0.012851012507116354 0.011715934202492588 0 0.013153017376889993 0.012040042822297797 0 0.013868595684915356 0.00977063398825854 0 0.013353796764458206 0.010866262936939151 0 0.012706992883042738 0.011295246580383701 0 0.011944209305873043 0.011711588932641811 0 0.012466526925982435 0.01178331833662364 0 0.014958404856750276 0.0093056265676073266 0 0.015958027659361242 0.0091712508046663706 0 0.014693580196059064 0.0099661204355511353 0 0.012466526925982435 0.01178331833662364 0 0.012179386856928294 0.012105735292921182 0 0.01265353964685564 0.012099845577998834 0 0.011944209305873043 0.011711588932641811 0 0.012466526925982435 0.01178331833662364 0 0.012179386856928294 0.012105735292921182 0 0.012179386856928294 0.012105735292921182 0 0.012395825171195675 0.012570852985012875 0 0.01265353964685564 0.012099845577998834 0 0.011917642801032292 0.012636070989013749 0 0.012179386856928294 0.012105735292921182 0 0.012395825171195675 0.012570852985012875 0 0.013556518451016599 0.012473416248407872 0 0.013153017376889993 0.012040042822297797 0 0.01296265245453037 0.012524295129905315 0 0.013153017376889993 0.012040042822297797 0 0.01265353964685564 0.012099845577998834 0 0.01296265245453037 0.012524295129905315 0 0.012395825171195675 0.012570852985012875 0 0.01265353964685564 0.012099845577998834 0 0.01296265245453037 0.012524295129905315 0 0.012395825171195675 0.012570852985012875 0 0.01296265245453037 0.012524295129905315 0 0.012747971034654066 0.013003671427217846 0 0.012747971034654066 0.013003671427217846 0 0.013042595770202893 0.013545719815402993 0 0.012601800054086518 0.013740532158042482 0 0.01296265245453037 0.012524295129905315 0 0.012747971034654066 0.013003671427217846 0 0.013299292437052126 0.013066310959976549 0 0.012747971034654066 0.013003671427217846 0 0.013042595770202893 0.013545719815402993 0 0.013299292437052126 0.013066310959976549 0 0.012747971034654066 0.013003671427217846 0 0.012069878494948975 0.013209773881851234 0 0.012601800054086518 0.013740532158042482 0 0.012395825171195675 0.012570852985012875 0 0.012747971034654066 0.013003671427217846 0 0.012069878494948975 0.013209773881851234 0 0.011917642801032292 0.012636070989013749 0 0.012395825171195675 0.012570852985012875 0 0.012069878494948975 0.013209773881851234 0 0.012069878494948975 0.013209773881851234 0 0.012110471379053033 0.013854001089810912 0 0.012601800054086518 0.013740532158042482 0 0.012110471379053033 0.013854001089810912 0 0.012601800054086518 0.013740532158042482 0 0.012502814756194426 0.014195475935191071 0 0.013042595770202893 0.013545719815402993 0 0.013483893558815713 0.013720906201743094 0 0.013092945129478027 0.014219052877454241 0 0.013042595770202893 0.013545719815402993 0 0.012601800054086518 0.013740532158042482 0 0.013092945129478027 0.014219052877454241 0 0.012601800054086518 0.013740532158042482 0 0.013092945129478027 0.014219052877454241 0 0.012502814756194426 0.014195475935191071 0 0.013483893558815713 0.013720906201743094 0 0.014014787290246954 0.01426603278745507 0 0.013092945129478027 0.014219052877454241 0 0.013483893558815713 0.013720906201743094 0 0.014058764194723999 0.013205959071359758 0 0.014014787290246954 0.01426603278745507 0 0.013483893558815713 0.013720906201743094 0 0.013299292437052126 0.013066310959976549 0 0.014058764194723999 0.013205959071359758 0 0.013556518451016599 0.012473416248407872 0 0.013299292437052126 0.013066310959976549 0 0.014058764194723999 0.013205959071359758 0 0.013042595770202893 0.013545719815402993 0 0.013483893558815713 0.013720906201743094 0 0.013299292437052126 0.013066310959976549 0 0.014314096566947772 0.012222431517098266 0 0.014058764194723999 0.013205959071359758 0 0.014860804728945508 0.0128408354776015 0 0.014058764194723999 0.013205959071359758 0 0.014874691124990711 0.013767259664223524 0 0.014014787290246954 0.01426603278745507 0 0.014874691124990711 0.013767259664223524 0 0.015991287989021354 0.012983796814920141 0 0.015786540107132981 0.014317854294938303 0 0.011090715113692832 0.011848673847436455 0 0.010885599894523807 0.012918204371730961 0 0.014058764194723999 0.013205959071359758 0 0.014874691124990711 0.013767259664223524 0 0.014860804728945508 0.0128408354776015 0 0.014874691124990711 0.013767259664223524 0 0.015991287989021354 0.012983796814920141 0 0.014860804728945508 0.0128408354776015 0 0.014314096566947772 0.012222431517098266 0 0.014860804728945508 0.0128408354776015 0 0.015144005269864284 0.011968151022762517 0 0.015991287989021354 0.012983796814920141 0 0.015144005269864284 0.011968151022762517 0 0.016220156406972122 0.011485387154103653 0 0.011090715113692832 0.011848673847436455 0 0.01135956538299744 0.0097320886235117698 0 0.015991287989021354 0.012983796814920141 0 0.014860804728945508 0.0128408354776015 0 0.015144005269864284 0.011968151022762517 0 0.015144005269864284 0.011968151022762517 0 0.016220156406972122 0.011485387154103653 0 0.015005597563965323 0.010762424043933598 0 0.015144005269864284 0.011968151022762517 0 0.014485920136938514 0.011377842683744921 0 0.015005597563965323 0.010762424043933598 0 0.014314096566947772 0.012222431517098266 0 0.015144005269864284 0.011968151022762517 0 0.014485920136938514 0.011377842683744921 0 0.0032754027193589979 0.0047739504876541158 0 0.0034944896803955471 0.0076026000122129938 0 0.0084595727958035709 0.0076314887480011719 0 0.0075232951451952258 0.0085278711071106947 0 0.0080496307078283362 0.0096427999823174518 0 0.0084595727958035709 0.0076314887480011719 0 0.0075232951451952258 0.0085278711071106947 0 0.0076566846635066303 0.0069550105953782269 0 -0.0018397525738489324 0.0026468975398975863 0 -0.0018627704177604915 0.0027740988423776477 0 -0.0017276192239888276 0.0025038678348560843 0 0.0075232951451952258 0.0085278711071106947 0 0.0064902469942778413 0.0082767403406861801 0 0.0076566846635066303 0.0069550105953782269 0 0.0062028963846115183 0.010379942288699229 0 0.0064902469942778413 0.0082767403406861801 0 0.0073011074177643095 0.009737279079154908 0 0.0075232951451952258 0.0085278711071106947 0 0.0064902469942778413 0.0082767403406861801 0 0.0073011074177643095 0.009737279079154908 0 0.0075232951451952258 0.0085278711071106947 0 0.0073011074177643095 0.009737279079154908 0 0.0080496307078283362 0.0096427999823174518 0 0.0081014672596779573 0.0088920241847265328 0 0.0034944896803955471 0.0076026000122129938 0 -0.0018397525738489324 0.0026468975398975863 0 -0.0017276192239888276 0.0025038678348560843 0 -0.0018204041628466937 0.0025194898616152572 0 -0.0020584004231870385 0.0014916587864207752 0 -0.0020476833292509206 0.0062528904026784762 0 -0.00088642695382578078 0.0073396372747824862 0 -0.00030518136735790578 0.0077137323165474289 0 0.00046454055377850883 0.0072450811315383336 0 0.0034944896803955471 0.0076026000122129938 0 -0.0020476833292509206 0.0062528904026784762 0 0.008228637309884242 0.009659536081371942 0 0.00718682587488002 0.010891602523969346 0 0.0077666138175850035 0.011953584268181798 0 -0.00030518136735790578 0.0077137323165474289 0 7.4827092023660021e-05 0.0087104572569042804 0 0.00046454055377850883 0.0072450811315383336 0 0.0034944896803955471 0.0076026000122129938 0 0.0020830210360885705 0.010779578235671621 0 0.0037203669157270473 0.0086878668737699512 0 0.0043782303237708785 0.011137768028343589 0 0.0029647416772222591 0.011877948522480456 0 -0.00088642695382578078 0.0073396372747824862 0 7.4827092023660021e-05 0.0087104572569042804 0 -5.4239565291334291e-05 0.010537470985201971 0 0.0034944896803955471 0.0076026000122129938 0 0.0056838805378177648 0.011864453680887883 0 -0.00088642695382578078 0.0073396372747824862 0 -0.00030518136735790578 0.0077137323165474289 0 7.4827092023660021e-05 0.0087104572569042804 0 7.4827092023660021e-05 0.0087104572569042804 0 -5.4239565291334291e-05 0.010537470985201971 0 0.00090958839368721935 0.010213691569103926 0 0.0062028963846115183 0.010379942288699229 0 0.0073011074177643095 0.009737279079154908 0 0.00718682587488002 0.010891602523969346 0 0.0073011074177643095 0.009737279079154908 0 0.008228637309884242 0.009659536081371942 0 0.00718682587488002 0.010891602523969346 0 0.0062028963846115183 0.010379942288699229 0 0.00718682587488002 0.010891602523969346 0 0.0059538213285576427 0.012784548818085032 0 0.00718682587488002 0.010891602523969346 0 0.0077666138175850035 0.011953584268181798 0 0.0059538213285576427 0.012784548818085032 0 0.0020830210360885705 0.010779578235671621 0 0.001526564072756713 0.014126395373222246 0 0.0043782303237708785 0.011137768028343589 0 0.0041342851871191688 0.012424786045411749 0 0.0049962009669419086 0.013385144285762412 0 0.0043782303237708785 0.011137768028343589 0 0.0029647416772222591 0.011877948522480456 0 0.0041342851871191688 0.012424786045411749 0 -0.0036274678858750921 0.0096920863255170967 0 -0.0036892688122144731 0.0097291370376675155 0 -0.0036750195469001648 0.0098401826388497034 0 -0.0013065495751944974 0.010082464900976989 0 -0.0028755817733511751 0.013350627418307342 0 -5.4239565291334291e-05 0.010537470985201971 0 0.00077908735050322955 0.013546823249843269 0 0.001352964642338876 0.013213675796363194 0 -5.4239565291334291e-05 0.010537470985201971 0 0.00090958839368721935 0.010213691569103926 0 0.001352964642338876 0.013213675796363194 0 -0.0052501650860746242 0.013729574416448474 0 -0.0059932539472921627 0.014880588295766261 0 -0.0068326777312022833 0.014510693629138103 0 -0.0035935999197940875 0.0097359159206769907 0 -0.0036274678858750921 0.0096920863255170967 0 -0.0036750195469001648 0.0098401826388497034 0 -0.0048634377096955332 0.011612378962659911 0 -0.0028755817733511751 0.013350627418307342 0 -0.0035935999197940875 0.0097359159206769907 0 -0.0036274678858750921 0.0096920863255170967 0 -0.0035979806342686187 0.0096382513170759528 0 7.4827092023660021e-05 0.0087104572569042804 0 0.00090958839368721935 0.010213691569103926 0 0.00046454055377850883 0.0072450811315383336 0 -0.0013065495751944974 0.010082464900976989 0 -0.0020476833292509206 0.0062528904026784762 0 -0.0036274678858750921 0.0096920863255170967 0 -0.0036892688122144731 0.0097291370376675155 0 -0.0036883079641995666 0.009618495262506549 0 -0.0052501650860746242 0.013729574416448474 0 -0.004250619693336081 0.01372288852248991 0 -0.0043671431535293242 0.01380399716046992 0 -0.0052501650860746242 0.013729574416448474 0 -0.004250619693336081 0.01372288852248991 0 -0.0045620316461508258 0.014744037744347785 0 -0.0035935999197940875 0.0097359159206769907 0 -0.0035675192623105057 0.0096719837128513061 0 -0.0035979806342686187 0.0096382513170759528 0 -0.0048634377096955332 0.011612378962659911 0 -0.0039506273138761438 0.012065887583113602 0 -0.0033947272804861961 0.0023454346954215857 0 -0.0029297092480196911 0.0025245584826570021 0 -0.0034755873959507488 0.0030077224779779528 0 -0.0033947272804861961 0.0023454346954215857 0 -0.0029297092480196911 0.0025245584826570021 0 -0.0024816106287770812 0.0022771340952542208 0 -0.0032919955493891967 0.0055036382449782616 0 -0.003247546652795215 0.0059907476862541267 0 -0.0035675192623105057 0.0096719837128513061 0 -0.0035707630178922214 0.0096539220629903097 0 -0.0035979806342686187 0.0096382513170759528 0 -0.0029297092480196911 0.0025245584826570021 0 -0.0024816106287770812 0.0022771340952542208 0 -0.0024812540873363374 0.0025819300054662391 0 -0.0034178821575765669 0.0027643087348639766 0 -0.0025292620823391169 0.0025633787033338437 0 -0.0024812540873363374 0.0025819300054662391 0 -0.002444955529963566 0.0028098133524699941 0 -0.0027984725457465202 0.0027660092591342885 0 -0.0029297092480196911 0.0025245584826570021 0 -0.0034755873959507488 0.0030077224779779528 0 -0.0024812540873363374 0.0025819300054662391 0 -0.0032287089405364285 0.00233081090012932 0 -0.0024812540873363374 0.0025819300054662391 0 -0.0027984725457465202 0.0027660092591342885 0 -0.0032287089405364285 0.00233081090012932 0 -0.0031926869848193885 0.0026761224628447052 0 -0.0027984725457465202 0.0027660092591342885 0 -0.0021687926862949533 0.0025087597989055252 0 -0.0018919910500849867 0.002292908948224856 0 -0.0024816106287770812 0.0022771340952542208 0 -0.0020476833292509206 0.0062528904026784762 0 -0.003247546652795215 0.0059907476862541267 0 -0.0036274678858750921 0.0096920863255170967 0 -0.0036883079641995666 0.009618495262506549 0 -0.0035979806342686187 0.0096382513170759528 0 -0.0018397525738489324 0.0026468975398975863 0 -0.0021687926862949533 0.0025087597989055252 0 -0.0018919910500849867 0.002292908948224856 0 -0.0021687926862949533 0.0025087597989055252 0 -0.0024816106287770812 0.0022771340952542208 0 -0.0024812540873363374 0.0025819300054662391 0 -0.0021687926862949533 0.0025087597989055252 0 -0.0024812540873363374 0.0025819300054662391 0 -0.002154291310241474 0.0027195810090034937 0 -0.0024812540873363374 0.0025819300054662391 0 -0.002154291310241474 0.0027195810090034937 0 -0.002444955529963566 0.0028098133524699941 0 -0.0018397525738489324 0.0026468975398975863 0 -0.0021687926862949533 0.0025087597989055252 0 -0.002154291310241474 0.0027195810090034937 0 -0.0018397525738489324 0.0026468975398975863 0 -0.0018627704177604915 0.0027740988423776477 0 -0.002154291310241474 0.0027195810090034937 0 -0.0018627704177604915 0.0027740988423776477 0 -0.0022345368604623603 0.0029815332886559561 0 -0.0019676951320712387 0.0033178902172299029 0 -0.0018627704177604915 0.0027740988423776477 0 -0.002154291310241474 0.0027195810090034937 0 -0.0022345368604623603 0.0029815332886559561 0 0.0032754027193589979 0.0047739504876541158 0 0.0035628210272343579 0.0051049241566159601 0 -0.002154291310241474 0.0027195810090034937 0 -0.002444955529963566 0.0028098133524699941 0 -0.0022345368604623603 0.0029815332886559561 0 -0.002444955529963566 0.0028098133524699941 0 -0.0022345368604623603 0.0029815332886559561 0 -0.00257402911756349 0.0030403607292264372 0 -0.0022345368604623603 0.0029815332886559561 0 -0.0024002916684100198 0.0033442392445159341 0 -0.00257402911756349 0.0030403607292264372 0 -0.0022345368604623603 0.0029815332886559561 0 -0.0024002916684100198 0.0033442392445159341 0 -0.0019676951320712387 0.0033178902172299029 0 -0.0031926869848193885 0.0026761224628447052 0 -0.0031901945023471759 0.0029534231852201718 0 -0.0037131316718665413 0.0027035927274670401 0 -0.0032287089405364285 0.00233081090012932 0 -0.0031926869848193885 0.0026761224628447052 0 -0.0037131316718665413 0.0027035927274670401 0 -0.0031926869848193885 0.0026761224628447052 0 -0.0031901945023471759 0.0029534231852201718 0 -0.0027984725457465202 0.0027660092591342885 0 -0.0027984725457465202 0.0027660092591342885 0 -0.00257402911756349 0.0030403607292264372 0 -0.0028333837231928225 0.0032449179873614061 0 -0.0031901945023471759 0.0029534231852201718 0 -0.0027984725457465202 0.0027660092591342885 0 -0.0028333837231928225 0.0032449179873614061 0 -0.002444955529963566 0.0028098133524699941 0 -0.0027984725457465202 0.0027660092591342885 0 -0.00257402911756349 0.0030403607292264372 0 -0.0024002916684100198 0.0033442392445159341 0 -0.00257402911756349 0.0030403607292264372 0 -0.0028333837231928225 0.0032449179873614061 0 -0.0024002916684100198 0.0033442392445159341 0 -0.0028333837231928225 0.0032449179873614061 0 -0.0026865871470409734 0.0034600670656280666 0 -0.0031853150570703972 0.0032831971733718588 0 -0.003035388246485503 0.003625846343021192 0 -0.0036868724822530204 0.0033154953451542232 0 -0.0031901945023471759 0.0029534231852201718 0 -0.0031853150570703972 0.0032831971733718588 0 -0.0036868724822530204 0.0033154953451542232 0 -0.0031901945023471759 0.0029534231852201718 0 -0.0028333837231928225 0.0032449179873614061 0 -0.0031853150570703972 0.0032831971733718588 0 -0.0028333837231928225 0.0032449179873614061 0 -0.0031853150570703972 0.0032831971733718588 0 -0.003035388246485503 0.003625846343021192 0 -0.0040983340713234328 0.00097685660258956366 0 -0.0061020698143131168 0.002086680913368453 0 -0.0093169105955506516 6.9722844937945044e-05 0 -0.0081393898871986795 -0.00042443769699030532 0 -0.007814382288370272 0.00084847005085489358 0 -0.0040983340713234328 0.00097685660258956366 0 -0.002712844375437411 0.00094243934075261525 0 -0.0029743321311799706 0.0035251076013246667 0 -0.0026865871470409734 0.0034600670656280666 0 -0.0025345514227150942 0.003724890418726424 0 -0.0028333837231928225 0.0032449179873614061 0 -0.0029743321311799706 0.0035251076013246667 0 -0.0026865871470409734 0.0034600670656280666 0 -0.003302101558360207 0.0036492061587810819 0 -0.0040983340713234328 0.00097685660258956366 0 -0.0025273091101375481 -0.0017007933524834935 0 -0.0023983667182592688 -0.0012522590401629094 0 -0.0020125565769118243 -0.0015098198843128384 0 -0.0021060759402734279 -0.0010768601147410379 0 -0.0023983667182592688 -0.0012522590401629094 0 -0.0020125565769118243 -0.0015098198843128384 0 -0.0024538779628243013 -0.00093427818015334437 0 -0.0021060759402734279 -0.0010768601147410379 0 -0.0023983667182592688 -0.0012522590401629094 0 -0.0028291942745808743 -0.0010615141805379192 0 -0.0025273091101375481 -0.0017007933524834935 0 -0.0023983667182592688 -0.0012522590401629094 0 -0.0057746704840203689 -0.0015824298508552931 0 -0.0040983340713234328 0.00097685660258956366 0 -0.0084261458553413805 -0.0018103866931524191 0 -0.0093169105955506516 6.9722844937945044e-05 0 -0.0081393898871986795 -0.00042443769699030532 0 0.0035628210272343579 0.0051049241566159601 0 0.0022651659223002548 0.0015911605486684278 0 -0.0024002916684100198 0.0033442392445159341 0 -0.0019676951320712387 0.0033178902172299029 0 -0.0020874209878258281 0.0039081345093635251 0 0.0088329097457573152 0.0057515290346756894 0 0.0092143941660322078 0.0039463025282934112 0 0.0078216972450275146 0.0052784048928832634 0 -0.0024002916684100198 0.0033442392445159341 0 -0.0025345514227150942 0.003724890418726424 0 -0.0020874209878258281 0.0039081345093635251 0 -0.0024002916684100198 0.0033442392445159341 0 -0.0026865871470409734 0.0034600670656280666 0 -0.0025345514227150942 0.003724890418726424 0 -0.002712844375437411 0.00094243934075261525 0 0.0022651659223002548 0.0015911605486684278 0 -0.0021060759402734279 -0.0010768601147410379 0 -0.0020125565769118243 -0.0015098198843128384 0 -0.0013631507529319865 -0.0012479488297238745 0 0.0092143941660322078 0.0039463025282934112 0 0.0086614221648817508 0.0036810182985944589 0 0.0078027730157878014 0.004149577634978717 0 0.0061285023622910202 -0.00062830372022299721 0 0.0057430100763753043 -0.0017769672564062378 0 0.0063022784734602577 -0.0012185405654619261 0 0.0022651659223002548 0.0015911605486684278 0 0.0078146868889197741 0.0013000158744280925 0 0.0057430100763753043 -0.0017769672564062378 0 0.0063022784734602577 -0.0012185405654619261 0 0.0066070213780972898 -0.0013693178968714422 0 0.0076284322153819979 0.0010004306159906696 0 0.0078146868889197741 0.0013000158744280925 0 0.0078146868889197741 0.0013000158744280925 0 0.0080480960091120039 0.0031495530903564483 0 0.0089185166527048932 0.0021303480738320514 0 0.0085445638568740438 0.0019540965303857611 0 0.0089805302809613033 0.0017474328051295136 0 0.0092143941660322078 0.0039463025282934112 0 0.0078027730157878014 0.004149577634978717 0 0.0078216972450275146 0.0052784048928832634 0 0.0093429847618147436 0.0021106104781337498 0 0.0089185166527048932 0.0021303480738320514 0 0.0089805302809613033 0.0017474328051295136 0 0.0078027730157878014 0.004149577634978717 0 0.0078216972450275146 0.0052784048928832634 0 0.0069288224937167605 0.0046090387592192814 0 0.01652231509582178 0.0081962241203241328 0 0.01565132733509841 0.0086967620047663091 0 0.01639301897898714 0.0098503796227048697 0 0.0078216972450275146 0.0052784048928832634 0 0.0069288224937167605 0.0046090387592192814 0 0.00672377140836643 0.0064041659435051836 0 0.01161114811938505 0.0040424060895963183 0 0.011546501066972921 0.0086658354994188086 0 0.0114817970163357 0.00027487107564488217 0 0.011566580723143243 -0.00043222449237642754 0 0.011920906551758245 -0.00010359851278927395 0 0.0093429847618147436 0.0021106104781337498 0 0.0089805302809613033 0.0017474328051295136 0 0.0094112264544979583 0.0015465852428692311 0 0.0098198865924501427 2.5414045992355114e-05 0 0.01161114811938505 0.0040424060895963183 0 0.0080480960091120039 0.0031495530903564483 0 0.01161114811938505 0.0040424060895963183 0 0.012543204185943846 0.00019580037824690007 0 0.0114817970163357 0.00027487107564488217 0 0.011920906551758245 -0.00010359851278927395 0 0.012543204185943846 0.00019580037824690007 0 0.011920906551758245 -0.00010359851278927395 0 0.012270274150178699 -0.00023811427201276766 0 0.012270274150178699 -0.00023811427201276766 0 0.011946341082064516 -0.00040696373747838114 0 0.012342222812869581 -0.00050011977526347152 0 0.011920906551758245 -0.00010359851278927395 0 0.012270274150178699 -0.00023811427201276766 0 0.011946341082064516 -0.00040696373747838114 0 0.011566580723143243 -0.00043222449237642754 0 0.011920906551758245 -0.00010359851278927395 0 0.011946341082064516 -0.00040696373747838114 0 0.012543204185943846 0.00019580037824690007 0 0.012270274150178699 -0.00023811427201276766 0 0.012696377976412454 -0.00040799202025895096 0 0.012543204185943846 0.00019580037824690007 0 0.01306352006273692 -0.0002336256301325473 0 0.012696377976412454 -0.00040799202025895096 0 0.012270274150178699 -0.00023811427201276766 0 0.012696377976412454 -0.00040799202025895096 0 0.012342222812869581 -0.00050011977526347152 0 0.013915776993647225 0.004452754150089752 0 0.014207297702872894 0.0043485979033947072 0 0.014150300854948806 0.0043816118813498643 0 0.013308967368283782 0.0013961751927150671 0 0.014152945865262546 0.0038475653384101825 0 0.013059097506230039 -0.0010268473393995438 0 0.012637828622890365 -0.00067760581880155733 0 0.012143815402472535 -0.00073379798444152483 0 0.012696377976412454 -0.00040799202025895096 0 0.012637828622890365 -0.00067760581880155733 0 0.012938094902976168 -0.00072094027512761773 0 0.012696377976412454 -0.00040799202025895096 0 0.012637828622890365 -0.00067760581880155733 0 0.012342222812869581 -0.00050011977526347152 0 0.013059097506230039 -0.0010268473393995438 0 0.012637828622890365 -0.00067760581880155733 0 0.012938094902976168 -0.00072094027512761773 0 0.011566580723143243 -0.00043222449237642754 0 0.011946341082064516 -0.00040696373747838114 0 0.012143815402472535 -0.00073379798444152483 0 0.01161114811938505 0.0040424060895963183 0 0.014152945865262546 0.0038475653384101825 0 0.011946341082064516 -0.00040696373747838114 0 0.012342222812869581 -0.00050011977526347152 0 0.012143815402472535 -0.00073379798444152483 0 0.012637828622890365 -0.00067760581880155733 0 0.012342222812869581 -0.00050011977526347152 0 0.012143815402472535 -0.00073379798444152483 0 0.014152945865262546 0.0038475653384101825 0 0.01433027834182358 0.0056303149980871338 0 0.015377783123448854 0.0088544897870555059 0 0.015443910138125627 0.0099190107125300981 0 0.01639301897898714 0.0098503796227048697 0 0.01565132733509841 0.0086967620047663091 0 0.015377783123448854 0.0088544897870555059 0 0.01639301897898714 0.0098503796227048697 0 0.014241534016274425 0.0094875041064577479 0 0.015377783123448854 0.0088544897870555059 0 0.015443910138125627 0.0099190107125300981 0 0.01406535181973583 0.0070217435084453852 0 0.01433027834182358 0.0056303149980871338 0 0.013913574358052546 0.0045196898447142642 0 0.013915776993647225 0.004452754150089752 0 0.014150300854948806 0.0043816118813498643 0 0.014004937681265229 0.010440820647091767 0 0.014485920136938514 0.011377842683744921 0 0.015005597563965323 0.010762424043933598 0 0.014241534016274425 0.0094875041064577479 0 0.015443910138125627 0.0099190107125300981 0 0.015005597563965323 0.010762424043933598 0 0.016220156406972122 0.011485387154103653 0 0.015443910138125627 0.0099190107125300981 0 0.01639301897898714 0.0098503796227048697 0 0.016220156406972122 0.011485387154103653 0 0.015443910138125627 0.0099190107125300981 0 0.015005597563965323 0.010762424043933598 0 0.0064902469942778413 0.0082767403406861801 0 0.0076566846635066303 0.0069550105953782269 0 0.00672377140836643 0.0064041659435051836 0 0.01135956538299744 0.0097320886235117698 0 0.011546501066972921 0.0086658354994188086 0 0.0084595727958035709 0.0076314887480011719 0 0.0088329097457573152 0.0057515290346756894 0 0.0076566846635066303 0.0069550105953782269 0 0.0088329097457573152 0.0057515290346756894 0 0.0078216972450275146 0.0052784048928832634 0 0.0076566846635066303 0.0069550105953782269 0 0.0078216972450275146 0.0052784048928832634 0 0.0076566846635066303 0.0069550105953782269 0 0.00672377140836643 0.0064041659435051836 0 0.026169321005029961 0.0048622430932625535 0 0.02567703204182235 0.0050466865601751058 0 0.025811673843244041 0.0044784391825333399 0 0.025644909339351422 0.0051878223412233646 0 0.025000135401898056 0.0043138783222287256 0 0.025646995949943963 0.005349756234278376 0 0.024999919789294466 0.0057663290360228242 0 0.025000022915597039 0.0043137201958812687 0 0.02567703204182235 0.0050466865601751058 0 0.025811673843244041 0.0044784391825333399 0 0.025000152721184294 0.004313699037104067 0 0.025646995949943963 0.005349756234278376 0 0.024999919789294466 0.0057663290360228242 0 0.025512186484674088 0.0063918707337616894 0 0.026169321005029961 0.0048622430932625535 0 0.02567703204182235 0.0050466865601751058 0 0.026076806092941683 0.0055115409583672611 0 0.025646995949943963 0.005349756234278376 0 0.026202344568257926 0.0064350786604571624 0 0.025512186484674088 0.0063918707337616894 0 0.025644909339351422 0.0051878223412233646 0 0.02612551930366204 0.0059682767214520602 0 0.026169321005029961 0.0048622430932625535 0 0.026561774920642309 0.004991698822462985 0 0.026076806092941683 0.0055115409583672611 0 0.026561774920642309 0.004991698822462985 0 0.026644043764933869 0.0055092685784567594 0 0.026076806092941683 0.0055115409583672611 0 0.026561774920642309 0.004991698822462985 0 0.027108152531578705 0.004955545933247275 0 0.026644043764933869 0.0055092685784567594 0 0.026561774920642309 0.004991698822462985 0 0.026722920648957694 0.0045331473638932527 0 0.027108152531578705 0.004955545933247275 0 0.026169321005029961 0.0048622430932625535 0 0.026561774920642309 0.004991698822462985 0 0.026362534659972327 0.004331386942807062 0 0.026561774920642309 0.004991698822462985 0 0.026362534659972327 0.004331386942807062 0 0.026722920648957694 0.0045331473638932527 0 0.026722920648957694 0.0045331473638932527 0 0.026607101108093636 0.0042489543566575031 0 0.026863461287807373 0.0042715803947965588 0 0.026398402393325856 0.0043111985214084906 0 0.026919279251040706 0.0036893673133124032 0 0.026362534659972327 0.004331386942807062 0 0.025911235511231701 0.0034899669709370518 0 0.027257558550862804 0.0031309374211065614 0 0.026362534659972327 0.004331386942807062 0 0.026722920648957694 0.0045331473638932527 0 0.026607101108093636 0.0042489543566575031 0 0.026169321005029961 0.0048622430932625535 0 0.026362534659972327 0.004331386942807062 0 0.025811673843244041 0.0044784391825333399 0 0.026362534659972327 0.004331386942807062 0 0.025911235511231701 0.0034899669709370518 0 0.025811673843244041 0.0044784391825333399 0 0.025911235511231701 0.0034899669709370518 0 0.025811673843244041 0.0044784391825333399 0 0.025000152721184294 0.004313699037104067 0 0.025911235511231701 0.0034899669709370518 0 0.025000152721184294 0.004313699037104067 0 0.024999844247497936 0.0030279238770258838 0 0.025911235511231701 0.0034899669709370518 0 0.024999844247497936 0.0030279238770258838 0 0.026147191504355651 0.0021250245354356772 0 0.025911235511231701 0.0034899669709370518 0 0.026147191504355651 0.0021250245354356772 0 0.027257558550862804 0.0031309374211065614 0 0.026147191504355651 0.0021250245354356772 0 0.02499999434340535 0.0017418673588607502 0 0.025741571238935904 0.0010965944297835813 0 0.024999844247497936 0.0030279238770258838 0 0.026147191504355651 0.0021250245354356772 0 0.02499999434340535 0.0017418673588607502 0 0.02499999434340535 0.0017418673588607502 0 0.025741571238935904 0.0010965944297835813 0 0.024999963891104197 0.0004560109864780392 0 0.026147191504355651 0.0021250245354356772 0 0.025741571238935904 0.0010965944297835813 0 0.026742570204330452 0.000945886193019991 0 0.026752690855490032 5.6329290333419391e-05 0 0.025822398870562143 0.00021016063202571752 0 0.026742570204330452 0.000945886193019991 0 0.025741571238935904 0.0010965944297835813 0 0.025822398870562143 0.00021016063202571752 0 0.026742570204330452 0.000945886193019991 0 0.025741571238935904 0.0010965944297835813 0 0.025822398870562143 0.00021016063202571752 0 0.024999963891104197 0.0004560109864780392 0 0.025113215545157472 -0.00029008119100826945 0 0.025822398870562143 0.00021016063202571752 0 0.024999963891104197 0.0004560109864780392 0 0.027579517519722464 0.00026455414345355309 0 0.027844314468613875 0.0011239851425788882 0 0.028137107147588165 0.00062306807623117638 0 0.027579517519722464 0.00026455414345355309 0 0.026742570204330452 0.000945886193019991 0 0.027844314468613875 0.0011239851425788882 0 0.026752690855490032 5.6329290333419391e-05 0 0.027579517519722464 0.00026455414345355309 0 0.026742570204330452 0.000945886193019991 0 0.026742570204330452 0.000945886193019991 0 0.027844314468613875 0.0011239851425788882 0 0.027137991592634754 0.0017819682335468605 0 0.027844314468613875 0.0011239851425788882 0 0.027137991592634754 0.0017819682335468605 0 0.028007498821720031 0.0020397776322888198 0 0.027137991592634754 0.0017819682335468605 0 0.027257558550862804 0.0031309374211065614 0 0.028007498821720031 0.0020397776322888198 0 0.026147191504355651 0.0021250245354356772 0 0.026742570204330452 0.000945886193019991 0 0.027137991592634754 0.0017819682335468605 0 0.026147191504355651 0.0021250245354356772 0 0.027137991592634754 0.0017819682335468605 0 0.027257558550862804 0.0031309374211065614 0 0.026919279251040706 0.0036893673133124032 0 0.027377914549776325 0.0030396295297451456 0 0.026607101108093636 0.0042489543566575031 0 0.026863461287807373 0.0042715803947965588 0 0.02679111214813714 0.0039878904706276991 0 0.026863461287807373 0.0042715803947965588 0 0.027105801786439891 0.0042628701996279342 0 0.026990923947903023 0.0040858873184929523 0 0.026863461287807373 0.0042715803947965588 0 0.02679111214813714 0.0039878904706276991 0 0.026990923947903023 0.0040858873184929523 0 0.027105801786439891 0.0042628701996279342 0 0.027353090265713143 0.0041836664232523767 0 0.027262239327821659 0.0044243575004866273 0 0.027105801786439891 0.0042628701996279342 0 0.027183022993493244 0.0040268913579613501 0 0.026990923947903023 0.0040858873184929523 0 0.027105801786439891 0.0042628701996279342 0 0.027183022993493244 0.0040268913579613501 0 0.027353090265713143 0.0041836664232523767 0 0.027183022993493244 0.0040268913579613501 0 0.027043648015583861 0.0038932834316230867 0 0.027247745095474736 0.0037525461126308012 0 0.027183022993493244 0.0040268913579613501 0 0.027247745095474736 0.0037525461126308012 0 0.027379160651180574 0.0039998624396631478 0 0.027183022993493244 0.0040268913579613501 0 0.027043648015583861 0.0038932834316230867 0 0.026990923947903023 0.0040858873184929523 0 0.027043648015583861 0.0038932834316230867 0 0.02679111214813714 0.0039878904706276991 0 0.027022076147414947 0.0035882270481615319 0 0.027043648015583861 0.0038932834316230867 0 0.02679111214813714 0.0039878904706276991 0 0.026990923947903023 0.0040858873184929523 0 0.027844314468613875 0.0011239851425788882 0 0.028007498821720031 0.0020397776322888198 0 0.028717063391607161 0.00099333069817884737 0 0.027377914549776325 0.0030396295297451456 0 0.027975146054917938 0.0021627707638853613 0 0.027844314468613875 0.0011239851425788882 0 0.028717063391607161 0.00099333069817884737 0 0.028137107147588165 0.00062306807623117638 0 0.027043648015583861 0.0038932834316230867 0 0.027247745095474736 0.0037525461126308012 0 0.027022076147414947 0.0035882270481615319 0 0.027247745095474736 0.0037525461126308012 0 0.027280051185349253 0.0035093535149931846 0 0.027022076147414947 0.0035882270481615319 0 0.02789138338501734 0.0021115172867970673 0 0.027975146054917938 0.0021627707638853613 0 0.029416934511405927 -5.1697355082275896e-06 0 0.028856669777175822 -1.0918317842193911e-05 0 0.028717063391607161 0.00099333069817884737 0 0.027345242478709394 0.0031047522457388903 0 0.027280051185349253 0.0035093535149931846 0 0.027022076147414947 0.0035882270481615319 0 0.027579517519722464 0.00026455414345355309 0 0.028137107147588165 0.00062306807623117638 0 0.028401783560599227 0.00011046606202624117 0 0.028856669777175822 -1.0918317842193911e-05 0 0.028717063391607161 0.00099333069817884737 0 0.028401783560599227 0.00011046606202624117 0 0.028717063391607161 0.00099333069817884737 0 0.028137107147588165 0.00062306807623117638 0 0.028401783560599227 0.00011046606202624117 0 0.02750009746076628 0.0043741952489930857 0 0.027427942822112368 0.0043479007344311696 0 0.027495927215752346 0.00445230098579263 0 0.02750009746076628 0.0043741952489930857 0 0.027556156813813171 0.0044592647981850425 0 0.027495927215752346 0.00445230098579263 0 0.02750009746076628 0.0043741952489930857 0 0.027556156813813171 0.0044592647981850425 0 0.027636064561696351 0.0043221114380354638 0 0.027467247380468313 0.0045530385259318108 0 0.027636502660033122 0.0038400587912146931 0 0.027497750012335457 0.0042650648609019771 0 0.02750009746076628 0.0043741952489930857 0 0.027636064561696351 0.0043221114380354638 0 0.027223016489580237 0.0030723657394708345 0 0.027636502660033122 0.0038400587912146931 0 0.027497750012335457 0.0042650648609019771 0 0.02750009746076628 0.0043741952489930857 0 0.027427942822112368 0.0043479007344311696 0 0.027327722484101275 0.004251031642269293 0 0.027427942822112368 0.0043479007344311696 0 0.02742444110990799 0.0044631132026393605 0 0.027345242478709394 0.0031047522457388903 0 0.027280051185349253 0.0035093535149931846 0 0.027510848938637998 0.0035886043021139632 0 0.027401161768321025 0.0042704982581724601 0 0.027497750012335457 0.0042650648609019771 0 0.027427942822112368 0.0043479007344311696 0 0.02789138338501734 0.0021115172867970673 0 0.027469458818371338 0.0042969063511797134 0 0.027401161768321025 0.0042704982581724601 0 0.027327722484101275 0.004251031642269293 0 0.027427942822112368 0.0043479007344311696 0 0.027427942822112368 0.0043479007344311696 0 0.02742444110990799 0.0044631132026393605 0 0.027495927215752346 0.00445230098579263 0 0.02742444110990799 0.0044631132026393605 0 0.027499498621478491 0.0044952083888413954 0 0.027500734779170262 0.004560534051474407 0 0.027510848938637998 0.0035886043021139632 0 0.027530125964403882 0.0038811362420923283 0 0.027685996635832301 0.004088051106213097 0 0.027469458818371338 0.0042969063511797134 0 0.027595616536757402 0.0043200402136233766 0 0.02742444110990799 0.0044631132026393605 0 0.027499498621478491 0.0044952083888413954 0 0.027495927215752346 0.00445230098579263 0 0.027247745095474736 0.0037525461126308012 0 0.027280051185349253 0.0035093535149931846 0 0.027510848938637998 0.0035886043021139632 0 0.027247745095474736 0.0037525461126308012 0 0.027510848938637998 0.0035886043021139632 0 0.027530125964403882 0.0038811362420923283 0 0.027542235326405252 0.0044823819211013763 0 0.027500734779170262 0.004560534051474407 0 0.027567589514705879 0.0044768125220810617 0 0.027499498621478491 0.0044952083888413954 0 0.027542235326405252 0.0044823819211013763 0 0.027500734779170262 0.004560534051474407 0 0.027499498621478491 0.0044952083888413954 0 0.027495927215752346 0.00445230098579263 0 0.027542235326405252 0.0044823819211013763 0 0.027556156813813171 0.0044592647981850425 0 0.027495927215752346 0.00445230098579263 0 0.027542235326405252 0.0044823819211013763 0 0.027556156813813171 0.0044592647981850425 0 0.027542235326405252 0.0044823819211013763 0 0.027563666269532078 0.0044910274790159023 0 0.027853777795789948 0.0045787657460854888 0 0.027827665096588742 0.0045755837694087453 0 0.027895620989216767 0.0045723958628850273 0 0.027595616536757402 0.0043200402136233766 0 0.027730051790192067 0.0045702236492415485 0 0.027853777795789948 0.0045787657460854888 0 0.027829805814604418 0.0045822301776663804 0 0.027827665096588742 0.0045755837694087453 0 0.027625660469799088 0.0042380391702726509 0 0.027595616536757402 0.0043200402136233766 0 0.027625660469799088 0.0042380391702726509 0 0.027593110004889617 0.0041615088969580057 0 0.027853777795789948 0.0045787657460854888 0 0.027829805814604418 0.0045822301776663804 0 0.027859777628902224 0.0045931315943545173 0 0.027853777795789948 0.0045787657460854888 0 0.027859777628902224 0.0045931315943545173 0 0.027873540442413011 0.0045785724824318318 0 0.027251773114214339 0.0037309608866263064 0 0.027625660469799088 0.0042380391702726509 0 0.027247745095474736 0.0037525461126308012 0 0.027530125964403882 0.0038811362420923283 0 0.027685996635832301 0.004088051106213097 0 0.027247745095474736 0.0037525461126308012 0 0.027550608668320837 0.0040635740530386875 0 0.027379160651180574 0.0039998624396631478 0 0.027247745095474736 0.0037525461126308012 0 0.02770562178595851 0.0041453044053656914 0 0.027685996635832301 0.004088051106213097 0 0.027550608668320837 0.0040635740530386875 0 0.027445253551200709 0.0040842860474585912 0 0.027379160651180574 0.0039998624396631478 0 0.027550608668320837 0.0040635740530386875 0 0.027445253551200709 0.0040842860474585912 0 0.027474967497291336 0.0041484657636392374 0 0.027183022993493244 0.0040268913579613501 0 0.027379160651180574 0.0039998624396631478 0 0.027353090265713143 0.0041836664232523767 0 0.027445253551200709 0.0040842860474585912 0 0.027379160651180574 0.0039998624396631478 0 0.027353090265713143 0.0041836664232523767 0 0.027353090265713143 0.0041836664232523767 0 0.027474967497291336 0.0041484657636392374 0 0.027467241103378098 0.0043731188492192397 0 0.027474967497291336 0.0041484657636392374 0 0.027467241103378098 0.0043731188492192397 0 0.027583697136983009 0.0041800598610377037 0 0.027445253551200709 0.0040842860474585912 0 0.027353090265713143 0.0041836664232523767 0 0.027474967497291336 0.0041484657636392374 0 0.027353090265713143 0.0041836664232523767 0 0.027467241103378098 0.0043731188492192397 0 0.027262239327821659 0.0044243575004866273 0 0.027467241103378098 0.0043731188492192397 0 0.027583697136983009 0.0041800598610377037 0 0.027638509812725347 0.0045173516696439091 0 0.027829805814604418 0.0045822301776663804 0 0.027858379979789013 0.0046455662493548183 0 0.027859777628902224 0.0045931315943545173 0 0.027555870103241575 0.0040625309370694914 0 0.027583697136983009 0.0041800598610377037 0 0.027875794655120752 0.004449042944261565 0 0.027583697136983009 0.0041800598610377037 0 0.027638509812725347 0.0045173516696439091 0 0.027875794655120752 0.004449042944261565 0 0.027625660469799088 0.0042380391702726509 0 0.02788211912600044 0.004565880598708257 0 0.027550608668320837 0.0040635740530386875 0 0.027474967497291336 0.0041484657636392374 0 0.027583697136983009 0.0041800598610377037 0 0.027638509812725347 0.0045173516696439091 0 0.027824385977585873 0.0049056462156002976 0 0.027875794655120752 0.004449042944261565 0 0.027638509812725347 0.0045173516696439091 0 0.027436186311530289 0.004672666082785549 0 0.027824385977585873 0.0049056462156002976 0 0.027436186311530289 0.004672666082785549 0 0.027332738549903968 0.0050529168485220514 0 0.027824385977585873 0.0049056462156002976 0 0.027467241103378098 0.0043731188492192397 0 0.027436186311530289 0.004672666082785549 0 0.027262239327821659 0.0044243575004866273 0 0.027467241103378098 0.0043731188492192397 0 0.027638509812725347 0.0045173516696439091 0 0.027436186311530289 0.004672666082785549 0 0.027105801786439891 0.0042628701996279342 0 0.027262239327821659 0.0044243575004866273 0 0.02697660532211035 0.0045510908307550297 0 0.027436186311530289 0.004672666082785549 0 0.027262239327821659 0.0044243575004866273 0 0.02697660532211035 0.0045510908307550297 0 0.026863461287807373 0.0042715803947965588 0 0.027105801786439891 0.0042628701996279342 0 0.02697660532211035 0.0045510908307550297 0 0.026722920648957694 0.0045331473638932527 0 0.026863461287807373 0.0042715803947965588 0 0.02697660532211035 0.0045510908307550297 0 0.026974864805081898 0.0045957981531613654 0 0.026940279257545975 0.0050843334000129151 0 0.026722920648957694 0.0045331473638932527 0 0.02697660532211035 0.0045510908307550297 0 0.027108152531578705 0.004955545933247275 0 0.027436186311530289 0.004672666082785549 0 0.02697660532211035 0.0045510908307550297 0 0.027332738549903968 0.0050529168485220514 0 0.02697660532211035 0.0045510908307550297 0 0.026776483487478363 0.0052090734219507112 0 0.027332738549903968 0.0050529168485220514 0 0.026776483487478363 0.0052090734219507112 0 0.027440846457281058 0.0055531938628948681 0 0.027332738549903968 0.0050529168485220514 0 0.026940279257545975 0.0050843334000129151 0 0.026885386910410373 0.0058227285007603907 0 0.027108152531578705 0.004955545933247275 0 0.027141399810694373 0.0056299396899746213 0 0.026644043764933869 0.0055092685784567594 0 0.026776483487478363 0.0052090734219507112 0 0.027176700711187562 0.0059731531425656365 0 0.026624566671675811 0.0059370227515690432 0 0.026776483487478363 0.0052090734219507112 0 0.027440846457281058 0.0055531938628948681 0 0.027176700711187562 0.0059731531425656365 0 0.027440846457281058 0.0055531938628948681 0 0.027731185509366992 0.0053261592157384571 0 0.027892467021080902 0.0057151992683757182 0 0.027731185509366992 0.0053261592157384571 0 0.027332738549903968 0.0050529168485220514 0 0.027824385977585873 0.0049056462156002976 0 0.027440846457281058 0.0055531938628948681 0 0.027731185509366992 0.0053261592157384571 0 0.027332738549903968 0.0050529168485220514 0 0.028134029399649527 0.0050838003764496938 0 0.028092139433230679 0.0054297852545495589 0 0.027824385977585873 0.0049056462156002976 0 0.027731185509366992 0.0053261592157384571 0 0.028092139433230679 0.0054297852545495589 0 0.027824385977585873 0.0049056462156002976 0 0.027731185509366992 0.0053261592157384571 0 0.028092139433230679 0.0054297852545495589 0 0.027892467021080902 0.0057151992683757182 0 0.028092139433230679 0.0054297852545495589 0 0.0281654841758213 0.0057904583022770845 0 0.027892467021080902 0.0057151992683757182 0 0.028134029399649527 0.0050838003764496938 0 0.028092139433230679 0.0054297852545495589 0 0.028262889364319976 0.0053412463670178562 0 0.028092139433230679 0.0054297852545495589 0 0.028262889364319976 0.0053412463670178562 0 0.028325626346516558 0.0056482010486688045 0 0.028262889364319976 0.0053412463670178562 0 0.028415838149772606 0.0053869959641995114 0 0.028262208550196937 0.0051370035575427951 0 0.028262889364319976 0.0053412463670178562 0 0.028415838149772606 0.0053869959641995114 0 0.028325626346516558 0.0056482010486688045 0 0.028415838149772606 0.0053869959641995114 0 0.028408879230139614 0.0052417559807219983 0 0.028297777135513045 0.0051143095132308268 0 0.028415838149772606 0.0053869959641995114 0 0.028297777135513045 0.0051143095132308268 0 0.028262208550196937 0.0051370035575427951 0 0.028297777135513045 0.0051143095132308268 0 0.028262208550196937 0.0051370035575427951 0 0.028193849375899319 0.0049070439200211867 0 0.028134029399649527 0.0050838003764496938 0 0.028262208550196937 0.0051370035575427951 0 0.028143051968563267 0.0048803559138015686 0 0.028134029399649527 0.0050838003764496938 0 0.028262889364319976 0.0053412463670178562 0 0.028262208550196937 0.0051370035575427951 0 0.028134029399649527 0.0050838003764496938 0 0.028143051968563267 0.0048803559138015686 0 0.028056315111392807 0.004790838399426749 0 0.028143051968563267 0.0048803559138015686 0 0.028193849375899319 0.0049070439200211867 0 0.028106745475480803 0.0046776330061728778 0 0.028262208550196937 0.0051370035575427951 0 0.028143051968563267 0.0048803559138015686 0 0.028193849375899319 0.0049070439200211867 0 0.028143051968563267 0.0048803559138015686 0 0.028004895209449262 0.0046557842094397898 0 0.028056315111392807 0.004790838399426749 0 0.028143051968563267 0.0048803559138015686 0 0.028106745475480803 0.0046776330061728778 0 0.028004895209449262 0.0046557842094397898 0 0.028004895209449262 0.0046557842094397898 0 0.028056315111392807 0.004790838399426749 0 0.027943978096430521 0.0046345217409443579 0 0.028056315111392807 0.004790838399426749 0 0.027858379979789013 0.0046455662493548183 0 0.027943978096430521 0.0046345217409443579 0 0.028037263149796994 0.0047592564643975958 0 0.02788211912600044 0.004565880598708257 0 0.028134029399649527 0.0050838003764496938 0 0.028056315111392807 0.004790838399426749 0 0.027824385977585873 0.0049056462156002976 0 0.028056315111392807 0.004790838399426749 0 0.027824385977585873 0.0049056462156002976 0 0.027875794655120752 0.004449042944261565 0 0.027858379979789013 0.0046455662493548183 0 0.027943978096430521 0.0046345217409443579 0 0.027887035235343128 0.0045888134466174381 0 0.027858379979789013 0.0046455662493548183 0 0.027859777628902224 0.0045931315943545173 0 0.027887035235343128 0.0045888134466174381 0 0.027943978096430521 0.0046345217409443579 0 0.027911392466438329 0.0045675050447790454 0 0.027887035235343128 0.0045888134466174381 0 0.028004895209449262 0.0046557842094397898 0 0.027943978096430521 0.0046345217409443579 0 0.027911392466438329 0.0045675050447790454 0 0.027911392466438329 0.0045675050447790454 0 0.027889843367111641 0.0045716583337442546 0 0.027876655519702552 0.0045775078992162212 0 0.027911392466438329 0.0045675050447790454 0 0.027876655519702552 0.0045775078992162212 0 0.027838506441669377 0.0045728607804447008 0 0.027911392466438329 0.0045675050447790454 0 0.027887035235343128 0.0045888134466174381 0 0.027889843367111641 0.0045716583337442546 0 0.027859777628902224 0.0045931315943545173 0 0.027887035235343128 0.0045888134466174381 0 0.027873540442413011 0.0045785724824318318 0 0.027887035235343128 0.0045888134466174381 0 0.027889843367111641 0.0045716583337442546 0 0.027873540442413011 0.0045785724824318318 0 0.027889843367111641 0.0045716583337442546 0 0.027873540442413011 0.0045785724824318318 0 0.027895620989216767 0.0045723958628850273 0 0.027853777795789948 0.0045787657460854888 0 0.027873540442413011 0.0045785724824318318 0 0.027895620989216767 0.0045723958628850273 0 0.027889843367111641 0.0045716583337442546 0 0.027895620989216767 0.0045723958628850273 0 0.027876655519702552 0.0045775078992162212 0 0.027542235326405252 0.0044823819211013763 0 0.027567589514705879 0.0044768125220810617 0 0.027563666269532078 0.0044910274790159023 0 0.027895620989216767 0.0045723958628850273 0 0.027876655519702552 0.0045775078992162212 0 0.027831798943286468 0.0046521832927016093 0 0.027539266875545788 0.0045455187815905598 0 0.027507834684020981 0.0045497005911293142 0 0.027563666269532078 0.0044910274790159023 0 0.027730051790192067 0.0045702236492415485 0 0.027673467745832674 0.0045888398420815615 0 0.027539266875545788 0.0045455187815905598 0 0.027564363973075441 0.0045157475245361659 0 0.027563666269532078 0.0044910274790159023 0 0.027567589514705879 0.0044768125220810617 0 0.027507834684020981 0.0045497005911293142 0 0.027563666269532078 0.0044910274790159023 0 0.027539266875545788 0.0045455187815905598 0 0.027576147649038971 0.0045218615073767624 0 0.027564363973075441 0.0045157475245361659 0 0.02757152248144722 0.0045120813283579661 0 0.027564363973075441 0.0045157475245361659 0 0.027563666269532078 0.0044910274790159023 0 0.027636502660033122 0.0038400587912146931 0 0.027673464533524331 0.0039612343086108948 0 0.027556156813813171 0.0044592647981850425 0 0.02757152248144722 0.0045120813283579661 0 0.027563666269532078 0.0044910274790159023 0 0.027567504319042053 0.0046719035308796153 0 0.027831798943286468 0.0046521832927016093 0 0.027685157037042687 0.0046430837094866111 0 0.027831798943286468 0.0046521832927016093 0 0.027685157037042687 0.0046430837094866111 0 0.027838506441669377 0.0045728607804447008 0 0.027876655519702552 0.0045775078992162212 0 0.027831798943286468 0.0046521832927016093 0 0.027838506441669377 0.0045728607804447008 0 0.027685157037042687 0.0046430837094866111 0 0.027838506441669377 0.0045728607804447008 0 0.027709499400678673 0.0045713822467890325 0 0.027838506441669377 0.0045728607804447008 0 0.027709499400678673 0.0045713822467890325 0 0.027929283806918628 0.0045236687268060214 0 0.027911392466438329 0.0045675050447790454 0 0.027838506441669377 0.0045728607804447008 0 0.027929283806918628 0.0045236687268060214 0 0.028004895209449262 0.0046557842094397898 0 0.027911392466438329 0.0045675050447790454 0 0.027929283806918628 0.0045236687268060214 0 0.028106745475480803 0.0046776330061728778 0 0.027929283806918628 0.0045236687268060214 0 0.028114573477260783 0.004656085967756983 0 0.028106745475480803 0.0046776330061728778 0 0.028004895209449262 0.0046557842094397898 0 0.027929283806918628 0.0045236687268060214 0 0.027912697695040005 0.004517671834256819 0 0.027816732535292491 0.0044939112856061348 0 0.027816732535292491 0.0044939112856061348 0 0.027408197672130274 0.0044077624612640963 0 0.028114573477260783 0.004656085967756983 0 0.027639069275403334 0.0045965345016490706 0 0.028157302577554336 0.0045594525880888487 0 0.027545401071798665 0.0043302469733088175 0 0.027455095429453548 0.0044959070853071775 0 0.027190148801013329 0.004251975641682398 0 0.027709499400678673 0.0045713822467890325 0 0.027545401071798665 0.0043302469733088175 0 0.027455095429453548 0.0044959070853071775 0 0.027709499400678673 0.0045713822467890325 0 0.027929283806918628 0.0045236687268060214 0 0.027545401071798665 0.0043302469733088175 0 0.027709499400678673 0.0045713822467890325 0 0.027455095429453548 0.0044959070853071775 0 0.027543158946398125 0.0046435360715769225 0 0.027685157037042687 0.0046430837094866111 0 0.027709499400678673 0.0045713822467890325 0 0.027543158946398125 0.0046435360715769225 0 0.027455095429453548 0.0044959070853071775 0 0.027543158946398125 0.0046435360715769225 0 0.027241634473979631 0.0046016316890926607 0 0.027543158946398125 0.0046435360715769225 0 0.027391652102849589 0.004707970431663335 0 0.027241634473979631 0.0046016316890926607 0 0.027523991945808152 0.0046965928924714191 0 0.027685157037042687 0.0046430837094866111 0 0.027543158946398125 0.0046435360715769225 0 0.027523991945808152 0.0046965928924714191 0 0.027543158946398125 0.0046435360715769225 0 0.027391652102849589 0.004707970431663335 0 0.021360735144476856 -0.00032781416478236928 0 0.021622762439952727 -0.0018655575978347159 0 0.020898203924030415 -0.0016084263263653916 0 0.021346308150995707 -0.0018567097321314969 0 0.021622762439952727 -0.0018655575978347159 0 0.020898203924030415 -0.0016084263263653916 0 0.027391652102849589 0.004707970431663335 0 0.02716999474443205 0.004753456947967743 0 0.027241634473979631 0.0046016316890926607 0 0.024082673314309421 0.0022075822388986496 0 0.024013355729790815 0.0014992199762212976 0 0.026761238915173149 0.0046865447966859923 0 0.027241634473979631 0.0046016316890926607 0 0.026947844271972263 0.0044285534584437205 0 0.026761238915173149 0.0046865447966859923 0 0.02716999474443205 0.004753456947967743 0 0.027241634473979631 0.0046016316890926607 0 0.026761238915173149 0.0046865447966859923 0 0.026615322749401552 0.0043885504876010921 0 0.026947844271972263 0.0044285534584437205 0 0.027241634473979631 0.0046016316890926607 0 0.026947844271972263 0.0044285534584437205 0 0.027190148801013329 0.004251975641682398 0 0.027455095429453548 0.0044959070853071775 0 0.027241634473979631 0.0046016316890926607 0 0.027190148801013329 0.004251975641682398 0 0.027639069275403334 0.0045965345016490706 0 0.027289596232788132 0.0042477411337893097 0 0.027342961464797842 0.0040470045718587937 0 0.026754068300519723 0.0041931601791932883 0 0.026947844271972263 0.0044285534584437205 0 0.027190148801013329 0.004251975641682398 0 0.026809986623028914 0.0042306526623992965 0 0.027408197672130274 0.0044077624612640963 0 0.026754068300519723 0.0041931601791932883 0 0.027639069275403334 0.0045965345016490706 0 0.027289596232788132 0.0042477411337893097 0 0.026754068300519723 0.0041931601791932883 0 0.026615322749401552 0.0043885504876010921 0 0.026947844271972263 0.0044285534584437205 0 0.026754068300519723 0.0041931601791932883 0 0.027289596232788132 0.0042477411337893097 0 0.027081739313846057 0.004052422074407808 0 0.026754068300519723 0.0041931601791932883 0 0.026911776403985264 0.0039299434615765938 0 0.027081739313846057 0.004052422074407808 0 0.026911776403985264 0.0039299434615765938 0 0.027081739313846057 0.004052422074407808 0 0.027058028167993783 0.0039737527636957955 0 0.026707495632901836 0.0037282262230580948 0 0.026911776403985264 0.0039299434615765938 0 0.027020103131865581 0.0034906647253314161 0 0.026911776403985264 0.0039299434615765938 0 0.027030927095025529 0.0039614033102642818 0 0.027058028167993783 0.0039737527636957955 0 0.026942655855179503 0.0040620361828474392 0 0.02674798170297512 0.0048408072797569762 0 0.027081739313846057 0.004052422074407808 0 0.027058028167993783 0.0039737527636957955 0 0.027342961464797842 0.0040470045718587937 0 0.027289596232788132 0.0042477411337893097 0 0.027081739313846057 0.004052422074407808 0 0.027342961464797842 0.0040470045718587937 0 0.027058028167993783 0.0039737527636957955 0 0.027110851279385242 0.0037081134529947362 0 0.027342961464797842 0.0040470045718587937 0 0.027014839398497064 0.0039611489066299788 0 0.027058028167993783 0.0039737527636957955 0 0.027110851279385242 0.0037081134529947362 0 0.02674798170297512 0.0048408072797569762 0 0.026765774992411027 0.0047958698699797605 0 0.02674798170297512 0.0048408072797569762 0 0.027376782786491652 0.0058384182781281036 0 0.026493761557796022 0.0071258364150638027 0 0.026743789367182417 0.0073855747672445541 0 0.026845272994966512 0.0070310473771452268 0 0.027376782786491652 0.0058384182781281036 0 0.027961135282628415 0.0043174896072638207 0 0.027110851279385242 0.0037081134529947362 0 0.027630668595706145 0.0039996372288476729 0 0.027342961464797842 0.0040470045718587937 0 0.028398859973755072 0.0049328405676444731 0 0.028324723807671332 0.0048372492841881531 0 0.028270004837047065 0.0050056301141420583 0 0.027639069275403334 0.0045965345016490706 0 0.027630668595706145 0.0039996372288476729 0 0.027342961464797842 0.0040470045718587937 0 0.027961135282628415 0.0043174896072638207 0 0.028117739891262868 0.0045379513069582758 0 0.027639069275403334 0.0045965345016490706 0 0.027630668595706145 0.0039996372288476729 0 0.028157302577554336 0.0045594525880888487 0 0.028193849375899319 0.0049070439200211867 0 0.028106745475480803 0.0046776330061728778 0 0.028157302577554336 0.0045594525880888487 0 0.028106745475480803 0.0046776330061728778 0 0.028114573477260783 0.004656085967756983 0 0.028157302577554336 0.0045594525880888487 0 0.028193849375899319 0.0049070439200211867 0 0.028157302577554336 0.0045594525880888487 0 0.028239283912098338 0.0048795726754272337 0 0.028193849375899319 0.0049070439200211867 0 0.028239283912098338 0.0048795726754272337 0 0.028245242029059089 0.0050588966407855577 0 0.028324723807671332 0.0048372492841881531 0 0.028157302577554336 0.0045594525880888487 0 0.028239283912098338 0.0048795726754272337 0 0.028324723807671332 0.0048372492841881531 0 0.028239283912098338 0.0048795726754272337 0 0.028270004837047065 0.0050056301141420583 0 0.028245242029059089 0.0050588966407855577 0 0.028186273640334155 0.0051359759141242148 0 0.028270004837047065 0.0050056301141420583 0 0.028239283912098338 0.0048795726754272337 0 0.028245242029059089 0.0050588966407855577 0 0.028270004837047065 0.0050056301141420583 0 0.028297777135513045 0.0051143095132308268 0 0.028245242029059089 0.0050588966407855577 0 0.02826620641872564 0.0051652112711335534 0 0.028297777135513045 0.0051143095132308268 0 0.028193849375899319 0.0049070439200211867 0 0.028245242029059089 0.0050588966407855577 0 0.028408879230139614 0.0052417559807219983 0 0.028297777135513045 0.0051143095132308268 0 0.02826620641872564 0.0051652112711335534 0 0.028245242029059089 0.0050588966407855577 0 0.02826620641872564 0.0051652112711335534 0 0.028186273640334155 0.0051359759141242148 0 0.02826620641872564 0.0051652112711335534 0 0.028186273640334155 0.0051359759141242148 0 0.028213215455103691 0.0050878992688472716 0 0.028186273640334155 0.0051359759141242148 0 0.028243016021943207 0.0051246825173837602 0 0.028073392640087475 0.0051294088785394133 0 0.026588106721745604 0.0061000805367676623 0 0.026857360315985027 0.0065629038614198835 0 0.027449707919298048 0.0061654907979346316 0 0.026588106721745604 0.0061000805367676623 0 0.026748031384642802 0.0055042378004401208 0 0.027449707919298048 0.0061654907979346316 0 0.027376782786491652 0.0058384182781281036 0 0.027892772886399696 0.0056558201369844114 0 0.026857360315985027 0.0065629038614198835 0 0.027146728473502395 0.0071460629435555678 0 0.027449707919298048 0.0061654907979346316 0 0.028186273640334155 0.0051359759141242148 0 0.028243016021943207 0.0051246825173837602 0 0.028270004837047065 0.0050056301141420583 0 0.028398859973755072 0.0049328405676444731 0 0.028243016021943207 0.0051246825173837602 0 0.028270004837047065 0.0050056301141420583 0 0.027854714253675663 0.0050949280536856561 0 0.028073392640087475 0.0051294088785394133 0 0.028146415432241952 0.0047981893575157657 0 0.026033164205538487 0.0045537121297454615 0 0.026482344041202279 0.0046036791433076187 0 0.02722298230703946 0.0051473706768068355 0 0.027854714253675663 0.0050949280536856561 0 0.027606001659377728 0.0045855178266307152 0 0.027854714253675663 0.0050949280536856561 0 0.028146415432241952 0.0047981893575157657 0 0.027606001659377728 0.0045855178266307152 0 0.027074737361814774 0.0048025365534981488 0 0.02722298230703946 0.0051473706768068355 0 0.027606001659377728 0.0045855178266307152 0 0.026546238546260027 0.0046417662377853559 0 0.027074737361814774 0.0048025365534981488 0 0.027606001659377728 0.0045855178266307152 0 0.026657672345022199 0.0048811251736689022 0 0.027074737361814774 0.0048025365534981488 0 0.02722298230703946 0.0051473706768068355 0 0.026748031384642802 0.0055042378004401208 0 0.027449707919298048 0.0061654907979346316 0 0.02722298230703946 0.0051473706768068355 0 0.027449707919298048 0.0061654907979346316 0 0.02722298230703946 0.0051473706768068355 0 0.027854714253675663 0.0050949280536856561 0 0.027892772886399696 0.0056558201369844114 0 0.027865894368559973 0.0050924904908346306 0 0.028243016021943207 0.0051246825173837602 0 0.027854714253675663 0.0050949280536856561 0 0.028073392640087475 0.0051294088785394133 0 0.028073392640087475 0.0051294088785394133 0 0.028213215455103691 0.0050878992688472716 0 0.028146415432241952 0.0047981893575157657 0 0.028186273640334155 0.0051359759141242148 0 0.028073392640087475 0.0051294088785394133 0 0.028213215455103691 0.0050878992688472716 0 0.02826620641872564 0.0051652112711335534 0 0.028213215455103691 0.0050878992688472716 0 0.028350194324518817 0.0050574814010246223 0 0.028408879230139614 0.0052417559807219983 0 0.02826620641872564 0.0051652112711335534 0 0.028350194324518817 0.0050574814010246223 0 0.028213215455103691 0.0050878992688472716 0 0.028350194324518817 0.0050574814010246223 0 0.02826965180168101 0.0049660654770874021 0 0.02630335035264017 0.0057228060339643665 0 0.026033164205538487 0.0045537121297454615 0 0.02826965180168101 0.0049660654770874021 0 0.028348134878050775 0.004894987628066204 0 0.028146415432241952 0.0047981893575157657 0 0.028350194324518817 0.0050574814010246223 0 0.028335528490294262 0.0049745548454302379 0 0.02826965180168101 0.0049660654770874021 0 0.028350194324518817 0.0050574814010246223 0 0.028335528490294262 0.0049745548454302379 0 0.028411468270800634 0.0049727609477866128 0 0.028335528490294262 0.0049745548454302379 0 0.02826965180168101 0.0049660654770874021 0 0.028348134878050775 0.004894987628066204 0 0.028335528490294262 0.0049745548454302379 0 0.028348134878050775 0.004894987628066204 0 0.028411468270800634 0.0049727609477866128 0 0.028213215455103691 0.0050878992688472716 0 0.02826965180168101 0.0049660654770874021 0 0.028146415432241952 0.0047981893575157657 0 0.024206171886945245 0.0044979366767770148 0 0.023571471821229074 0.0050973860893794099 0 0.024797620907343759 0.0052783419892779822 0 0.023104833573968912 0.004402409967390877 0 0.024206171886945245 0.0044979366767770148 0 0.023571471821229074 0.0050973860893794099 0 0.023104833573968912 0.004402409967390877 0 0.023571471821229074 0.0050973860893794099 0 0.022642355834859462 0.0054365280963092778 0 0.023571471821229074 0.0050973860893794099 0 0.023815437356557761 0.0059753207968410941 0 0.022642355834859462 0.0054365280963092778 0 0.023815437356557761 0.0059753207968410941 0 0.022958667913573736 0.0064211507520237562 0 0.022642355834859462 0.0054365280963092778 0 0.023571471821229074 0.0050973860893794099 0 0.023815437356557761 0.0059753207968410941 0 0.024797620907343759 0.0052783419892779822 0 0.023815437356557761 0.0059753207968410941 0 0.02493679812517639 0.0061177932438729564 0 0.024797620907343759 0.0052783419892779822 0 0.02493679812517639 0.0061177932438729564 0 0.024797620907343759 0.0052783419892779822 0 0.025707513873761443 0.0057146482919164781 0 0.024797620907343759 0.0052783419892779822 0 0.025307204358377921 0.0045639098782985603 0 0.02572074865132842 0.0050875860410755976 0 0.024206171886945245 0.0044979366767770148 0 0.024797620907343759 0.0052783419892779822 0 0.025307204358377921 0.0045639098782985603 0 0.026546238546260027 0.0046417662377853559 0 0.025307204358377921 0.0045639098782985603 0 0.02572074865132842 0.0050875860410755976 0 0.026548401885484942 0.004624637157042125 0 0.026482344041202279 0.0046036791433076187 0 0.026266033430969057 0.0052225945839597734 0 0.026546238546260027 0.0046417662377853559 0 0.02572074865132842 0.0050875860410755976 0 0.026266033430969057 0.0052225945839597734 0 0.02572074865132842 0.0050875860410755976 0 0.025707513873761443 0.0057146482919164781 0 0.024797620907343759 0.0052783419892779822 0 0.02572074865132842 0.0050875860410755976 0 0.025707513873761443 0.0057146482919164781 0 0.026401569670993514 0.0057626300469937443 0 0.026266033430969057 0.0052225945839597734 0 0.025707513873761443 0.0057146482919164781 0 0.026401569670993514 0.0057626300469937443 0 0.025707513873761443 0.0057146482919164781 0 0.025758247836327207 0.006663200942944804 0 0.02493679812517639 0.0061177932438729564 0 0.025707513873761443 0.0057146482919164781 0 0.025758247836327207 0.006663200942944804 0 0.025088759511117813 0.0070144078891836098 0 0.023818467315662586 0.0071886663676373848 0 0.02493679812517639 0.0061177932438729564 0 0.025758247836327207 0.006663200942944804 0 0.024569148973503426 0.0069435040444401821 0 0.023314578240071462 0.0075244292873124525 0 0.023346123155520173 0.0074712456177219652 0 0.023373337231296639 0.00740703143379879 0 0.023346123155520173 0.0074712456177219652 0 0.023365177979829382 0.0075074316501059103 0 0.023373337231296639 0.00740703143379879 0 0.023314578240071462 0.0075244292873124525 0 0.023346123155520173 0.0074712456177219652 0 0.023267914073808217 0.007501000580267262 0 0.023346123155520173 0.0074712456177219652 0 0.023267914073808217 0.007501000580267262 0 0.023279338926958833 0.0074810328993882621 0 0.023249364106290773 0.0075278977043846248 0 0.023314578240071462 0.0075244292873124525 0 0.023267914073808217 0.007501000580267262 0 0.023222917560081095 0.00747265364725095 0 0.023279338926958833 0.0074810328993882621 0 0.02332406435595066 0.0074722316228019994 0 0.023346123155520173 0.0074712456177219652 0 0.023279338926958833 0.0074810328993882621 0 0.02332406435595066 0.0074722316228019994 0 0.023346123155520173 0.0074712456177219652 0 0.02332406435595066 0.0074722316228019994 0 0.023365177979829382 0.0075074316501059103 0 0.022797424123757813 0.01074734852197866 0 0.022143991467782183 0.010824168724800092 0 0.020759237536269643 0.014028365843896919 0 0.02069208586765519 0.013817359722331802 0 0.020804948294206191 0.013724385618935768 0 0.020759237536269643 0.014028365843896919 0 0.021061885685725319 0.013925627677440879 0 0.020804948294206191 0.013724385618935768 0 0.020531094791269633 0.013872834321197224 0 0.020512524929351336 0.013926637227888566 0 0.020759237536269643 0.014028365843896919 0 0.020531094791269633 0.013872834321197224 0 0.020759237536269643 0.014028365843896919 0 0.02069208586765519 0.013817359722331802 0 0.017879111848454747 0.012019694970585356 0 0.022797424123757813 0.01074734852197866 0 0.021335054672844269 0.013846633732330464 0 0.021061885685725319 0.013925627677440879 0 0.021362202134633156 0.014021717213432735 0 0.021500928901599149 0.013871635775576305 0 0.021362202134633156 0.014021717213432735 0 0.021631186748755887 0.014031506284546726 0 0.021500928901599149 0.013871635775576305 0 0.021335054672844269 0.013846633732330464 0 0.021362202134633156 0.014021717213432735 0 0.021500928901599149 0.013871635775576305 0 0.021335054672844269 0.013846633732330464 0 0.021463196010426969 0.013744687700435422 0 0.021500928901599149 0.013871635775576305 0 0.021585722030187986 0.013749884466031479 0 0.021463196010426969 0.013744687700435422 0 0.021335054672844269 0.013846633732330464 0 0.021201259586683355 0.013725753598316773 0 0.021463196010426969 0.013744687700435422 0 0.021335054672844269 0.013846633732330464 0 0.021061885685725319 0.013925627677440879 0 0.021201259586683355 0.013725753598316773 0 0.021061885685725319 0.013925627677440879 0 0.021120496795335435 0.014174835288773247 0 0.021362202134633156 0.014021717213432735 0 0.020759237536269643 0.014028365843896919 0 0.021061885685725319 0.013925627677440879 0 0.021120496795335435 0.014174835288773247 0 0.021362202134633156 0.014021717213432735 0 0.02155895500625209 0.014294085151438771 0 0.021631186748755887 0.014031506284546726 0 0.022143991467782183 0.010824168724800092 0 0.021934243142812147 0.010973174974184926 0 0.021120496795335435 0.014174835288773247 0 0.021362202134633156 0.014021717213432735 0 0.02155895500625209 0.014294085151438771 0 0.023365177979829382 0.0075074316501059103 0 0.023258074949295701 0.0072067633199128529 0 0.022946562423937642 0.0075503902274912348 0 0.023365177979829382 0.0075074316501059103 0 0.023258074949295701 0.0072067633199128529 0 0.023373337231296639 0.00740703143379879 0 0.02334570361064946 0.0072114198057917035 0 0.023818467315662586 0.0071886663676373848 0 0.023815437356557761 0.0059753207968410941 0 0.02493679812517639 0.0061177932438729564 0 0.024569148973503426 0.0069435040444401821 0 0.023815437356557761 0.0059753207968410941 0 0.023258074949295701 0.0072067633199128529 0 0.024569148973503426 0.0069435040444401821 0 0.023815437356557761 0.0059753207968410941 0 0.023258074949295701 0.0072067633199128529 0 0.022958667913573736 0.0064211507520237562 0 0.023258074949295701 0.0072067633199128529 0 0.022958667913573736 0.0064211507520237562 0 0.022701467032811201 0.0070209826771064224 0 0.022958667913573736 0.0064211507520237562 0 0.022262653681502178 0.0064699831745864793 0 0.022701467032811201 0.0070209826771064224 0 0.022262653681502178 0.0064699831745864793 0 0.021957021070326713 0.0073633335458856281 0 0.022701467032811201 0.0070209826771064224 0 0.024568452834690082 0.0067224551791811261 0 0.023799928375584811 0.0097701258770103855 0 0.026594276466961355 0.0077286362923859857 0 0.026331174635882113 0.0083205053065817242 0 0.026128916132108732 0.0077123363736485923 0 0.026030402712324152 0.010528650733681222 0 0.026002886925594288 0.010605562028248937 0 0.02594410581164398 0.010495686613742165 0 0.023799928375584811 0.0097701258770103855 0 0.02654807475043448 0.012349275706374511 0 0.022004624414009188 0.01438887628322166 0 0.02155895500625209 0.014294085151438771 0 0.021836568937481159 0.014177520298306451 0 0.023799928375584811 0.0097701258770103855 0 0.021934243142812147 0.010973174974184926 0 0.021957021070326713 0.0073633335458856281 0 0.022701467032811201 0.0070209826771064224 0 0.022946562423937642 0.0075503902274912348 0 0.023258074949295701 0.0072067633199128529 0 0.022701467032811201 0.0070209826771064224 0 0.022946562423937642 0.0075503902274912348 0 0.02155895500625209 0.014294085151438771 0 0.021631186748755887 0.014031506284546726 0 0.021836568937481159 0.014177520298306451 0 0.021631186748755887 0.014031506284546726 0 0.021836568937481159 0.014177520298306451 0 0.02189555850003011 0.013967969678490224 0 0.022004624414009188 0.01438887628322166 0 0.021836568937481159 0.014177520298306451 0 0.022090401296014261 0.014206304949207786 0 0.028286370720221915 0.012578816758118418 0 0.028535921520900329 0.012945790933480162 0 0.028076691991524023 0.01309970454929924 0 0.02654807475043448 0.012349275706374511 0 0.025305984285718751 0.013599367724800238 0 0.021836568937481159 0.014177520298306451 0 0.022090401296014261 0.014206304949207786 0 0.02189555850003011 0.013967969678490224 0 0.028535921520900329 0.012945790933480162 0 0.028076691991524023 0.01309970454929924 0 0.028432515466937428 0.013303925834789095 0 0.028535921520900329 0.012945790933480162 0 0.0287824252072677 0.013312874588736069 0 0.028432515466937428 0.013303925834789095 0 0.025305984285718751 0.013599367724800238 0 0.023700610171325891 0.013514026919583526 0 0.02189555850003011 0.013967969678490224 0 0.021649699721035021 0.01381760551690564 0 0.021704146184339721 0.013719428709967589 0 0.022880759532745033 0.014053086454726405 0 0.023700610171325891 0.013514026919583526 0 0.021649699721035021 0.01381760551690564 0 0.021585722030187986 0.013749884466031479 0 0.021687114247475353 0.013739827740354683 0 0.021500928901599149 0.013871635775576305 0 0.021649699721035021 0.01381760551690564 0 0.021585722030187986 0.013749884466031479 0 0.021500928901599149 0.013871635775576305 0 0.021631186748755887 0.014031506284546726 0 0.021649699721035021 0.01381760551690564 0 0.021631186748755887 0.014031506284546726 0 0.02189555850003011 0.013967969678490224 0 0.021649699721035021 0.01381760551690564 0 0.028207318958269122 0.01182497273873483 0 0.028049245899528702 0.012449932314612968 0 0.027777472227164725 0.012169611083594127 0 0.027871594799234515 0.012847043227653589 0 0.027298569444819013 0.013274929975987297 0 0.028643063835752304 0.011361574488235804 0 0.028602387894233142 0.011539126880509129 0 0.028746139812295776 0.011768988179103299 0 0.028643063835752304 0.011361574488235804 0 0.028602387894233142 0.011539126880509129 0 0.028566066875511848 0.011323743351106022 0 0.027777472227164725 0.012169611083594127 0 0.028580378910579966 0.012352197082525532 0 0.027871594799234515 0.012847043227653589 0 0.027777472227164725 0.012169611083594127 0 0.028580378910579966 0.012352197082525532 0 0.028377186339380304 0.011838460821086692 0 0.028816242963756549 0.011484195156422338 0 0.028580378910579966 0.012352197082525532 0 0.028377186339380304 0.011838460821086692 0 0.02654807475043448 0.012349275706374511 0 0.028532696601640758 0.012579341230435715 0 0.028816242963756549 0.011484195156422338 0 0.028377186339380304 0.011838460821086692 0 0.02839251200417978 0.011381972749103122 0 0.027777472227164725 0.012169611083594127 0 0.028377186339380304 0.011838460821086692 0 0.02839251200417978 0.011381972749103122 0 0.028207318958269122 0.01182497273873483 0 0.028356357791076852 0.011437825910622089 0 0.028643063835752304 0.011361574488235804 0 0.02839251200417978 0.011381972749103122 0 0.028528343332720689 0.0113391951141327 0 0.02839251200417978 0.011381972749103122 0 0.028528343332720689 0.0113391951141327 0 0.028449345771380072 0.011348406206946623 0 0.028643063835752304 0.011361574488235804 0 0.028528343332720689 0.0113391951141327 0 0.028566066875511848 0.011323743351106022 0 0.028528343332720689 0.0113391951141327 0 0.028449345771380072 0.011348406206946623 0 0.028514453649424114 0.011334342577513919 0 0.02716321797509914 0.0097872886572201619 0 0.028597274010834409 0.0093978647726841828 0 0.028449345771380072 0.011348406206946623 0 0.028521787113324978 0.01124915844257649 0 0.028444034220623502 0.011313571304452241 0 0.02839251200417978 0.011381972749103122 0 0.028449345771380072 0.011348406206946623 0 0.028521787113324978 0.01124915844257649 0 0.028449345771380072 0.011348406206946623 0 0.028444034220623502 0.011313571304452241 0 0.028514453649424114 0.011334342577513919 0 0.028816242963756549 0.011484195156422338 0 0.02839251200417978 0.011381972749103122 0 0.028521787113324978 0.01124915844257649 0 0.02654807475043448 0.012349275706374511 0 0.02716321797509914 0.0097872886572201619 0 0.023799928375584811 0.0097701258770103855 0 0.02716321797509914 0.0097872886572201619 0 0.025919425470609575 0.0081903384460689631 0 0.026128916132108732 0.0077123363736485923 0 0.02559997711429839 0.0076799833437329705 0 0.026331174635882113 0.0083205053065817242 0 0.025919425470609575 0.0081903384460689631 0 0.026128916132108732 0.0077123363736485923 0 0.02716321797509914 0.0097872886572201619 0 0.027415871614526879 0.0078026226072431806 0 0.027772747188136555 0.0091124082803116496 0 0.027607650974502389 0.0090570046924209075 0 0.027675359406413531 0.0089505780414543806 0 0.028254026456309179 0.007948118426569336 0 0.02841970457442252 0.0076768789890660945 0 0.028280956516297109 0.0076930080633644451 0 0.028597274010834409 0.0093978647726841828 0 0.027415871614526879 0.0078026226072431806 0 0.027415871614526879 0.0078026226072431806 0 0.027483746331651179 0.007834014354917148 0 0.02841970457442252 0.0076768789890660945 0 0.028391230475011391 0.0076200936179128828 0 0.028280956516297109 0.0076930080633644451 0 0.028254026456309179 0.007948118426569336 0 0.028280956516297109 0.0076930080633644451 0 0.028135683544417589 0.0077372541274441818 0 0.028280956516297109 0.0076930080633644451 0 0.02820912469013306 0.0074225074418597979 0 0.028135683544417589 0.0077372541274441818 0 0.028391230475011391 0.0076200936179128828 0 0.02820912469013306 0.0074225074418597979 0 0.028292478342223915 0.0070916215204460831 0 0.028391230475011391 0.0076200936179128828 0 0.028280956516297109 0.0076930080633644451 0 0.02820912469013306 0.0074225074418597979 0 0.02820912469013306 0.0074225074418597979 0 0.028292478342223915 0.0070916215204460831 0 0.028022160313828343 0.0073005289211476431 0 0.028234430621244328 0.0065863229789451276 0 0.027830962542360754 0.0066285026936737015 0 0.028070343889248811 0.0068825696498806465 0 0.028292478342223915 0.0070916215204460831 0 0.028070343889248811 0.0068825696498806465 0 0.028022160313828343 0.0073005289211476431 0 0.028292478342223915 0.0070916215204460831 0 0.028234430621244328 0.0065863229789451276 0 0.028070343889248811 0.0068825696498806465 0 0.028292478342223915 0.0070916215204460831 0 0.028234430621244328 0.0065863229789451276 0 0.028626851723311083 0.0069421055871884815 0 0.028626851723311083 0.0069421055871884815 0 0.028643302714692908 0.0061802149688244892 0 0.028475473078697532 0.0064416392702589392 0 0.028234430621244328 0.0065863229789451276 0 0.028626851723311083 0.0069421055871884815 0 0.028475473078697532 0.0064416392702589392 0 0.027415871614526879 0.0078026226072431806 0 0.027176992109775339 0.0071030052505188139 0 0.028391230475011391 0.0076200936179128828 0 0.028292478342223915 0.0070916215204460831 0 0.028626851723311083 0.0069421055871884815 0 0.026128916132108732 0.0077123363736485923 0 0.02559997711429839 0.0076799833437329705 0 0.025998955866126765 0.0070806537165681773 0 0.02842846614944498 0.007674880825591042 0 0.028391230475011391 0.0076200936179128828 0 0.028626851723311083 0.0069421055871884815 0 0.026128916132108732 0.0077123363736485923 0 0.025998955866126765 0.0070806537165681773 0 0.026399894997611511 0.0072468220859279531 0 0.026594276466961355 0.0077286362923859857 0 0.026128916132108732 0.0077123363736485923 0 0.026399894997611511 0.0072468220859279531 0 0.026594276466961355 0.0077286362923859857 0 0.026399894997611511 0.0072468220859279531 0 0.026851406458479891 0.0071406230891147074 0 0.022958667913573736 0.0064211507520237562 0 0.022262653681502178 0.0064699831745864793 0 0.022642355834859462 0.0054365280963092778 0 0.024568452834690082 0.0067224551791811261 0 0.024629966773601856 0.0063749492808244509 0 0.027104792860034633 0.0065624209632538736 0 0.026851406458479891 0.0071406230891147074 0 0.026404542122124949 0.0064865087304800482 0 0.02630335035264017 0.0057228060339643665 0 0.024629966773601856 0.0063749492808244509 0 0.026399894997611511 0.0072468220859279531 0 0.026851406458479891 0.0071406230891147074 0 0.026404542122124949 0.0064865087304800482 0 0.025998955866126765 0.0070806537165681773 0 0.026399894997611511 0.0072468220859279531 0 0.026404542122124949 0.0064865087304800482 0 0.027176992109775339 0.0071030052505188139 0 0.027984501102594362 0.0060058009216319994 0 0.028626851723311083 0.0069421055871884815 0 0.028643302714692908 0.0061802149688244892 0 0.028716299564389116 0.0061821380704414463 0 0.028184021460790461 0.0060363139815162803 0 0.027984501102594362 0.0060058009216319994 0 0.027984501102594362 0.0060058009216319994 0 0.028600501716914657 0.0052953544426668202 0 0.028672099836635892 0.0061611556333502106 0 0.028603520605774983 0.0056778772821984881 0 0.028510496615095384 0.0058630034226777612 0 0.028643302714692908 0.0061802149688244892 0 0.028672099836635892 0.0061611556333502106 0 0.028510496615095384 0.0058630034226777612 0 0.028643302714692908 0.0061802149688244892 0 0.028510496615095384 0.0058630034226777612 0 0.028503002826347743 0.0061181347512642512 0 0.028348134878050775 0.004894987628066204 0 0.028583417095940446 0.0049417364813332167 0 0.028411468270800634 0.0049727609477866128 0 0.02630335035264017 0.0057228060339643665 0 0.027984501102594362 0.0060058009216319994 0 0.028583417095940446 0.0049417364813332167 0 0.028411468270800634 0.0049727609477866128 0 0.028500616026458377 0.0050746007118846886 0 0.028415838149772606 0.0053869959641995114 0 0.028408879230139614 0.0052417559807219983 0 0.028603520605774983 0.0056778772821984881 0 0.028408879230139614 0.0052417559807219983 0 0.028350194324518817 0.0050574814010246223 0 0.028500616026458377 0.0050746007118846886 0 0.028350194324518817 0.0050574814010246223 0 0.028411468270800634 0.0049727609477866128 0 0.028500616026458377 0.0050746007118846886 0 0.028419727010247864 0.0053411300557129112 0 0.028600501716914657 0.0052953544426668202 0 0.028415838149772606 0.0053869959641995114 0 0.028510496615095384 0.0058630034226777612 0 0.028325626346516558 0.0056482010486688045 0 0.028415838149772606 0.0053869959641995114 0 0.028603520605774983 0.0056778772821984881 0 0.028510496615095384 0.0058630034226777612 0 0.0281654841758213 0.0057904583022770845 0 0.028112617548040276 0.0061936779411208929 0 0.028370912568781693 0.0060085882257778301 0 0.028510496615095384 0.0058630034226777612 0 0.028325626346516558 0.0056482010486688045 0 0.028370912568781693 0.0060085882257778301 0 0.028325626346516558 0.0056482010486688045 0 0.0281654841758213 0.0057904583022770845 0 0.028370912568781693 0.0060085882257778301 0 0.028092139433230679 0.0054297852545495589 0 0.028325626346516558 0.0056482010486688045 0 0.0281654841758213 0.0057904583022770845 0 0.0281654841758213 0.0057904583022770845 0 0.027892467021080902 0.0057151992683757182 0 0.028112617548040276 0.0061936779411208929 0 0.028234430621244328 0.0065863229789451276 0 0.028112617548040276 0.0061936779411208929 0 0.027830962542360754 0.0066285026936737015 0 0.028234430621244328 0.0065863229789451276 0 0.028112617548040276 0.0061936779411208929 0 0.028475473078697532 0.0064416392702589392 0 0.028112617548040276 0.0061936779411208929 0 0.028475473078697532 0.0064416392702589392 0 0.028370912568781693 0.0060085882257778301 0 0.028643302714692908 0.0061802149688244892 0 0.028475473078697532 0.0064416392702589392 0 0.028503002826347743 0.0061181347512642512 0 0.028475473078697532 0.0064416392702589392 0 0.028503002826347743 0.0061181347512642512 0 0.028370912568781693 0.0060085882257778301 0 0.028510496615095384 0.0058630034226777612 0 0.028503002826347743 0.0061181347512642512 0 0.028370912568781693 0.0060085882257778301 0 0.027830962542360754 0.0066285026936737015 0 0.027633288656425243 0.006057349279313843 0 0.027199140324953398 0.0066578298126828651 0 0.027633288656425243 0.006057349279313843 0 0.027176700711187562 0.0059731531425656365 0 0.027199140324953398 0.0066578298126828651 0 0.028112617548040276 0.0061936779411208929 0 0.027830962542360754 0.0066285026936737015 0 0.027633288656425243 0.006057349279313843 0 0.027892467021080902 0.0057151992683757182 0 0.028112617548040276 0.0061936779411208929 0 0.027633288656425243 0.006057349279313843 0 0.027440846457281058 0.0055531938628948681 0 0.027892467021080902 0.0057151992683757182 0 0.027633288656425243 0.006057349279313843 0 0.027440846457281058 0.0055531938628948681 0 0.027633288656425243 0.006057349279313843 0 0.027176700711187562 0.0059731531425656365 0 0.027141399810694373 0.0056299396899746213 0 0.027136794320523728 0.0063564041248605077 0 0.026799986406119886 0.0059996658907052452 0 0.026885386910410373 0.0058227285007603907 0 0.026769637800098882 0.0064658676579170656 0 0.026624566671675811 0.0059370227515690432 0 0.027199140324953398 0.0066578298126828651 0 0.026477456606227592 0.0068312898253670359 0 0.027176700711187562 0.0059731531425656365 0 0.026624566671675811 0.0059370227515690432 0 0.027199140324953398 0.0066578298126828651 0 0.027199140324953398 0.0066578298126828651 0 0.026798267147834516 0.0073399832319259988 0 0.027249270672469426 0.0075691853663444001 0 0.027199140324953398 0.0066578298126828651 0 0.026477456606227592 0.0068312898253670359 0 0.026798267147834516 0.0073399832319259988 0 0.027136794320523728 0.0063564041248605077 0 0.02708516722510982 0.0071616289488447274 0 0.026700250572350925 0.0065575404172064158 0 0.026769637800098882 0.0064658676579170656 0 0.026936872212932932 0.0082962198450962765 0 0.026477456606227592 0.0068312898253670359 0 0.026798267147834516 0.0073399832319259988 0 0.026217608661191796 0.0081489168961719205 0 0.026798267147834516 0.0073399832319259988 0 0.026217608661191796 0.0081489168961719205 0 0.026830450445539823 0.0078148415195823991 0 0.026217608661191796 0.0081489168961719205 0 0.026830450445539823 0.0078148415195823991 0 0.027142864705090843 0.008337988354426517 0 0.027249270672469426 0.0075691853663444001 0 0.027918724486817575 0.0082651272328918123 0 0.027142864705090843 0.008337988354426517 0 0.026798267147834516 0.0073399832319259988 0 0.027249270672469426 0.0075691853663444001 0 0.026830450445539823 0.0078148415195823991 0 0.027249270672469426 0.0075691853663444001 0 0.026830450445539823 0.0078148415195823991 0 0.027142864705090843 0.008337988354426517 0 0.027249270672469426 0.0075691853663444001 0 0.027738175834270708 0.0073476512256516096 0 0.027918724486817575 0.0082651272328918123 0 0.027738175834270708 0.0073476512256516096 0 0.028004390249449358 0.0076945864736575557 0 0.027918724486817575 0.0082651272328918123 0 0.027830962542360754 0.0066285026936737015 0 0.027199140324953398 0.0066578298126828651 0 0.027738175834270708 0.0073476512256516096 0 0.027199140324953398 0.0066578298126828651 0 0.027249270672469426 0.0075691853663444001 0 0.027738175834270708 0.0073476512256516096 0 0.027830962542360754 0.0066285026936737015 0 0.027738175834270708 0.0073476512256516096 0 0.028022160313828343 0.0073005289211476431 0 0.027830962542360754 0.0066285026936737015 0 0.028070343889248811 0.0068825696498806465 0 0.028022160313828343 0.0073005289211476431 0 0.02820912469013306 0.0074225074418597979 0 0.028022160313828343 0.0073005289211476431 0 0.028004390249449358 0.0076945864736575557 0 0.027738175834270708 0.0073476512256516096 0 0.028022160313828343 0.0073005289211476431 0 0.028004390249449358 0.0076945864736575557 0 0.02820912469013306 0.0074225074418597979 0 0.028004390249449358 0.0076945864736575557 0 0.028135683544417589 0.0077372541274441818 0 0.028004390249449358 0.0076945864736575557 0 0.02800063492429242 0.0079170038491204273 0 0.027918724486817575 0.0082651272328918123 0 0.028004390249449358 0.0076945864736575557 0 0.028135683544417589 0.0077372541274441818 0 0.02800063492429242 0.0079170038491204273 0 0.028254026456309179 0.007948118426569336 0 0.028135683544417589 0.0077372541274441818 0 0.02800063492429242 0.0079170038491204273 0 0.028597274010834409 0.0093978647726841828 0 0.028569623980268827 0.0083727903006820779 0 0.02912445035863934 0.008721354254310313 0 0.027918724486817575 0.0082651272328918123 0 0.02807002507225442 0.0099549434884216061 0 0.027918724486817575 0.0082651272328918123 0 0.02807002507225442 0.0099549434884216061 0 0.027600613295283287 0.0090486761302385338 0 0.028569623980268827 0.0083727903006820779 0 0.0279591289099121 0.0082286891792911817 0 0.030159501180524781 0.0090501491135257604 0 0.02912445035863934 0.008721354254310313 0 0.0293658233492032 0.010194060627618384 0 0.028597274010834409 0.0093978647726841828 0 0.02893433057606843 0.010821023007209904 0 0.02912445035863934 0.008721354254310313 0 0.02807002507225442 0.0099549434884216061 0 0.0293658233492032 0.010194060627618384 0 0.028514453649424114 0.011334342577513919 0 0.028533600869987831 0.0112104908313323 0 0.028566066875511848 0.011323743351106022 0 0.02893433057606843 0.010821023007209904 0 0.028593099106214565 0.011159883809315381 0 0.028528343332720689 0.0113391951141327 0 0.028514453649424114 0.011334342577513919 0 0.028566066875511848 0.011323743351106022 0 0.02807002507225442 0.0099549434884216061 0 0.028533600869987831 0.0112104908313323 0 0.02803823936572606 0.011344353620830453 0 0.02807002507225442 0.0099549434884216061 0 0.0293658233492032 0.010194060627618384 0 0.028533600869987831 0.0112104908313323 0 0.028467635489142867 0.011546719389634291 0 0.02803823936572606 0.011344353620830453 0 0.028124268210775023 0.011796714563406942 0 0.028533600869987831 0.0112104908313323 0 0.028467635489142867 0.011546719389634291 0 0.02803823936572606 0.011344353620830453 0 0.028467635489142867 0.011546719389634291 0 0.028602387894233142 0.011539126880509129 0 0.028566066875511848 0.011323743351106022 0 0.028533600869987831 0.0112104908313323 0 0.028467635489142867 0.011546719389634291 0 0.028566066875511848 0.011323743351106022 0 0.027573025881509481 0.010815151583171704 0 0.027108415533330307 0.010841560816523797 0 0.027758427206524151 0.011831411120634849 0 0.027108415533330307 0.010841560816523797 0 0.026811855812080052 0.011564440340112944 0 0.027758427206524151 0.011831411120634849 0 0.02803823936572606 0.011344353620830453 0 0.027573025881509481 0.010815151583171704 0 0.027758427206524151 0.011831411120634849 0 0.02803823936572606 0.011344353620830453 0 0.027758427206524151 0.011831411120634849 0 0.028124268210775023 0.011796714563406942 0 0.02807002507225442 0.0099549434884216061 0 0.027573025881509481 0.010815151583171704 0 0.027231074505856441 0.010169920961176682 0 0.02807002507225442 0.0099549434884216061 0 0.02803823936572606 0.011344353620830453 0 0.027573025881509481 0.010815151583171704 0 0.027573025881509481 0.010815151583171704 0 0.027108415533330307 0.010841560816523797 0 0.027231074505856441 0.010169920961176682 0 0.027108415533330307 0.010841560816523797 0 0.027231074505856441 0.010169920961176682 0 0.026889267353632677 0.010082394611747654 0 0.027231074505856441 0.010169920961176682 0 0.027037315003099353 0.0096917753329986943 0 0.026889267353632677 0.010082394611747654 0 0.027231074505856441 0.010169920961176682 0 0.027037315003099353 0.0096917753329986943 0 0.02716513925973869 0.009483928131502662 0 0.027037315003099353 0.0096917753329986943 0 0.026769130235229217 0.0096239648820373325 0 0.026889267353632677 0.010082394611747654 0 0.02807002507225442 0.0099549434884216061 0 0.02716513925973869 0.009483928131502662 0 0.027600613295283287 0.0090486761302385338 0 0.02807002507225442 0.0099549434884216061 0 0.027231074505856441 0.010169920961176682 0 0.02716513925973869 0.009483928131502662 0 0.027918724486817575 0.0082651272328918123 0 0.027600613295283287 0.0090486761302385338 0 0.027142864705090843 0.008337988354426517 0 0.02716513925973869 0.009483928131502662 0 0.027600613295283287 0.0090486761302385338 0 0.027142864705090843 0.008337988354426517 0 0.026936872212932932 0.0082962198450962765 0 0.027118099147378897 0.0095142379557730892 0 0.026217608661191796 0.0081489168961719205 0 0.02716513925973869 0.009483928131502662 0 0.027142864705090843 0.008337988354426517 0 0.027082754096291132 0.0093217872648479923 0 0.02716513925973869 0.009483928131502662 0 0.027074885375351909 0.0093913698232363507 0 0.027037315003099353 0.0096917753329986943 0 0.027074885375351909 0.0093913698232363507 0 0.026769130235229217 0.0096239648820373325 0 0.027037315003099353 0.0096917753329986943 0 0.02716513925973869 0.009483928131502662 0 0.027074885375351909 0.0093913698232363507 0 0.027150659033479484 0.009118944788478623 0 0.027074885375351909 0.0093913698232363507 0 0.026842603101603652 0.009210494907831818 0 0.026936872212932932 0.0082962198450962765 0 0.026960172654720626 0.0092185829982765147 0 0.026842603101603652 0.009210494907831818 0 0.026454564181399558 0.0092809048515987043 0 0.026731315924393293 0.0089093063237528896 0 0.026842603101603652 0.009210494907831818 0 0.026769130235229217 0.0096239648820373325 0 0.026454564181399558 0.0092809048515987043 0 0.027074885375351909 0.0093913698232363507 0 0.026842603101603652 0.009210494907831818 0 0.026769130235229217 0.0096239648820373325 0 0.026454564181399558 0.0092809048515987043 0 0.026158972561364853 0.010208564710558102 0 0.025906251840569806 0.009332753644314927 0 0.026401646487006082 0.010581173804384673 0 0.026046928752937099 0.0095674973938969111 0 0.026769130235229217 0.0096239648820373325 0 0.026454564181399558 0.0092809048515987043 0 0.026158972561364853 0.010208564710558102 0 0.026769130235229217 0.0096239648820373325 0 0.026158972561364853 0.010208564710558102 0 0.026889267353632677 0.010082394611747654 0 0.027108415533330307 0.010841560816523797 0 0.026158972561364853 0.010208564710558102 0 0.026811855812080052 0.011564440340112944 0 0.027108415533330307 0.010841560816523797 0 0.026158972561364853 0.010208564710558102 0 0.026889267353632677 0.010082394611747654 0 0.026401646487006082 0.010581173804384673 0 0.026802910362382592 0.011496986791301324 0 0.026616235759290181 0.010927465545931431 0 0.026811855812080052 0.011564440340112944 0 0.026004683892480767 0.011921249980358709 0 0.026811855812080052 0.011564440340112944 0 0.026004683892480767 0.011921249980358709 0 0.026442842366728756 0.012478130728073073 0 0.026004683892480767 0.011921249980358709 0 0.02499992887564419 0.011576129133654659 0 0.024999822990058776 0.013028522749360175 0 0.026616235759290181 0.010927465545931431 0 0.026004683892480767 0.011921249980358709 0 0.025750377925585006 0.010680732478377782 0 0.026004683892480767 0.011921249980358709 0 0.02499992887564419 0.011576129133654659 0 0.025750377925585006 0.010680732478377782 0 0.02499992887564419 0.011576129133654659 0 0.025750377925585006 0.010680732478377782 0 0.02499987800162207 0.010123860854286312 0 0.026616235759290181 0.010927465545931431 0 0.025750377925585006 0.010680732478377782 0 0.026224470224172538 0.009825897158450881 0 0.025750377925585006 0.010680732478377782 0 0.026224470224172538 0.009825897158450881 0 0.025484500543963989 0.0094945376116280233 0 0.025750377925585006 0.010680732478377782 0 0.025484500543963989 0.0094945376116280233 0 0.02499987800162207 0.010123860854286312 0 0.025484500543963989 0.0094945376116280233 0 0.02499987800162207 0.010123860854286312 0 0.024999886092944196 0.0086711342542924539 0 0.025484500543963989 0.0094945376116280233 0 0.025584422542827508 0.0085766778217801608 0 0.024999886092944196 0.0086711342542924539 0 0.024999886092944196 0.0086711342542924539 0 0.025466253286077628 0.0079108118726636378 0 0.024999907152146037 0.0072188580921443467 0 0.025584422542827508 0.0085766778217801608 0 0.024999886092944196 0.0086711342542924539 0 0.025466253286077628 0.0079108118726636378 0 0.025584422542827508 0.0085766778217801608 0 0.025954820131315372 0.0079364113911662062 0 0.026315021569958706 0.0085682172170356372 0 0.025584422542827508 0.0085766778217801608 0 0.025466253286077628 0.0079108118726636378 0 0.025954820131315372 0.0079364113911662062 0 0.026046928752937099 0.0095674973938969111 0 0.025602147898036002 0.0086414700332839572 0 0.025906251840569806 0.009332753644314927 0 0.025584422542827508 0.0085766778217801608 0 0.026315021569958706 0.0085682172170356372 0 0.026224470224172538 0.009825897158450881 0 0.025484500543963989 0.0094945376116280233 0 0.025584422542827508 0.0085766778217801608 0 0.026454564181399558 0.0092809048515987043 0 0.025906251840569806 0.009332753644314927 0 0.026315021569958706 0.0085682172170356372 0 0.026454564181399558 0.0092809048515987043 0 0.026315021569958706 0.0085682172170356372 0 0.026731315924393293 0.0089093063237528896 0 0.026936872212932932 0.0082962198450962765 0 0.026804858046838631 0.0074285946069368941 0 0.027150659033479484 0.009118944788478623 0 0.026731315924393293 0.0089093063237528896 0 0.026883242701320875 0.008361502737174089 0 0.026315021569958706 0.0085682172170356372 0 0.026731315924393293 0.0089093063237528896 0 0.026883242701320875 0.008361502737174089 0 0.027150659033479484 0.009118944788478623 0 0.026842603101603652 0.009210494907831818 0 0.026731315924393293 0.0089093063237528896 0 0.026804858046838631 0.0074285946069368941 0 0.02648325491446734 0.0067341514427930703 0 0.027136794320523728 0.0063564041248605077 0 0.026700250572350925 0.0065575404172064158 0 0.026799986406119886 0.0059996658907052452 0 0.025954820131315372 0.0079364113911662062 0 0.026315021569958706 0.0085682172170356372 0 0.026609927588029911 0.0074867439103725236 0 0.026315021569958706 0.0085682172170356372 0 0.026883242701320875 0.008361502737174089 0 0.026609927588029911 0.0074867439103725236 0 0.026700250572350925 0.0065575404172064158 0 0.026375845227944558 0.0059974280724113867 0 0.026799986406119886 0.0059996658907052452 0 0.026375845227944558 0.0059974280724113867 0 0.026799986406119886 0.0059996658907052452 0 0.026644043764933869 0.0055092685784567594 0 0.027141399810694373 0.0056299396899746213 0 0.026799986406119886 0.0059996658907052452 0 0.026644043764933869 0.0055092685784567594 0 0.026375845227944558 0.0059974280724113867 0 0.026644043764933869 0.0055092685784567594 0 0.026076806092941683 0.0055115409583672611 0 0.02648325491446734 0.0067341514427930703 0 0.02612551930366204 0.0059682767214520602 0 0.026609927588029911 0.0074867439103725236 0 0.026202344568257926 0.0064350786604571624 0 0.025759049639107252 0.007181518355249771 0 0.026202344568257926 0.0064350786604571624 0 0.025512186484674088 0.0063918707337616894 0 0.025759049639107252 0.007181518355249771 0 0.024999919789294466 0.0057663290360228242 0 0.025512186484674088 0.0063918707337616894 0 0.024999907152146037 0.0072188580921443467 0 0.025512186484674088 0.0063918707337616894 0 0.024999907152146037 0.0072188580921443467 0 0.025759049639107252 0.007181518355249771 0 0.025466253286077628 0.0079108118726636378 0 0.024999907152146037 0.0072188580921443467 0 0.025759049639107252 0.007181518355249771 0 0.025954820131315372 0.0079364113911662062 0 0.026609927588029911 0.0074867439103725236 0 0.025759049639107252 0.007181518355249771 0 0.025466253286077628 0.0079108118726636378 0 0.025954820131315372 0.0079364113911662062 0 0.025759049639107252 0.007181518355249771 0 0.025138951001059642 0.018129678162550587 0 0.025249943895846148 0.018387752730399314 0 0.025317370541617819 0.017671742597454777 0 0.025249943895846148 0.018387752730399314 0 0.025317370541617819 0.017671742597454777 0 0.025475669275741276 0.017946314214249404 0 0.025138951001059642 0.018129678162550587 0 0.025317370541617819 0.017671742597454777 0 0.024999598291918262 0.017407529625948673 0 0.025138951001059642 0.018129678162550587 0 0.024999598291918262 0.017407529625948673 0 0.025021483952644957 0.018380134278550422 0 0.024999598291918262 0.017407529625948673 0 0.025021483952644957 0.018380134278550422 0 0.024998835585099712 0.018756062054699905 0 0.025021483952644957 0.018380134278550422 0 0.024874123356219097 0.018966108449070582 0 0.024998835585099712 0.018756062054699905 0 0.025021483952644957 0.018380134278550422 0 0.024874123356219097 0.018966108449070582 0 0.02501874128495906 0.018712996810557131 0 0.024874123356219097 0.018966108449070582 0 0.02501874128495906 0.018712996810557131 0 0.024784999850770168 0.01940087102459942 0 0.025138951001059642 0.018129678162550587 0 0.025249943895846148 0.018387752730399314 0 0.02501874128495906 0.018712996810557131 0 0.025138951001059642 0.018129678162550587 0 0.025021483952644957 0.018380134278550422 0 0.02501874128495906 0.018712996810557131 0 0.025249943895846148 0.018387752730399314 0 0.02501874128495906 0.018712996810557131 0 0.025071156632887611 0.018870418835496425 0 0.02501874128495906 0.018712996810557131 0 0.025071156632887611 0.018870418835496425 0 0.024784999850770168 0.01940087102459942 0 0.025029586407650999 0.019208549119038944 0 0.025266813273881878 0.018703211240008118 0 0.025275393110515149 0.019223555818712972 0 0.025029586407650999 0.019208549119038944 0 0.025275393110515149 0.019223555818712972 0 0.024742184341601827 0.019946355685458699 0 0.025029586407650999 0.019208549119038944 0 0.025071156632887611 0.018870418835496425 0 0.024784999850770168 0.01940087102459942 0 0.025266813273881878 0.018703211240008118 0 0.025275393110515149 0.019223555818712972 0 0.025549281246662926 0.018238517013502625 0 0.025249943895846148 0.018387752730399314 0 0.025266813273881878 0.018703211240008118 0 0.025071156632887611 0.018870418835496425 0 0.025029586407650999 0.019208549119038944 0 0.025266813273881878 0.018703211240008118 0 0.025071156632887611 0.018870418835496425 0 0.026362768980799763 0.018721485138028453 0 0.026531287142200672 0.018223518521135081 0 0.026897537072512488 0.018641390719969668 0 0.025898489435965892 0.019007330705467715 0 0.026027265021438217 0.017668607022785891 0 0.026531287142200672 0.018223518521135081 0 0.025898311551940147 0.018093262359438041 0 0.02650541478651048 0.01774433799013796 0 0.026362768980799763 0.018721485138028453 0 0.026531287142200672 0.018223518521135081 0 0.025898311551940147 0.018093262359438041 0 0.025275393110515149 0.019223555818712972 0 0.025549281246662926 0.018238517013502625 0 0.025599266580947921 0.018149350309316397 0 0.025249943895846148 0.018387752730399314 0 0.025386316753976186 0.018324399119401539 0 0.025475669275741276 0.017946314214249404 0 0.025266813273881878 0.018703211240008118 0 0.025386316753976186 0.018324399119401539 0 0.025549281246662926 0.018238517013502625 0 0.025249943895846148 0.018387752730399314 0 0.025266813273881878 0.018703211240008118 0 0.025386316753976186 0.018324399119401539 0 0.025993090800824015 0.017762393248914054 0 0.026027265021438217 0.017668607022785891 0 0.025386316753976186 0.018324399119401539 0 0.025549281246662926 0.018238517013502625 0 0.025475669275741276 0.017946314214249404 0 0.025549281246662926 0.018238517013502625 0 0.025626347664684888 0.018109101579668444 0 0.025475669275741276 0.017946314214249404 0 0.026549977992812297 0.016803906738435327 0 0.026399001856376118 0.015925338924301029 0 0.026763187940845794 0.015733634432570819 0 0.025626347664684888 0.018109101579668444 0 0.025475669275741276 0.017946314214249404 0 0.025721585704168496 0.016930069754905866 0 0.026027265021438217 0.017668607022785891 0 0.025806551741844541 0.016407863356815964 0 0.026549977992812297 0.016803906738435327 0 0.026399001856376118 0.015925338924301029 0 0.025973269931488518 0.016012735482045532 0 0.025898311551940147 0.018093262359438041 0 0.026122875314354779 0.017150559587745605 0 0.02613552123090436 0.017239816235723602 0 0.026027265021438217 0.017668607022785891 0 0.02647305632708891 0.016380273854657554 0 0.025898311551940147 0.018093262359438041 0 0.02650541478651048 0.01774433799013796 0 0.02613552123090436 0.017239816235723602 0 0.02650541478651048 0.01774433799013796 0 0.02613552123090436 0.017239816235723602 0 0.027039544011012877 0.017214784163954746 0 0.027148959387416918 0.017042070435754189 0 0.025534199513199927 0.017791732732615376 0 0.027244701858534 0.016321751956614429 0 0.02613552123090436 0.017239816235723602 0 0.028359306281821001 0.017093725340954543 0 0.027244701858534 0.016321751956614429 0 0.026122875314354779 0.017150559587745605 0 0.02613552123090436 0.017239816235723602 0 0.026399001856376118 0.015925338924301029 0 0.026478509682896171 0.015609261154108567 0 0.026173002377386165 0.015511536329116357 0 0.026399001856376118 0.015925338924301029 0 0.026173002377386165 0.015511536329116357 0 0.025973269931488518 0.016012735482045532 0 0.026399001856376118 0.015925338924301029 0 0.026763187940845794 0.015733634432570819 0 0.026478509682896171 0.015609261154108567 0 0.026763187940845794 0.015733634432570819 0 0.026478509682896171 0.015609261154108567 0 0.026580591825594076 0.015265402669595517 0 0.026478509682896171 0.015609261154108567 0 0.026580591825594076 0.015265402669595517 0 0.026173002377386165 0.015511536329116357 0 0.026173002377386165 0.015511536329116357 0 0.025973269931488518 0.016012735482045532 0 0.025453563532782841 0.015237808240878219 0 0.025806551741844541 0.016407863356815964 0 0.025460304028649128 0.015495925614268481 0 0.025721585704168496 0.016930069754905866 0 0.025291224640722105 0.016796138150750657 0 0.025520796978742662 0.015741311853604955 0 0.025317370541617819 0.017671742597454777 0 0.025475669275741276 0.017946314214249404 0 0.025721585704168496 0.016930069754905866 0 0.025317370541617819 0.017671742597454777 0 0.025721585704168496 0.016930069754905866 0 0.025291224640722105 0.016796138150750657 0 0.024999598291918262 0.017407529625948673 0 0.025291224640722105 0.016796138150750657 0 0.024999644858410015 0.016057922995528905 0 0.025317370541617819 0.017671742597454777 0 0.024999598291918262 0.017407529625948673 0 0.025291224640722105 0.016796138150750657 0 0.025291224640722105 0.016796138150750657 0 0.024999644858410015 0.016057922995528905 0 0.025520796978742662 0.015741311853604955 0 0.025460304028649128 0.015495925614268481 0 0.025000069083843016 0.014708412401250107 0 0.024999644858410015 0.016057922995528905 0 0.025520796978742662 0.015741311853604955 0 0.025000095267308762 0.014708322104371657 0 0.025453563532782841 0.015237808240878219 0 0.025463291040477121 0.014739025352793166 0 0.024999872372799197 0.01470754360153646 0 0.026173002377386165 0.015511536329116357 0 0.025453563532782841 0.015237808240878219 0 0.026107632822602068 0.014965575033400399 0 0.025463291040477121 0.014739025352793166 0 0.026107632822602068 0.014965575033400399 0 0.025807439063033601 0.014290951221344885 0 0.025453563532782841 0.015237808240878219 0 0.025463291040477121 0.014739025352793166 0 0.026107632822602068 0.014965575033400399 0 0.026107632822602068 0.014965575033400399 0 0.025807439063033601 0.014290951221344885 0 0.026438754860219144 0.014539991033295578 0 0.025849386790769351 0.014068949822433664 0 0.024999857395424128 0.014480607537359431 0 0.025441434605417042 0.013664564021135556 0 0.02584184158020468 0.014185884382761391 0 0.025000099685705782 0.014481112576291527 0 0.025463291040477121 0.014739025352793166 0 0.025807439063033601 0.014290951221344885 0 0.025000059334854725 0.014481773234651583 0 0.025463291040477121 0.014739025352793166 0 0.024999872372799197 0.01470754360153646 0 0.025000059334854725 0.014481773234651583 0 0.024999857395424128 0.014480607537359431 0 0.025441434605417042 0.013664564021135556 0 0.024999822990058776 0.013028522749360175 0 0.025441434605417042 0.013664564021135556 0 0.025879247831202969 0.0130667875321427 0 0.024999822990058776 0.013028522749360175 0 0.025849386790769351 0.014068949822433664 0 0.025879247831202969 0.0130667875321427 0 0.026597742808046228 0.013161443414841411 0 0.025849386790769351 0.014068949822433664 0 0.025441434605417042 0.013664564021135556 0 0.025879247831202969 0.0130667875321427 0 0.026004683892480767 0.011921249980358709 0 0.025879247831202969 0.0130667875321427 0 0.024999822990058776 0.013028522749360175 0 0.026004683892480767 0.011921249980358709 0 0.025879247831202969 0.0130667875321427 0 0.026442842366728756 0.012478130728073073 0 0.026811855812080052 0.011564440340112944 0 0.02684253456660407 0.012369165142464351 0 0.027341595630021816 0.012344488698630984 0 0.026811855812080052 0.011564440340112944 0 0.02684253456660407 0.012369165142464351 0 0.026442842366728756 0.012478130728073073 0 0.02684253456660407 0.012369165142464351 0 0.026442842366728756 0.012478130728073073 0 0.026842411721110862 0.012795885294764889 0 0.027092507114449185 0.012642042635018835 0 0.02684253456660407 0.012369165142464351 0 0.027341595630021816 0.012344488698630984 0 0.027092507114449185 0.012642042635018835 0 0.02684253456660407 0.012369165142464351 0 0.026842411721110862 0.012795885294764889 0 0.025879247831202969 0.0130667875321427 0 0.026442842366728756 0.012478130728073073 0 0.026597742808046228 0.013161443414841411 0 0.026442842366728756 0.012478130728073073 0 0.026597742808046228 0.013161443414841411 0 0.026842411721110862 0.012795885294764889 0 0.026597742808046228 0.013161443414841411 0 0.026842411721110862 0.012795885294764889 0 0.027097343274405692 0.01291971571500654 0 0.026597742808046228 0.013161443414841411 0 0.027458021688039642 0.013297880814315544 0 0.027165452532216847 0.013309061353975067 0 0.026582715828532139 0.013125073478682466 0 0.027448301746094157 0.013137858935455302 0 0.026597742808046228 0.013161443414841411 0 0.027165452532216847 0.013309061353975067 0 0.026757553215461406 0.013960981397057537 0 0.027092507114449185 0.012642042635018835 0 0.026842411721110862 0.012795885294764889 0 0.027097343274405692 0.01291971571500654 0 0.027458021688039642 0.013297880814315544 0 0.027165452532216847 0.013309061353975067 0 0.027323562640864787 0.014034540550542415 0 0.027130838106416592 0.013413736100880815 0 0.026785650871716908 0.014891751826871327 0 0.027165452532216847 0.013309061353975067 0 0.026757553215461406 0.013960981397057537 0 0.026998335713872664 0.014630188906375984 0 0.027165452532216847 0.013309061353975067 0 0.027323562640864787 0.014034540550542415 0 0.026568084036811414 0.015147475531707354 0 0.027323562640864787 0.014034540550542415 0 0.027384652966360046 0.014502861448747397 0 0.026568084036811414 0.015147475531707354 0 0.027384652966360046 0.014502861448747397 0 0.026568084036811414 0.015147475531707354 0 0.027566048151984879 0.015252649556902927 0 0.02584184158020468 0.014185884382761391 0 0.026711072821207583 0.013994297133596106 0 0.025807439063033601 0.014290951221344885 0 0.026757553215461406 0.013960981397057537 0 0.026438754860219144 0.014539991033295578 0 0.025849386790769351 0.014068949822433664 0 0.026597742808046228 0.013161443414841411 0 0.026757553215461406 0.013960981397057537 0 0.026757553215461406 0.013960981397057537 0 0.026438754860219144 0.014539991033295578 0 0.026998335713872664 0.014630188906375984 0 0.026763187940845794 0.015733634432570819 0 0.026580591825594076 0.015265402669595517 0 0.026998335713872664 0.014630188906375984 0 0.026107632822602068 0.014965575033400399 0 0.026438754860219144 0.014539991033295578 0 0.026526120373698111 0.014851994836201815 0 0.026438754860219144 0.014539991033295578 0 0.026526120373698111 0.014851994836201815 0 0.026998335713872664 0.014630188906375984 0 0.026580591825594076 0.015265402669595517 0 0.026526120373698111 0.014851994836201815 0 0.026998335713872664 0.014630188906375984 0 0.026580591825594076 0.015265402669595517 0 0.026107632822602068 0.014965575033400399 0 0.026526120373698111 0.014851994836201815 0 0.026580591825594076 0.015265402669595517 0 0.026173002377386165 0.015511536329116357 0 0.026107632822602068 0.014965575033400399 0 0.027244701858534 0.016321751956614429 0 0.026122875314354779 0.017150559587745605 0 0.026568084036811414 0.015147475531707354 0 0.02647305632708891 0.016380273854657554 0 0.026785650871716908 0.014891751826871327 0 0.027244701858534 0.016321751956614429 0 0.026568084036811414 0.015147475531707354 0 0.027566048151984879 0.015252649556902927 0 0.027244701858534 0.016321751956614429 0 0.02854606185258135 0.015169570090938814 0 0.028359306281821001 0.017093725340954543 0 0.027244701858534 0.016321751956614429 0 0.02854606185258135 0.015169570090938814 0 0.027566048151984879 0.015252649556902927 0 0.026863835981514362 0.015295369365028745 0 0.025534199513199927 0.017791732732615376 0 0.025014096986097141 0.015584980553634024 0 0.026195514473112694 0.016027375224374189 0 0.025902437402500346 0.016940497723636445 0 0.025014096986097141 0.015584980553634024 0 0.026074996408869178 0.015180523000637597 0 0.026195514473112694 0.016027375224374189 0 0.026863835981514362 0.015295369365028745 0 0.027202443744623262 0.013406011847864708 0 0.025014096986097141 0.015584980553634024 0 0.025163710112257605 0.014140232833940483 0 0.026074996408869178 0.015180523000637597 0 0.02854606185258135 0.015169570090938814 0 0.027566048151984879 0.015252649556902927 0 0.027953913708571702 0.013990324379141598 0 0.027384652966360046 0.014502861448747397 0 0.027566048151984879 0.015252649556902927 0 0.027953913708571702 0.013990324379141598 0 0.02854606185258135 0.015169570090938814 0 0.027953913708571702 0.013990324379141598 0 0.02868847125751316 0.01337618853382988 0 0.027323562640864787 0.014034540550542415 0 0.027384652966360046 0.014502861448747397 0 0.027953913708571702 0.013990324379141598 0 0.027458021688039642 0.013297880814315544 0 0.027323562640864787 0.014034540550542415 0 0.027953913708571702 0.013990324379141598 0 0.027458021688039642 0.013297880814315544 0 0.027953913708571702 0.013990324379141598 0 0.02868847125751316 0.01337618853382988 0 0.027097343274405692 0.01291971571500654 0 0.027347035618904031 0.01272842886668861 0 0.027772223042833399 0.012980346121473139 0 0.027448301746094157 0.013137858935455302 0 0.027202443744623262 0.013406011847864708 0 0.027092507114449185 0.012642042635018835 0 0.027097343274405692 0.01291971571500654 0 0.027347035618904031 0.01272842886668861 0 0.027347035618904031 0.01272842886668861 0 0.027772223042833399 0.012980346121473139 0 0.027341595630021816 0.012344488698630984 0 0.027756699418260852 0.012209266148425022 0 0.027980280047873143 0.012021634582331731 0 0.028078841197493314 0.01223864821367108 0 0.027202443744623262 0.013406011847864708 0 0.027017124129485648 0.013221455063533543 0 0.025163710112257605 0.014140232833940483 0 0.026155690159381548 0.014221561365055875 0 0.026074996408869178 0.015180523000637597 0 0.027756699418260852 0.012209266148425022 0 0.027758427206524151 0.011831411120634849 0 0.027980280047873143 0.012021634582331731 0 0.027202443744623262 0.013406011847864708 0 0.027890455108110623 0.011547448243467958 0 0.027758427206524151 0.011831411120634849 0 0.027980280047873143 0.012021634582331731 0 0.028124268210775023 0.011796714563406942 0 0.026811855812080052 0.011564440340112944 0 0.027758427206524151 0.011831411120634849 0 0.027341595630021816 0.012344488698630984 0 0.027772223042833399 0.012980346121473139 0 0.027758427206524151 0.011831411120634849 0 0.027341595630021816 0.012344488698630984 0 0.027092507114449185 0.012642042635018835 0 0.027347035618904031 0.01272842886668861 0 0.027341595630021816 0.012344488698630984 0 0.028563497205938419 0.011767053556964651 0 0.028378298752370162 0.011821780165526633 0 0.028476598439552168 0.011984419693288631 0 0.028563497205938419 0.011767053556964651 0 0.028576959380584799 0.012005045872469748 0 0.028746139812295776 0.011768988179103299 0 0.028563497205938419 0.011767053556964651 0 0.028476598439552168 0.011984419693288631 0 0.028576959380584799 0.012005045872469748 0 0.028602387894233142 0.011539126880509129 0 0.028563497205938419 0.011767053556964651 0 0.028746139812295776 0.011768988179103299 0 0.028467635489142867 0.011546719389634291 0 0.028563497205938419 0.011767053556964651 0 0.028378298752370162 0.011821780165526633 0 0.028467635489142867 0.011546719389634291 0 0.028602387894233142 0.011539126880509129 0 0.028563497205938419 0.011767053556964651 0 0.028467635489142867 0.011546719389634291 0 0.028124268210775023 0.011796714563406942 0 0.028378298752370162 0.011821780165526633 0 0.027980280047873143 0.012021634582331731 0 0.028124268210775023 0.011796714563406942 0 0.028234916767485501 0.01202418493803044 0 0.028378298752370162 0.011821780165526633 0 0.028234916767485501 0.01202418493803044 0 0.028476598439552168 0.011984419693288631 0 0.028124268210775023 0.011796714563406942 0 0.028378298752370162 0.011821780165526633 0 0.028234916767485501 0.01202418493803044 0 0.028234916767485501 0.01202418493803044 0 0.028078841197493314 0.01223864821367108 0 0.02845552067179313 0.012256581496044793 0 0.027017124129485648 0.013221455063533543 0 0.027651100802883861 0.013442886338189772 0 0.027980280047873143 0.012021634582331731 0 0.028234916767485501 0.01202418493803044 0 0.028078841197493314 0.01223864821367108 0 0.028576959380584799 0.012005045872469748 0 0.028648869480432021 0.012261916572282363 0 0.028746139812295776 0.011768988179103299 0 0.028234916767485501 0.01202418493803044 0 0.02845552067179313 0.012256581496044793 0 0.028476598439552168 0.011984419693288631 0 0.02844113751256604 0.012241471902112031 0 0.028476598439552168 0.011984419693288631 0 0.028576959380584799 0.012005045872469748 0 0.027651100802883861 0.013442886338189772 0 0.028258401000554371 0.011836735868200022 0 0.02844113751256604 0.012241471902112031 0 0.028576959380584799 0.012005045872469748 0 0.028648869480432021 0.012261916572282363 0 0.027651100802883861 0.013442886338189772 0 0.027577642210842458 0.013556769963971822 0 0.02702078526834379 0.014093898626127149 0 0.02702995072054773 0.014567218200100466 0 0.027207419892968841 0.014363621568371163 0 0.02702078526834379 0.014093898626127149 0 0.02702995072054773 0.014567218200100466 0 0.026720385118996381 0.014908598735168267 0 0.026607756274313631 0.013861318668247396 0 0.027042429227760307 0.01389470583688533 0 0.026720385118996381 0.014908598735168267 0 0.026607756274313631 0.013861318668247396 0 0.026522105393578906 0.014938082670461605 0 0.026720385118996381 0.014908598735168267 0 0.027651100802883861 0.013442886338189772 0 0.026912025873350662 0.014997946955156612 0 0.027577642210842458 0.013556769963971822 0 0.026638609407968254 0.015040490609018317 0 0.02702995072054773 0.014567218200100466 0 0.02707397061239733 0.014895262197518062 0 0.026720385118996381 0.014908598735168267 0 0.02715645734282501 0.014297541134471606 0 0.026074996408869178 0.015180523000637597 0 0.027052481580718397 0.015573684456369828 0 0.026155690159381548 0.014221561365055875 0 0.02715645734282501 0.014297541134471606 0 0.026074996408869178 0.015180523000637597 0 0.026074996408869178 0.015180523000637597 0 0.026195514473112694 0.016027375224374189 0 0.027052481580718397 0.015573684456369828 0 0.026195514473112694 0.016027375224374189 0 0.027052481580718397 0.015573684456369828 0 0.026937346230309526 0.016854405969064352 0 0.026522105393578906 0.014938082670461605 0 0.026846503111628606 0.015412076112150676 0 0.026431645995373104 0.015879509929485565 0 0.026912025873350662 0.014997946955156612 0 0.024246614868809316 0.018242250813574556 0 0.026891013612586168 0.015127883457285669 0 0.026522105393578906 0.014938082670461605 0 0.026846503111628606 0.015412076112150676 0 0.02707397061239733 0.014895262197518062 0 0.026891013612586168 0.015127883457285669 0 0.026720385118996381 0.014908598735168267 0 0.026891013612586168 0.015127883457285669 0 0.026522105393578906 0.014938082670461605 0 0.026720385118996381 0.014908598735168267 0 0.026891013612586168 0.015127883457285669 0 0.026846503111628606 0.015412076112150676 0 0.027300460201729559 0.015247768196106327 0 0.02192208240296592 0.020169247622564314 0 0.021959422122533271 0.020242684962006121 0 0.021992030777213858 0.020165472105167469 0 0.026846503111628606 0.015412076112150676 0 0.026431645995373104 0.015879509929485565 0 0.027174389609878571 0.015792446003288392 0 0.024246614868809316 0.018242250813574556 0 0.024746353840759541 0.017964951681649348 0 0.021959422122533271 0.020242684962006121 0 0.021908373772614734 0.020318931797223525 0 0.021983956370229527 0.020307536034123101 0 0.024246614868809316 0.018242250813574556 0 0.02169752760105316 0.020657550998920041 0 0.02192208240296592 0.020169247622564314 0 0.021959422122533271 0.020242684962006121 0 0.021908373772614734 0.020318931797223525 0 0.022163609934529899 0.019834401327476419 0 0.021927307819209485 0.020039913091889603 0 0.022094824985947285 0.020140716566555115 0 0.024246614868809316 0.018242250813574556 0 0.023609230251006398 0.018431645166959026 0 0.022163609934529899 0.019834401327476419 0 0.021978069277613713 0.019853768192260996 0 0.021927307819209485 0.020039913091889603 0 0.026195514473112694 0.016027375224374189 0 0.026937346230309526 0.016854405969064352 0 0.025902437402500346 0.016940497723636445 0 0.021978069277613713 0.019853768192260996 0 0.021811668773090202 0.019867251631117706 0 0.021927307819209485 0.020039913091889603 0 0.023609230251006398 0.018431645166959026 0 0.025534199513199927 0.017791732732615376 0 0.025014096986097141 0.015584980553634024 0 0.025902437402500346 0.016940497723636445 0 0.024869377306674951 0.017030990709971387 0 0.02650541478651048 0.01774433799013796 0 0.027039544011012877 0.017214784163954746 0 0.026978342461677348 0.017913943783786378 0 0.025534199513199927 0.017791732732615376 0 0.024305479219440509 0.019169273052194524 0 0.021811668773090202 0.019867251631117706 0 0.021927307819209485 0.020039913091889603 0 0.021777588860335002 0.020093007903770346 0 0.021927307819209485 0.020039913091889603 0 0.021900424930555995 0.020241928391081014 0 0.021777588860335002 0.020093007903770346 0 0.021900424930555995 0.020241928391081014 0 0.021777588860335002 0.020093007903770346 0 0.02176967477699784 0.020293295364200905 0 0.024305479219440509 0.019169273052194524 0 0.024313947326915077 0.019409343028681449 0 0.026531287142200672 0.018223518521135081 0 0.026978342461677348 0.017913943783786378 0 0.026897537072512488 0.018641390719969668 0 0.026531287142200672 0.018223518521135081 0 0.02650541478651048 0.01774433799013796 0 0.026978342461677348 0.017913943783786378 0 0.024313947326915077 0.019409343028681449 0 0.024782003024250151 0.020044679218405977 0 0.026362768980799763 0.018721485138028453 0 0.026897537072512488 0.018641390719969668 0 0.02680973043568774 0.019357319956024223 0 0.021900424930555995 0.020241928391081014 0 0.02176967477699784 0.020293295364200905 0 0.021866151959805961 0.020408863972148528 0 0.021900424930555995 0.020241928391081014 0 0.021952970556146572 0.020405940631684369 0 0.021866151959805961 0.020408863972148528 0 0.021900424930555995 0.020241928391081014 0 0.022094824985947285 0.020140716566555115 0 0.021952970556146572 0.020405940631684369 0 0.02169752760105316 0.020657550998920041 0 0.022042936897114847 0.020199576709011041 0 0.021956756289170029 0.020374200148792931 0 0.021969350614147645 0.020428556271107318 0 0.021952970556146572 0.020405940631684369 0 0.021956756289170029 0.020374200148792931 0 0.021908373772614734 0.020318931797223525 0 0.021952970556146572 0.020405940631684369 0 0.021956756289170029 0.020374200148792931 0 0.021908373772614734 0.020318931797223525 0 0.021983956370229527 0.020307536034123101 0 0.021927307819209485 0.020039913091889603 0 0.021900424930555995 0.020241928391081014 0 0.022094824985947285 0.020140716566555115 0 0.0220378031942054 0.020330898225983152 0 0.022081575749286438 0.020292208282054091 0 0.022028491666760956 0.02027394782974665 0 0.022009212661359853 0.020333895231375621 0 0.021986231081372966 0.020378198491377762 0 0.022017141856680959 0.020376061600620578 0 0.022009212661359853 0.020333895231375621 0 0.0220378031942054 0.020330898225983152 0 0.022017141856680959 0.020376061600620578 0 0.0220378031942054 0.020330898225983152 0 0.022017141856680959 0.020376061600620578 0 0.022054345969817552 0.020369806983324364 0 0.022009212661359853 0.020333895231375621 0 0.0220378031942054 0.020330898225983152 0 0.022028491666760956 0.02027394782974665 0 0.022009212661359853 0.020333895231375621 0 0.021983956370229527 0.020307536034123101 0 0.022028491666760956 0.02027394782974665 0 0.021956756289170029 0.020374200148792931 0 0.021983956370229527 0.020307536034123101 0 0.021986231081372966 0.020378198491377762 0 0.022009212661359853 0.020333895231375621 0 0.021983956370229527 0.020307536034123101 0 0.021986231081372966 0.020378198491377762 0 0.021956756289170029 0.020374200148792931 0 0.021986231081372966 0.020378198491377762 0 0.021969350614147645 0.020428556271107318 0 0.021986231081372966 0.020378198491377762 0 0.021997128380425092 0.020425177933523327 0 0.021969350614147645 0.020428556271107318 0 0.021986231081372966 0.020378198491377762 0 0.021997128380425092 0.020425177933523327 0 0.022017141856680959 0.020376061600620578 0 0.022017141856680959 0.020376061600620578 0 0.022024628981456167 0.020426640272930941 0 0.022054345969817552 0.020369806983324364 0 0.021997128380425092 0.020425177933523327 0 0.022017141856680959 0.020376061600620578 0 0.022024628981456167 0.020426640272930941 0 0.022024628981456167 0.020426640272930941 0 0.022037073477944764 0.020445963344401824 0 0.022053251742211736 0.020416063205279986 0 0.022024628981456167 0.020426640272930941 0 0.022037073477944764 0.020445963344401824 0 0.022022456634795486 0.020468518726396694 0 0.022043099009202715 0.020454434261399857 0 0.022053251742211736 0.020416063205279986 0 0.022081717945624052 0.02042019787783865 0 0.022037073477944764 0.020445963344401824 0 0.022043099009202715 0.020454434261399857 0 0.022053251742211736 0.020416063205279986 0 0.022053251742211736 0.020416063205279986 0 0.022080477409805288 0.020384426650974331 0 0.022081717945624052 0.02042019787783865 0 0.022053251742211736 0.020416063205279986 0 0.022080477409805288 0.020384426650974331 0 0.022054345969817552 0.020369806983324364 0 0.022024628981456167 0.020426640272930941 0 0.022053251742211736 0.020416063205279986 0 0.022054345969817552 0.020369806983324364 0 0.021955694736479556 0.020455870619024034 0 0.021985970551507177 0.020525313026554873 0 0.021679803553834597 0.020742817573220156 0 0.021606845491331718 0.020712626218452473 0 0.022004422114892341 0.020502107967080786 0 0.022081717945624052 0.02042019787783865 0 0.022165460942439451 0.020383022220984041 0 0.022004422114892341 0.020502107967080786 0 0.022080477409805288 0.020384426650974331 0 0.022081717945624052 0.02042019787783865 0 0.022116757497577223 0.020371993538449751 0 0.022081717945624052 0.02042019787783865 0 0.022165460942439451 0.020383022220984041 0 0.022116757497577223 0.020371993538449751 0 0.022165460942439451 0.020383022220984041 0 0.022151005581177184 0.020325702123089422 0 0.022230420936043892 0.020246740505405737 0 0.022165460942439451 0.020383022220984041 0 0.022116757497577223 0.020371993538449751 0 0.022151005581177184 0.020325702123089422 0 0.022116757497577223 0.020371993538449751 0 0.022101526471079519 0.020341710381376363 0 0.022151005581177184 0.020325702123089422 0 0.022080477409805288 0.020384426650974331 0 0.022116757497577223 0.020371993538449751 0 0.022101526471079519 0.020341710381376363 0 0.022101526471079519 0.020341710381376363 0 0.022151005581177184 0.020325702123089422 0 0.022140582740653558 0.020287081897240069 0 0.022080477409805288 0.020384426650974331 0 0.022101526471079519 0.020341710381376363 0 0.022054345969817552 0.020369806983324364 0 0.022101526471079519 0.020341710381376363 0 0.022054345969817552 0.020369806983324364 0 0.022081575749286438 0.020292208282054091 0 0.022101526471079519 0.020341710381376363 0 0.022081575749286438 0.020292208282054091 0 0.022140582740653558 0.020287081897240069 0 0.0220378031942054 0.020330898225983152 0 0.022054345969817552 0.020369806983324364 0 0.022081575749286438 0.020292208282054091 0 0.022081575749286438 0.020292208282054091 0 0.022070621518524406 0.020209710464357229 0 0.022143954162111762 0.020217484497877962 0 0.022143954162111762 0.020217484497877962 0 0.022202965122143026 0.020169154315048902 0 0.022230420936043892 0.020246740505405737 0 0.022140582740653558 0.020287081897240069 0 0.022143954162111762 0.020217484497877962 0 0.022230420936043892 0.020246740505405737 0 0.022151005581177184 0.020325702123089422 0 0.022140582740653558 0.020287081897240069 0 0.022230420936043892 0.020246740505405737 0 0.022081575749286438 0.020292208282054091 0 0.022140582740653558 0.020287081897240069 0 0.022143954162111762 0.020217484497877962 0 0.022143954162111762 0.020217484497877962 0 0.02213288443210152 0.020132391393836501 0 0.022202965122143026 0.020169154315048902 0 0.022070621518524406 0.020209710464357229 0 0.022143954162111762 0.020217484497877962 0 0.02213288443210152 0.020132391393836501 0 0.022465850970088609 0.017743626436852084 0 0.023865300087377601 0.017203842693383108 0 0.022070621518524406 0.020209710464357229 0 0.02213288443210152 0.020132391393836501 0 0.022042387547996818 0.020161356776895643 0 0.022070621518524406 0.020209710464357229 0 0.022042387547996818 0.020161356776895643 0 0.022031719820035132 0.020198760046124632 0 0.023865300087377601 0.017203842693383108 0 0.022071120242022752 0.0204214850383788 0 0.022070621518524406 0.020209710464357229 0 0.022031719820035132 0.020198760046124632 0 0.022028491666760956 0.02027394782974665 0 0.022081575749286438 0.020292208282054091 0 0.022070621518524406 0.020209710464357229 0 0.022028491666760956 0.02027394782974665 0 0.021959422122533271 0.020242684962006121 0 0.021983956370229527 0.020307536034123101 0 0.021997786593321387 0.020241940953035813 0 0.021983956370229527 0.020307536034123101 0 0.022028491666760956 0.02027394782974665 0 0.021997786593321387 0.020241940953035813 0 0.022031719820035132 0.020198760046124632 0 0.022028491666760956 0.02027394782974665 0 0.021997786593321387 0.020241940953035813 0 0.021959422122533271 0.020242684962006121 0 0.021997786593321387 0.020241940953035813 0 0.021992030777213858 0.020165472105167469 0 0.027881503242224104 0.015711076783987237 0 0.027174389609878571 0.015792446003288392 0 0.027300460201729559 0.015247768196106327 0 0.023865300087377601 0.017203842693383108 0 0.024746353840759541 0.017964951681649348 0 0.022064066438214437 0.020142967583181941 0 0.022031719820035132 0.020198760046124632 0 0.021992030777213858 0.020165472105167469 0 0.022031719820035132 0.020198760046124632 0 0.021997786593321387 0.020241940953035813 0 0.021992030777213858 0.020165472105167469 0 0.027881503242224104 0.015711076783987237 0 0.027300460201729559 0.015247768196106327 0 0.027755129071759949 0.014980040198182672 0 0.026846503111628606 0.015412076112150676 0 0.027174389609878571 0.015792446003288392 0 0.027300460201729559 0.015247768196106327 0 0.027300460201729559 0.015247768196106327 0 0.027755129071759949 0.014980040198182672 0 0.027442455786333302 0.014780795093224859 0 0.02707397061239733 0.014895262197518062 0 0.027300460201729559 0.015247768196106327 0 0.027442455786333302 0.014780795093224859 0 0.02707397061239733 0.014895262197518062 0 0.026891013612586168 0.015127883457285669 0 0.027300460201729559 0.015247768196106327 0 0.023865300087377601 0.017203842693383108 0 0.026184472412557457 0.014810464490297231 0 0.027881503242224104 0.015711076783987237 0 0.027755129071759949 0.014980040198182672 0 0.028330900833946331 0.014708426514704347 0 0.027809197402538725 0.014476969527626822 0 0.02804108864103921 0.013978354761635326 0 0.028330900833946331 0.014708426514704347 0 0.027755129071759949 0.014980040198182672 0 0.027809197402538725 0.014476969527626822 0 0.028330900833946331 0.014708426514704347 0 0.02707397061239733 0.014895262197518062 0 0.027199211983117109 0.014620688428233353 0 0.027442455786333302 0.014780795093224859 0 0.02702995072054773 0.014567218200100466 0 0.02707397061239733 0.014895262197518062 0 0.027199211983117109 0.014620688428233353 0 0.027199211983117109 0.014620688428233353 0 0.027442455786333302 0.014780795093224859 0 0.027470354303890991 0.014332035371113801 0 0.027755129071759949 0.014980040198182672 0 0.027809197402538725 0.014476969527626822 0 0.027442455786333302 0.014780795093224859 0 0.027809197402538725 0.014476969527626822 0 0.027442455786333302 0.014780795093224859 0 0.027470354303890991 0.014332035371113801 0 0.027809197402538725 0.014476969527626822 0 0.027470354303890991 0.014332035371113801 0 0.027775191259213381 0.014018714964071961 0 0.027470354303890991 0.014332035371113801 0 0.027207419892968841 0.014363621568371163 0 0.027312985363982873 0.014128337561527777 0 0.027199211983117109 0.014620688428233353 0 0.027470354303890991 0.014332035371113801 0 0.027207419892968841 0.014363621568371163 0 0.02702995072054773 0.014567218200100466 0 0.027199211983117109 0.014620688428233353 0 0.027207419892968841 0.014363621568371163 0 0.027470354303890991 0.014332035371113801 0 0.027312985363982873 0.014128337561527777 0 0.027547298676914838 0.013962584268391739 0 0.027577642210842458 0.013556769963971822 0 0.028049245899528702 0.012449932314612968 0 0.02702078526834379 0.014093898626127149 0 0.027207419892968841 0.014363621568371163 0 0.027312985363982873 0.014128337561527777 0 0.027312985363982873 0.014128337561527777 0 0.027405353994688606 0.013774395284611 0 0.027547298676914838 0.013962584268391739 0 0.027577642210842458 0.013556769963971822 0 0.027298360100623732 0.013744556334509847 0 0.027042078335460913 0.014125769293128684 0 0.027312985363982873 0.014128337561527777 0 0.027405353994688606 0.013774395284611 0 0.027042078335460913 0.014125769293128684 0 0.027405353994688606 0.013774395284611 0 0.027298569444819013 0.013274929975987297 0 0.027775191259213381 0.014018714964071961 0 0.027547298676914838 0.013962584268391739 0 0.027848517499859542 0.013588781581288871 0 0.027405353994688606 0.013774395284611 0 0.027547298676914838 0.013962584268391739 0 0.027848517499859542 0.013588781581288871 0 0.027470354303890991 0.014332035371113801 0 0.027775191259213381 0.014018714964071961 0 0.027547298676914838 0.013962584268391739 0 0.02804108864103921 0.013978354761635326 0 0.028375011267370784 0.013913301857607177 0 0.028330900833946331 0.014708426514704347 0 0.027809197402538725 0.014476969527626822 0 0.027775191259213381 0.014018714964071961 0 0.02804108864103921 0.013978354761635326 0 0.02804108864103921 0.013978354761635326 0 0.028215814279598971 0.013717972936898009 0 0.028375011267370784 0.013913301857607177 0 0.02804108864103921 0.013978354761635326 0 0.028215814279598971 0.013717972936898009 0 0.028088870249920458 0.013539890199361944 0 0.027775191259213381 0.014018714964071961 0 0.02804108864103921 0.013978354761635326 0 0.027848517499859542 0.013588781581288871 0 0.02804108864103921 0.013978354761635326 0 0.028088870249920458 0.013539890199361944 0 0.027848517499859542 0.013588781581288871 0 0.028532696601640758 0.012579341230435715 0 0.027841904582961409 0.013597451066906553 0 0.028076691991524023 0.01309970454929924 0 0.028088870249920458 0.013539890199361944 0 0.027848517499859542 0.013588781581288871 0 0.028580378910579966 0.012352197082525532 0 0.027871594799234515 0.012847043227653589 0 0.027848517499859542 0.013588781581288871 0 0.028076691991524023 0.01309970454929924 0 0.028088870249920458 0.013539890199361944 0 0.028255837842792779 0.013442479934197017 0 0.028215814279598971 0.013717972936898009 0 0.028088870249920458 0.013539890199361944 0 0.028255837842792779 0.013442479934197017 0 0.028076691991524023 0.01309970454929924 0 0.028255837842792779 0.013442479934197017 0 0.028432515466937428 0.013303925834789095 0 0.027871594799234515 0.012847043227653589 0 0.027298569444819013 0.013274929975987297 0 0.027848517499859542 0.013588781581288871 0 0.027405353994688606 0.013774395284611 0 0.027298569444819013 0.013274929975987297 0 0.027848517499859542 0.013588781581288871 0 0.023700610171325891 0.013514026919583526 0 0.02448487447902551 0.013889319393277722 0 0.021690750131111387 0.013745992775332063 0 0.021660416162586023 0.013703129373145965 0 0.021869628425500501 0.013417977526076545 0 0.021660416162586023 0.013703129373145965 0 0.021869628425500501 0.013417977526076545 0 0.021642988111307482 0.013477993029334953 0 0.021534870625889796 0.013627524360955419 0 0.021660416162586023 0.013703129373145965 0 0.021642988111307482 0.013477993029334953 0 0.021534870625889796 0.013627524360955419 0 0.021642988111307482 0.013477993029334953 0 0.021441001562915195 0.013437476441237613 0 0.021534870625889796 0.013627524360955419 0 0.021585722030187986 0.013749884466031479 0 0.021660416162586023 0.013703129373145965 0 0.021534870625889796 0.013627524360955419 0 0.021585722030187986 0.013749884466031479 0 0.021463196010426969 0.013744687700435422 0 0.021585722030187986 0.013749884466031479 0 0.021687114247475353 0.013739827740354683 0 0.021660416162586023 0.013703129373145965 0 0.023700610171325891 0.013514026919583526 0 0.023425300046134381 0.013370538677182357 0 0.0287824252072677 0.013312874588736069 0 0.028534219410445504 0.013553499555049435 0 0.028613893485905238 0.01384384866867378 0 0.0287824252072677 0.013312874588736069 0 0.028432515466937428 0.013303925834789095 0 0.028534219410445504 0.013553499555049435 0 0.028432515466937428 0.013303925834789095 0 0.028406091098247099 0.013486610359768237 0 0.028534219410445504 0.013553499555049435 0 0.028255837842792779 0.013442479934197017 0 0.028432515466937428 0.013303925834789095 0 0.028406091098247099 0.013486610359768237 0 0.028215814279598971 0.013717972936898009 0 0.028255837842792779 0.013442479934197017 0 0.028399442899369295 0.013651829869426401 0 0.028255837842792779 0.013442479934197017 0 0.028406091098247099 0.013486610359768237 0 0.028399442899369295 0.013651829869426401 0 0.028406091098247099 0.013486610359768237 0 0.028399442899369295 0.013651829869426401 0 0.028534219410445504 0.013553499555049435 0 0.028399442899369295 0.013651829869426401 0 0.028534219410445504 0.013553499555049435 0 0.028613893485905238 0.01384384866867378 0 0.028613893485905238 0.01384384866867378 0 0.028375011267370784 0.013913301857607177 0 0.028330900833946331 0.014708426514704347 0 0.028399442899369295 0.013651829869426401 0 0.028613893485905238 0.01384384866867378 0 0.028375011267370784 0.013913301857607177 0 0.028215814279598971 0.013717972936898009 0 0.028399442899369295 0.013651829869426401 0 0.028375011267370784 0.013913301857607177 0 0.02448487447902551 0.013889319393277722 0 0.022041866176641202 0.014210357312358625 0 0.021642988111307482 0.013477993029334953 0 0.02152398542637424 0.013124613415245132 0 0.021441001562915195 0.013437476441237613 0 0.021869628425500501 0.013417977526076545 0 0.021642988111307482 0.013477993029334953 0 0.02152398542637424 0.013124613415245132 0 0.023014248072575533 0.015490222267361589 0 0.023171017969843156 0.015464416739228925 0 0.023004981317020397 0.015422727256517599 0 0.02448487447902551 0.013889319393277722 0 0.026184472412557457 0.014810464490297231 0 0.023118154407455911 0.015548406045241841 0 0.023014248072575533 0.015490222267361589 0 0.023171017969843156 0.015464416739228925 0 0.023078558370538668 0.015380317577680883 0 0.023225712760266002 0.015382686079656802 0 0.023171017969843156 0.015464416739228925 0 0.023078558370538668 0.015380317577680883 0 0.023171017969843156 0.015464416739228925 0 0.023004981317020397 0.015422727256517599 0 0.023014248072575533 0.015490222267361589 0 0.023004981317020397 0.015422727256517599 0 0.02290124465140005 0.015424135465113419 0 0.023004981317020397 0.015422727256517599 0 0.022915604614209023 0.015390583986268575 0 0.02290124465140005 0.015424135465113419 0 0.023078558370538668 0.015380317577680883 0 0.023004981317020397 0.015422727256517599 0 0.022915604614209023 0.015390583986268575 0 0.019850750069617389 0.017485134029043357 0 0.01594565393035989 0.016258457671077347 0 0.0204187698782754 0.014481083508648197 0 0.020445057484752439 0.014350922955758736 0 0.020544416663522743 0.014467751676840224 0 0.0204187698782754 0.014481083508648197 0 0.020445057484752439 0.014350922955758736 0 0.020290099028145492 0.014343578092753117 0 0.022021618041742956 0.018441779250609504 0 0.019850750069617389 0.017485134029043357 0 0.021357667073305584 0.017113338707340359 0 0.021035603502690001 0.017139381630248331 0 0.021268981823655574 0.017347569202963327 0 0.019850750069617389 0.017485134029043357 0 0.021418931675317072 0.014914589815536396 0 0.022021618041742956 0.018441779250609504 0 0.021418931675317072 0.014914589815536396 0 0.020445057484752439 0.014350922955758736 0 0.020524415758140672 0.014170599463706629 0 0.020544416663522743 0.014467751676840224 0 0.020445057484752439 0.014350922955758736 0 0.020290099028145492 0.014343578092753117 0 0.020524415758140672 0.014170599463706629 0 0.021418931675317072 0.014914589815536396 0 0.020735304787740268 0.013324480020323895 0 0.020290099028145492 0.014343578092753117 0 0.020524415758140672 0.014170599463706629 0 0.020515497664469216 0.013897182865177549 0 0.021203751431193581 0.012854266760847079 0 0.021270918196415817 0.013125883832260998 0 0.021030188676193853 0.013241775173337963 0 0.021270918196415817 0.013125883832260998 0 0.021303442945084568 0.013283558583615568 0 0.021030188676193853 0.013241775173337963 0 0.022041866176641202 0.014210357312358625 0 0.021418931675317072 0.014914589815536396 0 0.02152398542637424 0.013124613415245132 0 0.021203751431193581 0.012854266760847079 0 0.021270918196415817 0.013125883832260998 0 0.02152398542637424 0.013124613415245132 0 0.021270918196415817 0.013125883832260998 0 0.021303442945084568 0.013283558583615568 0 0.02152398542637424 0.013124613415245132 0 0.021441001562915195 0.013437476441237613 0 0.021303442945084568 0.013283558583615568 0 0.021441001562915195 0.013437476441237613 0 0.021303442945084568 0.013283558583615568 0 0.021201680843345009 0.013487112718849932 0 0.020735304787740268 0.013324480020323895 0 0.020781462864166798 0.013824631106540109 0 0.021030188676193853 0.013241775173337963 0 0.021201680843345009 0.013487112718849932 0 0.020804948294206191 0.013724385618935768 0 0.021303442945084568 0.013283558583615568 0 0.021030188676193853 0.013241775173337963 0 0.021201680843345009 0.013487112718849932 0 0.021061885685725319 0.013925627677440879 0 0.021201259586683355 0.013725753598316773 0 0.020804948294206191 0.013724385618935768 0 0.021201680843345009 0.013487112718849932 0 0.021201259586683355 0.013725753598316773 0 0.020804948294206191 0.013724385618935768 0 0.021201259586683355 0.013725753598316773 0 0.021463196010426969 0.013744687700435422 0 0.02136935994899752 0.013604430807525998 0 0.021534870625889796 0.013627524360955419 0 0.021463196010426969 0.013744687700435422 0 0.02136935994899752 0.013604430807525998 0 0.021534870625889796 0.013627524360955419 0 0.021441001562915195 0.013437476441237613 0 0.02136935994899752 0.013604430807525998 0 0.021441001562915195 0.013437476441237613 0 0.021201680843345009 0.013487112718849932 0 0.02136935994899752 0.013604430807525998 0 0.021201680843345009 0.013487112718849932 0 0.021201259586683355 0.013725753598316773 0 0.02136935994899752 0.013604430807525998 0 0.015755101094547603 0.014095539037419317 0 0.016932323885323564 0.014209939859309951 0 0.013441639881708982 0.013744775114149729 0 0.013136608011068448 0.014677293170867857 0 0.012850904827548198 0.01477703659681189 0 0.020531094791269633 0.013872834321197224 0 0.02069208586765519 0.013817359722331802 0 0.020716844868088995 0.013752592690827393 0 0.02069208586765519 0.013817359722331802 0 0.020804948294206191 0.013724385618935768 0 0.020716844868088995 0.013752592690827393 0 0.020804948294206191 0.013724385618935768 0 0.020702724421738213 0.013828306265293255 0 0.020716844868088995 0.013752592690827393 0 0.020515497664469216 0.013897182865177549 0 0.020702724421738213 0.013828306265293255 0 0.020734738964421278 0.014014354108624751 0 0.020515497664469216 0.013897182865177549 0 0.020804948294206191 0.013724385618935768 0 0.020702724421738213 0.013828306265293255 0 0.020702724421738213 0.013828306265293255 0 0.020716844868088995 0.013752592690827393 0 0.020734738964421278 0.014014354108624751 0 0.012553429975894932 0.015374815966290475 0 0.012621499420237291 0.015690486993512054 0 0.012367397555041989 0.015703028776238335 0 0.012369351507394542 0.015980327790038648 0 0.012418843169708458 0.015828749310423138 0 0.012850904827548198 0.01477703659681189 0 0.01282714559807401 0.015522601469737272 0 0.012366323751490969 0.015696593177782998 0 0.013136608011068448 0.014677293170867857 0 0.012850904827548198 0.01477703659681189 0 0.01282714559807401 0.015522601469737272 0 0.016932323885323564 0.014209939859309951 0 0.016616507608738645 0.014688407677871346 0 0.012369351507394542 0.015980327790038648 0 0.012462723667449558 0.015883151152312768 0 0.012418843169708458 0.015828749310423138 0 0.012621499420237291 0.015690486993512054 0 0.012496154313416481 0.01609538459886314 0 0.012369351507394542 0.015980327790038648 0 0.012481003937707775 0.016126262337406973 0 0.012477454259336765 0.016102431685885404 0 0.01282714559807401 0.015522601469737272 0 0.012366323751490969 0.015696593177782998 0 0.012484537198239677 0.016127088310954486 0 0.012369351507394542 0.015980327790038648 0 0.012481003937707775 0.016126262337406973 0 0.012484537198239677 0.016127088310954486 0 0.012369351507394542 0.015980327790038648 0 0.012477454259336765 0.016102431685885404 0 0.012457954865130601 0.015997786228053954 0 0.020524415758140672 0.014170599463706629 0 0.020515497664469216 0.013897182865177549 0 0.020734738964421278 0.014014354108624751 0 0.01594565393035989 0.016258457671077347 0 0.011133143482050679 0.016277271181292342 0 0.020524415758140672 0.014170599463706629 0 0.020734738964421278 0.014014354108624751 0 0.020544416663522743 0.014467751676840224 0 0.012366323751490969 0.015696593177782998 0 0.012161793404627358 0.016257191659622635 0 0.012484537198239677 0.016127088310954486 0 0.016616507608738645 0.014688407677871346 0 0.01594565393035989 0.016258457671077347 0 0.012677281891634987 0.016249768201658309 0 0.012528612735829305 0.016194662910421848 0 0.012599696506141988 0.016201026661523822 0 0.012161793404627358 0.016257191659622635 0 0.012484537198239677 0.016127088310954486 0 0.012528612735829305 0.016194662910421848 0 0.012481003937707775 0.016126262337406973 0 0.01249990678133125 0.016179494771698579 0 0.012477454259336765 0.016102431685885404 0 0.012481003937707775 0.016126262337406973 0 0.012484537198239677 0.016127088310954486 0 0.012528612735829305 0.016194662910421848 0 0.012481003937707775 0.016126262337406973 0 0.012528612735829305 0.016194662910421848 0 0.01249990678133125 0.016179494771698579 0 0.01249990678133125 0.016179494771698579 0 0.012531615785301443 0.016185188693422951 0 0.012496572803074771 0.016199481580206794 0 0.012528612735829305 0.016194662910421848 0 0.01249990678133125 0.016179494771698579 0 0.012531615785301443 0.016185188693422951 0 0.012528612735829305 0.016194662910421848 0 0.012531615785301443 0.016185188693422951 0 0.012599696506141988 0.016201026661523822 0 0.012531615785301443 0.016185188693422951 0 0.012592975186894555 0.01616792486597169 0 0.012599696506141988 0.016201026661523822 0 0.012531615785301443 0.016185188693422951 0 0.01254517924244036 0.016156819136114435 0 0.012502229449649347 0.016180366162669255 0 0.012531615785301443 0.016185188693422951 0 0.01254517924244036 0.016156819136114435 0 0.012592975186894555 0.01616792486597169 0 0.0159794999449091 0.021363913362425855 0 0.015773500164203372 0.021142656921329557 0 0.015937160177846299 0.021421350303798471 0 0.013567132377916145 0.019190367240957438 0 0.01394704564368044 0.018477949730284837 0 0.013567132377916145 0.019190367240957438 0 0.014533134050435416 0.021078809622205 0 0.01571263869926303 0.02140976334799314 0 0.015773500164203372 0.021142656921329557 0 0.015937160177846299 0.021421350303798471 0 0.01571263869926303 0.02140976334799314 0 0.015773500164203372 0.021142656921329557 0 0.015565810216063829 0.021281829955780044 0 0.015773500164203372 0.021142656921329557 0 0.015528331137080575 0.020875004622946315 0 0.015565810216063829 0.021281829955780044 0 0.01394704564368044 0.018477949730284837 0 0.016632611269740142 0.018538178316249179 0 0.012592975186894555 0.01616792486597169 0 0.012599696506141988 0.016201026661523822 0 0.01269450454892255 0.016221086905828169 0 0.012677281891634987 0.016249768201658309 0 0.012599696506141988 0.016201026661523822 0 0.01269450454892255 0.016221086905828169 0 0.016632611269740142 0.018538178316249179 0 0.01857040706464971 0.02147042373094684 0 0.01594565393035989 0.016258457671077347 0 0.016632611269740142 0.018538178316249179 0 0.017767339644066845 0.017143851010741073 0 0.016751932510939323 0.017227554250703683 0 0.01710420593215585 0.016532443662286123 0 0.021444231495758314 0.020773698051754629 0 0.021439429652820269 0.020777447629376652 0 0.021454973639916677 0.020790563326229569 0 0.021439429652820269 0.020777447629376652 0 0.021454973639916677 0.020790563326229569 0 0.021466541334723036 0.020809554049113051 0 0.019850750069617389 0.017485134029043357 0 0.016632611269740142 0.018538178316249179 0 0.021444542362841258 0.020776653160398065 0 0.021444231495758314 0.020773698051754629 0 0.021454973639916677 0.020790563326229569 0 0.021444542362841258 0.020776653160398065 0 0.021454973639916677 0.020790563326229569 0 0.021469479168605345 0.020801593387092285 0 0.022465850970088609 0.017743626436852084 0 0.022021618041742956 0.018441779250609504 0 0.022021618041742956 0.018441779250609504 0 0.021784364764010931 0.020946276588562726 0 0.021444542362841258 0.020776653160398065 0 0.021469479168605345 0.020801593387092285 0 0.021511167917861833 0.020823581915469989 0 0.022279313909976325 0.020096362924407595 0 0.022202965122143026 0.020169154315048902 0 0.022230420936043892 0.020246740505405737 0 0.02213288443210152 0.020132391393836501 0 0.022279313909976325 0.020096362924407595 0 0.022202965122143026 0.020169154315048902 0 0.021469479168605345 0.020801593387092285 0 0.021511167917861833 0.020823581915469989 0 0.021466541334723036 0.020809554049113051 0 0.015528331137080575 0.020875004622946315 0 0.015565810216063829 0.021281829955780044 0 0.015314087226082686 0.021367358364944286 0 0.015565810216063829 0.021281829955780044 0 0.015314087226082686 0.021367358364944286 0 0.015487937178203428 0.021613792711671936 0 0.021454973639916677 0.020790563326229569 0 0.021469479168605345 0.020801593387092285 0 0.021466541334723036 0.020809554049113051 0 0.015314087226082686 0.021367358364944286 0 0.015487937178203428 0.021613792711671936 0 0.015166391560208997 0.0218659372453456 0 0.01857040706464971 0.02147042373094684 0 0.018374265259626699 0.021260333553029583 0 0.021955694736479556 0.020455870619024034 0 0.021784364764010931 0.020946276588562726 0 0.021511167917861833 0.020823581915469989 0 0.021466541334723036 0.020809554049113051 0 0.021606845491331718 0.020712626218452473 0 0.021679803553834597 0.020742817573220156 0 0.021511167917861833 0.020823581915469989 0 0.021606845491331718 0.020712626218452473 0 0.015344201524428176 0.022472986775790106 0 0.015347081199076334 0.022122774836061794 0 0.015382297424494068 0.021884066496164752 0 0.015682528492722721 0.021839443284942622 0 0.015328714576253949 0.022167089890867919 0 0.015487937178203428 0.021613792711671936 0 0.015166391560208997 0.0218659372453456 0 0.015382297424494068 0.021884066496164752 0 0.015166391560208997 0.0218659372453456 0 0.015382297424494068 0.021884066496164752 0 0.015328714576253949 0.022167089890867919 0 0.015487937178203428 0.021613792711671936 0 0.015382297424494068 0.021884066496164752 0 0.015682528492722721 0.021839443284942622 0 0.014966076988047533 0.02272797242957254 0 0.014464756579843831 0.02255655395776137 0 0.01507675360123645 0.022151101505917561 0 0.014464756579843831 0.02255655395776137 0 0.014400564990714532 0.022967109062627968 0 0.01382549209234331 0.023030845249608457 0 0.014966076988047533 0.02272797242957254 0 0.014464756579843831 0.02255655395776137 0 0.014400564990714532 0.022967109062627968 0 0.012476431253688585 0.028838792975750444 0 0.011900434983561765 0.028899305384383098 0 0.012139051475834352 0.028653319181362762 0 0.014966076988047533 0.02272797242957254 0 0.014400564990714532 0.022967109062627968 0 0.014416817257737306 0.023358002930407181 0 0.014400564990714532 0.022967109062627968 0 0.014273374298735656 0.02316636188459897 0 0.01382549209234331 0.023030845249608457 0 0.014400564990714532 0.022967109062627968 0 0.014273374298735656 0.02316636188459897 0 0.014416817257737306 0.023358002930407181 0 0.012952464344256726 0.020637033257509256 0 0.014533134050435416 0.021078809622205 0 0.01371617142815848 0.021046557851262686 0 0.013196724383192984 0.020566033321876991 0 0.014030656037358438 0.020689655696418122 0 0.014273374298735656 0.02316636188459897 0 0.014156595986160836 0.023322941049175438 0 0.014416817257737306 0.023358002930407181 0 0.013567132377916145 0.019190367240957438 0 0.012952464344256726 0.020637033257509256 0 0.016164269905227954 0.0214584323364817 0 0.014533134050435416 0.021078809622205 0 0.01571263869926303 0.02140976334799314 0 0.015487937178203428 0.021613792711671936 0 0.015682528492722721 0.021839443284942622 0 0.01571263869926303 0.02140976334799314 0 0.015565810216063829 0.021281829955780044 0 0.015487937178203428 0.021613792711671936 0 0.015344201524428176 0.022472986775790106 0 0.014533134050435416 0.021078809622205 0 0.01571263869926303 0.02140976334799314 0 0.015682528492722721 0.021839443284942622 0 0.015996432418364955 0.021453567723635179 0 0.013039144949662709 0.028063073846176404 0 0.012572723057313854 0.028143255156043781 0 0.013003660571619863 0.028430608835731608 0 0.013039144949662709 0.028063073846176404 0 0.012572723057313854 0.028143255156043781 0 0.012840271992216762 0.027876934918806617 0 0.012572723057313854 0.028143255156043781 0 0.012552856008105271 0.027914371816959282 0 0.012155334040385673 0.028034238696297158 0 0.012572723057313854 0.028143255156043781 0 0.012155334040385673 0.028034238696297158 0 0.012206043440081259 0.028203912681469902 0 0.012572723057313854 0.028143255156043781 0 0.012429163874919425 0.028448521348658488 0 0.012206043440081259 0.028203912681469902 0 0.012476431253688585 0.028838792975750444 0 0.012429163874919425 0.028448521348658488 0 0.013003660571619863 0.028430608835731608 0 0.012572723057313854 0.028143255156043781 0 0.012429163874919425 0.028448521348658488 0 0.013003660571619863 0.028430608835731608 0 0.012429163874919425 0.028448521348658488 0 0.012206043440081259 0.028203912681469902 0 0.012053047238610904 0.028446033894975051 0 0.012429163874919425 0.028448521348658488 0 0.012053047238610904 0.028446033894975051 0 0.012139051475834352 0.028653319181362762 0 0.012476431253688585 0.028838792975750444 0 0.012429163874919425 0.028448521348658488 0 0.012139051475834352 0.028653319181362762 0 0.014966076988047533 0.02272797242957254 0 0.01507675360123645 0.022151101505917561 0 0.015328714576253949 0.022167089890867919 0 0.01346455918286397 0.025892530893702106 0 0.014033121404372297 0.025305473856444338 0 0.01507675360123645 0.022151101505917561 0 0.015328714576253949 0.022167089890867919 0 0.015316558588884338 0.022169318866404605 0 0.015328714576253949 0.022167089890867919 0 0.015256290166751145 0.022139656533830394 0 0.015316558588884338 0.022169318866404605 0 0.015166391560208997 0.0218659372453456 0 0.015256290166751145 0.022139656533830394 0 0.01517854058787429 0.022133430424918336 0 0.015166391560208997 0.0218659372453456 0 0.015328714576253949 0.022167089890867919 0 0.015256290166751145 0.022139656533830394 0 0.015234554814149698 0.02220153502979531 0 0.015316558588884338 0.022169318866404605 0 0.015226043561874862 0.022293650135051312 0 0.015256290166751145 0.022139656533830394 0 0.015234554814149698 0.02220153502979531 0 0.01517854058787429 0.022133430424918336 0 0.015256290166751145 0.022139656533830394 0 0.015234554814149698 0.02220153502979531 0 0.015316558588884338 0.022169318866404605 0 0.014033121404372297 0.025305473856444338 0 0.014346236254901551 0.024933533639969842 0 0.013039144949662709 0.028063073846176404 0 0.013003660571619863 0.028430608835731608 0 0.013425020896008128 0.028098552187088538 0 0.013039144949662709 0.028063073846176404 0 0.013425020896008128 0.028098552187088538 0 0.013165585210993445 0.027691669653831061 0 0.01438508999203379 0.028289748925375436 0 0.015424644158776377 0.027732513234728164 0 0.01585722443662374 0.028499336834993401 0 0.013425020896008128 0.028098552187088538 0 0.013165585210993445 0.027691669653831061 0 0.01388122581679966 0.027745549544631251 0 0.013706638173886433 0.028162682082511038 0 0.015244330015407275 0.026788058816600319 0 0.014346236254901551 0.024933533639969842 0 0.015244330015407275 0.026788058816600319 0 0.015424644158776377 0.027732513234728164 0 0.014658832944302824 0.027471343518027557 0 0.015006469710613562 0.027021586093165462 0 0.01438508999203379 0.028289748925375436 0 0.014658832944302824 0.027471343518027557 0 0.013849512864846 0.027417066856241075 0 0.01438508999203379 0.028289748925375436 0 0.015424644158776377 0.027732513234728164 0 0.014658832944302824 0.027471343518027557 0 0.01438508999203379 0.028289748925375436 0 0.013849512864846 0.027417066856241075 0 0.01272597371934891 0.027717532764146187 0 0.013706638173886433 0.028162682082511038 0 0.012819372473425747 0.027699157800488788 0 0.013039144949662709 0.028063073846176404 0 0.013165585210993445 0.027691669653831061 0 0.012840271992216762 0.027876934918806617 0 0.013165585210993445 0.027691669653831061 0 0.012840271992216762 0.027876934918806617 0 0.01272597371934891 0.027717532764146187 0 0.012572723057313854 0.028143255156043781 0 0.012840271992216762 0.027876934918806617 0 0.012552856008105271 0.027914371816959282 0 0.012840271992216762 0.027876934918806617 0 0.012552856008105271 0.027914371816959282 0 0.01272597371934891 0.027717532764146187 0 0.012552856008105271 0.027914371816959282 0 0.01272597371934891 0.027717532764146187 0 0.012301840629642343 0.027858663027722153 0 0.013189533851335202 0.027515492380022932 0 0.01235204716245431 0.02783843386900204 0 0.012570847227025618 0.028301480958720922 0 0.01272597371934891 0.027717532764146187 0 0.012994500356155713 0.027447047324842221 0 0.012301840629642343 0.027858663027722153 0 0.01310041694063583 0.027470146320722356 0 0.012439804681765304 0.028126739470256849 0 0.013185805320475317 0.027333845877099989 0 0.012312518061404923 0.028213171622036397 0 0.013189533851335202 0.027515492380022932 0 0.013251598231365781 0.026998318980332791 0 0.01235204716245431 0.02783843386900204 0 0.013849512864846 0.027417066856241075 0 0.01272597371934891 0.027717532764146187 0 0.012994500356155713 0.027447047324842221 0 0.013106249648713753 0.027685592344642219 0 0.01304405835048892 0.027233857807481603 0 0.012029708776182176 0.027427671846580546 0 0.013849512864846 0.027417066856241075 0 0.013862519836286372 0.026723231782727255 0 0.014462893350757081 0.026820948426959357 0 0.013189533851335202 0.027515492380022932 0 0.013251598231365781 0.026998318980332791 0 0.013862519836286372 0.026723231782727255 0 0.01310041694063583 0.027470146320722356 0 0.013775331059555536 0.026777447940012973 0 0.013251598231365781 0.026998318980332791 0 0.013862519836286372 0.026723231782727255 0 0.014271555030399835 0.026210013750628924 0 0.013849512864846 0.027417066856241075 0 0.012994500356155713 0.027447047324842221 0 0.013862519836286372 0.026723231782727255 0 0.013106249648713753 0.027685592344642219 0 0.01304405835048892 0.027233857807481603 0 0.014075111074279322 0.026833973486122847 0 0.013185805320475317 0.027333845877099989 0 0.014169267999031678 0.026530566397544388 0 0.01304405835048892 0.027233857807481603 0 0.013217864018508749 0.026296048444617241 0 0.014075111074279322 0.026833973486122847 0 0.013862519836286372 0.026723231782727255 0 0.014271555030399835 0.026210013750628924 0 0.014462893350757081 0.026820948426959357 0 0.01304405835048892 0.027233857807481603 0 0.013217864018508749 0.026296048444617241 0 0.012367109771601008 0.026905544385075541 0 0.013217864018508749 0.026296048444617241 0 0.012367109771601008 0.026905544385075541 0 0.01223514727277779 0.026069167288525749 0 0.013217864018508749 0.026296048444617241 0 0.013276880467646784 0.024999996489166395 0 0.01223514727277779 0.026069167288525749 0 0.013217864018508749 0.026296048444617241 0 0.014059338639933036 0.025811579141761139 0 0.014075111074279322 0.026833973486122847 0 0.013276880467646784 0.024999996489166395 0 0.014665003618189206 0.024999989401035615 0 0.014059338639933036 0.025811579141761139 0 0.013217864018508749 0.026296048444617241 0 0.013276880467646784 0.024999996489166395 0 0.014059338639933036 0.025811579141761139 0 0.015176880460077667 0.025729828262535684 0 0.016052977339597818 0.025000131859312821 0 0.014665003618189206 0.024999989401035615 0 0.015068253338193657 0.025921681177305037 0 0.016053146394670231 0.025000000339734752 0 0.014665003618189206 0.024999989401035615 0 0.014059338639933036 0.025811579141761139 0 0.015068253338193657 0.025921681177305037 0 0.015176880460077667 0.025729828262535684 0 0.014169267999031678 0.026530566397544388 0 0.014059338639933036 0.025811579141761139 0 0.015068253338193657 0.025921681177305037 0 0.014075111074279322 0.026833973486122847 0 0.015089407005174705 0.026411126880978023 0 0.015601110648764384 0.026873006465967776 0 0.015850492683656393 0.02622352433942032 0 0.015310163719596516 0.025528078782694884 0 0.015089407005174705 0.026411126880978023 0 0.015850492683656393 0.02622352433942032 0 0.015310163719596516 0.025528078782694884 0 0.015089407005174705 0.026411126880978023 0 0.014271555030399835 0.026210013750628924 0 0.015089407005174705 0.026411126880978023 0 0.014271555030399835 0.026210013750628924 0 0.014462893350757081 0.026820948426959357 0 0.015089407005174705 0.026411126880978023 0 0.014462893350757081 0.026820948426959357 0 0.015006469710613562 0.027021586093165462 0 0.014658832944302824 0.027471343518027557 0 0.014462893350757081 0.026820948426959357 0 0.015006469710613562 0.027021586093165462 0 0.014658832944302824 0.027471343518027557 0 0.013849512864846 0.027417066856241075 0 0.014462893350757081 0.026820948426959357 0 0.015424644158776377 0.027732513234728164 0 0.015601110648764384 0.026873006465967776 0 0.015006469710613562 0.027021586093165462 0 0.015424644158776377 0.027732513234728164 0 0.015601110648764384 0.026873006465967776 0 0.016098233126082013 0.027229200459606164 0 0.015089407005174705 0.026411126880978023 0 0.015601110648764384 0.026873006465967776 0 0.015006469710613562 0.027021586093165462 0 0.016053490399853997 0.024999290380757284 0 0.018250261785540046 0.025466711211231674 0 0.019317028628658559 0.024998789022261839 0 0.016098233126082013 0.027229200459606164 0 0.01665385677449813 0.026917442986324775 0 0.016150976206809217 0.026704372177830057 0 0.015601110648764384 0.026873006465967776 0 0.016098233126082013 0.027229200459606164 0 0.016150976206809217 0.026704372177830057 0 0.016591654152828466 0.026953188480350724 0 0.018523927126217043 0.026005124871292789 0 0.01665385677449813 0.026917442986324775 0 0.017374405663112102 0.027339903709235457 0 0.017424353301094788 0.02724152963616 0 0.016098233126082013 0.027229200459606164 0 0.01665385677449813 0.026917442986324775 0 0.017374405663112102 0.027339903709235457 0 0.016098233126082013 0.027229200459606164 0 0.017249432600669225 0.027231866657297023 0 0.016794741225907288 0.027441393008113005 0 0.015490253053149472 0.027734456136340679 0 0.018910971640799461 0.025241979759636213 0 0.01665385677449813 0.026917442986324775 0 0.017213113777446911 0.026856432281176391 0 0.017577248591448456 0.027386063332857567 0 0.016576085074825213 0.026432345590376154 0 0.017230847964059187 0.026199040724937291 0 0.016463568725724798 0.025742284319716265 0 0.017213113777446911 0.026856432281176391 0 0.016576085074825213 0.026432345590376154 0 0.017230847964059187 0.026199040724937291 0 0.01665385677449813 0.026917442986324775 0 0.017213113777446911 0.026856432281176391 0 0.016576085074825213 0.026432345590376154 0 0.016576085074825213 0.026432345590376154 0 0.015850492683656393 0.02622352433942032 0 0.016463568725724798 0.025742284319716265 0 0.015601110648764384 0.026873006465967776 0 0.016150976206809217 0.026704372177830057 0 0.015850492683656393 0.02622352433942032 0 0.01665385677449813 0.026917442986324775 0 0.016576085074825213 0.026432345590376154 0 0.016150976206809217 0.026704372177830057 0 0.016576085074825213 0.026432345590376154 0 0.016150976206809217 0.026704372177830057 0 0.015850492683656393 0.02622352433942032 0 0.015310163719596516 0.025528078782694884 0 0.015850492683656393 0.02622352433942032 0 0.016463568725724798 0.025742284319716265 0 0.016463568725724798 0.025742284319716265 0 0.016053490399853997 0.024999290380757284 0 0.018250261785540046 0.025466711211231674 0 0.017230847964059187 0.026199040724937291 0 0.016463568725724798 0.025742284319716265 0 0.018250261785540046 0.025466711211231674 0 0.015310163719596516 0.025528078782694884 0 0.016463568725724798 0.025742284319716265 0 0.016053490399853997 0.024999290380757284 0 0.017230847964059187 0.026199040724937291 0 0.018250261785540046 0.025466711211231674 0 0.017751290708156755 0.026483810401723009 0 0.01837171826658306 0.0253564299629556 0 0.019253896443843965 0.026095727779748026 0 0.018250261785540046 0.025466711211231674 0 0.019884584123017548 0.025499453539722258 0 0.020105802146696425 0.025159007886428292 0 0.018250261785540046 0.025466711211231674 0 0.018998636897662801 0.026492720179724354 0 0.018325645437191961 0.026868504127599693 0 0.018250261785540046 0.025466711211231674 0 0.017751290708156755 0.026483810401723009 0 0.018325645437191961 0.026868504127599693 0 0.017751290708156755 0.026483810401723009 0 0.017797280254586021 0.026919097682567495 0 0.018325645437191961 0.026868504127599693 0 0.017213113777446911 0.026856432281176391 0 0.017751290708156755 0.026483810401723009 0 0.017797280254586021 0.026919097682567495 0 0.017213113777446911 0.026856432281176391 0 0.017230847964059187 0.026199040724937291 0 0.017751290708156755 0.026483810401723009 0 0.017213113777446911 0.026856432281176391 0 0.017643993369214649 0.027258316560098264 0 0.017577248591448456 0.027386063332857567 0 0.017213113777446911 0.026856432281176391 0 0.017797280254586021 0.026919097682567495 0 0.017643993369214649 0.027258316560098264 0 0.017797280254586021 0.026919097682567495 0 0.018031248334116734 0.027133831783833971 0 0.018325645437191961 0.026868504127599693 0 0.017797280254586021 0.026919097682567495 0 0.017643993369214649 0.027258316560098264 0 0.018031248334116734 0.027133831783833971 0 0.017643993369214649 0.027258316560098264 0 0.018031248334116734 0.027133831783833971 0 0.017877810054909925 0.027497013538688057 0 0.021945328502821087 0.020685689984989299 0 0.021958355597924417 0.020696250797536418 0 0.021959664303273101 0.020653718109982396 0 0.019579024673723789 0.025139454793187254 0 0.01850504125326162 0.025106359108433285 0 0.018682396132555883 0.024753620924157272 0 0.019813715357161421 0.024521716192654572 0 0.018523927126217043 0.026005124871292789 0 0.017643993369214649 0.027258316560098264 0 0.017877810054909925 0.027497013538688057 0 0.017586433560710265 0.027375934612004042 0 0.018356837876352262 0.026306749202213594 0 0.018523927126217043 0.026005124871292789 0 0.019813715357161421 0.024521716192654572 0 0.018910971640799461 0.025241979759636213 0 0.018910971640799461 0.025241979759636213 0 0.018523927126217043 0.026005124871292789 0 0.018998636897662801 0.026492720179724354 0 0.018325645437191961 0.026868504127599693 0 0.018855276323081257 0.027515059596361045 0 0.018031248334116734 0.027133831783833971 0 0.017877810054909925 0.027497013538688057 0 0.018855276323081257 0.027515059596361045 0 0.019813715357161421 0.024521716192654572 0 0.019477711796226326 0.02551948801940784 0 0.018031248334116734 0.027133831783833971 0 0.018325645437191961 0.026868504127599693 0 0.018855276323081257 0.027515059596361045 0 0.021945328502821087 0.020685689984989299 0 0.0219550073436671 0.020619737682638851 0 0.02192218527598342 0.020618943423078497 0 0.02017832417170258 0.023492520577581263 0 0.020790731755048763 0.023494912325661765 0 0.0210698433851082 0.023837798221171422 0 0.019813715357161421 0.024521716192654572 0 0.021507774979669905 0.021861011534668726 0 0.021949800121459848 0.020564642752135955 0 0.0219550073436671 0.020619737682638851 0 0.02192218527598342 0.020618943423078497 0 0.021949800121459848 0.020564642752135955 0 0.0219804176032273 0.020565794421714835 0 0.0219550073436671 0.020619737682638851 0 0.0219804176032273 0.020565794421714835 0 0.0219550073436671 0.020619737682638851 0 0.021981743924963819 0.020642003935491718 0 0.0219550073436671 0.020619737682638851 0 0.021959664303273101 0.020653718109982396 0 0.021981743924963819 0.020642003935491718 0 0.021945328502821087 0.020685689984989299 0 0.0219550073436671 0.020619737682638851 0 0.021959664303273101 0.020653718109982396 0 0.021958355597924417 0.020696250797536418 0 0.021959664303273101 0.020653718109982396 0 0.021981743924963819 0.020642003935491718 0 0.016654815163666344 0.027781406281892847 0 0.016891541498272895 0.027797909744441875 0 0.0166841567666434 0.028033862110847785 0 0.017249432600669225 0.027231866657297023 0 0.016794741225907288 0.027441393008113005 0 0.016891541498272895 0.027797909744441875 0 0.018910971640799461 0.025241979759636213 0 0.019425378149678745 0.024176507501533776 0 0.016794741225907288 0.027441393008113005 0 0.016654815163666344 0.027781406281892847 0 0.016891541498272895 0.027797909744441875 0 0.016794741225907288 0.027441393008113005 0 0.016654815163666344 0.027781406281892847 0 0.016405123087804129 0.027547933496229936 0 0.015424644158776377 0.027732513234728164 0 0.016050567347782468 0.027761821408587753 0 0.01585722443662374 0.028499336834993401 0 0.016098233126082013 0.027229200459606164 0 0.016794741225907288 0.027441393008113005 0 0.016405123087804129 0.027547933496229936 0 0.016654815163666344 0.027781406281892847 0 0.016050567347782468 0.027761821408587753 0 0.01585722443662374 0.028499336834993401 0 0.015424644158776377 0.027732513234728164 0 0.016098233126082013 0.027229200459606164 0 0.016050567347782468 0.027761821408587753 0 0.016654815163666344 0.027781406281892847 0 0.016405123087804129 0.027547933496229936 0 0.016050567347782468 0.027761821408587753 0 0.016098233126082013 0.027229200459606164 0 0.016405123087804129 0.027547933496229936 0 0.016050567347782468 0.027761821408587753 0 0.016654815163666344 0.027781406281892847 0 0.016395529065476165 0.027976294801112161 0 0.0166841567666434 0.028033862110847785 0 0.015234554814149698 0.02220153502979531 0 0.015226043561874862 0.022293650135051312 0 0.015161742790798937 0.022270209329748845 0 0.015244330015407275 0.026788058816600319 0 0.018650800840545354 0.022468660074542644 0 0.016680201511717369 0.028041814307140988 0 0.015244330015407275 0.026788058816600319 0 0.0219804176032273 0.020565794421714835 0 0.021981743924963819 0.020642003935491718 0 0.021985391841631147 0.020602593385296238 0 0.019425378149678745 0.024176507501533776 0 0.018650800840545354 0.022468660074542644 0 0.022857947709541384 0.020858778005284212 0 0.018650800840545354 0.022468660074542644 0 0.0219804176032273 0.020565794421714835 0 0.022005151235216916 0.020509080611572663 0 0.021992377447541206 0.020516775518315471 0 0.0219804176032273 0.020565794421714835 0 0.022000641666882169 0.020552783010990831 0 0.022005151235216916 0.020509080611572663 0 0.022000641666882169 0.020552783010990831 0 0.022005151235216916 0.020509080611572663 0 0.021971458771307351 0.020470096950116048 0 0.022005151235216916 0.020509080611572663 0 0.022009425013545861 0.020491287233099537 0 0.021992377447541206 0.020516775518315471 0 0.018650800840545354 0.022468660074542644 0 0.018592345528201937 0.021106023149227503 0 0.015234554814149698 0.02220153502979531 0 0.015161742790798937 0.022270209329748845 0 0.01517854058787429 0.022133430424918336 0 0.018374265259626699 0.021260333553029583 0 0.018592345528201937 0.021106023149227503 0 0.022043099009202715 0.020454434261399857 0 0.022081717945624052 0.02042019787783865 0 0.022004422114892341 0.020502107967080786 0 0.021606845491331718 0.020712626218452473 0 0.021971458771307351 0.020470096950116048 0 0.022004422114892341 0.020502107967080786 0 0.021971458771307351 0.020470096950116048 0 0.022004422114892341 0.020502107967080786 0 0.022014725644904354 0.020490548248031402 0 0.022043099009202715 0.020454434261399857 0 0.022004422114892341 0.020502107967080786 0 0.022022985154556609 0.020479968515792046 0 0.022005151235216916 0.020509080611572663 0 0.021971458771307351 0.020470096950116048 0 0.022014725644904354 0.020490548248031402 0 0.022009425013545861 0.020491287233099537 0 0.022022456634795486 0.020468518726396694 0 0.022001648918005049 0.020471569007402934 0 0.022005151235216916 0.020509080611572663 0 0.022009425013545861 0.020491287233099537 0 0.022014725644904354 0.020490548248031402 0 0.022009425013545861 0.020491287233099537 0 0.022014725644904354 0.020490548248031402 0 0.022022456634795486 0.020468518726396694 0 0.022004422114892341 0.020502107967080786 0 0.022014725644904354 0.020490548248031402 0 0.022022985154556609 0.020479968515792046 0 0.022014725644904354 0.020490548248031402 0 0.022022985154556609 0.020479968515792046 0 0.022022456634795486 0.020468518726396694 0 0.022037073477944764 0.020445963344401824 0 0.022043099009202715 0.020454434261399857 0 0.022022985154556609 0.020479968515792046 0 0.022037073477944764 0.020445963344401824 0 0.022022985154556609 0.020479968515792046 0 0.022022456634795486 0.020468518726396694 0 0.022024628981456167 0.020426640272930941 0 0.022022456634795486 0.020468518726396694 0 0.022001648918005049 0.020471569007402934 0 0.021997128380425092 0.020425177933523327 0 0.022024628981456167 0.020426640272930941 0 0.022001648918005049 0.020471569007402934 0 0.022009425013545861 0.020491287233099537 0 0.022001648918005049 0.020471569007402934 0 0.021992377447541206 0.020516775518315471 0 0.022001648918005049 0.020471569007402934 0 0.021984247067335431 0.020462313299770329 0 0.021976892248485987 0.020511314140061326 0 0.021997128380425092 0.020425177933523327 0 0.022001648918005049 0.020471569007402934 0 0.021984247067335431 0.020462313299770329 0 0.021984247067335431 0.020462313299770329 0 0.021969350614147645 0.020428556271107318 0 0.021953207152299172 0.020492559480762375 0 0.021997128380425092 0.020425177933523327 0 0.021984247067335431 0.020462313299770329 0 0.021969350614147645 0.020428556271107318 0 0.021949800121459848 0.020564642752135955 0 0.021976892248485987 0.020511314140061326 0 0.021953207152299172 0.020492559480762375 0 0.021984247067335431 0.020462313299770329 0 0.021976892248485987 0.020511314140061326 0 0.021953207152299172 0.020492559480762375 0 0.021949800121459848 0.020564642752135955 0 0.0219804176032273 0.020565794421714835 0 0.021976892248485987 0.020511314140061326 0 0.0219804176032273 0.020565794421714835 0 0.021992377447541206 0.020516775518315471 0 0.021976892248485987 0.020511314140061326 0 0.022001648918005049 0.020471569007402934 0 0.021992377447541206 0.020516775518315471 0 0.021976892248485987 0.020511314140061326 0 0.021912243445967761 0.020503639726646556 0 0.021953207152299172 0.020492559480762375 0 0.021925322571946081 0.020554120776836174 0 0.021949800121459848 0.020564642752135955 0 0.021953207152299172 0.020492559480762375 0 0.021925322571946081 0.020554120776836174 0 0.021969350614147645 0.020428556271107318 0 0.021953207152299172 0.020492559480762375 0 0.021952970556146572 0.020405940631684369 0 0.021912243445967761 0.020503639726646556 0 0.021953207152299172 0.020492559480762375 0 0.021952970556146572 0.020405940631684369 0 0.021912243445967761 0.020503639726646556 0 0.021952970556146572 0.020405940631684369 0 0.021866151959805961 0.020408863972148528 0 0.021866151959805961 0.020408863972148528 0 0.021777347751052348 0.020437917858229491 0 0.021842162354049146 0.020522662072620265 0 0.02176967477699784 0.020293295364200905 0 0.021866151959805961 0.020408863972148528 0 0.021777347751052348 0.020437917858229491 0 0.024992157796543967 0.020339789916869109 0 0.024716762119350429 0.020780867018941593 0 0.024765418328021156 0.020333212548929371 0 0.024782003024250151 0.020044679218405977 0 0.024755810262372509 0.020525140885112609 0 0.024810936103478579 0.020550892058027705 0 0.024716762119350429 0.020780867018941593 0 0.024547965983676551 0.021470918912036407 0 0.024782003024250151 0.020044679218405977 0 0.023007730275247731 0.020811647843581024 0 0.024716762119350429 0.020780867018941593 0 0.024327636656374697 0.021475570359821949 0 0.024547965983676551 0.021470918912036407 0 0.024716762119350429 0.020780867018941593 0 0.024327636656374697 0.021475570359821949 0 0.024433342456857285 0.020820586916994545 0 0.021912243445967761 0.020503639726646556 0 0.021866151959805961 0.020408863972148528 0 0.021842162354049146 0.020522662072620265 0 0.021912243445967761 0.020503639726646556 0 0.021842162354049146 0.020522662072620265 0 0.021883961200236012 0.020583544121171186 0 0.024547965983676551 0.021470918912036407 0 0.02430495917726256 0.022568041132462448 0 0.024295902018065082 0.022502287939385766 0 0.023007730275247731 0.020811647843581024 0 0.022728452443686743 0.022478231785930808 0 0.024547965983676551 0.021470918912036407 0 0.024194800359404196 0.022143842361498668 0 0.024295902018065082 0.022502287939385766 0 0.024194800359404196 0.022143842361498668 0 0.024295902018065082 0.022502287939385766 0 0.02389258015814406 0.022937806244565793 0 0.024194800359404196 0.022143842361498668 0 0.02399115162203071 0.022397787730668767 0 0.02389258015814406 0.022937806244565793 0 0.024307811561422692 0.022524710090764764 0 0.024295902018065082 0.022502287939385766 0 0.02389258015814406 0.022937806244565793 0 0.022728452443686743 0.022478231785930808 0 0.022910788630053643 0.022535277779094288 0 0.024327636656374697 0.021475570359821949 0 0.02399115162203071 0.022397787730668767 0 0.023887440023110086 0.021803582290961208 0 0.024327636656374697 0.021475570359821949 0 0.024547965983676551 0.021470918912036407 0 0.024194800359404196 0.022143842361498668 0 0.024327636656374697 0.021475570359821949 0 0.024194800359404196 0.022143842361498668 0 0.02399115162203071 0.022397787730668767 0 0.02399115162203071 0.022397787730668767 0 0.023597139448987704 0.023500648310417153 0 0.023887440023110086 0.021803582290961208 0 0.02399115162203071 0.022397787730668767 0 0.023597139448987704 0.023500648310417153 0 0.02389258015814406 0.022937806244565793 0 0.023597139448987704 0.023500648310417153 0 0.02389258015814406 0.022937806244565793 0 0.023253482005474838 0.024534905568423804 0 0.024307811561422692 0.022524710090764764 0 0.02389258015814406 0.022937806244565793 0 0.023253482005474838 0.024534905568423804 0 0.022728452443686743 0.022478231785930808 0 0.021507774979669905 0.021861011534668726 0 0.022728452443686743 0.022478231785930808 0 0.021820735652276813 0.025352609410335625 0 0.024307811561422692 0.022524710090764764 0 0.025219362206493533 0.024605654940270096 0 0.023253482005474838 0.024534905568423804 0 0.021927399637844642 0.024170094974693225 0 0.0210698433851082 0.023837798221171422 0 0.02139154788194389 0.023512419374452 0 0.021912243445967761 0.020503639726646556 0 0.021883961200236012 0.020583544121171186 0 0.021925322571946081 0.020554120776836174 0 0.021883961200236012 0.020583544121171186 0 0.021925322571946081 0.020554120776836174 0 0.02192218527598342 0.020618943423078497 0 0.021949800121459848 0.020564642752135955 0 0.021925322571946081 0.020554120776836174 0 0.02192218527598342 0.020618943423078497 0 0.020790731755048763 0.023494912325661765 0 0.0210698433851082 0.023837798221171422 0 0.02139154788194389 0.023512419374452 0 0.018998636897662801 0.026492720179724354 0 0.018855276323081257 0.027515059596361045 0 0.019828647395194691 0.027529705406712898 0 0.019253896443843965 0.026095727779748026 0 0.021820735652276813 0.025352609410335625 0 0.019884584123017548 0.025499453539722258 0 0.021378509733351484 0.025574436312205625 0 0.021644932765891647 0.024966443452572876 0 0.019477711796226326 0.02551948801940784 0 0.021820735652276813 0.025352609410335625 0 0.021820735652276813 0.025352609410335625 0 0.023701447958669096 0.024677158216392953 0 0.021378509733351484 0.025574436312205625 0 0.021644932765891647 0.024966443452572876 0 0.023253482005474838 0.024534905568423804 0 0.019884584123017548 0.025499453539722258 0 0.021644932765891647 0.024966443452572876 0 0.020105802146696425 0.025159007886428292 0 0.021644932765891647 0.024966443452572876 0 0.020105802146696425 0.025159007886428292 0 0.021524713278215871 0.024893494265053422 0 0.020105802146696425 0.025159007886428292 0 0.019317028628658559 0.024998789022261839 0 0.021524713278215871 0.024893494265053422 0 0.018250261785540046 0.025466711211231674 0 0.020105802146696425 0.025159007886428292 0 0.019317028628658559 0.024998789022261839 0 0.019317028628658559 0.024998789022261839 0 0.021767803746619654 0.024998104859052656 0 0.021524713278215871 0.024893494265053422 0 0.021767803746619654 0.024998104859052656 0 0.021524713278215871 0.024893494265053422 0 0.023193989820676775 0.024369095533588975 0 0.021524713278215871 0.024893494265053422 0 0.022982407687733745 0.024429793718883205 0 0.023193989820676775 0.024369095533588975 0 0.021644932765891647 0.024966443452572876 0 0.021524713278215871 0.024893494265053422 0 0.022982407687733745 0.024429793718883205 0 0.023597139448987704 0.023500648310417153 0 0.023253482005474838 0.024534905568423804 0 0.022982407687733745 0.024429793718883205 0 0.021644932765891647 0.024966443452572876 0 0.023253482005474838 0.024534905568423804 0 0.022982407687733745 0.024429793718883205 0 0.023597139448987704 0.023500648310417153 0 0.022982407687733745 0.024429793718883205 0 0.023866819340310444 0.023484285754327899 0 0.023866819340310444 0.023484285754327899 0 0.02436555803402168 0.023253484921137373 0 0.023193989820676775 0.024369095533588975 0 0.022982407687733745 0.024429793718883205 0 0.023866819340310444 0.023484285754327899 0 0.023193989820676775 0.024369095533588975 0 0.021767803746619654 0.024998104859052656 0 0.024999245851316076 0.024998173518198125 0 0.024007898453404092 0.024279371242963348 0 0.02436555803402168 0.023253484921137373 0 0.023193989820676775 0.024369095533588975 0 0.024007898453404092 0.024279371242963348 0 0.021767803746619654 0.024998104859052656 0 0.023193989820676775 0.024369095533588975 0 0.024007898453404092 0.024279371242963348 0 0.024999245851316076 0.024998173518198125 0 0.024007898453404092 0.024279371242963348 0 0.024998123711106907 0.023102427871028983 0 0.02436555803402168 0.023253484921137373 0 0.024007898453404092 0.024279371242963348 0 0.024998123711106907 0.023102427871028983 0 0.02436555803402168 0.023253484921137373 0 0.024998123711106907 0.023102427871028983 0 0.025125995842260149 0.021887552772747194 0 0.024998123711106907 0.023102427871028983 0 0.02499983919720446 0.020424094983340635 0 0.025125995842260149 0.021887552772747194 0 0.024998437721569608 0.020423987102604093 0 0.024895897059382419 0.020984227007716971 0 0.02444260730907627 0.022090848552532551 0 0.024999882841589115 0.02042358346863702 0 0.024774593390764928 0.022008160229016725 0 0.024895897059382419 0.020984227007716971 0 0.024600273226617245 0.0224005491410596 0 0.024996125589639928 0.021405269613641694 0 0.024895897059382419 0.020984227007716971 0 0.02444260730907627 0.022090848552532551 0 0.024600273226617245 0.0224005491410596 0 0.02436555803402168 0.023253484921137373 0 0.02444260730907627 0.022090848552532551 0 0.024600273226617245 0.0224005491410596 0 0.024477227989150325 0.02304155800716871 0 0.024774593390764928 0.022008160229016725 0 0.023866819340310444 0.023484285754327899 0 0.02436555803402168 0.023253484921137373 0 0.024600273226617245 0.0224005491410596 0 0.023866819340310444 0.023484285754327899 0 0.024600273226617245 0.0224005491410596 0 0.024435530731009361 0.02269660090700858 0 0.023597139448987704 0.023500648310417153 0 0.023866819340310444 0.023484285754327899 0 0.024435530731009361 0.02269660090700858 0 0.023789945486245342 0.023266198055738346 0 0.024149667314183783 0.022278138814276417 0 0.023887440023110086 0.021803582290961208 0 0.024288241432003112 0.02058636722383141 0 0.024433342456857285 0.020820586916994545 0 0.024327636656374697 0.021475570359821949 0 0.023887440023110086 0.021803582290961208 0 0.024433342456857285 0.020820586916994545 0 0.024600273226617245 0.0224005491410596 0 0.024435530731009361 0.02269660090700858 0 0.024996125589639928 0.021405269613641694 0 0.024149667314183783 0.022278138814276417 0 0.024618256973718406 0.020992879699206934 0 0.024288241432003112 0.02058636722383141 0 0.024433342456857285 0.020820586916994545 0 0.024742184341601827 0.019946355685458699 0 0.024716762119350429 0.020780867018941593 0 0.024433342456857285 0.020820586916994545 0 0.024765418328021156 0.020333212548929371 0 0.025275393110515149 0.019223555818712972 0 0.024765418328021156 0.020333212548929371 0 0.024742184341601827 0.019946355685458699 0 0.025275393110515149 0.019223555818712972 0 0.024992157796543967 0.020339789916869109 0 0.024765418328021156 0.020333212548929371 0 0.025898489435965892 0.019007330705467715 0 0.024782003024250151 0.020044679218405977 0 0.024433342456857285 0.020820586916994545 0 0.024765418328021156 0.020333212548929371 0 0.024742184341601827 0.019946355685458699 0 0.025029586407650999 0.019208549119038944 0 0.024742184341601827 0.019946355685458699 0 0.024784999850770168 0.01940087102459942 0 0.024288241432003112 0.02058636722383141 0 0.024742184341601827 0.019946355685458699 0 0.024784999850770168 0.01940087102459942 0 0.024874123356219097 0.018966108449070582 0 0.024784999850770168 0.01940087102459942 0 0.024606705256377773 0.019526891235650403 0 0.024881243776168103 0.019784947752676609 0 0.024999870743514913 0.018756402624956196 0 0.024874123356219097 0.018966108449070582 0 0.024606705256377773 0.019526891235650403 0 0.024998835585099712 0.018756062054699905 0 0.025197967020080633 0.019998958346925919 0 0.025000017120267434 0.018756362681513181 0 0.024999841121864957 0.019590071459880839 0 0.024998437721569608 0.020423987102604093 0 0.024895897059382419 0.020984227007716971 0 0.024999841121864957 0.019590071459880839 0 0.024895897059382419 0.020984227007716971 0 0.025197967020080633 0.019998958346925919 0 0.024999841121864957 0.019590071459880839 0 0.024288241432003112 0.02058636722383141 0 0.024784999850770168 0.01940087102459942 0 0.024606705256377773 0.019526891235650403 0 0.024618256973718406 0.020992879699206934 0 0.024881243776168103 0.019784947752676609 0 0.024895897059382419 0.020984227007716971 0 0.024996125589639928 0.021405269613641694 0 0.025197967020080633 0.019998958346925919 0 0.0014482211041306323 0.023197347081657604 0 0.0011677862564576428 0.022806632874797939 0 0.0010691737757595582 0.023546952903763432 0 0.0011677862564576428 0.022806632874797939 0 0.00066594252382018752 0.023160050302090601 0 0.0010691737757595582 0.023546952903763432 0 0.0014482211041306323 0.023197347081657604 0 0.0014750239923472549 0.023685231682173846 0 0.0018301558196267206 0.023532296901387643 0 0.0014482211041306323 0.023197347081657604 0 0.0010691737757595582 0.023546952903763432 0 0.0014750239923472549 0.023685231682173846 0 0.001789220042749985 0.023206442162090359 0 0.0010589645624698566 0.022278392281461716 0 0.0014482211041306323 0.023197347081657604 0 0.0016093888364590819 0.022555185230728976 0 0.0020994556019651874 0.022938804313517178 0 0.0014482211041306323 0.023197347081657604 0 0.0016093888364590819 0.022555185230728976 0 0.0011677862564576428 0.022806632874797939 0 0.0016093888364590819 0.022555185230728976 0 0.0011677862564576428 0.022806632874797939 0 0.0014531234790326147 0.021923896527665177 0 0.0011677862564576428 0.022806632874797939 0 0.00079398191949553529 0.022461138108333594 0 0.00066594252382018752 0.023160050302090601 0 0.0034681502770617613 0.02238992888881941 0 0.0033457880247080899 0.024125282886250491 0 0.0034681502770617613 0.02238992888881941 0 0.0091625353423431706 0.025074073819832971 0 0.0062529596757561444 0.023870214200094022 0 0.0058048416517902717 0.024204970251286834 0 0.0060583347131358527 0.024765747942577725 0 0.012110592713755711 0.026808179628475436 0 0.012034154570845879 0.02614980192051226 0 0.011713289269653928 0.026597740840190152 0 0.012561872778814374 0.02652061579973965 0 0.012110592713755711 0.026808179628475436 0 0.012034154570845879 0.02614980192051226 0 0.0091625353423431706 0.025074073819832971 0 0.011963191423045286 0.025825506705684786 0 0.012110592713755711 0.026808179628475436 0 0.012272175874209278 0.027559887133485398 0 0.011697118016336914 0.027224458527151364 0 0.012110592713755711 0.026808179628475436 0 0.011697118016336914 0.027224458527151364 0 0.011713289269653928 0.026597740840190152 0 0.012431042253264751 0.026568794635393689 0 0.012110592713755711 0.026808179628475436 0 0.012272175874209278 0.027559887133485398 0 0.0091625353423431706 0.025074073819832971 0 0.009197897571717047 0.02669410325146979 0 0.0058048416517902717 0.024204970251286834 0 0.0060583347131358527 0.024765747942577725 0 0.0056979012970388215 0.025391461847018224 0 0.00056990487997279145 0.023822192786089696 0 0.00089495658230896583 0.024044520684724586 0 0.0010691737757595582 0.023546952903763432 0 0.0033457880247080899 0.024125282886250491 0 0.0031458691064230569 0.024610624177310782 0 0.00066594252382018752 0.023160050302090601 0 0.00056990487997279145 0.023822192786089696 0 0.0010691737757595582 0.023546952903763432 0 0.0056979012970388215 0.025391461847018224 0 0.0058556799931606361 0.025664576002984326 0 0.0055842999811861957 0.026586295262624654 0 0.0060583347131358527 0.024765747942577725 0 0.0056979012970388215 0.025391461847018224 0 0.0058556799931606361 0.025664576002984326 0 0.012272175874209278 0.027559887133485398 0 0.011697118016336914 0.027224458527151364 0 0.011576144182997078 0.027993819959743722 0 0.011576144182997078 0.027993819959743722 0 0.01131051630666163 0.028688033962248265 0 0.012086175359646014 0.02849775723684507 0 0.012272175874209278 0.027559887133485398 0 0.011576144182997078 0.027993819959743722 0 0.012086175359646014 0.02849775723684507 0 0.009197897571717047 0.02669410325146979 0 0.0070476552105415294 0.026733813598412752 0 0.00056990487997279145 0.023822192786089696 0 0.00068582394427604094 0.024382380496725958 0 0.00048275885981355083 0.024450578383146293 0 0.00056990487997279145 0.023822192786089696 0 0.00089495658230896583 0.024044520684724586 0 0.00068582394427604094 0.024382380496725958 0 0.0058556799931606361 0.025664576002984326 0 0.0056458898850292377 0.026567954584953271 0 0.0055842999811861957 0.026586295262624654 0 0.0031458691064230569 0.024610624177310782 0 0.0043814248656857159 0.026243051142190756 0 0.001307337463592195 0.025882459701443906 0 0.0043814248656857159 0.026243051142190756 0 0.00089495658230896583 0.024044520684724586 0 0.00068582394427604094 0.024382380496725958 0 0.00093921560923621646 0.024335793372196234 0 0.00093921560923621646 0.024335793372196234 0 0.0012794669286159345 0.024098099337112787 0 0.0011572403871229272 0.024506662470683498 0 0.00089495658230896583 0.024044520684724586 0 0.00093921560923621646 0.024335793372196234 0 0.0012794669286159345 0.024098099337112787 0 0.00089495658230896583 0.024044520684724586 0 0.0012794669286159345 0.024098099337112787 0 0.0010691737757595582 0.023546952903763432 0 0.0012794669286159345 0.024098099337112787 0 0.0010691737757595582 0.023546952903763432 0 0.0014750239923472549 0.023685231682173846 0 0.0012794669286159345 0.024098099337112787 0 0.0014750239923472549 0.023685231682173846 0 0.0017356592884860797 0.024033730791423413 0 0.0014750239923472549 0.023685231682173846 0 0.0017356592884860797 0.024033730791423413 0 0.0018301558196267206 0.023532296901387643 0 0.0012794669286159345 0.024098099337112787 0 0.0011572403871229272 0.024506662470683498 0 0.0017671838057935116 0.024531791120411189 0 0.0012794669286159345 0.024098099337112787 0 0.0017356592884860797 0.024033730791423413 0 0.0017671838057935116 0.024531791120411189 0 0.0017356592884860797 0.024033730791423413 0 0.002372746567914617 0.024075326556389769 0 0.0020640843162080562 0.023762625792492387 0 -0.00089446314711619517 0.02567173429691736 0 0.0019337843101114313 0.027544617088941226 0 0.0017356592884860797 0.024033730791423413 0 0.002372746567914617 0.024075326556389769 0 0.0017671838057935116 0.024531791120411189 0 -0.0010387056677196543 0.031758374760652408 0 -0.00016110151122226998 0.029770737678598596 0 0.0016796722876522687 0.029978390541032945 0 -0.0037734142802116574 0.023704953936622905 0 -0.0026064011218342197 0.024661854574959088 0 -0.0028920381598902221 0.025919560530822578 0 -0.00089446314711619517 0.02567173429691736 0 -0.0021867590509841669 0.02793417511329201 0 -0.0030245481185171169 0.02377496878785566 0 -0.0037734142802116574 0.023704953936622905 0 -0.0026064011218342197 0.024661854574959088 0 -0.0030245481185171169 0.02377496878785566 0 -0.0034167960726933116 0.023364535118414517 0 -0.0037734142802116574 0.023704953936622905 0 -0.0015531581737548913 0.025487322004413945 0 -0.00089446314711619517 0.02567173429691736 0 -0.0030245481185171169 0.02377496878785566 0 -0.0034167960726933116 0.023364535118414517 0 -0.0028938601939227731 0.023430931816008905 0 -0.0034167960726933116 0.023364535118414517 0 -0.0028938601939227731 0.023430931816008905 0 -0.0026788120747065834 0.022855046897847488 0 0.002372746567914617 0.024075326556389769 0 0.0022898767424094839 0.023504693451115815 0 0.0020640843162080562 0.023762625792492387 0 -0.0034167960726933116 0.023364535118414517 0 -0.0038201467405516039 0.023648980670947971 0 -0.0041175883185032612 0.021363925304284818 0 -0.0034167960726933116 0.023364535118414517 0 -0.0031058871040162365 0.021654916719306281 0 -0.0041175883185032612 0.021363925304284818 0 -0.00089446314711619517 0.02567173429691736 0 -0.00086431219182244714 0.022211939690506277 0 -0.0034167960726933116 0.023364535118414517 0 -0.0031058871040162365 0.021654916719306281 0 -0.0026788120747065834 0.022855046897847488 0 0.0017356592884860797 0.024033730791423413 0 0.0018301558196267206 0.023532296901387643 0 0.0020640843162080562 0.023762625792492387 0 0.0018301558196267206 0.023532296901387643 0 0.0020640843162080562 0.023762625792492387 0 0.0020416920347350745 0.023338001617510176 0 0.0022898767424094839 0.023504693451115815 0 0.0020640843162080562 0.023762625792492387 0 0.0020416920347350745 0.023338001617510176 0 -0.0022508420267398541 0.021819812486951657 0 -0.0016959410746671252 0.026798914549136518 0 0.00049519391891748984 0.023735855731460368 0 -0.0015022624384179086 0.023939052784507905 0 -0.0020756730334229342 0.025888818574805298 0 0.00049519391891748984 0.023735855731460368 0 -0.0015022624384179086 0.023939052784507905 0 -0.00059273435579622639 0.021962319284364359 0 -0.0015022624384179086 0.023939052784507905 0 -0.0026064011218342197 0.024661854574959088 0 -0.0020756730334229342 0.025888818574805298 0 -0.0015022624384179086 0.023939052784507905 0 -0.002430598725913074 0.023634061880358815 0 -0.0018773605086375188 0.022871556824735479 0 -0.0015022624384179086 0.023939052784507905 0 -0.0026064011218342197 0.024661854574959088 0 -0.002430598725913074 0.023634061880358815 0 -0.0030245481185171169 0.02377496878785566 0 -0.0028938601939227731 0.023430931816008905 0 -0.002430598725913074 0.023634061880358815 0 -0.0030245481185171169 0.02377496878785566 0 -0.0026064011218342197 0.024661854574959088 0 -0.002430598725913074 0.023634061880358815 0 -0.0028938601939227731 0.023430931816008905 0 -0.002430598725913074 0.023634061880358815 0 -0.0026788120747065834 0.022855046897847488 0 -0.0015022624384179086 0.023939052784507905 0 -0.0018773605086375188 0.022871556824735479 0 -0.00059273435579622639 0.021962319284364359 0 -0.002430598725913074 0.023634061880358815 0 -0.0026788120747065834 0.022855046897847488 0 -0.0018773605086375188 0.022871556824735479 0 -0.0026788120747065834 0.022855046897847488 0 -0.0020993422271092166 0.021935221428196226 0 -0.0018773605086375188 0.022871556824735479 0 -0.0031058871040162365 0.021654916719306281 0 -0.0026788120747065834 0.022855046897847488 0 -0.0020993422271092166 0.021935221428196226 0 -0.0020993422271092166 0.021935221428196226 0 -0.00059273435579622639 0.021962319284364359 0 -0.0020688596866693942 0.020125827132090074 0 -0.0020993422271092166 0.021935221428196226 0 -0.0018773605086375188 0.022871556824735479 0 -0.00059273435579622639 0.021962319284364359 0 -0.0017241096711590918 0.020693813438552065 0 -0.001934386366702975 0.020296103615857139 0 -0.0015682376999259732 0.020143264727738714 0 -0.0022508420267398541 0.021819812486951657 0 -0.0011693110696631189 0.021309905134851731 0 -0.0017132900863971344 0.01984527206781319 0 -0.0020688596866693942 0.020125827132090074 0 -0.0019654076722425986 0.019525242002571785 0 -0.001934386366702975 0.020296103615857139 0 -0.0017132900863971344 0.01984527206781319 0 -0.0020688596866693942 0.020125827132090074 0 -0.001934386366702975 0.020296103615857139 0 -0.0017132900863971344 0.01984527206781319 0 -0.0015682376999259732 0.020143264727738714 0 -0.0011693110696631189 0.021309905134851731 0 -0.001978913590674692 0.020174185764662882 0 -0.0020688596866693942 0.020125827132090074 0 -0.0024655594378578368 0.019229865344668393 0 -0.0031530684990706622 0.02029434065405358 0 -0.0031058871040162365 0.021654916719306281 0 -0.0020688596866693942 0.020125827132090074 0 -0.0031530684990706622 0.02029434065405358 0 -0.0031058871040162365 0.021654916719306281 0 -0.0020993422271092166 0.021935221428196226 0 -0.0020688596866693942 0.020125827132090074 0 -0.0020688596866693942 0.020125827132090074 0 -0.0024655594378578368 0.019229865344668393 0 -0.0019654076722425986 0.019525242002571785 0 -0.0024655594378578368 0.019229865344668393 0 -0.0019654076722425986 0.019525242002571785 0 -0.001822613867429353 0.019069491697850285 0 -0.0017132900863971344 0.01984527206781319 0 -0.0019654076722425986 0.019525242002571785 0 -0.001822613867429353 0.019069491697850285 0 -0.0042738710469696186 0.019293490142358493 0 -0.0024782211714889264 0.018948698108696163 0 0.0014482211041306323 0.023197347081657604 0 0.0018301558196267206 0.023532296901387643 0 0.0019975025950839786 0.023023153228309657 0 0.0018301558196267206 0.023532296901387643 0 0.0020416920347350745 0.023338001617510176 0 0.0019486340888898847 0.023027954486012487 0 0.0018322960632011242 0.023626300550725808 0 0.0010589645624698566 0.022278392281461716 0 0.0020416920347350745 0.023338001617510176 0 0.0021793880525996178 0.022939706812161745 0 0.0019486340888898847 0.023027954486012487 0 -0.00086431219182244714 0.022211939690506277 0 -0.0026480530763784006 0.021046381691721485 0 0.0022898767424094839 0.023504693451115815 0 0.0020416920347350745 0.023338001617510176 0 0.0021793880525996178 0.022939706812161745 0 -0.0041175883185032612 0.021363925304284818 0 -0.0031530684990706622 0.02029434065405358 0 -0.0042013472766329104 0.019601136028331929 0 -0.0031058871040162365 0.021654916719306281 0 -0.0041175883185032612 0.021363925304284818 0 -0.0031530684990706622 0.02029434065405358 0 -0.0050427583030173556 0.019360314486121813 0 -0.0066309748000014232 0.019891904811000807 0 -0.0059513455491176951 0.018826363149094458 0 -0.0042738710469696186 0.019293490142358493 0 -0.0026480530763784006 0.021046381691721485 0 -0.0024655594378578368 0.019229865344668393 0 -0.0031530684990706622 0.02029434065405358 0 -0.0042013472766329104 0.019601136028331929 0 -0.0026480530763784006 0.021046381691721485 0 -0.003109218466525726 0.020080162030644041 0 -0.0066309748000014232 0.019891904811000807 0 -0.0068353334919566723 0.018720167882887932 0 -0.0059513455491176951 0.018826363149094458 0 -0.0013180202028835865 0.021349546680866908 0 -0.0016611861465090129 0.021469512043229007 0 -0.0014284019364334071 0.020705308490287934 0 0.0020994556019651874 0.022938804313517178 0 0.0019868687193393317 0.022558099235565319 0 0.0022885371547270716 0.02231033463869362 0 0.0010589645624698566 0.022278392281461716 0 -0.003109218466525726 0.020080162030644041 0 -0.0026480530763784006 0.021046381691721485 0 0.0010589645624698566 0.022278392281461716 0 0.0016093888364590819 0.022555185230728976 0 0.0020994556019651874 0.022938804313517178 0 0.0019868687193393317 0.022558099235565319 0 0.0019868687193393317 0.022558099235565319 0 0.001942430128777921 0.021929054345654727 0 0.0022885371547270716 0.02231033463869362 0 -0.003109218466525726 0.020080162030644041 0 -0.0020227144180435881 0.018132247645794353 0 0.001942430128777921 0.021929054345654727 0 0.0022885371547270716 0.02231033463869362 0 0.0021424178459372779 0.021436837146266041 0 0.0016093888364590819 0.022555185230728976 0 0.0019868687193393317 0.022558099235565319 0 0.001942430128777921 0.021929054345654727 0 -0.0062715130113105222 0.018026710297526876 0 -0.0059179842596267006 0.016832341551065968 0 -0.0063391590663201955 0.017110565718033276 0 -0.0068353334919566723 0.018720167882887932 0 -0.0059513455491176951 0.018826363149094458 0 -0.006024588216774312 0.018118620677127412 0 -0.0068353334919566723 0.018720167882887932 0 -0.006024588216774312 0.018118620677127412 0 -0.0063651229610872861 0.017201850542242526 0 -0.003109218466525726 0.020080162030644041 0 -0.0062649272742678593 0.016851123128230689 0 -0.0059513455491176951 0.018826363149094458 0 -0.006024588216774312 0.018118620677127412 0 -0.0052208262806295938 0.018019962002818097 0 -0.006024588216774312 0.018118620677127412 0 -0.0057538103307415963 0.017532958044075998 0 -0.0052208262806295938 0.018019962002818097 0 -0.0062649272742678593 0.016851123128230689 0 -0.005745129338825242 0.015867953942146608 0 -0.0063651229610872861 0.017201850542242526 0 -0.0053621365834173648 0.016871218354040915 0 -0.0057012767713557786 0.015681756017606574 0 -0.0059179842596267006 0.016832341551065968 0 -0.0061877479106527584 0.016342558838998648 0 -0.0057012767713557786 0.015681756017606574 0 -0.0059179842596267006 0.016832341551065968 0 -0.0061877479106527584 0.016342558838998648 0 -0.0063391590663201955 0.017110565718033276 0 -0.0063651229610872861 0.017201850542242526 0 -0.0057538103307415963 0.017532958044075998 0 -0.0053621365834173648 0.016871218354040915 0 -0.006024588216774312 0.018118620677127412 0 -0.0063651229610872861 0.017201850542242526 0 -0.0057538103307415963 0.017532958044075998 0 0.001942430128777921 0.021929054345654727 0 0.0021424178459372779 0.021436837146266041 0 0.0021303345380289866 0.021371884292350034 0 -0.0061877479106527584 0.016342558838998648 0 -0.0064790780729416068 0.016275040052273353 0 -0.0065536731679468139 0.01645730586981542 0 -0.0062715130113105222 0.018026710297526876 0 -0.0065217424040713316 0.016467464213040947 0 -0.0063391590663201955 0.017110565718033276 0 -0.0061877479106527584 0.016342558838998648 0 -0.0065536731679468139 0.01645730586981542 0 -0.0063391590663201955 0.017110565718033276 0 0.001942430128777921 0.021929054345654727 0 0.0021303345380289866 0.021371884292350034 0 0.0014531234790326147 0.021923896527665177 0 -0.0020227144180435881 0.018132247645794353 0 -0.00079609887854691444 0.018142785989613636 0 -0.0064790780729416068 0.016275040052273353 0 -0.0065536731679468139 0.01645730586981542 0 -0.0065700695065720712 0.016343309177602957 0 -0.0012847292225017623 0.018277589505999566 0 -0.00079609887854691444 0.018142785989613636 0 -0.0020227144180435881 0.018132247645794353 0 -0.0052150701101781102 0.016214735586315657 0 -0.0050427583030173556 0.019360314486121813 0 -0.0034116704161884777 0.018931454764178152 0 -0.0041941113227256703 0.018099076430520288 0 -0.0034116704161884777 0.018931454764178152 0 -0.0041941113227256703 0.018099076430520288 0 -0.003092677446607235 0.017931697682812546 0 -0.0050427583030173556 0.019360314486121813 0 -0.0041941113227256703 0.018099076430520288 0 -0.0052208262806295938 0.018019962002818097 0 -0.0050427583030173556 0.019360314486121813 0 -0.0059513455491176951 0.018826363149094458 0 -0.0052208262806295938 0.018019962002818097 0 -0.0053621365834173648 0.016871218354040915 0 -0.0041811900963244948 0.016966528800875746 0 -0.0049361905549413559 0.015872501300095068 0 -0.0052208262806295938 0.018019962002818097 0 -0.0053621365834173648 0.016871218354040915 0 -0.0041811900963244948 0.016966528800875746 0 -0.0057538103307415963 0.017532958044075998 0 -0.0052208262806295938 0.018019962002818097 0 -0.0053621365834173648 0.016871218354040915 0 -0.0041941113227256703 0.018099076430520288 0 -0.0052208262806295938 0.018019962002818097 0 -0.0041811900963244948 0.016966528800875746 0 -0.0041811900963244948 0.016966528800875746 0 -0.0035723668137115127 0.01609029941191039 0 -0.0028629533784009769 0.016937337807212544 0 -0.0041811900963244948 0.016966528800875746 0 -0.0028629533784009769 0.016937337807212544 0 -0.003092677446607235 0.017931697682812546 0 -0.0041941113227256703 0.018099076430520288 0 -0.0041811900963244948 0.016966528800875746 0 -0.003092677446607235 0.017931697682812546 0 -0.0038571095497462694 0.0152775945304619 0 -0.0035723668137115127 0.01609029941191039 0 -0.0031120497351966726 0.015393293271283368 0 -0.0038571095497462694 0.0152775945304619 0 -0.0035723668137115127 0.01609029941191039 0 -0.0041959505154240259 0.01578350735609628 0 -0.0041811900963244948 0.016966528800875746 0 -0.0035723668137115127 0.01609029941191039 0 -0.0041959505154240259 0.01578350735609628 0 -0.0041811900963244948 0.016966528800875746 0 -0.0041959505154240259 0.01578350735609628 0 -0.0049361905549413559 0.015872501300095068 0 -0.0038571095497462694 0.0152775945304619 0 -0.0041959505154240259 0.01578350735609628 0 -0.0045620316461508258 0.014744037744347785 0 -0.0041959505154240259 0.01578350735609628 0 -0.0049361905549413559 0.015872501300095068 0 -0.0045620316461508258 0.014744037744347785 0 -0.0053621365834173648 0.016871218354040915 0 -0.0049361905549413559 0.015872501300095068 0 -0.0057012767713557786 0.015681756017606574 0 -0.0049361905549413559 0.015872501300095068 0 -0.0053070583550359277 0.014917546627941135 0 -0.0057012767713557786 0.015681756017606574 0 -0.0052501650860746242 0.013729574416448474 0 -0.0053070583550359277 0.014917546627941135 0 -0.0045620316461508258 0.014744037744347785 0 -0.0049361905549413559 0.015872501300095068 0 -0.0053070583550359277 0.014917546627941135 0 -0.0045620316461508258 0.014744037744347785 0 -0.004250619693336081 0.01372288852248991 0 -0.0045620316461508258 0.014744037744347785 0 -0.0037796716982144572 0.014791881372285241 0 -0.0038571095497462694 0.0152775945304619 0 -0.0045620316461508258 0.014744037744347785 0 -0.0037796716982144572 0.014791881372285241 0 -0.0038571095497462694 0.0152775945304619 0 -0.0037796716982144572 0.014791881372285241 0 -0.0031120497351966726 0.015393293271283368 0 -0.00079609887854691444 0.018142785989613636 0 0.001526564072756713 0.014126395373222246 0 0.0035086899678253573 0.018172847790147516 0 0.0030894339584507883 0.016685922950467648 0 0.0024996203688471188 0.01797094678742072 0 -0.0008741490348286499 0.017960205088379758 0 -0.0012134178175607488 0.015682757234151034 0 -0.0020962191453318519 0.013720439673445505 0 -0.0067151787545801644 0.015429410860211589 0 -0.0062120319781673594 0.015759605020076072 0 -0.0059932539472921627 0.014880588295766261 0 -0.0064790780729416068 0.016275040052273353 0 -0.0067151787545801644 0.015429410860211589 0 -0.0062120319781673594 0.015759605020076072 0 -0.0064790780729416068 0.016275040052273353 0 -0.006567760309845753 0.016340567124055558 0 -0.0067151787545801644 0.015429410860211589 0 -0.0061877479106527584 0.016342558838998648 0 -0.0064790780729416068 0.016275040052273353 0 -0.0062120319781673594 0.015759605020076072 0 -0.00079609887854691444 0.018142785989613636 0 -0.0038114064292466064 0.01538049917484044 0 -0.0061877479106527584 0.016342558838998648 0 -0.0057012767713557786 0.015681756017606574 0 -0.0062120319781673594 0.015759605020076072 0 -0.0057012767713557786 0.015681756017606574 0 -0.0062120319781673594 0.015759605020076072 0 -0.0059932539472921627 0.014880588295766261 0 -0.0052501650860746242 0.013729574416448474 0 -0.0053070583550359277 0.014917546627941135 0 -0.0059932539472921627 0.014880588295766261 0 -0.0053070583550359277 0.014917546627941135 0 -0.0057012767713557786 0.015681756017606574 0 -0.0059932539472921627 0.014880588295766261 0 -0.0067151787545801644 0.015429410860211589 0 -0.0059932539472921627 0.014880588295766261 0 -0.0068326777312022833 0.014510693629138103 0 -0.0012134178175607488 0.015682757234151034 0 -0.0020962191453318519 0.013720439673445505 0 -0.0015542045319150626 0.013405591737243797 0 -0.0038114064292466064 0.01538049917484044 0 -0.0028755817733511751 0.013350627418307342 0 0.001526564072756713 0.014126395373222246 0 -0.0028755817733511751 0.013350627418307342 0 0.0029647416772222591 0.011877948522480456 0 0.0041342851871191688 0.012424786045411749 0 0.0022273898548805311 0.015009394330644878 0 0.001526564072756713 0.014126395373222246 0 0.0047456166491462023 0.016252202439123009 0 0.0041342851871191688 0.012424786045411749 0 0.0049962009669419086 0.013385144285762412 0 0.0022273898548805311 0.015009394330644878 0 0.0077666138175850035 0.011953584268181798 0 0.0072550759730408837 0.014321203470813037 0 0.0059538213285576427 0.012784548818085032 0 0.0056838805378177648 0.011864453680887883 0 0.0047456166491462023 0.016252202439123009 0 0.0018763107554175043 0.017416584554424519 0 0.0024996203688471188 0.01797094678742072 0 0.0015975428502605395 0.018599749498161344 0 0.0047456166491462023 0.016252202439123009 0 0.0048634615052528321 0.019639730115795648 0 0.0085389080999599166 0.017910057424781852 0 0.0079260662545673887 0.02054753743809256 0 0.0064956373435251565 0.019121527208689967 0 0.0047456166491462023 0.016252202439123009 0 0.010775267487402356 0.018175915925588211 0 0.0030894339584507883 0.016685922950467648 0 0.0018763107554175043 0.017416584554424519 0 0.0024996203688471188 0.01797094678742072 0 -0.00079609887854691444 0.018142785989613636 0 0.0021483835248122286 0.020456098237833759 0 0.0035086899678253573 0.018172847790147516 0 0.0024996203688471188 0.01797094678742072 0 0.002423418466282125 0.018979706910165456 0 0.0024996203688471188 0.01797094678742072 0 0.0015975428502605395 0.018599749498161344 0 0.002423418466282125 0.018979706910165456 0 0.0011677862564576428 0.022806632874797939 0 0.00079398191949553529 0.022461138108333594 0 0.0014531234790326147 0.021923896527665177 0 0.0034681502770617613 0.02238992888881941 0 0.0021483835248122286 0.020456098237833759 0 0.0013309893112806925 0.019803823775579384 0 0.0015975428502605395 0.018599749498161344 0 0.002423418466282125 0.018979706910165456 0 0.0034681502770617613 0.02238992888881941 0 0.0048634615052528321 0.019639730115795648 0 0.0016093888364590819 0.022555185230728976 0 0.001942430128777921 0.021929054345654727 0 0.0014531234790326147 0.021923896527665177 0 0.012561872778814374 0.02652061579973965 0 0.012034154570845879 0.02614980192051226 0 0.01270164102943069 0.025580026328379871 0 0.012034154570845879 0.02614980192051226 0 0.01270164102943069 0.025580026328379871 0 0.011714915002299171 0.025316970257298736 0 0.0072943024470328429 0.023196753109226042 0 0.0060019991590368749 0.024116313416498093 0 0.0062423004478114105 0.021623900830232311 0 0.0091625353423431706 0.025074073819832971 0 0.009356243233337844 0.024352503326272017 0 0.0072943024470328429 0.023196753109226042 0 0.0079260662545673887 0.02054753743809256 0 0.0062423004478114105 0.021623900830232311 0 0.0079260662545673887 0.02054753743809256 0 0.0062423004478114105 0.021623900830232311 0 0.0064956373435251565 0.019121527208689967 0 0.009356243233337844 0.024352503326272017 0 0.010775267487402356 0.018175915925588211 0 0.01270164102943069 0.025580026328379871 0 0.012804832592748483 0.024548864319514595 0 0.011714915002299171 0.025316970257298736 0 0.010775267487402356 0.018175915925588211 0 0.013747205480709755 0.020870703375563893 0 0.014615238428330152 0.015059691550835443 0 0.015582004070710241 0.015568438313368061 0 0.014494344658880318 0.016115226616824484 0 0.0072550759730408837 0.014321203470813037 0 0.0057447407457031033 0.015239340283956718 0 0.0059538213285576427 0.012784548818085032 0 0.014615238428330152 0.015059691550835443 0 0.015582004070710241 0.015568438313368061 0 0.015786540107132981 0.014317854294938303 0 0.010775267487402356 0.018175915925588211 0 0.010885599894523807 0.012918204371730961 0 0.014874691124990711 0.013767259664223524 0 0.014615238428330152 0.015059691550835443 0 0.015786540107132981 0.014317854294938303 0 0.014874691124990711 0.013767259664223524 0 0.014615238428330152 0.015059691550835443 0 0.014014787290246954 0.01426603278745507 0 0.014615238428330152 0.015059691550835443 0 0.014014787290246954 0.01426603278745507 0 0.013691870353326177 0.015175679471731603 0 0.014615238428330152 0.015059691550835443 0 0.013691870353326177 0.015175679471731603 0 0.013942492313210434 0.015786313088653529 0 0.013691870353326177 0.015175679471731603 0 0.013495537547391427 0.01579359874685618 0 0.013942492313210434 0.015786313088653529 0 0.013691870353326177 0.015175679471731603 0 0.013406700930690452 0.015485368485664194 0 0.013495537547391427 0.01579359874685618 0 0.014014787290246954 0.01426603278745507 0 0.013691870353326177 0.015175679471731603 0 0.013092945129478027 0.014219052877454241 0 0.013691870353326177 0.015175679471731603 0 0.013092945129478027 0.014219052877454241 0 0.012777459476036718 0.014760248446831208 0 0.0136730857419089 0.015187240051257921 0 0.013028823294672399 0.015052334273347514 0 0.013092945129478027 0.014219052877454241 0 0.012777459476036718 0.014760248446831208 0 0.012502814756194426 0.014195475935191071 0 0.013327569011905068 0.015337834979272524 0 0.012853683748892304 0.015189186425246059 0 0.013197081994051209 0.015526834132989283 0 0.013028823294672399 0.015052334273347514 0 0.012849222643168385 0.014233552874270368 0 0.012777459476036718 0.014760248446831208 0 0.011994872135071733 0.01440768085244078 0 0.012502814756194426 0.014195475935191071 0 0.012110471379053033 0.013854001089810912 0 0.011994872135071733 0.01440768085244078 0 0.012502814756194426 0.014195475935191071 0 0.012849222643168385 0.014233552874270368 0 0.013367773207877302 0.015735009991439928 0 0.013032495295365333 0.015514456679645116 0 0.013077848474707414 0.015635458797502385 0 0.013197081994051209 0.015526834132989283 0 0.013032495295365333 0.015514456679645116 0 0.013077848474707414 0.015635458797502385 0 0.012942282811263453 0.015664035138791055 0 0.013077848474707414 0.015635458797502385 0 0.013197081994051209 0.015526834132989283 0 0.013235159521167373 0.01572700195315789 0 0.013077848474707414 0.015635458797502385 0 0.013235159521167373 0.01572700195315789 0 0.013055013716704041 0.015818235946598279 0 0.013077848474707414 0.015635458797502385 0 0.013055013716704041 0.015818235946598279 0 0.012942282811263453 0.015664035138791055 0 0.013691870353326177 0.015175679471731603 0 0.013327569011905068 0.015337834979272524 0 0.013406700930690452 0.015485368485664194 0 0.013327569011905068 0.015337834979272524 0 0.013197081994051209 0.015526834132989283 0 0.013406700930690452 0.015485368485664194 0 0.013197081994051209 0.015526834132989283 0 0.013406700930690452 0.015485368485664194 0 0.013235159521167373 0.01572700195315789 0 0.013406700930690452 0.015485368485664194 0 0.013235159521167373 0.01572700195315789 0 0.013495537547391427 0.01579359874685618 0 0.013495537547391427 0.01579359874685618 0 0.013250623294632951 0.016056582361319172 0 0.013654021811045261 0.016397013197688 0 0.013235159521167373 0.01572700195315789 0 0.013495537547391427 0.01579359874685618 0 0.013250623294632951 0.016056582361319172 0 0.013250623294632951 0.016056582361319172 0 0.013055013716704041 0.015818235946598279 0 0.012987200896645876 0.016091688128736691 0 0.013235159521167373 0.01572700195315789 0 0.013250623294632951 0.016056582361319172 0 0.013055013716704041 0.015818235946598279 0 0.013250623294632951 0.016056582361319172 0 0.012987200896645876 0.016091688128736691 0 0.013201185451146905 0.016567731809918163 0 0.013250623294632951 0.016056582361319172 0 0.013654021811045261 0.016397013197688 0 0.013201185451146905 0.016567731809918163 0 0.010824032070839582 0.026032966931047445 0 0.011473698800882379 0.026153704107122509 0 0.011714915002299171 0.025316970257298736 0 0.012136592237118148 0.021197116215216669 0 0.013747205480709755 0.020870703375563893 0 0.012034154570845879 0.02614980192051226 0 0.011473698800882379 0.026153704107122509 0 0.011714915002299171 0.025316970257298736 0 0.013654021811045261 0.016397013197688 0 0.014494344658880318 0.016115226616824484 0 0.013942492313210434 0.015786313088653529 0 0.014615238428330152 0.015059691550835443 0 0.014494344658880318 0.016115226616824484 0 0.013942492313210434 0.015786313088653529 0 0.013495537547391427 0.01579359874685618 0 0.013654021811045261 0.016397013197688 0 0.013942492313210434 0.015786313088653529 0 0.012462723667449558 0.015883151152312768 0 0.012567453694892022 0.015817462118927043 0 0.012521887573013975 0.015942725376981482 0 0.012462723667449558 0.015883151152312768 0 0.012486076052071776 0.015742567094622462 0 0.012567453694892022 0.015817462118927043 0 0.012486076052071776 0.015742567094622462 0 0.012596443742854823 0.015656812841002867 0 0.012567453694892022 0.015817462118927043 0 0.012462723667449558 0.015883151152312768 0 0.012486076052071776 0.015742567094622462 0 0.012418843169708458 0.015828749310423138 0 0.012367397555041989 0.015703028776238335 0 0.012486076052071776 0.015742567094622462 0 0.012418843169708458 0.015828749310423138 0 0.015755101094547603 0.014095539037419317 0 0.012553429975894932 0.015374815966290475 0 0.012367397555041989 0.015703028776238335 0 0.012486076052071776 0.015742567094622462 0 0.012498793460615196 0.015596008966092697 0 0.012453917482262947 0.015448547756669989 0 0.012367397555041989 0.015703028776238335 0 0.012498793460615196 0.015596008966092697 0 0.012486076052071776 0.015742567094622462 0 0.012498793460615196 0.015596008966092697 0 0.012596443742854823 0.015656812841002867 0 0.012659158081103114 0.015468213067404361 0 0.01270586968229219 0.015589756992924152 0 0.012596443742854823 0.015656812841002867 0 0.01270586968229219 0.015589756992924152 0 0.012596443742854823 0.015656812841002867 0 0.0127328069308584 0.015729709053357879 0 0.012659158081103114 0.015468213067404361 0 0.012498793460615196 0.015596008966092697 0 0.012596443742854823 0.015656812841002867 0 0.012567453694892022 0.015817462118927043 0 0.0127328069308584 0.015729709053357879 0 0.012627616961717989 0.015917260143393803 0 0.012596443742854823 0.015656812841002867 0 0.012567453694892022 0.015817462118927043 0 0.0127328069308584 0.015729709053357879 0 0.012567453694892022 0.015817462118927043 0 0.012627616961717989 0.015917260143393803 0 0.012521887573013975 0.015942725376981482 0 0.0127328069308584 0.015729709053357879 0 0.012736005505804603 0.015885586543212763 0 0.012627616961717989 0.015917260143393803 0 0.0127328069308584 0.015729709053357879 0 0.012876943486479834 0.015858483122721648 0 0.012736005505804603 0.015885586543212763 0 0.012659158081103114 0.015468213067404361 0 0.01270586968229219 0.015589756992924152 0 0.012837122512615743 0.015503784477851048 0 0.0127328069308584 0.015729709053357879 0 0.012837122512615743 0.015503784477851048 0 0.012942282811263453 0.015664035138791055 0 0.01270586968229219 0.015589756992924152 0 0.0127328069308584 0.015729709053357879 0 0.012837122512615743 0.015503784477851048 0 0.012849222643168385 0.014233552874270368 0 0.013483802973120745 0.013928783335663036 0 0.013032495295365333 0.015514456679645116 0 0.012837122512615743 0.015503784477851048 0 0.012942282811263453 0.015664035138791055 0 0.0127328069308584 0.015729709053357879 0 0.012942282811263453 0.015664035138791055 0 0.012876943486479834 0.015858483122721648 0 0.013055013716704041 0.015818235946598279 0 0.012942282811263453 0.015664035138791055 0 0.012876943486479834 0.015858483122721648 0 0.012876943486479834 0.015858483122721648 0 0.012987200896645876 0.016091688128736691 0 0.012695240221862657 0.016052578134414991 0 0.013055013716704041 0.015818235946598279 0 0.012876943486479834 0.015858483122721648 0 0.012987200896645876 0.016091688128736691 0 0.012987200896645876 0.016091688128736691 0 0.012882970975784475 0.016365774587389258 0 0.013201185451146905 0.016567731809918163 0 0.012987200896645876 0.016091688128736691 0 0.012882970975784475 0.016365774587389258 0 0.012695240221862657 0.016052578134414991 0 0.012695240221862657 0.016052578134414991 0 0.012488241968302637 0.016253300397952079 0 0.012682810324674039 0.016415947189620632 0 0.012882970975784475 0.016365774587389258 0 0.012695240221862657 0.016052578134414991 0 0.012682810324674039 0.016415947189620632 0 0.012876943486479834 0.015858483122721648 0 0.012695240221862657 0.016052578134414991 0 0.012736005505804603 0.015885586543212763 0 0.012695240221862657 0.016052578134414991 0 0.012736005505804603 0.015885586543212763 0 0.012627616961717989 0.015917260143393803 0 0.012695240221862657 0.016052578134414991 0 0.012627616961717989 0.015917260143393803 0 0.012511660568097618 0.016086106803272486 0 0.012627616961717989 0.015917260143393803 0 0.012511660568097618 0.016086106803272486 0 0.012521887573013975 0.015942725376981482 0 0.012695240221862657 0.016052578134414991 0 0.012488241968302637 0.016253300397952079 0 0.012511660568097618 0.016086106803272486 0 0.012496572803074771 0.016199481580206794 0 0.012477454259336765 0.016102431685885404 0 0.012511660568097618 0.016086106803272486 0 0.012488241968302637 0.016253300397952079 0 0.012496572803074771 0.016199481580206794 0 0.012511660568097618 0.016086106803272486 0 0.01249990678133125 0.016179494771698579 0 0.012496572803074771 0.016199481580206794 0 0.012477454259336765 0.016102431685885404 0 0.012477454259336765 0.016102431685885404 0 0.012511660568097618 0.016086106803272486 0 0.012457954865130601 0.015997786228053954 0 0.012511660568097618 0.016086106803272486 0 0.012521887573013975 0.015942725376981482 0 0.012457954865130601 0.015997786228053954 0 0.012369351507394542 0.015980327790038648 0 0.012462723667449558 0.015883151152312768 0 0.012457954865130601 0.015997786228053954 0 0.012462723667449558 0.015883151152312768 0 0.012521887573013975 0.015942725376981482 0 0.012457954865130601 0.015997786228053954 0 0.01181205786437224 0.017009421750602716 0 0.011917106254960298 0.017106707819297053 0 0.012144948815212166 0.016980022137617266 0 0.01181205786437224 0.017009421750602716 0 0.012144948815212166 0.016980022137617266 0 0.012109429085792569 0.016634411191889624 0 0.012144948815212166 0.016980022137617266 0 0.012109429085792569 0.016634411191889624 0 0.012377065098286793 0.016870297099568464 0 0.013567132377916145 0.019190367240957438 0 0.012340630395287881 0.016146649825589041 0 0.012531615785301443 0.016185188693422951 0 0.012496572803074771 0.016199481580206794 0 0.012502229449649347 0.016180366162669255 0 0.012426264128691139 0.016334387572498124 0 0.012340630395287881 0.016146649825589041 0 0.012488241968302637 0.016253300397952079 0 0.012496572803074771 0.016199481580206794 0 0.012502229449649347 0.016180366162669255 0 0.012488241968302637 0.016253300397952079 0 0.012109429085792569 0.016634411191889624 0 0.012518308424421065 0.01668612849186131 0 0.012488241968302637 0.016253300397952079 0 0.012518308424421065 0.01668612849186131 0 0.012682810324674039 0.016415947189620632 0 0.012518308424421065 0.01668612849186131 0 0.012377065098286793 0.016870297099568464 0 0.012441188192326815 0.017170252482961508 0 0.012109429085792569 0.016634411191889624 0 0.012518308424421065 0.01668612849186131 0 0.012377065098286793 0.016870297099568464 0 0.012144948815212166 0.016980022137617266 0 0.012377065098286793 0.016870297099568464 0 0.012351764477877768 0.01710234747598486 0 0.012518308424421065 0.01668612849186131 0 0.012875648052257094 0.01680492029912348 0 0.012441188192326815 0.017170252482961508 0 0.011018188772921989 0.02165253042273518 0 0.011061278493775925 0.024760861074297529 0 0.012518308424421065 0.01668612849186131 0 0.012682810324674039 0.016415947189620632 0 0.012875648052257094 0.01680492029912348 0 0.012882970975784475 0.016365774587389258 0 0.012682810324674039 0.016415947189620632 0 0.012875648052257094 0.01680492029912348 0 0.012882970975784475 0.016365774587389258 0 0.012875648052257094 0.01680492029912348 0 0.013201185451146905 0.016567731809918163 0 0.0092168709452060456 0.027210009951899407 0 0.0092968113178114927 0.027806597587272577 0 0.0098597499319927513 0.027393745895820196 0 0.011018188772921989 0.02165253042273518 0 0.01162773378322531 0.021658666004236465 0 0.010428148112427975 0.028887116191115416 0 0.010604699159152612 0.028636683656945813 0 0.010207980445292753 0.028520793693052687 0 0.010428148112427975 0.028887116191115416 0 0.010604699159152612 0.028636683656945813 0 0.010917525265644415 0.028935057175085779 0 0.010604699159152612 0.028636683656945813 0 0.010994982126170913 0.028764519371723443 0 0.010917525265644415 0.028935057175085779 0 0.010994982126170913 0.028764519371723443 0 0.010917525265644415 0.028935057175085779 0 0.011187716784353601 0.028908772873653864 0 0.0092168709452060456 0.027210009951899407 0 0.0092968113178114927 0.027806597587272577 0 0.0085625112680599112 0.02760415643037049 0 0.010428148112427975 0.028887116191115416 0 0.010917525265644415 0.028935057175085779 0 0.01124425918079467 0.029347973697360249 0 0.0096947134513406339 0.028833787431912769 0 0.011061278493775925 0.024760861074297529 0 0.012144948815212166 0.016980022137617266 0 0.012351764477877768 0.01710234747598486 0 0.012295959908024382 0.017153374067899102 0 0.012377065098286793 0.016870297099568464 0 0.012441188192326815 0.017170252482961508 0 0.012351764477877768 0.01710234747598486 0 0.012660608130701159 0.02032712718398914 0 0.012093334022371569 0.021214023043406853 0 0.011061278493775925 0.024760861074297529 0 0.012093334022371569 0.021214023043406853 0 0.012441188192326815 0.017170252482961508 0 0.012351764477877768 0.01710234747598486 0 0.012290443500413971 0.017160573258092258 0 0.011752924859980571 0.024348481644493433 0 0.011949295781247076 0.024377074164842694 0 0.012108565243884298 0.024145120502424445 0 0.011061278493775925 0.024760861074297529 0 0.01212425510939669 0.026082095357219334 0 0.01124425918079467 0.029347973697360249 0 0.011332454371059734 0.029138540106782049 0 0.011719120625449638 0.029189988377657364 0 0.011332454371059734 0.029138540106782049 0 0.011559518061510975 0.029075309770211676 0 0.011719120625449638 0.029189988377657364 0 0.010917525265644415 0.028935057175085779 0 0.01124425918079467 0.029347973697360249 0 0.011332454371059734 0.029138540106782049 0 0.010917525265644415 0.028935057175085779 0 0.011332454371059734 0.029138540106782049 0 0.011187716784353601 0.028908772873653864 0 0.010994982126170913 0.028764519371723443 0 0.011187716784353601 0.028908772873653864 0 0.011275716146745128 0.028766401748344956 0 0.010994982126170913 0.028764519371723443 0 0.011275716146745128 0.028766401748344956 0 0.010991296133872619 0.02855063153891603 0 0.011275716146745128 0.028766401748344956 0 0.011589622790963282 0.028803018120090777 0 0.011462199716223467 0.028584349654017627 0 0.011275716146745128 0.028766401748344956 0 0.011446500572620621 0.028949985788339103 0 0.011589622790963282 0.028803018120090777 0 0.011187716784353601 0.028908772873653864 0 0.011275716146745128 0.028766401748344956 0 0.011446500572620621 0.028949985788339103 0 0.011446500572620621 0.028949985788339103 0 0.011559518061510975 0.029075309770211676 0 0.01164138467621165 0.028976623228154884 0 0.011446500572620621 0.028949985788339103 0 0.01164138467621165 0.028976623228154884 0 0.011589622790963282 0.028803018120090777 0 0.011332454371059734 0.029138540106782049 0 0.011187716784353601 0.028908772873653864 0 0.011446500572620621 0.028949985788339103 0 0.011332454371059734 0.029138540106782049 0 0.011446500572620621 0.028949985788339103 0 0.011559518061510975 0.029075309770211676 0 0.012476431253688585 0.028838792975750444 0 0.011900434983561765 0.028899305384383098 0 0.011804781451549831 0.029262275800552323 0 0.011559518061510975 0.029075309770211676 0 0.011673369345607185 0.029101838203906341 0 0.011719120625449638 0.029189988377657364 0 0.011559518061510975 0.029075309770211676 0 0.011673369345607185 0.029101838203906341 0 0.01164138467621165 0.028976623228154884 0 0.011673369345607185 0.029101838203906341 0 0.011765021589979 0.029061903553968014 0 0.01164138467621165 0.028976623228154884 0 0.01346455918286397 0.025892530893702106 0 0.01226481546799024 0.024458673162130833 0 0.011765021589979 0.029061903553968014 0 0.011900434983561765 0.028899305384383098 0 0.011804781451549831 0.029262275800552323 0 0.011673369345607185 0.029101838203906341 0 0.011765021589979 0.029061903553968014 0 0.011719120625449638 0.029189988377657364 0 0.011765021589979 0.029061903553968014 0 0.01164138467621165 0.028976623228154884 0 0.011900434983561765 0.028899305384383098 0 0.01164138467621165 0.028976623228154884 0 0.011589622790963282 0.028803018120090777 0 0.011900434983561765 0.028899305384383098 0 0.011589622790963282 0.028803018120090777 0 0.011900434983561765 0.028899305384383098 0 0.011818485592828675 0.028645776287320252 0 0.011900434983561765 0.028899305384383098 0 0.012139051475834352 0.028653319181362762 0 0.011818485592828675 0.028645776287320252 0 0.012516905547106858 0.02175579561604539 0 0.012406552922529757 0.0217444659320826 0 0.012455836713309618 0.021709263198638355 0 0.012952464344256726 0.020637033257509256 0 0.012093334022371569 0.021214023043406853 0 0.011917106254960298 0.017106707819297053 0 0.012144948815212166 0.016980022137617266 0 0.012295959908024382 0.017153374067899102 0 0.011765021589979 0.029061903553968014 0 0.011719120625449638 0.029189988377657364 0 0.011804781451549831 0.029262275800552323 0 0.012093334022371569 0.021214023043406853 0 0.01226481546799024 0.024458673162130833 0 0.011949295781247076 0.024377074164842694 0 0.012108565243884298 0.024145120502424445 0 0.012174091826854095 0.024204752249664754 0 0.01212425510939669 0.026082095357219334 0 0.01226481546799024 0.024458673162130833 0 0.012952464344256726 0.020637033257509256 0 0.01226481546799024 0.024458673162130833 0 0.014273374298735656 0.02316636188459897 0 0.014156595986160836 0.023322941049175438 0 0.01382549209234331 0.023030845249608457 0 0.011261298323530922 0.026782085216848803 0 0.010616070758187825 0.027071769963585533 0 0.011189582473165559 0.027562555307825722 0 0.011697118016336914 0.027224458527151364 0 0.011261298323530922 0.026782085216848803 0 0.011713289269653928 0.026597740840190152 0 0.011697118016336914 0.027224458527151364 0 0.011261298323530922 0.026782085216848803 0 0.011189582473165559 0.027562555307825722 0 0.011473698800882379 0.026153704107122509 0 0.011261298323530922 0.026782085216848803 0 0.011713289269653928 0.026597740840190152 0 0.012034154570845879 0.02614980192051226 0 0.011473698800882379 0.026153704107122509 0 0.011713289269653928 0.026597740840190152 0 0.010824032070839582 0.026032966931047445 0 0.011261298323530922 0.026782085216848803 0 0.010616070758187825 0.027071769963585533 0 0.010824032070839582 0.026032966931047445 0 0.011473698800882379 0.026153704107122509 0 0.011261298323530922 0.026782085216848803 0 0.010824032070839582 0.026032966931047445 0 0.010010410714991458 0.026646920962001473 0 0.010616070758187825 0.027071769963585533 0 0.012136592237118148 0.021197116215216669 0 0.01162773378322531 0.021658666004236465 0 0.0092168709452060456 0.027210009951899407 0 0.010010410714991458 0.026646920962001473 0 0.0098597499319927513 0.027393745895820196 0 0.010010410714991458 0.026646920962001473 0 0.0098597499319927513 0.027393745895820196 0 0.010616070758187825 0.027071769963585533 0 0.010616070758187825 0.027071769963585533 0 0.010281581822380528 0.028174826623779532 0 0.011189582473165559 0.027562555307825722 0 0.0098597499319927513 0.027393745895820196 0 0.010616070758187825 0.027071769963585533 0 0.010281581822380528 0.028174826623779532 0 0.0092968113178114927 0.027806597587272577 0 0.0098597499319927513 0.027393745895820196 0 0.010281581822380528 0.028174826623779532 0 0.0096947134513406339 0.028833787431912769 0 0.010375239595905797 0.028092255271529268 0 0.010428148112427975 0.028887116191115416 0 0.010281581822380528 0.028174826623779532 0 0.010207980445292753 0.028520793693052687 0 0.010281581822380528 0.028174826623779532 0 0.01087924712682794 0.02824042415731623 0 0.010569646562794875 0.028734804778678697 0 0.010281581822380528 0.028174826623779532 0 0.010569646562794875 0.028734804778678697 0 0.010207980445292753 0.028520793693052687 0 0.010281581822380528 0.028174826623779532 0 0.01087924712682794 0.02824042415731623 0 0.011189582473165559 0.027562555307825722 0 0.01087924712682794 0.02824042415731623 0 0.011189582473165559 0.027562555307825722 0 0.011576144182997078 0.027993819959743722 0 0.011697118016336914 0.027224458527151364 0 0.011189582473165559 0.027562555307825722 0 0.011576144182997078 0.027993819959743722 0 0.01087924712682794 0.02824042415731623 0 0.011576144182997078 0.027993819959743722 0 0.01131051630666163 0.028688033962248265 0 0.0083101751128915099 0.028649129393153734 0 0.0088813611355111396 0.02864328806690021 0 0.008931446913276575 0.02819567867761438 0 0.0083101751128915099 0.028649129393153734 0 0.008931446913276575 0.02819567867761438 0 0.0081146946816202728 0.028193334268301409 0 0.0085903391626562312 0.029057230791021852 0 0.0083101751128915099 0.028649129393153734 0 0.0088813611355111396 0.02864328806690021 0 0.0088813611355111396 0.02864328806690021 0 0.0093150820595972617 0.028464192603941431 0 0.008931446913276575 0.02819567867761438 0 0.0088813611355111396 0.02864328806690021 0 0.0092601577904894861 0.028898406322950078 0 0.0093150820595972617 0.028464192603941431 0 0.01087924712682794 0.02824042415731623 0 0.01131051630666163 0.028688033962248265 0 0.010569646562794875 0.028734804778678697 0 0.010482399731246185 0.028982963309702993 0 0.0098274174091247668 0.028806574140430658 0 0.0085903391626562312 0.029057230791021852 0 0.0088813611355111396 0.02864328806690021 0 0.0092601577904894861 0.028898406322950078 0 0.010207980445292753 0.028520793693052687 0 0.010100601975094908 0.02862045409430539 0 0.010419829391868141 0.028482188741629704 0 0.010569646562794875 0.028734804778678697 0 0.010207980445292753 0.028520793693052687 0 0.010100601975094908 0.02862045409430539 0 0.010100601975094908 0.02862045409430539 0 0.0095888308438078027 0.028268569622414516 0 0.010328543395750822 0.028225431267319107 0 0.0092601577904894861 0.028898406322950078 0 0.010100601975094908 0.02862045409430539 0 0.0093150820595972617 0.028464192603941431 0 0.010100601975094908 0.02862045409430539 0 0.0093150820595972617 0.028464192603941431 0 0.0095888308438078027 0.028268569622414516 0 0.0098274174091247668 0.028806574140430658 0 0.010142341061176627 0.02864537749402413 0 0.0095888308438078027 0.028268569622414516 0 0.0086164347209479342 0.027914975365928633 0 0.0077279746976249 0.028707051077296396 0 0.0093150820595972617 0.028464192603941431 0 0.0095888308438078027 0.028268569622414516 0 0.008931446913276575 0.02819567867761438 0 0.0094060219401504424 0.028283792697226182 0 0.0085358992269102367 0.028513118348422344 0 0.0095888308438078027 0.028268569622414516 0 0.0099017429152899253 0.027763563482478902 0 0.0086164347209479342 0.027914975365928633 0 0.0095888308438078027 0.028268569622414516 0 0.0099017429152899253 0.027763563482478902 0 0.010328543395750822 0.028225431267319107 0 0.0099017429152899253 0.027763563482478902 0 0.0091463453665180643 0.027159509737793085 0 0.010121557549516592 0.027111395520095623 0 0.0086164347209479342 0.027914975365928633 0 0.0091463453665180643 0.027159509737793085 0 0.0077177942480790331 0.02755798794389442 0 0.0099017429152899253 0.027763563482478902 0 0.0086164347209479342 0.027914975365928633 0 0.0091463453665180643 0.027159509737793085 0 0.0087526892304775807 0.027389522754822898 0 0.0078332984416163709 0.027543181128680049 0 0.0086164347209479342 0.027914975365928633 0 0.0077177942480790331 0.02755798794389442 0 0.0074363650573760921 0.028185684021576812 0 0.0083564925725787918 0.027615615244805564 0 0.0077177942480790331 0.02755798794389442 0 0.0078720407042988105 0.027361385270003195 0 0.0077177942480790331 0.02755798794389442 0 0.0071078080029825588 0.027786784505609931 0 0.0074363650573760921 0.028185684021576812 0 0.0077177942480790331 0.02755798794389442 0 0.0072609310916463563 0.02751504233798301 0 0.0071078080029825588 0.027786784505609931 0 0.0072609310916463563 0.02751504233798301 0 0.0069346355246425913 0.027553026296162499 0 0.0071078080029825588 0.027786784505609931 0 0.0066889737890007362 0.027491298706222304 0 0.0069346355246425913 0.027553026296162499 0 0.006759616900427058 0.027791389854689572 0 0.0069346355246425913 0.027553026296162499 0 0.006759616900427058 0.027791389854689572 0 0.0071078080029825588 0.027786784505609931 0 0.006759616900427058 0.027791389854689572 0 0.0069293068057156761 0.028030414855460862 0 0.0071078080029825588 0.027786784505609931 0 0.006759616900427058 0.027791389854689572 0 0.0069293068057156761 0.028030414855460862 0 0.0066047639290180236 0.028105924766096697 0 0.0069293068057156761 0.028030414855460862 0 0.0071078080029825588 0.027786784505609931 0 0.0074363650573760921 0.028185684021576812 0 0.0085358992269102367 0.028513118348422344 0 0.0063338463920975183 0.027746219276402345 0 0.0074363650573760921 0.028185684021576812 0 0.0077279746976249 0.028707051077296396 0 0.0062814432670327382 0.028715963602647037 0 0.0069293068057156761 0.028030414855460862 0 0.0074363650573760921 0.028185684021576812 0 0.0062814432670327382 0.028715963602647037 0 0.0086164347209479342 0.027914975365928633 0 0.0074363650573760921 0.028185684021576812 0 0.0077279746976249 0.028707051077296396 0 0.01175173459714891 0.028326033834869983 0 0.012439804681765304 0.028126739470256849 0 0.012155334040385673 0.028034238696297158 0 0.011875584539231125 0.028121977522552615 0 0.012301840629642343 0.027858663027722153 0 0.012155334040385673 0.028034238696297158 0 0.012030258249204812 0.028136868943805175 0 0.011875584539231125 0.028121977522552615 0 0.012030258249204812 0.028136868943805175 0 0.011875584539231125 0.028121977522552615 0 0.011924231128944548 0.028204090000026803 0 0.01175173459714891 0.028326033834869983 0 0.011789301202969869 0.028254078812449419 0 0.012030258249204812 0.028136868943805175 0 0.011924231128944548 0.028204090000026803 0 0.012206043440081259 0.028203912681469902 0 0.012155334040385673 0.028034238696297158 0 0.012030258249204812 0.028136868943805175 0 0.012206043440081259 0.028203912681469902 0 0.011924231128944548 0.028204090000026803 0 0.012206043440081259 0.028203912681469902 0 0.012053047238610904 0.028446033894975051 0 0.012053047238610904 0.028446033894975051 0 0.012139051475834352 0.028653319181362762 0 0.011818485592828675 0.028645776287320252 0 0.012053047238610904 0.028446033894975051 0 0.011818485592828675 0.028645776287320252 0 0.011730505469521582 0.028439779988917523 0 0.011589622790963282 0.028803018120090777 0 0.011818485592828675 0.028645776287320252 0 0.011462199716223467 0.028584349654017627 0 0.011818485592828675 0.028645776287320252 0 0.011730505469521582 0.028439779988917523 0 0.011462199716223467 0.028584349654017627 0 0.011924231128944548 0.028204090000026803 0 0.012053047238610904 0.028446033894975051 0 0.011730505469521582 0.028439779988917523 0 0.011924231128944548 0.028204090000026803 0 0.011730505469521582 0.028439779988917523 0 0.011345013095224381 0.02833548606186382 0 0.011730505469521582 0.028439779988917523 0 0.011345013095224381 0.02833548606186382 0 0.011462199716223467 0.028584349654017627 0 0.011275716146745128 0.028766401748344956 0 0.011462199716223467 0.028584349654017627 0 0.010991296133872619 0.02855063153891603 0 0.011345013095224381 0.02833548606186382 0 0.011462199716223467 0.028584349654017627 0 0.010991296133872619 0.02855063153891603 0 0.011345013095224381 0.02833548606186382 0 0.0110074804733085 0.028360176659815911 0 0.010991296133872619 0.02855063153891603 0 0.011345013095224381 0.02833548606186382 0 0.01120143943207497 0.028178383890252356 0 0.0110074804733085 0.028360176659815911 0 0.011655637884878866 0.027959570148245565 0 0.011924231128944548 0.028204090000026803 0 0.011345013095224381 0.02833548606186382 0 0.011479963263818331 0.028166714547202425 0 0.011345013095224381 0.02833548606186382 0 0.01120143943207497 0.028178383890252356 0 0.01175173459714891 0.028326033834869983 0 0.011510669207208951 0.028331691232816595 0 0.011479963263818331 0.028166714547202425 0 0.01120143943207497 0.028178383890252356 0 0.011171000647508353 0.027882967847225028 0 0.01175173459714891 0.028326033834869983 0 0.011294775009758257 0.028487639554011214 0 0.011986613639658368 0.029057973105251905 0 0.011508416165079695 0.028640406913984187 0 0.012104461175041499 0.028460951551503764 0 0.01120143943207497 0.028178383890252356 0 0.010813971268170061 0.028279555597493834 0 0.011171000647508353 0.027882967847225028 0 0.010813971268170061 0.028279555597493834 0 0.010677220737063694 0.028474948751854343 0 0.010419829391868141 0.028482188741629704 0 0.010923637530039864 0.028222852921840395 0 0.011294775009758257 0.028487639554011214 0 0.01120143943207497 0.028178383890252356 0 0.010813971268170061 0.028279555597493834 0 0.0110074804733085 0.028360176659815911 0 0.010813971268170061 0.028279555597493834 0 0.0110074804733085 0.028360176659815911 0 0.010677220737063694 0.028474948751854343 0 0.0110074804733085 0.028360176659815911 0 0.010991296133872619 0.02855063153891603 0 0.010677220737063694 0.028474948751854343 0 0.010604699159152612 0.028636683656945813 0 0.010994982126170913 0.028764519371723443 0 0.010991296133872619 0.02855063153891603 0 0.010604699159152612 0.028636683656945813 0 0.010991296133872619 0.02855063153891603 0 0.010677220737063694 0.028474948751854343 0 0.010604699159152612 0.028636683656945813 0 0.010677220737063694 0.028474948751854343 0 0.010419829391868141 0.028482188741629704 0 0.010604699159152612 0.028636683656945813 0 0.010207980445292753 0.028520793693052687 0 0.010419829391868141 0.028482188741629704 0 0.010813971268170061 0.028279555597493834 0 0.010419829391868141 0.028482188741629704 0 0.010328543395750822 0.028225431267319107 0 0.010100601975094908 0.02862045409430539 0 0.010419829391868141 0.028482188741629704 0 0.010328543395750822 0.028225431267319107 0 0.010813971268170061 0.028279555597493834 0 0.010328543395750822 0.028225431267319107 0 0.010700735893764029 0.027798363041737995 0 0.0099017429152899253 0.027763563482478902 0 0.010328543395750822 0.028225431267319107 0 0.010700735893764029 0.027798363041737995 0 0.0099017429152899253 0.027763563482478902 0 0.010700735893764029 0.027798363041737995 0 0.010121557549516592 0.027111395520095623 0 0.010710783323780879 0.028180876242750393 0 0.0096307441507545253 0.027557893682926948 0 0.010633129047749485 0.028534060396728782 0 0.011057676654629504 0.027829006008100045 0 0.0098379361226155013 0.027834436186810519 0 0.010633129047749485 0.028534060396728782 0 0.011384114471928613 0.028461700946926367 0 0.011057676654629504 0.027829006008100045 0 0.010710783323780879 0.028180876242750393 0 0.011294775009758257 0.028487639554011214 0 0.010633129047749485 0.028534060396728782 0 0.01142293595970899 0.029225311242444717 0 0.011384114471928613 0.028461700946926367 0 0.010813971268170061 0.028279555597493834 0 0.010700735893764029 0.027798363041737995 0 0.011016557796084221 0.028094112052646288 0 0.011508416165079695 0.028640406913984187 0 0.01235204716245431 0.02783843386900204 0 0.012104461175041499 0.028460951551503764 0 0.011294775009758257 0.028487639554011214 0 0.012312518061404923 0.028213171622036397 0 0.01142293595970899 0.029225311242444717 0 0.011384114471928613 0.028461700946926367 0 0.012253944897861479 0.028454095204247732 0 0.011384114471928613 0.028461700946926367 0 0.011552849478792732 0.02795663201776313 0 0.012253944897861479 0.028454095204247732 0 0.011384114471928613 0.028461700946926367 0 0.011552849478792732 0.02795663201776313 0 0.011057676654629504 0.027829006008100045 0 0.01235204716245431 0.02783843386900204 0 0.012570847227025618 0.028301480958720922 0 0.012104461175041499 0.028460951551503764 0 0.011986613639658368 0.029057973105251905 0 0.012570847227025618 0.028301480958720922 0 0.012104461175041499 0.028460951551503764 0 0.012552856008105271 0.027914371816959282 0 0.012155334040385673 0.028034238696297158 0 0.012301840629642343 0.027858663027722153 0 0.01304405835048892 0.027233857807481603 0 0.012367109771601008 0.026905544385075541 0 0.011885232918789922 0.027469135326063505 0 0.012367109771601008 0.026905544385075541 0 0.011368699775814924 0.026842896937310567 0 0.01223514727277779 0.026069167288525749 0 0.012367109771601008 0.026905544385075541 0 0.011885232918789922 0.027469135326063505 0 0.011368699775814924 0.026842896937310567 0 0.013106249648713753 0.027685592344642219 0 0.012253944897861479 0.028454095204247732 0 0.012029708776182176 0.027427671846580546 0 0.012963062261500376 0.027249102832030189 0 0.011989184912211714 0.027451405227911504 0 0.011552849478792732 0.02795663201776313 0 0.012253944897861479 0.028454095204247732 0 0.012029708776182176 0.027427671846580546 0 0.011552849478792732 0.02795663201776313 0 0.012029708776182176 0.027427671846580546 0 0.011040641089698666 0.02761164170396729 0 0.011885232918789922 0.027469135326063505 0 0.011368699775814924 0.026842896937310567 0 0.01073252481141369 0.027687949685962835 0 0.011989184912211714 0.027451405227911504 0 0.010799256856540648 0.027557317031116465 0 0.010799256856540648 0.027557317031116465 0 0.010512922417514942 0.026251789345704629 0 0.011368699775814924 0.026842896937310567 0 0.01073252481141369 0.027687949685962835 0 0.010624366492124908 0.026345492072986209 0 0.010501288001950642 0.027346629315284504 0 0.0096064227835863172 0.026954753662780769 0 0.010439852065560072 0.026192533704762554 0 0.011040473368031507 0.027610072076249461 0 0.011057676654629504 0.027829006008100045 0 0.0098379361226155013 0.027834436186810519 0 0.011552849478792732 0.02795663201776313 0 0.011040641089698666 0.02761164170396729 0 0.011057676654629504 0.027829006008100045 0 0.010799256856540648 0.027557317031116465 0 0.010863348184091733 0.027688948460137357 0 0.010799256856540648 0.027557317031116465 0 0.0096307441507545253 0.027557893682926948 0 0.010501288001950642 0.027346629315284504 0 0.0096064227835863172 0.026954753662780769 0 0.0092531876651636771 0.0275580726944482 0 0.0096064227835863172 0.026954753662780769 0 0.0094428779061397853 0.026258600851276338 0 0.010439852065560072 0.026192533704762554 0 0.0094428779061397853 0.026258600851276338 0 0.0098145388899651236 0.025654740013853247 0 0.0090540366449307404 0.025691668252322445 0 0.0094428779061397853 0.026258600851276338 0 0.0098145388899651236 0.025654740013853247 0 0.010439852065560072 0.026192533704762554 0 0.0094913849340134918 0.024999944714686959 0 0.0098145388899651236 0.025654740013853247 0 0.010500387235324435 0.024999983068631871 0 0.0094913849340134918 0.024999944714686959 0 0.0098145388899651236 0.025654740013853247 0 0.0090540366449307404 0.025691668252322445 0 0.010500657118513553 0.024999995753290243 0 0.010624366492124908 0.026345492072986209 0 0.011396791746948354 0.025806828624195886 0 0.0098145388899651236 0.025654740013853247 0 0.010500387235324435 0.024999983068631871 0 0.010439852065560072 0.026192533704762554 0 0.010500625362569802 0.025000218405843849 0 0.010512922417514942 0.026251789345704629 0 0.011368699775814924 0.026842896937310567 0 0.010624366492124908 0.026345492072986209 0 0.011396791746948354 0.025806828624195886 0 0.011368699775814924 0.026842896937310567 0 0.011396791746948354 0.025806828624195886 0 0.01223514727277779 0.026069167288525749 0 0.010500657118513553 0.024999995753290243 0 0.011396791746948354 0.025806828624195886 0 0.011888759387594736 0.024999989415911483 0 0.011396791746948354 0.025806828624195886 0 0.011888759387594736 0.024999989415911483 0 0.01223514727277779 0.026069167288525749 0 0.013276880467646784 0.024999996489166395 0 0.011888759387594736 0.024999989415911483 0 0.01223514727277779 0.026069167288525749 0 0.0073634458752011517 0.026734171890469078 0 0.0074879930550510567 0.027171468536214424 0 0.0079317868085781989 0.026640059068795206 0 0.0073634458752011517 0.026734171890469078 0 0.0079317868085781989 0.026640059068795206 0 0.007341530089544487 0.026144396105540705 0 0.0073634458752011517 0.026734171890469078 0 0.0068924369373620231 0.026554892399551517 0 0.007341530089544487 0.026144396105540705 0 0.0068924369373620231 0.026554892399551517 0 0.0063533817645201269 0.026509094381446701 0 0.0065619130917365523 0.02591950223816791 0 0.0068924369373620231 0.026554892399551517 0 0.0063533817645201269 0.026509094381446701 0 0.0066263271186007867 0.026996353175380912 0 0.0063533817645201269 0.026509094381446701 0 0.0066263271186007867 0.026996353175380912 0 0.005932095004982982 0.026879903045656947 0 0.0073634458752011517 0.026734171890469078 0 0.0068924369373620231 0.026554892399551517 0 0.0070648579170132716 0.027035125134365873 0 0.0068924369373620231 0.026554892399551517 0 0.0066263271186007867 0.026996353175380912 0 0.0070648579170132716 0.027035125134365873 0 0.0066263271186007867 0.026996353175380912 0 0.0070648579170132716 0.027035125134365873 0 0.0068826696489375783 0.027280867178415168 0 0.0070648579170132716 0.027035125134365873 0 0.0071372171448025115 0.027308689499345663 0 0.0074879930550510567 0.027171468536214424 0 0.0066889737890007362 0.027491298706222304 0 0.0066263271186007867 0.026996353175380912 0 0.0068826696489375783 0.027280867178415168 0 0.0062928806404090537 0.028060789429792315 0 0.0066263271186007867 0.026996353175380912 0 0.0061746326834089156 0.02751306281023002 0 0.0064635947391645772 0.0278029763606948 0 0.0066309046923950336 0.027054199215411523 0 0.0070648579170132716 0.027035125134365873 0 0.0068826696489375783 0.027280867178415168 0 0.0071372171448025115 0.027308689499345663 0 0.0066889737890007362 0.027491298706222304 0 0.0069346355246425913 0.027553026296162499 0 0.0068826696489375783 0.027280867178415168 0 0.0072609310916463563 0.02751504233798301 0 0.0071372171448025115 0.027308689499345663 0 0.0074879930550510567 0.027171468536214424 0 0.0069346355246425913 0.027553026296162499 0 0.0068826696489375783 0.027280867178415168 0 0.0071372171448025115 0.027308689499345663 0 0.0072609310916463563 0.02751504233798301 0 0.0069346355246425913 0.027553026296162499 0 0.0071372171448025115 0.027308689499345663 0 0.0077177942480790331 0.02755798794389442 0 0.0072609310916463563 0.02751504233798301 0 0.0074879930550510567 0.027171468536214424 0 0.0074879930550510567 0.027171468536214424 0 0.0078720407042988105 0.027361385270003195 0 0.0079317868085781989 0.026640059068795206 0 0.0073634458752011517 0.026734171890469078 0 0.0070648579170132716 0.027035125134365873 0 0.0074879930550510567 0.027171468536214424 0 0.0077177942480790331 0.02755798794389442 0 0.0074879930550510567 0.027171468536214424 0 0.0078720407042988105 0.027361385270003195 0 0.0078720407042988105 0.027361385270003195 0 0.0084433744662096716 0.027147232697160628 0 0.0081101784876716574 0.026653238199521624 0 0.0083564925725787918 0.027615615244805564 0 0.0078720407042988105 0.027361385270003195 0 0.0084433744662096716 0.027147232697160628 0 0.0078735380106432062 0.027308066702723378 0 0.0080245100868069682 0.026662492180099667 0 0.0083564925725787918 0.027615615244805564 0 0.0084433744662096716 0.027147232697160628 0 0.0090025317289256831 0.027332336174416813 0 0.0096064227835863172 0.026954753662780769 0 0.0090025317289256831 0.027332336174416813 0 0.0088764996585631757 0.026767363955396511 0 0.0083564925725787918 0.027615615244805564 0 0.0092359561379171846 0.027541399389082333 0 0.0090025317289256831 0.027332336174416813 0 0.0087526892304775807 0.027389522754822898 0 0.0096307441507545253 0.027557893682926948 0 0.0096307441507545253 0.027557893682926948 0 0.0092386141719199046 0.02733668858527652 0 0.0084433744662096716 0.027147232697160628 0 0.0090025317289256831 0.027332336174416813 0 0.0088764996585631757 0.026767363955396511 0 0.0096064227835863172 0.026954753662780769 0 0.0092531876651636771 0.0275580726944482 0 0.0090025317289256831 0.027332336174416813 0 0.0096064227835863172 0.026954753662780769 0 0.0094428779061397853 0.026258600851276338 0 0.0088764996585631757 0.026767363955396511 0 0.0094428779061397853 0.026258600851276338 0 0.0088764996585631757 0.026767363955396511 0 0.0087539948203471905 0.026248695218319094 0 0.0084433744662096716 0.027147232697160628 0 0.0088764996585631757 0.026767363955396511 0 0.0081101784876716574 0.026653238199521624 0 0.0088764996585631757 0.026767363955396511 0 0.0081101784876716574 0.026653238199521624 0 0.0087539948203471905 0.026248695218319094 0 0.0079317868085781989 0.026640059068795206 0 0.0081682743740318 0.025853987686551363 0 0.007341530089544487 0.026144396105540705 0 0.0080245100868069682 0.026662492180099667 0 0.0082471033761164925 0.025841728753027766 0 0.0081101784876716574 0.026653238199521624 0 0.0083205085168198429 0.025854643659626291 0 0.0087539948203471905 0.026248695218319094 0 0.0083205085168198429 0.025854643659626291 0 0.0087539948203471905 0.026248695218319094 0 0.0090540366449307404 0.025691668252322445 0 0.0094428779061397853 0.026258600851276338 0 0.0087539948203471905 0.026248695218319094 0 0.0090540366449307404 0.025691668252322445 0 0.0094913849340134918 0.024999944714686959 0 0.0090540366449307404 0.025691668252322445 0 0.0084823955024593157 0.024999982370139871 0 0.0081682743740318 0.025853987686551363 0 0.0084819926998577523 0.024999934881522311 0 0.0070819830252647148 0.024999920092442597 0 0.0082471033761164925 0.025841728753027766 0 0.0084821546557530166 0.025000188689333055 0 0.0083205085168198429 0.025854643659626291 0 0.0090540366449307404 0.025691668252322445 0 0.0084823955024593157 0.024999982370139871 0 0.0081682743740318 0.025853987686551363 0 0.0070819830252647148 0.024999920092442597 0 0.007341530089544487 0.026144396105540705 0 0.0070819830252647148 0.024999920092442597 0 0.007341530089544487 0.026144396105540705 0 0.0065619130917365523 0.02591950223816791 0 0.0068924369373620231 0.026554892399551517 0 0.007341530089544487 0.026144396105540705 0 0.0065619130917365523 0.02591950223816791 0 0.0070819830252647148 0.024999920092442597 0 0.0065619130917365523 0.02591950223816791 0 0.00568156747154888 0.024999832027115327 0 0.00568156747154888 0.024999832027115327 0 0.0049526071368982101 0.025913710629107314 0 0.0042811624406232521 0.024999925971579854 0 0.0049526071368982101 0.025913710629107314 0 0.0057559626208416878 0.026184333566379111 0 0.0052674187218726071 0.026763405791913941 0 0.0065619130917365523 0.02591950223816791 0 0.00568156747154888 0.024999832027115327 0 0.0057559626208416878 0.026184333566379111 0 0.00568156747154888 0.024999832027115327 0 0.0049526071368982101 0.025913710629107314 0 0.0057559626208416878 0.026184333566379111 0 0.0063533817645201269 0.026509094381446701 0 0.0065619130917365523 0.02591950223816791 0 0.0057559626208416878 0.026184333566379111 0 0.0042811624406232521 0.024999925971579854 0 0.0028993347335120449 0.025629807767765092 0 0.002881159198052131 0.024999838822467629 0 0.0042811624406232521 0.024999925971579854 0 0.0034381067125611956 0.026040838745837323 0 0.0028993347335120449 0.025629807767765092 0 0.0049526071368982101 0.025913710629107314 0 0.0042811624406232521 0.024999925971579854 0 0.0042033045176378351 0.026018314055679562 0 0.0049526071368982101 0.025913710629107314 0 0.0042033045176378351 0.026018314055679562 0 0.0045096623705573602 0.026632518540795274 0 0.0042811624406232521 0.024999925971579854 0 0.0042033045176378351 0.026018314055679562 0 0.0034381067125611956 0.026040838745837323 0 0.0042033045176378351 0.026018314055679562 0 0.0034381067125611956 0.026040838745837323 0 0.0038407678362552106 0.026504612379787035 0 0.0034381067125611956 0.026040838745837323 0 0.0031377017287504642 0.026795762809769325 0 0.0038407678362552106 0.026504612379787035 0 0.0031377017287504642 0.026795762809769325 0 0.0038407678362552106 0.026504612379787035 0 0.0037881789699141665 0.027046449277400575 0 0.0038407678362552106 0.026504612379787035 0 0.0045096623705573602 0.026632518540795274 0 0.0037881789699141665 0.027046449277400575 0 0.0042033045176378351 0.026018314055679562 0 0.0038407678362552106 0.026504612379787035 0 0.0045096623705573602 0.026632518540795274 0 0.0045096623705573602 0.026632518540795274 0 0.0043152334578355446 0.027210520986790034 0 0.0037881789699141665 0.027046449277400575 0 0.0043152334578355446 0.027210520986790034 0 0.004638894133322238 0.027648398761672577 0 0.0041688497334189485 0.027606881864013083 0 0.0043152334578355446 0.027210520986790034 0 0.0037083657141846224 0.02751723893654234 0 0.0041688497334189485 0.027606881864013083 0 0.0043152334578355446 0.027210520986790034 0 0.0037083657141846224 0.02751723893654234 0 0.0037881789699141665 0.027046449277400575 0 0.0031377017287504642 0.026795762809769325 0 0.0037881789699141665 0.027046449277400575 0 0.003138994760278558 0.027484462048304171 0 0.0037083657141846224 0.02751723893654234 0 0.0037881789699141665 0.027046449277400575 0 0.003138994760278558 0.027484462048304171 0 0.0057559626208416878 0.026184333566379111 0 0.005932095004982982 0.026879903045656947 0 0.0052674187218726071 0.026763405791913941 0 0.0063533817645201269 0.026509094381446701 0 0.0057559626208416878 0.026184333566379111 0 0.005932095004982982 0.026879903045656947 0 0.005932095004982982 0.026879903045656947 0 0.0052674187218726071 0.026763405791913941 0 0.005359131022562403 0.027251929133263957 0 0.0049526071368982101 0.025913710629107314 0 0.0045096623705573602 0.026632518540795274 0 0.0052674187218726071 0.026763405791913941 0 0.0045096623705573602 0.026632518540795274 0 0.0052674187218726071 0.026763405791913941 0 0.0048940330424194827 0.027199258624036826 0 0.0052674187218726071 0.026763405791913941 0 0.0048940330424194827 0.027199258624036826 0 0.005359131022562403 0.027251929133263957 0 0.0045096623705573602 0.026632518540795274 0 0.0043152334578355446 0.027210520986790034 0 0.0048940330424194827 0.027199258624036826 0 0.0043152334578355446 0.027210520986790034 0 0.0048940330424194827 0.027199258624036826 0 0.004638894133322238 0.027648398761672577 0 0.0048940330424194827 0.027199258624036826 0 0.005120609933677597 0.027602119108579404 0 0.004638894133322238 0.027648398761672577 0 0.0048940330424194827 0.027199258624036826 0 0.005120609933677597 0.027602119108579404 0 0.005359131022562403 0.027251929133263957 0 0.0058993702708692985 0.026900517076570249 0 0.0057616779485696237 0.027990956693403266 0 0.005932095004982982 0.026879903045656947 0 0.005359131022562403 0.027251929133263957 0 0.0055809063068820285 0.027688317495390226 0 0.005120609933677597 0.027602119108579404 0 0.005359131022562403 0.027251929133263957 0 0.0055809063068820285 0.027688317495390226 0 0.005932095004982982 0.026879903045656947 0 0.0061746326834089156 0.02751306281023002 0 0.0058799868233886058 0.028088535486359194 0 0.0066263271186007867 0.026996353175380912 0 0.005932095004982982 0.026879903045656947 0 0.0061746326834089156 0.02751306281023002 0 0.0062928806404090537 0.028060789429792315 0 0.0061746326834089156 0.02751306281023002 0 0.0058799868233886058 0.028088535486359194 0 0.0057616779485696237 0.027990956693403266 0 0.004932370336290094 0.028056457956381543 0 0.0062928806404090537 0.028060789429792315 0 0.0058799868233886058 0.028088535486359194 0 0.006053127078334 0.028922744918334679 0 0.0055809063068820285 0.027688317495390226 0 0.0052549726922244784 0.028069746801213422 0 0.0054338708074942758 0.028499498622420596 0 0.0058799868233886058 0.028088535486359194 0 0.006053127078334 0.028922744918334679 0 0.0057725943913305043 0.029112322416474212 0 0.0064635947391645772 0.0278029763606948 0 0.0058712427937894548 0.028165726685814525 0 0.0066889737890007362 0.027491298706222304 0 0.006759616900427058 0.027791389854689572 0 0.0064353529878578633 0.028210578087774853 0 0.005120609933677597 0.027602119108579404 0 0.0055809063068820285 0.027688317495390226 0 0.0052835206328202891 0.02780733910383543 0 0.0055809063068820285 0.027688317495390226 0 0.0052835206328202891 0.02780733910383543 0 0.0052549726922244784 0.028069746801213422 0 0.006759616900427058 0.027791389854689572 0 0.0066047639290180236 0.028105924766096697 0 0.0064353529878578633 0.028210578087774853 0 0.0050302771429029721 0.027895322414924321 0 0.0054341398531070964 0.027612455558471152 0 0.0051979711762406566 0.027192167006413873 0 0.0066047639290180236 0.028105924766096697 0 0.0064115109185467209 0.028233165250332769 0 0.0062814432670327382 0.028715963602647037 0 0.0069293068057156761 0.028030414855460862 0 0.0066047639290180236 0.028105924766096697 0 0.0062814432670327382 0.028715963602647037 0 0.0058712427937894548 0.028165726685814525 0 0.0063338463920975183 0.027746219276402345 0 0.006136677102525836 0.028055614644626671 0 0.0058712427937894548 0.028165726685814525 0 0.0058712427937894548 0.028165726685814525 0 0.004932370336290094 0.028056457956381543 0 0.0052549726922244784 0.028069746801213422 0 0.0054338708074942758 0.028499498622420596 0 0.005048430442870149 0.028354153903131073 0 0.0054338708074942758 0.028499498622420596 0 0.0050433794486776113 0.02877965100978597 0 0.005048430442870149 0.028354153903131073 0 0.004932370336290094 0.028056457956381543 0 0.0037717488884462919 0.026847401992467015 0 0.0037717488884462919 0.026847401992467015 0 0.0035170875202664062 0.027530155908007652 0 0.0044306800553510417 0.027378871027258504 0 0.0043918096477954536 0.027738468579700002 0 0.0038772138843289382 0.027756081874882519 0 0.0054341398531070964 0.027612455558471152 0 0.0054760575441770596 0.027181587694742094 0 0.0051979711762406566 0.027192167006413873 0 0.004932370336290094 0.028056457956381543 0 0.0035170875202664062 0.027530155908007652 0 0.0037717488884462919 0.026847401992467015 0 0.0063338463920975183 0.027746219276402345 0 0.0035170875202664062 0.027530155908007652 0 0.003955156040397762 0.02831272015632989 0 0.0050433794486776113 0.02877965100978597 0 0.0045398700264808146 0.028379548187611903 0 0.0039552086949967728 0.02872990520862579 0 0.0050433794486776113 0.02877965100978597 0 0.005048430442870149 0.028354153903131073 0 0.0045398700264808146 0.028379548187611903 0 0.0048740270690619016 0.027997490017864207 0 0.004638894133322238 0.027648398761672577 0 0.0041423923353418653 0.028066297645121602 0 0.0045398700264808146 0.028379548187611903 0 0.0048740270690619016 0.027997490017864207 0 0.0041423923353418653 0.028066297645121602 0 0.005048430442870149 0.028354153903131073 0 0.0045398700264808146 0.028379548187611903 0 0.0048740270690619016 0.027997490017864207 0 0.0052835206328202891 0.02780733910383543 0 0.0052549726922244784 0.028069746801213422 0 0.0048740270690619016 0.027997490017864207 0 0.0052549726922244784 0.028069746801213422 0 0.005048430442870149 0.028354153903131073 0 0.0048740270690619016 0.027997490017864207 0 0.005120609933677597 0.027602119108579404 0 0.0048740270690619016 0.027997490017864207 0 0.004638894133322238 0.027648398761672577 0 0.005120609933677597 0.027602119108579404 0 0.0052835206328202891 0.02780733910383543 0 0.0048740270690619016 0.027997490017864207 0 0.004638894133322238 0.027648398761672577 0 0.0041688497334189485 0.027606881864013083 0 0.0041423923353418653 0.028066297645121602 0 0.0037083657141846224 0.02751723893654234 0 0.0041688497334189485 0.027606881864013083 0 0.0034602915171802525 0.027891446139763854 0 0.0041688497334189485 0.027606881864013083 0 0.0041423923353418653 0.028066297645121602 0 0.0034602915171802525 0.027891446139763854 0 0.0041423923353418653 0.028066297645121602 0 0.0034602915171802525 0.027891446139763854 0 0.0033804296506194215 0.028209746521246245 0 0.003138994760278558 0.027484462048304171 0 0.0034602915171802525 0.027891446139763854 0 0.0029025767844702696 0.028062081393012719 0 0.0037083657141846224 0.02751723893654234 0 0.003138994760278558 0.027484462048304171 0 0.0034602915171802525 0.027891446139763854 0 0.0034602915171802525 0.027891446139763854 0 0.0033804296506194215 0.028209746521246245 0 0.0029025767844702696 0.028062081393012719 0 0.0033804296506194215 0.028209746521246245 0 0.0027602313398909159 0.028248791310438375 0 0.0039552086949967728 0.02872990520862579 0 0.0028153776708829794 0.028256359207214796 0 0.003955156040397762 0.02831272015632989 0 0.0033804296506194215 0.028209746521246245 0 0.0027602313398909159 0.028248791310438375 0 0.0029025767844702696 0.028062081393012719 0 0.0045398700264808146 0.028379548187611903 0 0.0041423923353418653 0.028066297645121602 0 0.0039552086949967728 0.02872990520862579 0 0.0041423923353418653 0.028066297645121602 0 0.0033804296506194215 0.028209746521246245 0 0.0039552086949967728 0.02872990520862579 0 0.0042682197158029674 0.02778217190324769 0 0.0034626641325049144 0.027821843341696038 0 0.0035397968289410152 0.028438832324203408 0 0.0034626641325049144 0.027821843341696038 0 0.0035397968289410152 0.028438832324203408 0 0.0027667340953728727 0.028139272178748505 0 0.0035397968289410152 0.028438832324203408 0 0.0027667340953728727 0.028139272178748505 0 0.0016796722876522687 0.029978390541032945 0 0.0027602313398909159 0.028248791310438375 0 0.0034626641325049144 0.027821843341696038 0 0.0027667340953728727 0.028139272178748505 0 0.0021502609942379218 0.026585169541877045 0 0.0019337843101114313 0.027544617088941226 0 0.0011763810282305446 0.024967648977831967 0 0.0011572403871229272 0.024506662470683498 0 0.0017671838057935116 0.024531791120411189 0 0.0011763810282305446 0.024967648977831967 0 0.0011572403871229272 0.024506662470683498 0 0.00078932112586956255 0.024628782801445082 0 0.00093921560923621646 0.024335793372196234 0 0.0011572403871229272 0.024506662470683498 0 0.00078932112586956255 0.024628782801445082 0 0.00068582394427604094 0.024382380496725958 0 0.00093921560923621646 0.024335793372196234 0 0.00078932112586956255 0.024628782801445082 0 0.00078932112586956255 0.024628782801445082 0 0.00046890647757846587 0.024717736547681068 0 0.00064641838692582965 0.025026981471254674 0 0.00078932112586956255 0.024628782801445082 0 0.00051702307805258656 0.024449698441541962 0 0.00046890647757846587 0.024717736547681068 0 0.00068582394427604094 0.024382380496725958 0 0.00078932112586956255 0.024628782801445082 0 0.00051702307805258656 0.024449698441541962 0 0.0052790085988787469 0.025530760558061749 0 0.0050451316918234306 0.025598049477357384 0 0.0048891521525686503 0.027134270826342653 0 0.0085903391626562312 0.029057230791021852 0 0.0079009530124494499 0.029224824919779933 0 0.0079302875499684053 0.02895018814419888 0 0.0085903391626562312 0.029057230791021852 0 0.0083101751128915099 0.028649129393153734 0 0.0079302875499684053 0.02895018814419888 0 0.010482399731246185 0.028982963309702993 0 0.0070476552105415294 0.026733813598412752 0 0.0070476552105415294 0.026733813598412752 0 0.0047651007016590715 0.026751792666483969 0 0.0043814248656857159 0.026243051142190756 0 0.0047651007016590715 0.026751792666483969 0 0.0043814248656857159 0.026243051142190756 0 0.0070476552105415294 0.026733813598412752 0 0.0063338463920975183 0.027746219276402345 0 0.0047651007016590715 0.026751792666483969 0 0.00043577834797975374 0.025392115621494103 0 0.00046890647757846587 0.024717736547681068 0 0.00064641838692582965 0.025026981471254674 0 0.0037717488884462919 0.026847401992467015 0 0.0047651007016590715 0.026751792666483969 0 0.0083101751128915099 0.028649129393153734 0 0.0081146946816202728 0.028193334268301409 0 0.0079302875499684053 0.02895018814419888 0 0.0049879416631177327 0.027553104606177641 0 0.0048681160362330621 0.02755788137578628 0 0.0050657085864571376 0.026702381390761209 0 0.00043577834797975374 0.025392115621494103 0 0.00063071882026420991 0.025380235652532456 0 0.00064641838692582965 0.025026981471254674 0 0.00063071882026420991 0.025380235652532456 0 0.0011763810282305446 0.024967648977831967 0 0.00064641838692582965 0.025026981471254674 0 0.0011763810282305446 0.024967648977831967 0 0.00078932112586956255 0.024628782801445082 0 0.00064641838692582965 0.025026981471254674 0 0.0035170875202664062 0.027530155908007652 0 0.0021502609942379218 0.026585169541877045 0 -0.0019935478762415667 0.026338768051919984 0 -0.0028920381598902221 0.025919560530822578 0 -0.0018382263832705541 0.026694874925794542 0 -0.0019935478762415667 0.026338768051919984 0 -0.0020156860013020323 0.026158713655516707 0 -0.0020756730334229342 0.025888818574805298 0 -0.0019935478762415667 0.026338768051919984 0 -0.0018382263832705541 0.026694874925794542 0 -0.0019617218592967302 0.02630570320668334 0 -0.0019935478762415667 0.026338768051919984 0 -0.0019617218592967302 0.02630570320668334 0 -0.0020715856727071646 0.026162718254029386 0 -0.0019935478762415667 0.026338768051919984 0 -0.0020156860013020323 0.026158713655516707 0 -0.0020715856727071646 0.026162718254029386 0 -0.0020156860013020323 0.026158713655516707 0 -0.0020715856727071646 0.026162718254029386 0 -0.0020772263302973586 0.026097555347575078 0 -0.0020156860013020323 0.026158713655516707 0 -0.0020284389402933822 0.026036757645375011 0 -0.0020772263302973586 0.026097555347575078 0 -0.002030969238204481 0.025988592604405954 0 -0.0020284389402933822 0.026036757645375011 0 -0.0020756730334229342 0.025888818574805298 0 -0.0020156860013020323 0.026158713655516707 0 -0.0020284389402933822 0.026036757645375011 0 -0.0020756730334229342 0.025888818574805298 0 -0.0019935478762415667 0.026338768051919984 0 -0.0020756730334229342 0.025888818574805298 0 -0.0028920381598902221 0.025919560530822578 0 -0.0026064011218342197 0.024661854574959088 0 -0.0020756730334229342 0.025888818574805298 0 -0.0028920381598902221 0.025919560530822578 0 -0.00016110151122226998 0.029770737678598596 0 -0.0014179870410628533 0.029393124263010446 0 0.00012742701265931771 0.027988806729586441 0 -0.0010387056677196543 0.031758374760652408 0 -0.00016110151122226998 0.029770737678598596 0 -0.0014179870410628533 0.029393124263010446 0 -0.00016110151122226998 0.029770737678598596 0 0.0016796722876522687 0.029978390541032945 0 0.00012742701265931771 0.027988806729586441 0 0.0027667340953728727 0.028139272178748505 0 0.00012742701265931771 0.027988806729586441 0 -0.00038626226196082549 0.025884115278715345 0 0.0027667340953728727 0.028139272178748505 0 0.0016796722876522687 0.029978390541032945 0 0.00012742701265931771 0.027988806729586441 0 0.00012742701265931771 0.027988806729586441 0 -0.0018382263832705541 0.026694874925794542 0 -0.00038626226196082549 0.025884115278715345 0 -0.0014179870410628533 0.029393124263010446 0 0.00012742701265931771 0.027988806729586441 0 -0.0018382263832705541 0.026694874925794542 0 -0.0021867590509841669 0.02793417511329201 0 -0.0019621195458200784 0.026604134995171926 0 -0.0018382263832705541 0.026694874925794542 0 -0.00038626226196082549 0.025884115278715345 0 -0.0017147161821936812 0.026079558389931382 0 -0.00038626226196082549 0.025884115278715345 0 -0.0020525961615126495 0.025507445130771338 0 -0.0017147161821936812 0.026079558389931382 0 0.0026577111471500644 0.02807133805766911 0 0.0010842441573258028 0.027166678496868275 0 0.0027602313398909159 0.028248791310438375 0 0.002529450357206307 0.028356684149705481 0 0.0029025767844702696 0.028062081393012719 0 0.0027602313398909159 0.028248791310438375 0 0.0027667340953728727 0.028139272178748505 0 0.002529450357206307 0.028356684149705481 0 0.002529450357206307 0.028356684149705481 0 0.0029025767844702696 0.028062081393012719 0 0.002620342153562286 0.0278131384596658 0 0.003138994760278558 0.027484462048304171 0 0.0029025767844702696 0.028062081393012719 0 0.002620342153562286 0.0278131384596658 0 0.002620342153562286 0.0278131384596658 0 0.0020805214402097082 0.027739223389047628 0 0.0024686577850662637 0.027282653294461286 0 0.002529450357206307 0.028356684149705481 0 0.002620342153562286 0.0278131384596658 0 0.0020805214402097082 0.027739223389047628 0 0.002529450357206307 0.028356684149705481 0 0.0020805214402097082 0.027739223389047628 0 0.0013107994438411124 0.027917914932259601 0 0.0010842441573258028 0.027166678496868275 0 -0.00036057493680838239 0.026683354147756369 0 -0.0020525961615126495 0.025507445130771338 0 -0.0020464929388343159 0.025893687191102143 0 -0.0024094946994124089 0.025603380453625712 0 -0.0020525961615126495 0.025507445130771338 0 -0.0020464929388343159 0.025893687191102143 0 -0.0017147161821936812 0.026079558389931382 0 -0.0020464929388343159 0.025893687191102143 0 -0.0017147161821936812 0.026079558389931382 0 -0.0019617218592967302 0.02630570320668334 0 -0.0020464929388343159 0.025893687191102143 0 -0.0019617218592967302 0.02630570320668334 0 -0.0020715856727071646 0.026162718254029386 0 -0.0018382263832705541 0.026694874925794542 0 -0.0017147161821936812 0.026079558389931382 0 -0.0019617218592967302 0.02630570320668334 0 -0.0020464929388343159 0.025893687191102143 0 -0.0020715856727071646 0.026162718254029386 0 -0.0021515062746247844 0.025993098765133067 0 -0.0020715856727071646 0.026162718254029386 0 -0.0021515062746247844 0.025993098765133067 0 -0.0020772263302973586 0.026097555347575078 0 -0.0020525961615126495 0.025507445130771338 0 -0.0024094946994124089 0.025603380453625712 0 -0.0026244646672971168 0.025228939073305659 0 -0.0020464929388343159 0.025893687191102143 0 -0.0024094946994124089 0.025603380453625712 0 -0.0027568827884779787 0.02576236923188949 0 -0.0021946552016399571 0.025799591884158854 0 -0.0021189346122339613 0.02623133125880538 0 -0.0024094946994124089 0.025603380453625712 0 -0.0026244646672971168 0.025228939073305659 0 -0.0027568827884779787 0.02576236923188949 0 0.0013107994438411124 0.027917914932259601 0 0.00097035200300112881 0.027257800308977242 0 0.00010806381394573343 0.027269883923677032 0 -0.00036057493680838239 0.026683354147756369 0 -0.0011913359635511921 0.02628819982340681 0 0.00097035200300112881 0.027257800308977242 0 0.00079380238664517684 0.026698074383672839 0 0.00010806381394573343 0.027269883923677032 0 0.0013107994438411124 0.027917914932259601 0 0.00097035200300112881 0.027257800308977242 0 0.0016440183426805128 0.027179911326180927 0 0.0020805214402097082 0.027739223389047628 0 0.0013107994438411124 0.027917914932259601 0 0.0016440183426805128 0.027179911326180927 0 0.00097035200300112881 0.027257800308977242 0 0.0016440183426805128 0.027179911326180927 0 0.00079380238664517684 0.026698074383672839 0 0.0016440183426805128 0.027179911326180927 0 0.0015024307080040429 0.02647743771687253 0 0.00079380238664517684 0.026698074383672839 0 0.0015024307080040429 0.02647743771687253 0 0.00079380238664517684 0.026698074383672839 0 0.00043562455382607828 0.026083885806234792 0 0.00079380238664517684 0.026698074383672839 0 0.00010806381394573343 0.027269883923677032 0 -0.00021781226734121132 0.026554385021601262 0 0.00079380238664517684 0.026698074383672839 0 0.00043562455382607828 0.026083885806234792 0 -0.00021781226734121132 0.026554385021601262 0 0.0031377017287504642 0.026795762809769325 0 0.003138994760278558 0.027484462048304171 0 0.0024686577850662637 0.027282653294461286 0 0.003138994760278558 0.027484462048304171 0 0.002620342153562286 0.0278131384596658 0 0.0024686577850662637 0.027282653294461286 0 0.0020805214402097082 0.027739223389047628 0 0.0016440183426805128 0.027179911326180927 0 0.0024686577850662637 0.027282653294461286 0 0.0016440183426805128 0.027179911326180927 0 0.0024686577850662637 0.027282653294461286 0 0.0024773705569718788 0.026450919955858309 0 0.0016440183426805128 0.027179911326180927 0 0.0015024307080040429 0.02647743771687253 0 0.0024773705569718788 0.026450919955858309 0 0.0034381067125611956 0.026040838745837323 0 0.0031377017287504642 0.026795762809769325 0 0.0024773705569718788 0.026450919955858309 0 0.0031377017287504642 0.026795762809769325 0 0.0024686577850662637 0.027282653294461286 0 0.0024773705569718788 0.026450919955858309 0 0.0024773705569718788 0.026450919955858309 0 0.0022284939238979219 0.025711649091168295 0 0.0028993347335120449 0.025629807767765092 0 0.0034381067125611956 0.026040838745837323 0 0.0024773705569718788 0.026450919955858309 0 0.0028993347335120449 0.025629807767765092 0 0.0015562379751051299 0.026431325821871736 0 0.0021675430638156859 0.025760380873173772 0 0.0015024307080040429 0.02647743771687253 0 0.0024773705569718788 0.026450919955858309 0 0.0022284939238979219 0.025711649091168295 0 0.0021223633546147858 0.025789699402568221 0 0.0016500910713658126 0.02499994529457622 0 0.0010725064099447212 0.025627962553342477 0 0.0021223633546147858 0.025789699402568221 0 0.0016500910713658126 0.02499994529457622 0 0.002880913212334951 0.024999990732917591 0 0.0022284939238979219 0.025711649091168295 0 0.0028993347335120449 0.025629807767765092 0 0.002881159198052131 0.024999838822467629 0 0.0021675430638156859 0.025760380873173772 0 0.0028808379632655925 0.025000137599204185 0 0.00043562455382607828 0.026083885806234792 0 0.0010725064099447212 0.025627962553342477 0 0.00038698320469544563 0.025493826917176794 0 0.00043562455382607828 0.026083885806234792 0 0.00038698320469544563 0.025493826917176794 0 -1.9324577805167278e-05 0.025643109946058271 0 0.0015024307080040429 0.02647743771687253 0 0.0021223633546147858 0.025789699402568221 0 0.0010725064099447212 0.025627962553342477 0 0.0015024307080040429 0.02647743771687253 0 0.00043562455382607828 0.026083885806234792 0 0.0010725064099447212 0.025627962553342477 0 0.0016500910713658126 0.02499994529457622 0 0.0010725064099447212 0.025627962553342477 0 0.00041945575305596909 0.024999936402913644 0 0.0010725064099447212 0.025627962553342477 0 0.00041945575305596909 0.024999936402913644 0 0.00038698320469544563 0.025493826917176794 0 0.00038698320469544563 0.025493826917176794 0 4.1931411692717042e-05 0.025099485190675765 0 -1.9324577805167278e-05 0.025643109946058271 0 0.00041945575305596909 0.024999936402913644 0 0.00038698320469544563 0.025493826917176794 0 4.1931411692717042e-05 0.025099485190675765 0 0.00041945575305596909 0.024999936402913644 0 4.1931411692717042e-05 0.025099485190675765 0 -0.0008116167461235227 0.025000012143180036 0 4.1931411692717042e-05 0.025099485190675765 0 -0.00086422251215199431 0.025201037044799982 0 -0.0008116167461235227 0.025000012143180036 0 4.1931411692717042e-05 0.025099485190675765 0 -0.00029746902358744121 0.025388226518518523 0 -0.00061986354263764924 0.025183206654951197 0 0.00015472732576076747 0.025100561027267029 0 -0.0013543467720969126 0.024787420826279171 0 -0.00029746902358744121 0.025388226518518523 0 -0.00059736834960603859 0.025650297253232743 0 -0.00061986354263764924 0.025183206654951197 0 -0.00029746902358744121 0.025388226518518523 0 -1.9324577805167278e-05 0.025643109946058271 0 -0.00059736834960603859 0.025650297253232743 0 4.1931411692717042e-05 0.025099485190675765 0 -0.00029746902358744121 0.025388226518518523 0 -1.9324577805167278e-05 0.025643109946058271 0 0.00043562455382607828 0.026083885806234792 0 -1.9324577805167278e-05 0.025643109946058271 0 -0.00026421066180402442 0.026016689001276423 0 -1.9324577805167278e-05 0.025643109946058271 0 -0.00026421066180402442 0.026016689001276423 0 -0.00059736834960603859 0.025650297253232743 0 -0.00026421066180402442 0.026016689001276423 0 -0.00090923228134417609 0.026170742387110604 0 -0.00021781226734121132 0.026554385021601262 0 0.00043562455382607828 0.026083885806234792 0 -0.00026421066180402442 0.026016689001276423 0 -0.00021781226734121132 0.026554385021601262 0 -0.0018632121611988667 0.025561066687980607 0 -0.0013543467720969126 0.024787420826279171 0 -0.00089262772757274056 0.026126838908975655 0 -0.00059736834960603859 0.025650297253232743 0 -0.00061986354263764924 0.025183206654951197 0 -0.00026421066180402442 0.026016689001276423 0 -0.00090923228134417609 0.026170742387110604 0 -0.00059736834960603859 0.025650297253232743 0 -0.0018632121611988667 0.025561066687980607 0 -0.00079636451954996244 0.025649824784262774 0 -0.0013543467720969126 0.024787420826279171 0 -0.0027874506952277056 0.024815904199365402 0 -0.00086387999159124153 0.025197521585189484 0 -0.00081160961975137167 0.024999995968548988 0 -0.002024013343431288 0.024999997264415479 0 -0.0030953228551512169 0.024746170400728122 0 -0.0029493128571909002 0.024254018567132819 0 -0.003440814734932789 0.024302876137794947 0 -0.0013543467720969126 0.024787420826279171 0 -0.00081288637740195655 0.024999658821932398 0 -0.00086387999159124153 0.025197521585189484 0 -0.002019039139256747 0.025319543126697132 0 -0.002024013343431288 0.024999997264415479 0 -0.002019039139256747 0.025319543126697132 0 -0.002024013343431288 0.024999997264415479 0 -0.003173832549564774 0.025440788775690171 0 -0.002024013343431288 0.024999997264415479 0 -0.0032364092498494367 0.024999993600772135 0 -0.003173832549564774 0.025440788775690171 0 -0.003440814734932789 0.024302876137794947 0 -0.003523519278617574 0.024689766907088909 0 -0.0039187528732628702 0.024356077345167638 0 -0.0027874506952277056 0.024815904199365402 0 -0.0038100160054924527 0.02482567352353611 0 -0.0059981701651351084 0.02466492992842953 0 -0.0038100160054924527 0.02482567352353611 0 -0.003523519278617574 0.024689766907088909 0 -0.0038374125328936785 0.024943596528999835 0 -0.0039187528732628702 0.024356077345167638 0 -0.0030953228551512169 0.024746170400728122 0 -0.003523519278617574 0.024689766907088909 0 -0.0031918231095406854 0.02489446427280928 0 -0.0030953228551512169 0.024746170400728122 0 -0.003440814734932789 0.024302876137794947 0 -0.003523519278617574 0.024689766907088909 0 -0.003523519278617574 0.024689766907088909 0 -0.0033206138657174097 0.025091798884035607 0 -0.0031918231095406854 0.02489446427280928 0 -0.003523519278617574 0.024689766907088909 0 -0.0033206138657174097 0.025091798884035607 0 -0.0038374125328936785 0.024943596528999835 0 -0.0056379140683419484 0.025052079252069842 0 -0.005871864144632079 0.023425172565607638 0 -0.0068727591073842759 0.023028413539592861 0 -0.0092954136186096173 0.024412342711038031 0 -0.0094190552398805381 0.02353889734320725 0 -0.0089811112863555399 0.024002655798737064 0 -0.0059981701651351084 0.02466492992842953 0 -0.004548948374361414 0.024375549603925066 0 -0.0059981701651351084 0.02466492992842953 0 -0.0077327354698550482 0.023868346990880786 0 -0.0032926229571773277 0.025118036739972059 0 -0.0032871892411498967 0.025484520639310077 0 -0.0034932303431016703 0.025436312070980502 0 -0.0031987227102817798 0.025257872853491004 0 -0.004548948374361414 0.024375549603925066 0 -0.0033206138657174097 0.025091798884035607 0 -0.0038374125328936785 0.024943596528999835 0 -0.0035352418479477144 0.025429151595100851 0 -0.0030030180475458311 0.025253047142777978 0 -0.0031242472256556783 0.02491797876835149 0 -0.0032871892411498967 0.025484520639310077 0 -0.0032926229571773277 0.025118036739972059 0 -0.0031429660511296054 0.024959275944899752 0 -0.0032871892411498967 0.025484520639310077 0 -0.0030030180475458311 0.025253047142777978 0 -0.0030000238306892354 0.025514000935153276 0 -0.0032871892411498967 0.025484520639310077 0 -0.0023728368727965674 0.025563529848756487 0 -0.0034772704002016437 0.025223969761386463 0 -0.0030030180475458311 0.025253047142777978 0 -0.0026244646672971168 0.025228939073305659 0 -0.0031242472256556783 0.02491797876835149 0 -0.0030030180475458311 0.025253047142777978 0 -0.0026244646672971168 0.025228939073305659 0 -0.0030000238306892354 0.025514000935153276 0 -0.0011913359635511921 0.02628819982340681 0 -0.0023728368727965674 0.025563529848756487 0 0.00010806381394573343 0.027269883923677032 0 -0.00021781226734121132 0.026554385021601262 0 -0.0010173859851588841 0.02656302843218479 0 -0.00090923228134417609 0.026170742387110604 0 -0.00021781226734121132 0.026554385021601262 0 -0.0010173859851588841 0.02656302843218479 0 -0.0018632121611988667 0.025561066687980607 0 -0.0023728368727965674 0.025563529848756487 0 -0.0018632121611988667 0.025561066687980607 0 -0.0026543068938687129 0.025386961844700493 0 -0.002205765984346738 0.025505430952800903 0 -0.0021861925615791803 0.025467478513694321 0 -0.0021964803592130827 0.025460818653368019 0 -0.0026543068938687129 0.025386961844700493 0 -0.0023728368727965674 0.025563529848756487 0 -0.0031987227102817798 0.025257872853491004 0 -0.0026543068938687129 0.025386961844700493 0 -0.0032926229571773277 0.025118036739972059 0 -0.003180639968927223 0.024935023119224044 0 -0.0031429660511296054 0.024959275944899752 0 -0.0075035599644726145 0.025440137379231696 0 -0.0075580925297194668 0.025428784183438479 0 -0.007490134773856758 0.025331500914828158 0 -0.0075035599644726145 0.025440137379231696 0 -0.007490134773856758 0.025331500914828158 0 -0.0075236800537436064 0.025483852030699933 0 -0.0068263445698590981 0.025604057334626153 0 -0.0092329763511067274 0.023465546116736482 0 -0.007490134773856758 0.025331500914828158 0 -0.007294223686909641 0.024868673294282787 0 -0.0064811908210896888 0.024459413084341391 0 -0.0068430316141983296 0.025594734990143336 0 -0.0064341583509275836 0.025581661047287766 0 -0.0062444573027519252 0.025746901851093719 0 -0.0053933026620774207 0.025000013300448022 0 -0.006654076626235802 0.02499990113114655 0 -0.0062444573027519252 0.025746901851093719 0 -0.0053933026620774207 0.025000013300448022 0 -0.0050298874423808926 0.025636795480718389 0 -0.0053933026620774207 0.025000013300448022 0 -0.0050298874423808926 0.025636795480718389 0 -0.0041328008699287955 0.024999985865851306 0 -0.0075580925297194668 0.025428784183438479 0 -0.0077846690786317488 0.025175383821921315 0 -0.0080933682922952905 0.025239674628588792 0 -0.0075580925297194668 0.025428784183438479 0 -0.0077846690786317488 0.025175383821921315 0 -0.007490134773856758 0.025331500914828158 0 -0.007490134773856758 0.025331500914828158 0 -0.007294223686909641 0.024868673294282787 0 -0.0076856367162896474 0.024821828407981937 0 -0.0077846690786317488 0.025175383821921315 0 -0.007490134773856758 0.025331500914828158 0 -0.0076856367162896474 0.024821828407981937 0 -0.0077846690786317488 0.025175383821921315 0 -0.0076856367162896474 0.024821828407981937 0 -0.0081215255610091169 0.02489235587365982 0 -0.0081215255610091169 0.02489235587365982 0 -0.0084827828828869609 0.025071644966303114 0 -0.0085585616278708344 0.024437770212419364 0 -0.0084827828828869609 0.025071644966303114 0 -0.0080933682922952905 0.025239674628588792 0 -0.0085441119379040774 0.025599066859301214 0 -0.0081215255610091169 0.02489235587365982 0 -0.0084827828828869609 0.025071644966303114 0 -0.0080933682922952905 0.025239674628588792 0 -0.0077846690786317488 0.025175383821921315 0 -0.0081215255610091169 0.02489235587365982 0 -0.0080933682922952905 0.025239674628588792 0 -0.0050298874423808926 0.025636795480718389 0 -0.0041328008699287955 0.024999985865851306 0 -0.0038319850216314067 0.025505686255483224 0 -0.0064341583509275836 0.025581661047287766 0 -0.0056268465068621603 0.025171112673179247 0 -0.0075580925297194668 0.025428784183438479 0 -0.0080933682922952905 0.025239674628588792 0 -0.0085441119379040774 0.025599066859301214 0 -0.0041328594128667955 0.025000918131350792 0 -0.0056268465068621603 0.025171112673179247 0 -0.0038219218876914488 0.025506411872069146 0 -0.0035920542739136837 0.025236267015009899 0 -0.0031791472101587504 0.025436904325913879 0 -0.0041327310426416131 0.024999997638242642 0 -0.0035920542739136837 0.025236267015009899 0 -0.0032364321966672454 0.02499999180617184 0 -0.0041327310426416131 0.024999997638242642 0 -0.0038219218876914488 0.025506411872069146 0 -0.0035920542739136837 0.025236267015009899 0 -0.0032368040926317506 0.025000335130501278 0 -0.0038100160054924527 0.02482567352353611 0 -0.0035920542739136837 0.025236267015009899 0 -0.0032364321966672454 0.02499999180617184 0 -0.0031791472101587504 0.025436904325913879 0 -0.0056268465068621603 0.025171112673179247 0 -0.0038100160054924527 0.02482567352353611 0 -0.0054128256776308529 0.024937519854641498 0 -0.0055881278291509276 0.024955704831052826 0 -0.0055360760267308328 0.024739922551575724 0 -0.0056613028080005597 0.024543395081821042 0 -0.0055881278291509276 0.024955704831052826 0 -0.0055360760267308328 0.024739922551575724 0 -0.0084827828828869609 0.025071644966303114 0 -0.0085441119379040774 0.025599066859301214 0 -0.0089262708534062693 0.025011165643105619 0 -0.0056268465068621603 0.025171112673179247 0 -0.007323757043272006 0.024641421841229673 0 -0.0084827828828869609 0.025071644966303114 0 -0.0089262708534062693 0.025011165643105619 0 -0.0085585616278708344 0.024437770212419364 0 -0.0092954136186096173 0.024412342711038031 0 -0.0085585616278708344 0.024437770212419364 0 -0.0089811112863555399 0.024002655798737064 0 -0.0092954136186096173 0.024412342711038031 0 -0.0089262708534062693 0.025011165643105619 0 -0.0085585616278708344 0.024437770212419364 0 -0.0059981701651351084 0.02466492992842953 0 -0.007323757043272006 0.024641421841229673 0 -0.0094190552398805381 0.02353889734320725 0 -0.0089811112863555399 0.024002655798737064 0 -0.0086503353739036584 0.023622555124281849 0 -0.0085585616278708344 0.024437770212419364 0 -0.0089811112863555399 0.024002655798737064 0 -0.0086503353739036584 0.023622555124281849 0 -0.0085585616278708344 0.024437770212419364 0 -0.0086503353739036584 0.023622555124281849 0 -0.0080218763384682073 0.023974550525165422 0 -0.0086503353739036584 0.023622555124281849 0 -0.0080218763384682073 0.023974550525165422 0 -0.0080621964887339498 0.023308410378301316 0 -0.0085585616278708344 0.024437770212419364 0 -0.0080218763384682073 0.023974550525165422 0 -0.0079803208257615485 0.024486277098477383 0 -0.0081215255610091169 0.02489235587365982 0 -0.0085585616278708344 0.024437770212419364 0 -0.0079803208257615485 0.024486277098477383 0 -0.0076856367162896474 0.024821828407981937 0 -0.0081215255610091169 0.02489235587365982 0 -0.0079803208257615485 0.024486277098477383 0 -0.0076856367162896474 0.024821828407981937 0 -0.0079803208257615485 0.024486277098477383 0 -0.0074850546283882569 0.024330745390545989 0 -0.007294223686909641 0.024868673294282787 0 -0.0076856367162896474 0.024821828407981937 0 -0.0074850546283882569 0.024330745390545989 0 -0.007294223686909641 0.024868673294282787 0 -0.0074850546283882569 0.024330745390545989 0 -0.0070684248956768593 0.024409213159980715 0 -0.0080218763384682073 0.023974550525165422 0 -0.0079803208257615485 0.024486277098477383 0 -0.0074850546283882569 0.024330745390545989 0 -0.0074850546283882569 0.024330745390545989 0 -0.0074301892311810312 0.023527551391395056 0 -0.0070044628713689088 0.024004988643869019 0 -0.0080218763384682073 0.023974550525165422 0 -0.0074850546283882569 0.024330745390545989 0 -0.0074301892311810312 0.023527551391395056 0 -0.0080218763384682073 0.023974550525165422 0 -0.0074301892311810312 0.023527551391395056 0 -0.0080621964887339498 0.023308410378301316 0 -0.0074301892311810312 0.023527551391395056 0 -0.0070044628713689088 0.024004988643869019 0 -0.0067164299010510752 0.023523251238422752 0 -0.0070044628713689088 0.024004988643869019 0 -0.0067164299010510752 0.023523251238422752 0 -0.0064811908210896888 0.024459413084341391 0 -0.010261567651655264 0.020785734872625878 0 -0.0092329763511067274 0.023465546116736482 0 -0.0070044628713689088 0.024004988643869019 0 -0.0070684248956768593 0.024409213159980715 0 -0.0064811908210896888 0.024459413084341391 0 -0.007294223686909641 0.024868673294282787 0 -0.0070684248956768593 0.024409213159980715 0 -0.0064811908210896888 0.024459413084341391 0 -0.0074850546283882569 0.024330745390545989 0 -0.0070044628713689088 0.024004988643869019 0 -0.0070684248956768593 0.024409213159980715 0 -0.011497675743430523 0.016811665252042085 0 -0.011255923289012232 0.016208437129003484 0 -0.010775575648208515 0.016804446842330321 0 -0.0092111712622158417 0.018892321786162267 0 -0.010719356129546626 0.013708271961139324 0 -0.011497675743430523 0.016811665252042085 0 -0.011255923289012232 0.016208437129003484 0 -0.011753263806070271 0.01559786767708783 0 -0.013556495756199294 0.018309856259123743 0 -0.013631390407562984 0.017722303887443946 0 -0.013391658414590116 0.017956216248540931 0 -0.0074301892311810312 0.023527551391395056 0 -0.0067164299010510752 0.023523251238422752 0 -0.0069173460489249028 0.02262933439239519 0 -0.010261567651655264 0.020785734872625878 0 -0.0092111712622158417 0.018892321786162267 0 -0.0074301892311810312 0.023527551391395056 0 -0.0077924734964000403 0.022661589163322272 0 -0.0080621964887339498 0.023308410378301316 0 -0.0074301892311810312 0.023527551391395056 0 -0.0069173460489249028 0.02262933439239519 0 -0.0077924734964000403 0.022661589163322272 0 -0.0071064430095618501 0.016863827382134062 0 -0.0068064561725716564 0.016864686251502625 0 -0.0068049587735412283 0.017096516527179202 0 -0.0092111712622158417 0.018892321786162267 0 -0.0068145932623776828 0.019814927362537 0 -0.0068064561725716564 0.016864686251502625 0 -0.0065131714897865272 0.016881384708954724 0 -0.0065553324309786439 0.017047950320567141 0 -0.0068145932623776828 0.019814927362537 0 -0.0079086496484247881 0.019767159490106528 0 -0.0068064561725716564 0.016864686251502625 0 -0.0065553324309786439 0.017047950320567141 0 -0.0068049587735412283 0.017096516527179202 0 -0.0077924734964000403 0.022661589163322272 0 -0.0080621964887339498 0.023308410378301316 0 -0.0086553108654672372 0.022674303183671689 0 -0.0086503353739036584 0.023622555124281849 0 -0.0080621964887339498 0.023308410378301316 0 -0.0086553108654672372 0.022674303183671689 0 -0.0094190552398805381 0.02353889734320725 0 -0.0086503353739036584 0.023622555124281849 0 -0.0086553108654672372 0.022674303183671689 0 -0.0079086496484247881 0.019767159490106528 0 -0.0066878347362617592 0.01991461069735934 0 -0.0065131714897865272 0.016881384708954724 0 -0.0065553324309786439 0.017047950320567141 0 -0.0062993432209219524 0.01702734632038172 0 -0.0065553324309786439 0.017047950320567141 0 -0.0063599098392517674 0.017182410886588853 0 -0.0062993432209219524 0.01702734632038172 0 -0.0065553324309786439 0.017047950320567141 0 -0.0063599098392517674 0.017182410886588853 0 -0.0065556054570763099 0.017253912670545733 0 -0.0063599098392517674 0.017182410886588853 0 -0.0063482096293964781 0.017400137357785905 0 -0.0065556054570763099 0.017253912670545733 0 -0.0063482096293964781 0.017400137357785905 0 -0.0065556054570763099 0.017253912670545733 0 -0.0064702848709081492 0.017489197810831719 0 -0.0065556054570763099 0.017253912670545733 0 -0.0068049587735412283 0.017096516527179202 0 -0.0067338395573781819 0.017450310587678566 0 -0.0065556054570763099 0.017253912670545733 0 -0.0064702848709081492 0.017489197810831719 0 -0.0067338395573781819 0.017450310587678566 0 -0.0065553324309786439 0.017047950320567141 0 -0.0065556054570763099 0.017253912670545733 0 -0.0068049587735412283 0.017096516527179202 0 -0.0071064430095618501 0.016863827382134062 0 -0.0068049587735412283 0.017096516527179202 0 -0.0070145653386135031 0.017192425852961199 0 -0.011331641129242691 0.004853920836968598 0 -0.011432713963422811 0.0046420136024925996 0 -0.010647086607340105 0.0051834001524083918 0 -0.010719356129546626 0.013708271961139324 0 -0.008552091893834891 0.010902526216822844 0 -0.0068049587735412283 0.017096516527179202 0 -0.0070145653386135031 0.017192425852961199 0 -0.0067338395573781819 0.017450310587678566 0 -0.013344622553008846 0.008134534122001524 0 -0.010719356129546626 0.013708271961139324 0 -0.013344622553008846 0.008134534122001524 0 -0.014317124095557675 0.01007256132136731 0 -0.011918477059120311 0.0033939620127154311 0 -0.012766061869359005 0.0047648862814312944 0 -0.014301317642355484 0.0040748054581837383 0 -0.014344873363578443 0.015617912387647977 0 -0.014354809201733097 0.015678963004170213 0 -0.014315084316532927 0.015752636294398416 0 -0.014465941951238428 0.015703600142413059 0 -0.014354809201733097 0.015678963004170213 0 -0.014355549476403886 0.015643334404449191 0 -0.014344873363578443 0.015617912387647977 0 -0.014354809201733097 0.015678963004170213 0 -0.014355549476403886 0.015643334404449191 0 -0.012841305715896161 0.016054046150858873 0 -0.010719356129546626 0.013708271961139324 0 -0.0021515062746247844 0.025993098765133067 0 -0.002286209110109036 0.025934074018582835 0 -0.0021986176034618347 0.026039818720127977 0 -0.0021189346122339613 0.02623133125880538 0 -0.0041755765621767603 0.023169896206321677 0 -0.0041755765621767603 0.023169896206321677 0 -0.0041323464979294037 0.021817834445852287 0 -0.0021515062746247844 0.025993098765133067 0 -0.0021986176034618347 0.026039818720127977 0 -0.0020772263302973586 0.026097555347575078 0 -0.0026244646672971168 0.025228939073305659 0 -0.0027568827884779787 0.02576236923188949 0 -0.0030000238306892354 0.025514000935153276 0 -0.0030000238306892354 0.025514000935153276 0 -0.0032871892411498967 0.025484520639310077 0 -0.0033194012493532338 0.025728194649631518 0 -0.0027568827884779787 0.02576236923188949 0 -0.0030000238306892354 0.025514000935153276 0 -0.0033194012493532338 0.025728194649631518 0 -0.0051286910133176546 0.022548130008630998 0 -0.0050774346536516168 0.02243929561841632 0 -0.0051833126976482654 0.022451124895957165 0 -0.0032871892411498967 0.025484520639310077 0 -0.0034932303431016703 0.025436312070980502 0 -0.0033194012493532338 0.025728194649631518 0 -0.004548948374361414 0.024375549603925066 0 -0.0041755765621767603 0.023169896206321677 0 -0.0094190552398805381 0.02353889734320725 0 -0.0086553108654672372 0.022674303183671689 0 -0.0095282251365984318 0.022669715047518087 0 -0.005871864144632079 0.023425172565607638 0 -0.0068727591073842759 0.023028413539592861 0 -0.00610682204100387 0.021774133253509988 0 -0.0077327354698550482 0.023868346990880786 0 -0.0066878347362617592 0.01991461069735934 0 -0.004548948374361414 0.024375549603925066 0 -0.0066878347362617592 0.01991461069735934 0 -0.0066878347362617592 0.01991461069735934 0 -0.0059550112998974381 0.017000391104179665 0 -0.0065131714897865272 0.016881384708954724 0 -0.0062354529096299467 0.01690689671130359 0 -0.0062993432209219524 0.01702734632038172 0 -0.0062502589186633302 0.016920773317639571 0 -0.0062993432209219524 0.01702734632038172 0 -0.0061553783378150212 0.017197149205990313 0 -0.0057496800284383169 0.018161914192172512 0 -0.0058709707100256317 0.018015113694788389 0 -0.005832370377368291 0.017856627687074005 0 -0.0066878347362617592 0.01991461069735934 0 -0.0058079777774097631 0.016622729294626295 0 -0.0059415530867498569 0.018163583929986273 0 -0.0058709707100256317 0.018015113694788389 0 -0.0060189541113520699 0.017925249865022336 0 -0.0066878347362617592 0.01991461069735934 0 -0.0041755765621767603 0.023169896206321677 0 -0.0057496800284383169 0.018161914192172512 0 -0.0059415530867498569 0.018163583929986273 0 -0.0058709707100256317 0.018015113694788389 0 -0.0059323786749865721 0.017887437390257593 0 -0.005832370377368291 0.017856627687074005 0 -0.0059804298941542166 0.01777172765895748 0 -0.0058709707100256317 0.018015113694788389 0 -0.0059323786749865721 0.017887437390257593 0 -0.0060189541113520699 0.017925249865022336 0 -0.0058709707100256317 0.018015113694788389 0 -0.0059323786749865721 0.017887437390257593 0 -0.005832370377368291 0.017856627687074005 0 -0.0063599098392517674 0.017182410886588853 0 -0.0063482096293964781 0.017400137357785905 0 -0.0061553783378150212 0.017197149205990313 0 -0.0063599098392517674 0.017182410886588853 0 -0.0062993432209219524 0.01702734632038172 0 -0.0061553783378150212 0.017197149205990313 0 -0.0063482096293964781 0.017400137357785905 0 -0.0061553783378150212 0.017197149205990313 0 -0.0060438555241857581 0.017634975666929589 0 -0.0059550112998974381 0.017000391104179665 0 -0.006023448780226085 0.017859402018176648 0 -0.005832370377368291 0.017856627687074005 0 -0.0059804298941542166 0.01777172765895748 0 -0.0060438555241857581 0.017634975666929589 0 -0.0059804298941542166 0.01777172765895748 0 -0.0059653415743566047 0.017799243896331893 0 -0.005957082429061962 0.017759616361600585 0 -0.0059804298941542166 0.01777172765895748 0 -0.0060189541113520699 0.017925249865022336 0 -0.0059653415743566047 0.017799243896331893 0 -0.0041323464979294037 0.021817834445852287 0 -0.004194688752440486 0.021875679626720258 0 -0.0059323786749865721 0.017887437390257593 0 -0.0059804298941542166 0.01777172765895748 0 -0.0060189541113520699 0.017925249865022336 0 -0.0021986176034618347 0.026039818720127977 0 -0.0020772263302973586 0.026097555347575078 0 -0.0020748169860710691 0.026045663460057402 0 -0.0020284389402933822 0.026036757645375011 0 -0.0020772263302973586 0.026097555347575078 0 -0.0020748169860710691 0.026045663460057402 0 -0.002030969238204481 0.025988592604405954 0 -0.0020284389402933822 0.026036757645375011 0 -0.0020748169860710691 0.026045663460057402 0 -0.0058818623929329456 0.017818075838500012 0 -0.005957082429061962 0.017759616361600585 0 -0.0059121207612997089 0.017843862633422108 0 -0.0058818623929329456 0.017818075838500012 0 -0.0059653415743566047 0.017799243896331893 0 -0.005957082429061962 0.017759616361600585 0 -0.0022508420267398541 0.021819812486951657 0 -0.004194688752440486 0.021875679626720258 0 -0.005957082429061962 0.017759616361600585 0 -0.0059121207612997089 0.017843862633422108 0 -0.0060110264954719135 0.017782605944330523 0 -0.0017241096711590918 0.020693813438552065 0 -0.0011296334962930127 0.020236922534859116 0 -0.0015682376999259732 0.020143264727738714 0 -0.0022508420267398541 0.021819812486951657 0 -0.0034225198419012889 0.018736926937798878 0 -0.0017132900863971344 0.01984527206781319 0 -0.0015682376999259732 0.020143264727738714 0 -0.0012804898867939702 0.019540353615295408 0 -0.0011296334962930127 0.020236922534859116 0 -0.0015682376999259732 0.020143264727738714 0 -0.0012804898867939702 0.019540353615295408 0 -0.0011296334962930127 0.020236922534859116 0 -0.0012804898867939702 0.019540353615295408 0 -0.00032980369972602152 0.019633379194495638 0 -0.0012804898867939702 0.019540353615295408 0 -0.00032980369972602152 0.019633379194495638 0 -0.00063286963397476048 0.018883309331975916 0 -0.0012804898867939702 0.019540353615295408 0 -0.001412350472886968 0.018528270980036139 0 -0.00063286963397476048 0.018883309331975916 0 -0.0017132900863971344 0.01984527206781319 0 -0.001822613867429353 0.019069491697850285 0 -0.0012804898867939702 0.019540353615295408 0 -0.001822613867429353 0.019069491697850285 0 -0.0012804898867939702 0.019540353615295408 0 -0.001412350472886968 0.018528270980036139 0 -0.0064544916869793568 0.017244018916474941 0 -0.006366288784160401 0.017327375463047238 0 -0.0064725310544014166 0.01702176221684467 0 -0.0074801129687710978 0.0084593995936923412 0 -0.0062854193003048812 0.010091052439774886 0 -0.0077207599625008956 0.01063911829813436 0 -0.0068604245823073928 0.012956253241700782 0 -0.0067913658751419491 0.013203923588076214 0 -0.0064895451474025045 0.017275773238723997 0 -0.0064725310544014166 0.01702176221684467 0 -0.0065222079056673826 0.017001003535194122 0 -0.0048516574491949379 0.018083858995261791 0 -0.0033108237201158451 0.018352010464879272 0 -0.0064544916869793568 0.017244018916474941 0 -0.0064895451474025045 0.017275773238723997 0 -0.0064725310544014166 0.01702176221684467 0 -0.0034225198419012889 0.018736926937798878 0 -0.0048516574491949379 0.018083858995261791 0 -0.0053367227426414417 0.018097933671868349 0 -0.0048516574491949379 0.018083858995261791 0 -0.0048516574491949379 0.018083858995261791 0 -0.0064251294761272799 0.017511253992301752 0 -0.0064989199361032996 0.017285148118353931 0 -0.006366288784160401 0.017327375463047238 0 -0.0064513067367129749 0.017501414077209034 0 -0.006366288784160401 0.017327375463047238 0 -0.0064513067367129749 0.017501414077209034 0 -0.0063838796782785083 0.017529112478047087 0 -0.0064544916869793568 0.017244018916474941 0 -0.0064989199361032996 0.017285148118353931 0 -0.006366288784160401 0.017327375463047238 0 -0.0064251294761272799 0.017511253992301752 0 -0.0062856829768535632 0.017700582540217447 0 -0.0061641460557470048 0.017868367252575082 0 -0.0060110264954719135 0.017782605944330523 0 -0.0063167571555929336 0.017635517722413709 0 -0.0064513067367129749 0.017501414077209034 0 -0.0063838796782785083 0.017529112478047087 0 -0.0063167571555929336 0.017635517722413709 0 -0.0060553960847553445 0.018002691601503161 0 -0.0061641460557470048 0.017868367252575082 0 -0.0060110264954719135 0.017782605944330523 0 -0.0059121207612997089 0.017843862633422108 0 -0.0060553960847553445 0.018002691601503161 0 -0.0060110264954719135 0.017782605944330523 0 -0.005957082429061962 0.017759616361600585 0 -0.0060110264954719135 0.017782605944330523 0 -0.0060438555241857581 0.017634975666929589 0 -0.0059804298941542166 0.01777172765895748 0 -0.005957082429061962 0.017759616361600585 0 -0.0060438555241857581 0.017634975666929589 0 -0.0063482096293964781 0.017400137357785905 0 -0.0060438555241857581 0.017634975666929589 0 -0.0063167571555929336 0.017635517722413709 0 -0.0060110264954719135 0.017782605944330523 0 -0.0060438555241857581 0.017634975666929589 0 -0.0063167571555929336 0.017635517722413709 0 -0.0063482096293964781 0.017400137357785905 0 -0.0063167571555929336 0.017635517722413709 0 -0.0064702848709081492 0.017489197810831719 0 -0.0063167571555929336 0.017635517722413709 0 -0.0064702848709081492 0.017489197810831719 0 -0.0063976881228637161 0.017602382171586942 0 -0.008552091893834891 0.010902526216822844 0 -0.0077398160201059083 0.012186019701694167 0 -0.0064702848709081492 0.017489197810831719 0 -0.0067338395573781819 0.017450310587678566 0 -0.0063976881228637161 0.017602382171586942 0 -0.010647086607340105 0.0051834001524083918 0 -0.010552597393525017 0.0068556165382604268 0 -0.0090258769912270487 0.0066629616856863976 0 -0.010552597393525017 0.0068556165382604268 0 -0.0090258769912270487 0.0066629616856863976 0 -0.009416821756832422 0.0081915571625996927 0 -0.006366288784160401 0.017327375463047238 0 -0.0063838796782785083 0.017529112478047087 0 -0.0063976881228637161 0.017602382171586942 0 -0.0063838796782785083 0.017529112478047087 0 -0.0063167571555929336 0.017635517722413709 0 -0.0063976881228637161 0.017602382171586942 0 -0.011918477059120311 0.0033939620127154311 0 -0.012766061869359005 0.0047648862814312944 0 -0.011357725464084914 0.0057678037790063327 0 -0.012766061869359005 0.0047648862814312944 0 -0.013427323307684468 0.0058253472528871355 0 -0.014301317642355484 0.0040748054581837383 0 -0.012766061869359005 0.0047648862814312944 0 -0.013427323307684468 0.0058253472528871355 0 -0.011357725464084914 0.0057678037790063327 0 -0.010647086607340105 0.0051834001524083918 0 -0.010552597393525017 0.0068556165382604268 0 -0.011357725464084914 0.0057678037790063327 0 -0.013344622553008846 0.008134534122001524 0 -0.011203884489348732 0.0041693108403607947 0 -0.011331641129242691 0.004853920836968598 0 -0.010647086607340105 0.0051834001524083918 0 -0.011357725464084914 0.0057678037790063327 0 -0.010552597393525017 0.0068556165382604268 0 -0.011357725464084914 0.0057678037790063327 0 -0.012186051614314066 0.007168241504446159 0 -0.013427323307684468 0.0058253472528871355 0 -0.012186051614314066 0.007168241504446159 0 -0.014187522169941772 0.0070673113699816171 0 -0.013427323307684468 0.0058253472528871355 0 -0.011357725464084914 0.0057678037790063327 0 -0.012186051614314066 0.007168241504446159 0 -0.012186051614314066 0.007168241504446159 0 -0.01266894468032796 0.0087978155769633491 0 -0.014187522169941772 0.0070673113699816171 0 -0.012186051614314066 0.007168241504446159 0 -0.010845342774294144 0.0085716972112491966 0 -0.01266894468032796 0.0087978155769633491 0 -0.010552597393525017 0.0068556165382604268 0 -0.012186051614314066 0.007168241504446159 0 -0.010845342774294144 0.0085716972112491966 0 -0.010845342774294144 0.0085716972112491966 0 -0.01266894468032796 0.0087978155769633491 0 -0.010960664915567088 0.01039161448778793 0 -0.01266894468032796 0.0087978155769633491 0 -0.012587304905848661 0.010415033182012839 0 -0.010960664915567088 0.01039161448778793 0 -0.01266894468032796 0.0087978155769633491 0 -0.012587304905848661 0.010415033182012839 0 -0.014651557194174498 0.0099867468006031111 0 -0.0074801129687710978 0.0084593995936923412 0 -0.0090258769912270487 0.0066629616856863976 0 -0.009416821756832422 0.0081915571625996927 0 -0.0068604245823073928 0.012956253241700782 0 -0.0077398160201059083 0.012186019701694167 0 -0.010552597393525017 0.0068556165382604268 0 -0.010845342774294144 0.0085716972112491966 0 -0.009416821756832422 0.0081915571625996927 0 -0.010845342774294144 0.0085716972112491966 0 -0.009416821756832422 0.0081915571625996927 0 -0.0092318141948659494 0.0098259286998720798 0 -0.010845342774294144 0.0085716972112491966 0 -0.0092318141948659494 0.0098259286998720798 0 -0.010960664915567088 0.01039161448778793 0 -0.0074801129687710978 0.0084593995936923412 0 -0.0092318141948659494 0.0098259286998720798 0 -0.0077207599625008956 0.01063911829813436 0 -0.0074801129687710978 0.0084593995936923412 0 -0.009416821756832422 0.0081915571625996927 0 -0.0092318141948659494 0.0098259286998720798 0 -0.0092318141948659494 0.0098259286998720798 0 -0.0097137585604318601 0.012026707308839575 0 -0.0077207599625008956 0.01063911829813436 0 -0.0092318141948659494 0.0098259286998720798 0 -0.0097137585604318601 0.012026707308839575 0 -0.010960664915567088 0.01039161448778793 0 -0.0089892159856704134 0.011910396489085451 0 -0.0077972832487319616 0.011987735436505663 0 -0.0097137585604318601 0.012026707308839575 0 -0.0076876120114584981 0.011962896887821369 0 -0.0077207599625008956 0.01063911829813436 0 -0.012587304905848661 0.010415033182012839 0 -0.011817061627049383 0.011892047031804954 0 -0.01372215540690732 0.0115900338355785 0 -0.013132195571785805 0.010857471826166396 0 -0.012331745337607293 0.011354121514535891 0 -0.012587304905848661 0.010415033182012839 0 -0.010960664915567088 0.01039161448778793 0 -0.011817061627049383 0.011892047031804954 0 -0.008199518637530212 0.011834790238124848 0 -0.0088677860777264597 0.011659678541572715 0 -0.0087134146608011977 0.012071083162849298 0 -0.0089892159856704134 0.011910396489085451 0 -0.01022334988233258 0.011792880646479063 0 -0.0097137585604318601 0.012026707308839575 0 -0.010960664915567088 0.01039161448778793 0 -0.011817061627049383 0.011892047031804954 0 -0.01022334988233258 0.011792880646479063 0 -0.012331745337607293 0.011354121514535891 0 -0.0088677860777264597 0.011659678541572715 0 -0.0091078858016587477 0.012109066627579925 0 -0.0097145789168338326 0.011469410646024939 0 -0.0088677860777264597 0.011659678541572715 0 -0.0091078858016587477 0.012109066627579925 0 -0.0087134146608011977 0.012071083162849298 0 -0.0091078858016587477 0.012109066627579925 0 -0.0090092832920092899 0.012458040276830678 0 -0.0093956811358456294 0.012527442510931949 0 -0.0091380839275270517 0.012154452491619975 0 -0.0095025767053069712 0.012646141332794011 0 -0.0091078858016587477 0.012109066627579925 0 -0.0087134146608011977 0.012071083162849298 0 -0.0090092832920092899 0.012458040276830678 0 -0.008199518637530212 0.011834790238124848 0 -0.0085109217434508454 0.012417390400777098 0 -0.0087134146608011977 0.012071083162849298 0 -0.0085109217434508454 0.012417390400777098 0 -0.0087134146608011977 0.012071083162849298 0 -0.0090092832920092899 0.012458040276830678 0 -0.0085109217434508454 0.012417390400777098 0 -0.0082383335308938172 0.012867350653437828 0 -0.0089177932840041468 0.012835980861110364 0 -0.0085109217434508454 0.012417390400777098 0 -0.0090092832920092899 0.012458040276830678 0 -0.0089177932840041468 0.012835980861110364 0 -0.0093956811358456294 0.012527442510931949 0 -0.0089177932840041468 0.012835980861110364 0 -0.0094074230309891677 0.012825305371564207 0 -0.0090092832920092899 0.012458040276830678 0 -0.0093956811358456294 0.012527442510931949 0 -0.0089177932840041468 0.012835980861110364 0 -0.008199518637530212 0.011834790238124848 0 -0.0076876120114584981 0.011962896887821369 0 -0.0078137303305260003 0.01244995970831422 0 -0.0076876120114584981 0.011962896887821369 0 -0.0078137303305260003 0.01244995970831422 0 -0.0069873581816958059 0.012413122690458207 0 -0.008199518637530212 0.011834790238124848 0 -0.0085109217434508454 0.012417390400777098 0 -0.0078137303305260003 0.01244995970831422 0 -0.0085109217434508454 0.012417390400777098 0 -0.0082383335308938172 0.012867350653437828 0 -0.0078137303305260003 0.01244995970831422 0 -0.0082383335308938172 0.012867350653437828 0 -0.0078137303305260003 0.01244995970831422 0 -0.0076597859171564009 0.013014440461942106 0 -0.0078137303305260003 0.01244995970831422 0 -0.0070913878911416268 0.01286522115681837 0 -0.0076597859171564009 0.013014440461942106 0 -0.0078137303305260003 0.01244995970831422 0 -0.0070913878911416268 0.01286522115681837 0 -0.0069873581816958059 0.012413122690458207 0 -0.0070913878911416268 0.01286522115681837 0 -0.0069873581816958059 0.012413122690458207 0 -0.0062775261988124277 0.012833365206826675 0 -0.0076876120114584981 0.011962896887821369 0 -0.0069873581816958059 0.012413122690458207 0 -0.006665997092210176 0.01201036453694109 0 -0.0069873581816958059 0.012413122690458207 0 -0.006665997092210176 0.01201036453694109 0 -0.0061013975990374617 0.012300619815503342 0 -0.0060346050384676754 0.011821649469970028 0 -0.006665997092210176 0.01201036453694109 0 -0.0061013975990374617 0.012300619815503342 0 -0.0069873581816958059 0.012413122690458207 0 -0.0061013975990374617 0.012300619815503342 0 -0.0062775261988124277 0.012833365206826675 0 -0.0070913878911416268 0.01286522115681837 0 -0.0062775261988124277 0.012833365206826675 0 -0.0065732102541203891 0.013184021311299398 0 -0.0061013975990374617 0.012300619815503342 0 -0.0062775261988124277 0.012833365206826675 0 -0.0056043981821952667 0.012543982103162449 0 -0.0062775261988124277 0.012833365206826675 0 -0.0055099764776711255 0.013093322549588286 0 -0.0056043981821952667 0.012543982103162449 0 -0.0055099764776711255 0.013093322549588286 0 -0.0052574589832417428 0.01269130648910286 0 -0.0049340004617230288 0.013148974266305425 0 -0.0055099764776711255 0.013093322549588286 0 -0.0052574589832417428 0.01269130648910286 0 -0.0056043981821952667 0.012543982103162449 0 -0.0052574589832417428 0.01269130648910286 0 -0.0056043981821952667 0.012543982103162449 0 -0.005304337133627361 0.012396405203069592 0 -0.0041384273520225093 0.013858720726070799 0 -0.0039320793961205736 0.013526612586063488 0 -0.004250619693336081 0.01372288852248991 0 -0.0037796716982144572 0.014791881372285241 0 -0.0027909380865872831 0.015260051031041503 0 -0.004250619693336081 0.01372288852248991 0 -0.0049340004617230288 0.013148974266305425 0 -0.0049194640636138981 0.0123754445337759 0 -0.0052574589832417428 0.01269130648910286 0 -0.0049194640636138981 0.0123754445337759 0 -0.005304337133627361 0.012396405203069592 0 -0.0052574589832417428 0.01269130648910286 0 -0.0049340004617230288 0.013148974266305425 0 -0.0049194640636138981 0.0123754445337759 0 -0.0037796716982144572 0.014791881372285241 0 -0.0031120497351966726 0.015393293271283368 0 -0.0027909380865872831 0.015260051031041503 0 -0.0021317652640145449 0.01620156660170714 0 -0.0039827341687916499 0.015360158280609153 0 -0.0035723668137115127 0.01609029941191039 0 -0.0031120497351966726 0.015393293271283368 0 -0.0028629533784009769 0.016937337807212544 0 -0.0031120497351966726 0.015393293271283368 0 -0.0027909380865872831 0.015260051031041503 0 -0.0022271037885066326 0.016390908967775418 0 -0.0039320793961205736 0.013526612586063488 0 -0.0039827341687916499 0.015360158280609153 0 -0.0049194640636138981 0.0123754445337759 0 -0.0054336751158482717 0.0119875348188913 0 -0.0054597908228994395 0.011346578273316914 0 -0.0061013975990374617 0.012300619815503342 0 -0.0056043981821952667 0.012543982103162449 0 -0.0054336751158482717 0.0119875348188913 0 -0.0056043981821952667 0.012543982103162449 0 -0.005304337133627361 0.012396405203069592 0 -0.0054336751158482717 0.0119875348188913 0 -0.0049194640636138981 0.0123754445337759 0 -0.005304337133627361 0.012396405203069592 0 -0.0054336751158482717 0.0119875348188913 0 -0.0060346050384676754 0.011821649469970028 0 -0.0061013975990374617 0.012300619815503342 0 -0.0054336751158482717 0.0119875348188913 0 -0.0060346050384676754 0.011821649469970028 0 -0.0054336751158482717 0.0119875348188913 0 -0.0054597908228994395 0.011346578273316914 0 -0.0011445917611176575 0.017371230825133893 0 -0.0020901822288126493 0.017693240447054854 0 -0.001412350472886968 0.018528270980036139 0 -0.0011445917611176575 0.017371230825133893 0 -0.0028629533784009769 0.016937337807212544 0 -0.0020901822288126493 0.017693240447054854 0 -0.0031120497351966726 0.015393293271283368 0 -0.0011445917611176575 0.017371230825133893 0 -0.0028629533784009769 0.016937337807212544 0 -0.0028629533784009769 0.016937337807212544 0 -0.0020901822288126493 0.017693240447054854 0 -0.003092677446607235 0.017931697682812546 0 -0.0034116704161884777 0.018931454764178152 0 -0.003092677446607235 0.017931697682812546 0 -0.001412350472886968 0.018528270980036139 0 -0.0020901822288126493 0.017693240447054854 0 -0.003092677446607235 0.017931697682812546 0 -0.001412350472886968 0.018528270980036139 0 -0.0024782211714889264 0.018948698108696163 0 -0.0015011586430665647 0.018575029808137192 0 -0.0011445917611176575 0.017371230825133893 0 -0.001412350472886968 0.018528270980036139 0 -0.00063286963397476048 0.018883309331975916 0 -0.0039827341687916499 0.015360158280609153 0 -0.0033108237201158451 0.018352010464879272 0 -0.0054597908228994395 0.011346578273316914 0 -0.0062854193003048812 0.010091052439774886 0 -0.0065544527258081129 0.0113447409580696 0 -0.0039827341687916499 0.015360158280609153 0 -0.0067913658751419491 0.013203923588076214 0 -0.006523452800175987 0.016750370250293432 0 -0.0064725310544014166 0.01702176221684467 0 -0.0065222079056673826 0.017001003535194122 0 -0.0062854193003048812 0.010091052439774886 0 -0.0077207599625008956 0.01063911829813436 0 -0.0065544527258081129 0.0113447409580696 0 -0.0076876120114584981 0.011962896887821369 0 -0.0077207599625008956 0.01063911829813436 0 -0.0065544527258081129 0.0113447409580696 0 -0.0076876120114584981 0.011962896887821369 0 -0.006665997092210176 0.01201036453694109 0 -0.0065544527258081129 0.0113447409580696 0 -0.0060346050384676754 0.011821649469970028 0 -0.0054597908228994395 0.011346578273316914 0 -0.0065544527258081129 0.0113447409580696 0 -0.0060346050384676754 0.011821649469970028 0 -0.006665997092210176 0.01201036453694109 0 -0.0065544527258081129 0.0113447409580696 0 -0.021352786844155681 0.010558199336341991 0 -0.020519379211203215 0.010972447820655073 0 -0.020238806346919151 0.01019187738213621 0 -0.021352786844155681 0.010558199336341991 0 -0.020519379211203215 0.010972447820655073 0 -0.021377354289865418 0.011592395826482048 0 -0.021352786844155681 0.010558199336341991 0 -0.022378830984929855 0.011032999452900481 0 -0.021377354289865418 0.011592395826482048 0 -0.019541171256438505 0.010901076895785898 0 -0.020238806346919151 0.01019187738213621 0 -0.018944579358743569 0.010291129366182124 0 -0.020519379211203215 0.010972447820655073 0 -0.019541171256438505 0.010901076895785898 0 -0.020045658074602839 0.011638169586816514 0 -0.020519379211203215 0.010972447820655073 0 -0.019541171256438505 0.010901076895785898 0 -0.020238806346919151 0.01019187738213621 0 -0.020238806346919151 0.01019187738213621 0 -0.021184064928118793 0.0092717662220292429 0 -0.020016314641240613 0.009322081123594254 0 -0.020238806346919151 0.01019187738213621 0 -0.01906119095294271 0.0095840414190594969 0 -0.020016314641240613 0.009322081123594254 0 -0.021352786844155681 0.010558199336341991 0 -0.022252866369751621 0.010096679100123037 0 -0.021184064928118793 0.0092717662220292429 0 -0.021352786844155681 0.010558199336341991 0 -0.020238806346919151 0.01019187738213621 0 -0.021184064928118793 0.0092717662220292429 0 -0.022252866369751621 0.010096679100123037 0 -0.021184064928118793 0.0092717662220292429 0 -0.022736007537055777 0.0092287266782179155 0 -0.023302224225008304 0.010140420009638671 0 -0.022736007537055777 0.0092287266782179155 0 -0.023816149422885312 0.0093422911987207959 0 -0.022252866369751621 0.010096679100123037 0 -0.023302224225008304 0.010140420009638671 0 -0.022736007537055777 0.0092287266782179155 0 -0.022252866369751621 0.010096679100123037 0 -0.023302224225008304 0.010140420009638671 0 -0.022378830984929855 0.011032999452900481 0 -0.023302224225008304 0.010140420009638671 0 -0.023461577558874489 0.01116525020473012 0 -0.022378830984929855 0.011032999452900481 0 -0.021352786844155681 0.010558199336341991 0 -0.022252866369751621 0.010096679100123037 0 -0.022378830984929855 0.011032999452900481 0 -0.022378830984929855 0.011032999452900481 0 -0.022338016980308042 0.012013984070895814 0 -0.021377354289865418 0.011592395826482048 0 -0.0228837254362926 0.011557834957840612 0 -0.022338016980308042 0.012013984070895814 0 -0.022753912297011906 0.011982453241324874 0 -0.023148626908331256 0.011435277609437041 0 -0.022399434213556405 0.011952648784767836 0 -0.023461577558874489 0.01116525020473012 0 -0.022378830984929855 0.011032999452900481 0 -0.022338016980308042 0.012013984070895814 0 -0.022338016980308042 0.012013984070895814 0 -0.022753912297011906 0.011982453241324874 0 -0.022675537761537946 0.012313311245560538 0 -0.022753912297011906 0.011982453241324874 0 -0.022675537761537946 0.012313311245560538 0 -0.023128520959925267 0.012029936569944553 0 -0.022338016980308042 0.012013984070895814 0 -0.022264912459862569 0.012391431753772542 0 -0.021765180775824525 0.012458789994555788 0 -0.022338016980308042 0.012013984070895814 0 -0.022675537761537946 0.012313311245560538 0 -0.022264912459862569 0.012391431753772542 0 -0.021765180775824525 0.012458789994555788 0 -0.020574130975120522 0.012314395770210304 0 -0.020864035793016471 0.013081370687046397 0 -0.021765180775824525 0.012458789994555788 0 -0.021377354289865418 0.011592395826482048 0 -0.020574130975120522 0.012314395770210304 0 -0.022338016980308042 0.012013984070895814 0 -0.021765180775824525 0.012458789994555788 0 -0.021377354289865418 0.011592395826482048 0 -0.021377354289865418 0.011592395826482048 0 -0.020045658074602839 0.011638169586816514 0 -0.020574130975120522 0.012314395770210304 0 -0.020519379211203215 0.010972447820655073 0 -0.021377354289865418 0.011592395826482048 0 -0.020045658074602839 0.011638169586816514 0 -0.020045658074602839 0.011638169586816514 0 -0.020574130975120522 0.012314395770210304 0 -0.019556578269821122 0.012125287634570239 0 -0.020574130975120522 0.012314395770210304 0 -0.019812372077352997 0.013107544156774628 0 -0.019556578269821122 0.012125287634570239 0 -0.020574130975120522 0.012314395770210304 0 -0.020864035793016471 0.013081370687046397 0 -0.019812372077352997 0.013107544156774628 0 -0.019812372077352997 0.013107544156774628 0 -0.018394097683207905 0.012077330512600324 0 -0.019556578269821122 0.012125287634570239 0 -0.017902493229010729 0.012043281180486419 0 -0.017372204254580068 0.011936336373385379 0 -0.017481997992206167 0.011600262212142786 0 -0.017902493229010729 0.012043281180486419 0 -0.017372204254580068 0.011936336373385379 0 -0.0178160168206381 0.012384991232958241 0 -0.018644036379893633 0.012634246650236615 0 -0.017954723558720166 0.011808610735132759 0 -0.01020605005884179 0.013142446418098157 0 -0.010263576806791032 0.013113618638067244 0 -0.010222054376451352 0.013069002998874472 0 -0.01020605005884179 0.013142446418098157 0 -0.010263576806791032 0.013113618638067244 0 -0.010270556720148821 0.013154914354158057 0 -0.014085945256536492 0.012667053952814221 0 -0.012618605813964708 0.012110702837822758 0 -0.017954723558720166 0.011808610735132759 0 -0.017040454486051876 0.010978461604505689 0 -0.017372204254580068 0.011936336373385379 0 -0.017481997992206167 0.011600262212142786 0 -0.016819672553484585 0.011409337310229965 0 -0.01020605005884179 0.013142446418098157 0 -0.010270556720148821 0.013154914354158057 0 -0.010309244347114671 0.013210620238705761 0 -0.017481997992206167 0.011600262212142786 0 -0.016819672553484585 0.011409337310229965 0 -0.017009658386830957 0.01093041496251183 0 -0.018394097683207905 0.012077330512600324 0 -0.018994490150575815 0.011475901851877263 0 -0.019556578269821122 0.012125287634570239 0 -0.018394097683207905 0.012077330512600324 0 -0.018994490150575815 0.011475901851877263 0 -0.018098931110690414 0.011191332423955151 0 -0.020045658074602839 0.011638169586816514 0 -0.018994490150575815 0.011475901851877263 0 -0.019556578269821122 0.012125287634570239 0 -0.0096170532644467149 0.012767787441220967 0 -0.010253939024232389 0.012766128811660189 0 -0.010114532293991412 0.013402985650407515 0 -0.0096170532644467149 0.012767787441220967 0 -0.010253939024232389 0.012766128811660189 0 -0.010005656577272377 0.012450558103155537 0 -0.0095025767053069712 0.012646141332794011 0 -0.0099461651406385129 0.013055507449772944 0 -0.0093956811358456294 0.012527442510931949 0 -0.0094074230309891677 0.012825305371564207 0 -0.0096890100176400366 0.012899433186958914 0 -0.01026932498351851 0.013143691229136941 0 -0.0099461651406385129 0.013055507449772944 0 -0.010302769267256807 0.013150639735897756 0 -0.010263576806791032 0.013113618638067244 0 -0.010309268429892335 0.013080928921595064 0 -0.010302769267256807 0.013150639735897756 0 -0.010263576806791032 0.013113618638067244 0 -0.010270556720148821 0.013154914354158057 0 -0.010253939024232389 0.012766128811660189 0 -0.01039749239874198 0.012123286554078547 0 -0.010005656577272377 0.012450558103155537 0 -0.01026932498351851 0.013143691229136941 0 -0.012618605813964708 0.012110702837822758 0 -0.010302769267256807 0.013150639735897756 0 -0.010270556720148821 0.013154914354158057 0 -0.010309244347114671 0.013210620238705761 0 -0.01039749239874198 0.012123286554078547 0 -0.010005656577272377 0.012450558103155537 0 -0.0097549339024625252 0.012143620881729839 0 -0.0091078858016587477 0.012109066627579925 0 -0.0096170532644467149 0.012767787441220967 0 -0.0097549339024625252 0.012143620881729839 0 -0.0096170532644467149 0.012767787441220967 0 -0.010005656577272377 0.012450558103155537 0 -0.0097549339024625252 0.012143620881729839 0 -0.01039749239874198 0.012123286554078547 0 -0.0097549339024625252 0.012143620881729839 0 -0.0097145789168338326 0.011469410646024939 0 -0.012618605813964708 0.012110702837822758 0 -0.012331745337607293 0.011354121514535891 0 -0.0091078858016587477 0.012109066627579925 0 -0.0097549339024625252 0.012143620881729839 0 -0.0097145789168338326 0.011469410646024939 0 -0.013896535748166678 0.012201670804669561 0 -0.012754089203503483 0.0110608385466729 0 -0.014209960405253196 0.010811760707738679 0 -0.016819672553484585 0.011409337310229965 0 -0.017009658386830957 0.01093041496251183 0 -0.017072364283588437 0.010478860170664144 0 -0.012331745337607293 0.011354121514535891 0 -0.015963048112413319 0.010663345644676811 0 -0.012618605813964708 0.012110702837822758 0 -0.015963048112413319 0.010663345644676811 0 -0.017009658386830957 0.01093041496251183 0 -0.017072364283588437 0.010478860170664144 0 -0.017700294904491293 0.010707472928046318 0 -0.016373179427100336 0.011650412191711045 0 -0.017027269482374447 0.0088436247090688258 0 -0.014651557194174498 0.0099867468006031111 0 -0.015963048112413319 0.010663345644676811 0 -0.017214394862348367 0.0090678377133244017 0 -0.012587304905848661 0.010415033182012839 0 -0.0140987953431036 0.012003697637258899 0 -0.014651557194174498 0.0099867468006031111 0 -0.0140987953431036 0.012003697637258899 0 -0.016373179427100336 0.011650412191711045 0 -0.014651557194174498 0.0099867468006031111 0 -0.019541171256438505 0.010901076895785898 0 -0.018434024421867624 0.010783712019323481 0 -0.018944579358743569 0.010291129366182124 0 -0.019541171256438505 0.010901076895785898 0 -0.018994490150575815 0.011475901851877263 0 -0.018434024421867624 0.010783712019323481 0 -0.019541171256438505 0.010901076895785898 0 -0.020045658074602839 0.011638169586816514 0 -0.018994490150575815 0.011475901851877263 0 -0.018994490150575815 0.011475901851877263 0 -0.018434024421867624 0.010783712019323481 0 -0.018098931110690414 0.011191332423955151 0 -0.018394097683207905 0.012077330512600324 0 -0.017009658386830957 0.01093041496251183 0 -0.018098931110690414 0.011191332423955151 0 -0.017009658386830957 0.01093041496251183 0 -0.018098931110690414 0.011191332423955151 0 -0.017700294904491293 0.010707472928046318 0 -0.018434024421867624 0.010783712019323481 0 -0.018098931110690414 0.011191332423955151 0 -0.017700294904491293 0.010707472928046318 0 -0.017072364283588437 0.010478860170664144 0 -0.017931885178801895 0.0099193011962915526 0 -0.017027269482374447 0.0088436247090688258 0 -0.018434024421867624 0.010783712019323481 0 -0.017700294904491293 0.010707472928046318 0 -0.017931885178801895 0.0099193011962915526 0 -0.017072364283588437 0.010478860170664144 0 -0.017700294904491293 0.010707472928046318 0 -0.017931885178801895 0.0099193011962915526 0 -0.020238806346919151 0.01019187738213621 0 -0.018944579358743569 0.010291129366182124 0 -0.01906119095294271 0.0095840414190594969 0 -0.017931885178801895 0.0099193011962915526 0 -0.018944579358743569 0.010291129366182124 0 -0.01906119095294271 0.0095840414190594969 0 -0.018434024421867624 0.010783712019323481 0 -0.017931885178801895 0.0099193011962915526 0 -0.018944579358743569 0.010291129366182124 0 -0.01906119095294271 0.0095840414190594969 0 -0.018820913413585414 0.0085575279248471161 0 -0.020016314641240613 0.009322081123594254 0 -0.017931885178801895 0.0099193011962915526 0 -0.01906119095294271 0.0095840414190594969 0 -0.018820913413585414 0.0085575279248471161 0 -0.017931885178801895 0.0099193011962915526 0 -0.018820913413585414 0.0085575279248471161 0 -0.017027269482374447 0.0088436247090688258 0 -0.018820913413585414 0.0085575279248471161 0 -0.017027269482374447 0.0088436247090688258 0 -0.018200567960864337 0.0073961533367778338 0 -0.017027269482374447 0.0088436247090688258 0 -0.018200567960864337 0.0073961533367778338 0 -0.016221120908214075 0.0068545406952593606 0 -0.018820913413585414 0.0085575279248471161 0 -0.018200567960864337 0.0073961533367778338 0 -0.019661038399627496 0.0072001387157505804 0 -0.01266894468032796 0.0087978155769633491 0 -0.014651557194174498 0.0099867468006031111 0 -0.015357329813345781 0.0083244392278176444 0 -0.017027269482374447 0.0088436247090688258 0 -0.014651557194174498 0.0099867468006031111 0 -0.015357329813345781 0.0083244392278176444 0 -0.017027269482374447 0.0088436247090688258 0 -0.015357329813345781 0.0083244392278176444 0 -0.016221120908214075 0.0068545406952593606 0 -0.015357329813345781 0.0083244392278176444 0 -0.014187522169941772 0.0070673113699816171 0 -0.016221120908214075 0.0068545406952593606 0 -0.01266894468032796 0.0087978155769633491 0 -0.015357329813345781 0.0083244392278176444 0 -0.014187522169941772 0.0070673113699816171 0 -0.013427323307684468 0.0058253472528871355 0 -0.014187522169941772 0.0070673113699816171 0 -0.015119478103074083 0.0056219121619678339 0 -0.014187522169941772 0.0070673113699816171 0 -0.016221120908214075 0.0068545406952593606 0 -0.015119478103074083 0.0056219121619678339 0 -0.016221120908214075 0.0068545406952593606 0 -0.015119478103074083 0.0056219121619678339 0 -0.016594411462857131 0.0047620751709646688 0 -0.015119478103074083 0.0056219121619678339 0 -0.016594411462857131 0.0047620751709646688 0 -0.014301317642355484 0.0040748054581837383 0 -0.013427323307684468 0.0058253472528871355 0 -0.015119478103074083 0.0056219121619678339 0 -0.014301317642355484 0.0040748054581837383 0 -0.018200567960864337 0.0073961533367778338 0 -0.018760886812155538 0.0054818956715926943 0 -0.019661038399627496 0.0072001387157505804 0 -0.018200567960864337 0.0073961533367778338 0 -0.016221120908214075 0.0068545406952593606 0 -0.018760886812155538 0.0054818956715926943 0 -0.014523208462150258 0.01603973740981204 0 -0.015158658876415336 0.016380249626935562 0 -0.014780834981162909 0.015810483474287124 0 -0.015554621795298512 0.010383994144913323 0 -0.017013053021928459 0.010940911119143464 0 -0.016221120908214075 0.0068545406952593606 0 -0.016594411462857131 0.0047620751709646688 0 -0.018760886812155538 0.0054818956715926943 0 -0.015974685916143386 0.016564208553471484 0 -0.016092291144252518 0.016038184959579274 0 -0.01573946798270202 0.01594284892038212 0 -0.015158658876415336 0.016380249626935562 0 -0.015974685916143386 0.016564208553471484 0 -0.015285261816181415 0.015815054757408385 0 -0.015158658876415336 0.016380249626935562 0 -0.015974685916143386 0.016564208553471484 0 -0.016225220268743634 0.0166772771892379 0 -0.017013053021928459 0.010940911119143464 0 -0.018156828258224358 0.011396916209013949 0 -0.015941047718000499 0.016569748206633067 0 -0.01557359543717966 0.015823485185611108 0 -0.015974685916143386 0.016564208553471484 0 -0.016238925524888471 0.016382565134406876 0 -0.016092291144252518 0.016038184959579274 0 -0.015974685916143386 0.016564208553471484 0 -0.016238925524888471 0.016382565134406876 0 -0.016225220268743634 0.0166772771892379 0 -0.016579752084151758 0.016236233903621 0 -0.016542628760552642 0.016456333399528476 0 -0.016827675454688912 0.016251869455762725 0 -0.016579752084151758 0.016236233903621 0 -0.016378645056528283 0.01623322877840868 0 -0.016542628760552642 0.016456333399528476 0 -0.016378645056528283 0.01623322877840868 0 -0.016238925524888471 0.016382565134406876 0 -0.016092291144252518 0.016038184959579274 0 -0.016378645056528283 0.01623322877840868 0 -0.016238925524888471 0.016382565134406876 0 -0.016542628760552642 0.016456333399528476 0 -0.016238925524888471 0.016382565134406876 0 -0.016542628760552642 0.016456333399528476 0 -0.016225220268743634 0.0166772771892379 0 -0.020618194249565781 0.0062036691909013912 0 -0.021067606047074965 0.0075728132919565243 0 -0.022361273674103552 0.0068089916099515124 0 -0.016542628760552642 0.016456333399528476 0 -0.016225220268743634 0.0166772771892379 0 -0.017022590680692746 0.016862147034114965 0 -0.018156828258224358 0.011396916209013949 0 -0.020889783548152324 0.011816340802325923 0 -0.018760886812155538 0.0054818956715926943 0 -0.020618194249565781 0.0062036691909013912 0 -0.019661038399627496 0.0072001387157505804 0 -0.020618194249565781 0.0062036691909013912 0 -0.019661038399627496 0.0072001387157505804 0 -0.021067606047074965 0.0075728132919565243 0 -0.019661038399627496 0.0072001387157505804 0 -0.020058787830266427 0.0083813964317886198 0 -0.021067606047074965 0.0075728132919565243 0 -0.018820913413585414 0.0085575279248471161 0 -0.019661038399627496 0.0072001387157505804 0 -0.020058787830266427 0.0083813964317886198 0 -0.021067606047074965 0.0075728132919565243 0 -0.021184064928118793 0.0092717662220292429 0 -0.022174601416512001 0.0083796864403237799 0 -0.020058787830266427 0.0083813964317886198 0 -0.021067606047074965 0.0075728132919565243 0 -0.021184064928118793 0.0092717662220292429 0 -0.018820913413585414 0.0085575279248471161 0 -0.020058787830266427 0.0083813964317886198 0 -0.020016314641240613 0.009322081123594254 0 -0.020058787830266427 0.0083813964317886198 0 -0.021184064928118793 0.0092717662220292429 0 -0.020016314641240613 0.009322081123594254 0 -0.022736007537055777 0.0092287266782179155 0 -0.023060283831646013 0.0083951281231127942 0 -0.023816149422885312 0.0093422911987207959 0 -0.022736007537055777 0.0092287266782179155 0 -0.022174601416512001 0.0083796864403237799 0 -0.023060283831646013 0.0083951281231127942 0 -0.021184064928118793 0.0092717662220292429 0 -0.022736007537055777 0.0092287266782179155 0 -0.022174601416512001 0.0083796864403237799 0 -0.021067606047074965 0.0075728132919565243 0 -0.022174601416512001 0.0083796864403237799 0 -0.022361273674103552 0.0068089916099515124 0 -0.022485349334892372 0.0064293702634739876 0 -0.020889783548152324 0.011816340802325923 0 -0.022174601416512001 0.0083796864403237799 0 -0.023060283831646013 0.0083951281231127942 0 -0.022295714972591651 0.007314179535188578 0 -0.023060283831646013 0.0083951281231127942 0 -0.02344622492758883 0.007643369688538325 0 -0.022295714972591651 0.007314179535188578 0 -0.023254773448247626 0.01519942190712986 0 -0.023249128755331694 0.01524224105031572 0 -0.023315944046064845 0.015212967359967734 0 -0.023546748687929112 0.011200942405381442 0 -0.020889783548152324 0.011816340802325923 0 -0.020889783548152324 0.011816340802325923 0 -0.022750194174913363 0.018312919847823211 0 -0.016542628760552642 0.016456333399528476 0 -0.017022590680692746 0.016862147034114965 0 -0.016827675454688912 0.016251869455762725 0 -0.017022590680692746 0.016862147034114965 0 -0.017058281171431162 0.016241822487444012 0 -0.016827675454688912 0.016251869455762725 0 -0.023249128755331694 0.01524224105031572 0 -0.023315944046064845 0.015212967359967734 0 -0.023311607567411283 0.015340040267686284 0 -0.025168074896767728 0.019988629114252834 0 -0.025052535570730682 0.020081928760399163 0 -0.025102107461456101 0.020067878692044232 0 -0.024542724540758964 0.017948619867770074 0 -0.022750194174913363 0.018312919847823211 0 -0.025052535570730682 0.020081928760399163 0 -0.025052902738103355 0.020076902716544852 0 -0.024963451270815701 0.020051792244867212 0 -0.025052902738103355 0.020076902716544852 0 -0.025065990787989632 0.020041829980071573 0 -0.025107133460128512 0.020090140759639365 0 -0.025102107461456101 0.020067878692044232 0 -0.025052902738103355 0.020076902716544852 0 -0.025107133460128512 0.020090140759639365 0 -0.025052535570730682 0.020081928760399163 0 -0.025102107461456101 0.020067878692044232 0 -0.025052902738103355 0.020076902716544852 0 -0.025065990787989632 0.020041829980071573 0 -0.024963451270815701 0.020051792244867212 0 -0.024836822555987952 0.019859988297792407 0 -0.025052902738103355 0.020076902716544852 0 -0.025065990787989632 0.020041829980071573 0 -0.024963451270815701 0.020051792244867212 0 -0.024678175155777717 0.020115656176638137 0 -0.024836822555987952 0.019859988297792407 0 -0.024611187810946157 0.019923060475930544 0 -0.024896056236075666 0.020395437803160062 0 -0.024839606500114547 0.019742414760588467 0 -0.024678175155777717 0.020115656176638137 0 -0.024488185457251455 0.020059416732847779 0 -0.024611187810946157 0.019923060475930544 0 -0.024678175155777717 0.020115656176638137 0 -0.024537074250510677 0.020194068562870388 0 -0.024488185457251455 0.020059416732847779 0 -0.022750194174913363 0.018312919847823211 0 -0.024896056236075666 0.020395437803160062 0 -0.024605091575611981 0.02024382364816207 0 -0.024678175155777717 0.020115656176638137 0 -0.024537074250510677 0.020194068562870388 0 -0.017058281171431162 0.016241822487444012 0 -0.016827675454688912 0.016251869455762725 0 -0.016774714640209656 0.016031033198167885 0 -0.016579752084151758 0.016236233903621 0 -0.016827675454688912 0.016251869455762725 0 -0.016718082045647991 0.015995181036765425 0 -0.022750194174913363 0.018312919847823211 0 -0.018910599198779486 0.018359216341586458 0 -0.017445232768893929 0.015919416973115528 0 -0.018910599198779486 0.018359216341586458 0 -0.016718082045647991 0.015995181036765425 0 -0.01637615937811783 0.016013648956318575 0 -0.016125528521472997 0.015599486993531669 0 -0.016579752084151758 0.016236233903621 0 -0.016718082045647991 0.015995181036765425 0 -0.01637615937811783 0.016013648956318575 0 -0.016579752084151758 0.016236233903621 0 -0.016378645056528283 0.01623322877840868 0 -0.01637615937811783 0.016013648956318575 0 -0.01637615937811783 0.016013648956318575 0 -0.016092291144252518 0.016038184959579274 0 -0.016125528521472997 0.015599486993531669 0 -0.018910599198779486 0.018359216341586458 0 -0.016673558570291784 0.016970386200257724 0 -0.018910599198779486 0.018359216341586458 0 -0.021397251430530589 0.019924542315283771 0 -0.016378645056528283 0.01623322877840868 0 -0.01637615937811783 0.016013648956318575 0 -0.016092291144252518 0.016038184959579274 0 -0.016092291144252518 0.016038184959579274 0 -0.01573946798270202 0.01594284892038212 0 -0.015750081240474521 0.015561701413500165 0 -0.016125528521472997 0.015599486993531669 0 -0.015750081240474521 0.015561701413500165 0 -0.015630550382044237 0.01524585868402467 0 -0.016092291144252518 0.016038184959579274 0 -0.016125528521472997 0.015599486993531669 0 -0.015750081240474521 0.015561701413500165 0 -0.016673558570291784 0.016970386200257724 0 -0.013555868042828143 0.019697001501889702 0 -0.018431125219895161 0.020194791453098139 0 -0.01723164797384534 0.01922371449913899 0 -0.01814713395392958 0.019202759380943728 0 -0.021397251430530589 0.019924542315283771 0 -0.019877157097038047 0.019911362150029952 0 -0.01723164797384534 0.01922371449913899 0 -0.01814713395392958 0.019202759380943728 0 -0.017875621949939011 0.018175357810178608 0 -0.024488185457251455 0.020059416732847779 0 -0.024367541587630798 0.019790967923109443 0 -0.024611187810946157 0.019923060475930544 0 -0.01723164797384534 0.01922371449913899 0 -0.017875621949939011 0.018175357810178608 0 -0.015996251663735021 0.018207019636007449 0 -0.019877157097038047 0.019911362150029952 0 -0.013555868042828143 0.019697001501889702 0 -0.016085904284573002 0.022111016345101146 0 -0.015457855897098659 0.021761471522417333 0 -0.015049677471684259 0.022124031824593313 0 -0.01284970814543308 0.025158150386116671 0 -0.013555868042828143 0.019697001501889702 0 -0.011581630397049793 0.027486523553181458 0 -0.012468291604575341 0.026767619350446557 0 -0.011468145115723867 0.026117518308964856 0 -0.011581630397049793 0.027486523553181458 0 -0.010675905054939646 0.027023673593792465 0 -0.011468145115723867 0.026117518308964856 0 -0.01284970814543308 0.025158150386116671 0 -0.01545372384543198 0.023369619752619652 0 -0.019877157097038047 0.019911362150029952 0 -0.01545372384543198 0.023369619752619652 0 -0.021662735187549031 0.020480068001218252 0 -0.021314623696875926 0.019246470208574701 0 -0.02184711690198568 0.019572516447154954 0 -0.016085904284573002 0.022111016345101146 0 -0.015457855897098659 0.021761471522417333 0 -0.015871131104877961 0.02140939193916723 0 -0.021662735187549031 0.020480068001218252 0 -0.02205516193399765 0.019984992658303689 0 -0.02184711690198568 0.019572516447154954 0 -0.021314623696875926 0.019246470208574701 0 -0.02184711690198568 0.019572516447154954 0 -0.022092167275152175 0.0191548881193223 0 -0.022092167275152175 0.0191548881193223 0 -0.022420800112096101 0.019581028535255989 0 -0.022636643987915296 0.019087024518950068 0 -0.02184711690198568 0.019572516447154954 0 -0.022092167275152175 0.0191548881193223 0 -0.022420800112096101 0.019581028535255989 0 -0.02205516193399765 0.019984992658303689 0 -0.022420800112096101 0.019581028535255989 0 -0.022561264260751775 0.020094590103390691 0 -0.02205516193399765 0.019984992658303689 0 -0.02184711690198568 0.019572516447154954 0 -0.022420800112096101 0.019581028535255989 0 -0.022420800112096101 0.019581028535255989 0 -0.022790208871041398 0.019825811478249158 0 -0.022561264260751775 0.020094590103390691 0 -0.022974522819042213 0.020001503665003067 0 -0.022790208871041398 0.019825811478249158 0 -0.023068465389675507 0.019722436241654668 0 -0.022974522819042213 0.020001503665003067 0 -0.022790208871041398 0.019825811478249158 0 -0.022561264260751775 0.020094590103390691 0 -0.022420800112096101 0.019581028535255989 0 -0.022790208871041398 0.019825811478249158 0 -0.022795828757177797 0.019504273927267828 0 -0.022790208871041398 0.019825811478249158 0 -0.022795828757177797 0.019504273927267828 0 -0.023068465389675507 0.019722436241654668 0 -0.022795828757177797 0.019504273927267828 0 -0.023062038930797432 0.019308605076807622 0 -0.023068465389675507 0.019722436241654668 0 -0.022420800112096101 0.019581028535255989 0 -0.022795828757177797 0.019504273927267828 0 -0.022636643987915296 0.019087024518950068 0 -0.022795828757177797 0.019504273927267828 0 -0.023062038930797432 0.019308605076807622 0 -0.022636643987915296 0.019087024518950068 0 -0.023062038930797432 0.019308605076807622 0 -0.023393362184083149 0.019151651671986767 0 -0.023074174646031478 0.01890136068269407 0 -0.023393362184083149 0.019151651671986767 0 -0.023329369374864562 0.019507261435182756 0 -0.023735331576618144 0.019591802417671667 0 -0.023062038930797432 0.019308605076807622 0 -0.023393362184083149 0.019151651671986767 0 -0.023329369374864562 0.019507261435182756 0 -0.023062038930797432 0.019308605076807622 0 -0.023329369374864562 0.019507261435182756 0 -0.023068465389675507 0.019722436241654668 0 -0.023735331576618144 0.019591802417671667 0 -0.023773649777415862 0.018983900094203251 0 -0.024145184347194423 0.01916844893720469 0 -0.023393362184083149 0.019151651671986767 0 -0.023735331576618144 0.019591802417671667 0 -0.023773649777415862 0.018983900094203251 0 -0.023735331576618144 0.019591802417671667 0 -0.023358659492451084 0.019758084844495108 0 -0.023466909990661221 0.02004174918462175 0 -0.023329369374864562 0.019507261435182756 0 -0.023068465389675507 0.019722436241654668 0 -0.023358659492451084 0.019758084844495108 0 -0.023329369374864562 0.019507261435182756 0 -0.023735331576618144 0.019591802417671667 0 -0.023358659492451084 0.019758084844495108 0 -0.023358659492451084 0.019758084844495108 0 -0.023214556762617043 0.019940119262594518 0 -0.023466909990661221 0.02004174918462175 0 -0.022974522819042213 0.020001503665003067 0 -0.023068465389675507 0.019722436241654668 0 -0.023214556762617043 0.019940119262594518 0 -0.023068465389675507 0.019722436241654668 0 -0.023358659492451084 0.019758084844495108 0 -0.023214556762617043 0.019940119262594518 0 -0.022974522819042213 0.020001503665003067 0 -0.023214556762617043 0.019940119262594518 0 -0.023159177129312186 0.02014383515815301 0 -0.024571013969855036 0.020130469166273302 0 -0.02460865955593787 0.020043263966069227 0 -0.024836822555987952 0.019859988297792407 0 -0.02483522264780821 0.019819648676195394 0 -0.025110355124450999 0.019860452732988414 0 -0.023159177129312186 0.02014383515815301 0 -0.023466909990661221 0.02004174918462175 0 -0.023031747720908866 0.020427392266894915 0 -0.025065990787989632 0.020041829980071573 0 -0.024836822555987952 0.019859988297792407 0 -0.025110355124450999 0.019860452732988414 0 -0.023466909990661221 0.02004174918462175 0 -0.023031747720908866 0.020427392266894915 0 -0.024395449930538975 0.02026264116309107 0 -0.023214556762617043 0.019940119262594518 0 -0.023159177129312186 0.02014383515815301 0 -0.023466909990661221 0.02004174918462175 0 -0.023159177129312186 0.02014383515815301 0 -0.022931794479490914 0.020166762978925445 0 -0.023031747720908866 0.020427392266894915 0 -0.023735331576618144 0.019591802417671667 0 -0.023466909990661221 0.02004174918462175 0 -0.024395449930538975 0.02026264116309107 0 -0.024367541587630798 0.019790967923109443 0 -0.024611187810946157 0.019923060475930544 0 -0.02483522264780821 0.019819648676195394 0 -0.021662735187549031 0.020480068001218252 0 -0.022561264260751775 0.020094590103390691 0 -0.023031747720908866 0.020427392266894915 0 -0.019877157097038047 0.019911362150029952 0 -0.024571013969855036 0.020130469166273302 0 -0.024836822555987952 0.019859988297792407 0 -0.024611187810946157 0.019923060475930544 0 -0.02483522264780821 0.019819648676195394 0 -0.021662735187549031 0.020480068001218252 0 -0.02205516193399765 0.019984992658303689 0 -0.022561264260751775 0.020094590103390691 0 -0.022561264260751775 0.020094590103390691 0 -0.022931794479490914 0.020166762978925445 0 -0.023031747720908866 0.020427392266894915 0 -0.022974522819042213 0.020001503665003067 0 -0.022561264260751775 0.020094590103390691 0 -0.022931794479490914 0.020166762978925445 0 -0.022974522819042213 0.020001503665003067 0 -0.023159177129312186 0.02014383515815301 0 -0.022931794479490914 0.020166762978925445 0 -0.014465941951238428 0.015703600142413059 0 -0.014354809201733097 0.015678963004170213 0 -0.014321312796789578 0.015717710534016653 0 -0.014321312796789578 0.015717710534016653 0 -0.014339553134764708 0.015713731980827435 0 -0.014309052999402839 0.015733235349367054 0 -0.014354809201733097 0.015678963004170213 0 -0.014321312796789578 0.015717710534016653 0 -0.014339553134764708 0.015713731980827435 0 -0.014354809201733097 0.015678963004170213 0 -0.014339553134764708 0.015713731980827435 0 -0.014315084316532927 0.015752636294398416 0 -0.015554621795298512 0.010383994144913323 0 -0.014317124095557675 0.01007256132136731 0 -0.014339553134764708 0.015713731980827435 0 -0.014315084316532927 0.015752636294398416 0 -0.014459497620260909 0.015769291614198218 0 -0.014523208462150258 0.01603973740981204 0 -0.014315084316532927 0.015752636294398416 0 -0.014459497620260909 0.015769291614198218 0 -0.014459497620260909 0.015769291614198218 0 -0.014430669015186253 0.0156737367014077 0 -0.014619765390151598 0.015616821308450886 0 -0.014339553134764708 0.015713731980827435 0 -0.014459497620260909 0.015769291614198218 0 -0.014430669015186253 0.0156737367014077 0 -0.014339553134764708 0.015713731980827435 0 -0.014309052999402839 0.015733235349367054 0 -0.014430669015186253 0.0156737367014077 0 -0.014619765390151598 0.015616821308450886 0 -0.014780834981162909 0.015810483474287124 0 -0.014855557938853643 0.015385571127610118 0 -0.014619765390151598 0.015616821308450886 0 -0.014593527788829276 0.015599600192010095 0 -0.01453284429946745 0.015607587004585562 0 -0.014430669015186253 0.0156737367014077 0 -0.014619765390151598 0.015616821308450886 0 -0.01453284429946745 0.015607587004585562 0 -0.014728019695284597 0.015579244187853114 0 -0.014657154585968038 0.015898799628898667 0 -0.014619765390151598 0.015616821308450886 0 -0.014615861946940084 0.015602834979365696 0 -0.014593527788829276 0.015599600192010095 0 -0.014523208462150258 0.01603973740981204 0 -0.014459497620260909 0.015769291614198218 0 -0.014780834981162909 0.015810483474287124 0 -0.014459497620260909 0.015769291614198218 0 -0.014619765390151598 0.015616821308450886 0 -0.014780834981162909 0.015810483474287124 0 -0.015158658876415336 0.016380249626935562 0 -0.014780834981162909 0.015810483474287124 0 -0.015285261816181415 0.015815054757408385 0 -0.01557359543717966 0.015823485185611108 0 -0.014657154585968038 0.015898799628898667 0 -0.01573946798270202 0.01594284892038212 0 -0.015750081240474521 0.015561701413500165 0 -0.015429861834240676 0.015405510646670612 0 -0.014780834981162909 0.015810483474287124 0 -0.015285261816181415 0.015815054757408385 0 -0.014855557938853643 0.015385571127610118 0 -0.015750081240474521 0.015561701413500165 0 -0.015606160618741659 0.015364773469105713 0 -0.015429861834240676 0.015405510646670612 0 -0.015750081240474521 0.015561701413500165 0 -0.015606160618741659 0.015364773469105713 0 -0.015630550382044237 0.01524585868402467 0 -0.013475113208107009 0.017850113325767816 0 -0.013795615512074047 0.017574560695745541 0 -0.013933721382417677 0.017831507912892518 0 -0.015606160618741659 0.015364773469105713 0 -0.015630550382044237 0.01524585868402467 0 -0.015429861834240676 0.015405510646670612 0 -0.013555868042828143 0.019697001501889702 0 -0.012822693743614682 0.016795818950337053 0 -0.013555868042828143 0.019697001501889702 0 -0.014657154585968038 0.015898799628898667 0 -0.013555868042828143 0.019697001501889702 0 -0.010419362238494387 0.022736348680016772 0 -0.011581630397049793 0.027486523553181458 0 -0.010775473461356697 0.028186768713758324 0 -0.010675905054939646 0.027023673593792465 0 -0.010675905054939646 0.027023673593792465 0 -0.0094467961786849543 0.027104708472132148 0 -0.010191601698873039 0.026198030923808856 0 -0.010775473461356697 0.028186768713758324 0 -0.010675905054939646 0.027023673593792465 0 -0.0094467961786849543 0.027104708472132148 0 -0.01179822676689868 0.017500109003145581 0 -0.012822693743614682 0.016795818950337053 0 -0.011943147573697089 0.017699171406077151 0 -0.012125740650513254 0.017776731248700391 0 -0.011725654657662203 0.017135413285302201 0 -0.012125740650513254 0.017776731248700391 0 -0.011992554599073266 0.016776017436859598 0 -0.011180334554427716 0.016191898164604049 0 -0.012125740650513254 0.017776731248700391 0 -0.011992554599073266 0.016776017436859598 0 -0.012470107741174467 0.017232124168925892 0 -0.012822693743614682 0.016795818950337053 0 -0.01363547591426611 0.015854269311215377 0 -0.01132054687971238 0.017159761807642893 0 -0.011943147573697089 0.017699171406077151 0 -0.011725654657662203 0.017135413285302201 0 -0.011992554599073266 0.016776017436859598 0 -0.011180334554427716 0.016191898164604049 0 -0.012774794228006385 0.016136641619064768 0 -0.014613573376650441 0.015551991157947134 0 -0.01453284429946745 0.015607587004585562 0 -0.014409997074759373 0.015596921422846024 0 -0.014613573376650441 0.015551991157947134 0 -0.014593527788829276 0.015599600192010095 0 -0.01453284429946745 0.015607587004585562 0 -0.014657154585968038 0.015898799628898667 0 -0.012822693743614682 0.016795818950337053 0 -0.014615861946940084 0.015602834979365696 0 -0.014613573376650441 0.015551991157947134 0 -0.014593527788829276 0.015599600192010095 0 -0.012774794228006385 0.016136641619064768 0 -0.012904379241848007 0.01677819129140248 0 -0.014084552951317775 0.016495831122165721 0 -0.014309052999402839 0.015733235349367054 0 -0.014409997074759373 0.015596921422846024 0 -0.014208736454283001 0.015962252583735799 0 -0.01363547591426611 0.015854269311215377 0 -0.014180597429359452 0.015932322172009031 0 -0.014430669015186253 0.0156737367014077 0 -0.01453284429946745 0.015607587004585562 0 -0.014409997074759373 0.015596921422846024 0 -0.014309052999402839 0.015733235349367054 0 -0.014430669015186253 0.0156737367014077 0 -0.014409997074759373 0.015596921422846024 0 -0.013258619776215905 0.016761597136996313 0 -0.01327024965664173 0.016893337094884643 0 -0.012774794228006385 0.016136641619064768 0 -0.012904379241848007 0.01677819129140248 0 -0.012537523722922137 0.016727388254097048 0 -0.011992554599073266 0.016776017436859598 0 -0.012774794228006385 0.016136641619064768 0 -0.012537523722922137 0.016727388254097048 0 -0.011992554599073266 0.016776017436859598 0 -0.012537523722922137 0.016727388254097048 0 -0.012470107741174467 0.017232124168925892 0 -0.011943147573697089 0.017699171406077151 0 -0.012125740650513254 0.017776731248700391 0 -0.012915856335900902 0.018463757206576944 0 -0.012904379241848007 0.01677819129140248 0 -0.012470107741174467 0.017232124168925892 0 -0.012942036571926031 0.017331699329075721 0 -0.012904379241848007 0.01677819129140248 0 -0.012537523722922137 0.016727388254097048 0 -0.012470107741174467 0.017232124168925892 0 -0.012470107741174467 0.017232124168925892 0 -0.012522810310296159 0.017782149099695325 0 -0.012942036571926031 0.017331699329075721 0 -0.012125740650513254 0.017776731248700391 0 -0.012470107741174467 0.017232124168925892 0 -0.012522810310296159 0.017782149099695325 0 -0.012522810310296159 0.017782149099695325 0 -0.012830695743596552 0.018012482406554425 0 -0.012942036571926031 0.017331699329075721 0 -0.012125740650513254 0.017776731248700391 0 -0.012522810310296159 0.017782149099695325 0 -0.012915856335900902 0.018463757206576944 0 -0.012937529547738524 0.018004425771988644 0 -0.01327024965664173 0.016893337094884643 0 -0.012830695743596552 0.018012482406554425 0 -0.012942036571926031 0.017331699329075721 0 -0.014042145365487081 0.01682866443456334 0 -0.012904379241848007 0.01677819129140248 0 -0.012942036571926031 0.017331699329075721 0 -0.014042145365487081 0.01682866443456334 0 -0.013631390407562984 0.017722303887443946 0 -0.013391658414590116 0.017956216248540931 0 -0.013187608851412286 0.017715205285712791 0 -0.012830695743596552 0.018012482406554425 0 -0.013209037640599984 0.018095930311700571 0 -0.013187608851412286 0.017715205285712791 0 -0.013556495756199294 0.018309856259123743 0 -0.013209037640599984 0.018095930311700571 0 -0.013391658414590116 0.017956216248540931 0 -0.013209037640599984 0.018095930311700571 0 -0.013391658414590116 0.017956216248540931 0 -0.013187608851412286 0.017715205285712791 0 -0.012841305715896161 0.016054046150858873 0 -0.01327024965664173 0.016893337094884643 0 -0.012774794228006385 0.016136641619064768 0 -0.014084552951317775 0.016495831122165721 0 -0.014208736454283001 0.015962252583735799 0 -0.0092111712622158417 0.018892321786162267 0 -0.01327024965664173 0.016893337094884643 0 -0.014321312796789578 0.015717710534016653 0 -0.014309052999402839 0.015733235349367054 0 -0.014208736454283001 0.015962252583735799 0 -0.014465941951238428 0.015703600142413059 0 -0.014321312796789578 0.015717710534016653 0 -0.014208736454283001 0.015962252583735799 0 -0.014465941951238428 0.015703600142413059 0 -0.014084552951317775 0.016495831122165721 0 -0.014208736454283001 0.015962252583735799 0 -0.0075468519742598154 0.025496401341568217 0 -0.0074844986800194991 0.025537171574016439 0 -0.0081565286076885363 0.025557466096218479 0 -0.0092329763511067274 0.023465546116736482 0 -0.010762764374673724 0.022151092718673892 0 -0.0074844986800194991 0.025537171574016439 0 -0.0083055196569809305 0.026127759213328633 0 -0.0081565286076885363 0.025557466096218479 0 -0.013556495756199294 0.018309856259123743 0 -0.013403001479631757 0.018969532118414005 0 -0.013271743747223676 0.018464513426978163 0 -0.013403001479631757 0.018969532118414005 0 -0.013271743747223676 0.018464513426978163 0 -0.012915856335900902 0.018463757206576944 0 -0.013556495756199294 0.018309856259123743 0 -0.013209037640599984 0.018095930311700571 0 -0.013271743747223676 0.018464513426978163 0 -0.013209037640599984 0.018095930311700571 0 -0.013271743747223676 0.018464513426978163 0 -0.012915856335900902 0.018463757206576944 0 -0.010419362238494387 0.022736348680016772 0 -0.010762764374673724 0.022151092718673892 0 -0.0094467961786849543 0.027104708472132148 0 -0.0083055196569809305 0.026127759213328633 0 -0.0092701106081817895 0.026139067641084764 0 -0.0083055196569809305 0.026127759213328633 0 -0.0088002445550768079 0.025634001278455658 0 -0.0092701106081817895 0.026139067641084764 0 -0.012522810310296159 0.017782149099695325 0 -0.012830695743596552 0.018012482406554425 0 -0.012915856335900902 0.018463757206576944 0 -0.012830695743596552 0.018012482406554425 0 -0.013209037640599984 0.018095930311700571 0 -0.012915856335900902 0.018463757206576944 0 -0.0075468519742598154 0.025496401341568217 0 -0.0081565286076885363 0.025557466096218479 0 -0.0088524215939375598 0.025042939185535462 0 -0.0076586794724436752 0.025509983338879643 0 -0.008347443847030199 0.025599841045341052 0 -0.0083055196569809305 0.026127759213328633 0 -0.0088002445550768079 0.025634001278455658 0 -0.0081565286076885363 0.025557466096218479 0 -0.0088002445550768079 0.025634001278455658 0 -0.0081565286076885363 0.025557466096218479 0 -0.0088524215939375598 0.025042939185535462 0 -0.007761806090485014 0.026132467280547331 0 -0.0088828058391366305 0.026574013595547855 0 -0.0081628330399045289 0.026023648532699405 0 -0.0088524215939375598 0.025042939185535462 0 -0.0095241517365294379 0.025289837742808834 0 -0.010268176416249906 0.025008884071853438 0 -0.008347443847030199 0.025599841045341052 0 -0.0096302942210454538 0.025773628153186234 0 -0.0088002445550768079 0.025634001278455658 0 -0.0088524215939375598 0.025042939185535462 0 -0.0095241517365294379 0.025289837742808834 0 -0.0088002445550768079 0.025634001278455658 0 -0.0095241517365294379 0.025289837742808834 0 -0.0092701106081817895 0.026139067641084764 0 -0.0095241517365294379 0.025289837742808834 0 -0.0092701106081817895 0.026139067641084764 0 -0.010191601698873039 0.026198030923808856 0 -0.0094467961786849543 0.027104708472132148 0 -0.0092701106081817895 0.026139067641084764 0 -0.010191601698873039 0.026198030923808856 0 -0.0095241517365294379 0.025289837742808834 0 -0.010191601698873039 0.026198030923808856 0 -0.010847686303319984 0.025653996687056348 0 -0.010675905054939646 0.027023673593792465 0 -0.010191601698873039 0.026198030923808856 0 -0.011468145115723867 0.026117518308964856 0 -0.010191601698873039 0.026198030923808856 0 -0.010847686303319984 0.025653996687056348 0 -0.011468145115723867 0.026117518308964856 0 -0.0096611580017704063 0.025247637676428351 0 -0.010818852757333037 0.025133166130090537 0 -0.0095241517365294379 0.025289837742808834 0 -0.010687733075441595 0.025239681046922445 0 -0.010268176416249906 0.025008884071853438 0 -0.0095241517365294379 0.025289837742808834 0 -0.010847686303319984 0.025653996687056348 0 -0.011006404883555346 0.025000916642009371 0 -0.010847686303319984 0.025653996687056348 0 -0.011006404883555346 0.025000916642009371 0 -0.011352321173129034 0.025437331513734108 0 -0.0088828058391366305 0.026574013595547855 0 -0.0092485248663773598 0.026183063575424 0 -0.0096989006310406328 0.026385461729915901 0 -0.0088828058391366305 0.026574013595547855 0 -0.0092485248663773598 0.026183063575424 0 -0.0089617699445441405 0.025971759200139 0 -0.0088828058391366305 0.026574013595547855 0 -0.0085562376119248749 0.026076409376944956 0 -0.0089617699445441405 0.025971759200139 0 -0.0085562376119248749 0.026076409376944956 0 -0.0089617699445441405 0.025971759200139 0 -0.0082971530608514001 0.025733557050926826 0 -0.0089617699445441405 0.025971759200139 0 -0.0087659135634298863 0.02548270768638938 0 -0.0082971530608514001 0.025733557050926826 0 -0.0092485248663773598 0.026183063575424 0 -0.0089617699445441405 0.025971759200139 0 -0.0094489790993187908 0.025805877071360617 0 -0.0089617699445441405 0.025971759200139 0 -0.0087659135634298863 0.02548270768638938 0 -0.0094489790993187908 0.025805877071360617 0 -0.0091750008261912968 0.024999965874463542 0 -0.0087659135634298863 0.02548270768638938 0 -0.0079145871857046139 0.024999929196502492 0 -0.0091750008261912968 0.024999965874463542 0 -0.0087659135634298863 0.02548270768638938 0 -0.0094489790993187908 0.025805877071360617 0 -0.0087659135634298863 0.02548270768638938 0 -0.0079145871857046139 0.024999929196502492 0 -0.0082971530608514001 0.025733557050926826 0 -0.0079145871857046139 0.024999929196502492 0 -0.0082971530608514001 0.025733557050926826 0 -0.0075667118167018427 0.025730080525019395 0 -0.0082971530608514001 0.025733557050926826 0 -0.0081628330399045289 0.026023648532699405 0 -0.0075667118167018427 0.025730080525019395 0 -0.0085562376119248749 0.026076409376944956 0 -0.0082971530608514001 0.025733557050926826 0 -0.0081628330399045289 0.026023648532699405 0 -0.0088828058391366305 0.026574013595547855 0 -0.0085562376119248749 0.026076409376944956 0 -0.0081628330399045289 0.026023648532699405 0 -0.0075468519742598154 0.025496401341568217 0 -0.007761806090485014 0.026132467280547331 0 -0.007578524903535791 0.025695297594392309 0 -0.007761806090485014 0.026132467280547331 0 -0.0081628330399045289 0.026023648532699405 0 -0.0075667118167018427 0.025730080525019395 0 -0.007761806090485014 0.026132467280547331 0 -0.007578524903535791 0.025695297594392309 0 -0.0075667118167018427 0.025730080525019395 0 -0.0079145871857046139 0.024999929196502492 0 -0.0075667118167018427 0.025730080525019395 0 -0.006654076626235802 0.02499990113114655 0 -0.0062444573027519252 0.025746901851093719 0 -0.0075667118167018427 0.025730080525019395 0 -0.006654076626235802 0.02499990113114655 0 -0.0092329763511067274 0.023465546116736482 0 -0.0073208283519677507 0.026284135911620488 0 -0.007578524903535791 0.025695297594392309 0 -0.0075667118167018427 0.025730080525019395 0 -0.0075272656533716996 0.025494225126010947 0 -0.0075035599644726145 0.025440137379231696 0 -0.0075667118167018427 0.025730080525019395 0 -0.0075272656533716996 0.025494225126010947 0 -0.0075468519742598154 0.025496401341568217 0 -0.0074844986800194991 0.025537171574016439 0 -0.0075272656533716996 0.025494225126010947 0 -0.0068430316141983296 0.025594734990143336 0 -0.0075070464814272018 0.025710070214254428 0 -0.0075035599644726145 0.025440137379231696 0 -0.0075236800537436064 0.025483852030699933 0 -0.0075272656533716996 0.025494225126010947 0 -0.0075468519742598154 0.025496401341568217 0 -0.007578524903535791 0.025695297594392309 0 -0.0075272656533716996 0.025494225126010947 0 -0.011523885628402085 0.026897499869083769 0 -0.010602946241346054 0.026465878947548156 0 -0.011282259459079309 0.026469892185014759 0 -0.022976738363490005 0.017842077201565047 0 -0.022825539797324008 0.018345510662066074 0 -0.02215946455046414 0.018525048516538595 0 -0.022976738363490005 0.017842077201565047 0 -0.023126558761134914 0.018165339954346053 0 -0.022825539797324008 0.018345510662066074 0 -0.015165171165519931 0.024765308241169414 0 -0.014568221911424008 0.024729044378257247 0 -0.013887215432170249 0.025881481173741509 0 -0.018876812493374862 0.021402862557422065 0 -0.018247741093518711 0.022033695948744627 0 -0.011681771889860179 0.026653768353720651 0 -0.011523885628402085 0.026897499869083769 0 -0.011282259459079309 0.026469892185014759 0 -0.011681771889860179 0.026653768353720651 0 -0.011706254404380912 0.026349624868321118 0 -0.011282259459079309 0.026469892185014759 0 -0.011909397955598562 0.026925092410097145 0 -0.011681771889860179 0.026653768353720651 0 -0.011873259526783361 0.026576625921227105 0 -0.011909397955598562 0.026925092410097145 0 -0.011681771889860179 0.026653768353720651 0 -0.011523885628402085 0.026897499869083769 0 -0.018876812493374862 0.021402862557422065 0 -0.013266820064060596 0.024543875206988038 0 -0.011681771889860179 0.026653768353720651 0 -0.011873259526783361 0.026576625921227105 0 -0.011706254404380912 0.026349624868321118 0 -0.011909397955598562 0.026925092410097145 0 -0.011873259526783361 0.026576625921227105 0 -0.012159910085159185 0.026413457815413047 0 -0.022961146437519935 0.017833282831227905 0 -0.023278217405742648 0.017867650251597096 0 -0.024002281971813887 0.017827598825241868 0 -0.021470279129531488 0.018203717201623754 0 -0.022899258799577656 0.017500302413995018 0 -0.023219433396814638 0.018095274513685988 0 -0.018876812493374862 0.021402862557422065 0 -0.024244423045405396 0.017904031297077638 0 -0.023592478136355358 0.018223985627628829 0 -0.024002281971813887 0.017827598825241868 0 -0.023989295149511775 0.018249788197754652 0 -0.023592478136355358 0.018223985627628829 0 -0.023278217405742648 0.017867650251597096 0 -0.024002281971813887 0.017827598825241868 0 -0.018876812493374862 0.021402862557422065 0 -0.021546435667986395 0.020673087564431775 0 -0.022976738363490005 0.017842077201565047 0 -0.023278217405742648 0.017867650251597096 0 -0.023126558761134914 0.018165339954346053 0 -0.023592478136355358 0.018223985627628829 0 -0.023278217405742648 0.017867650251597096 0 -0.023330769425099825 0.01814811857724509 0 -0.023278217405742648 0.017867650251597096 0 -0.023330769425099825 0.01814811857724509 0 -0.023126558761134914 0.018165339954346053 0 -0.023592478136355358 0.018223985627628829 0 -0.023330769425099825 0.01814811857724509 0 -0.023326782498586083 0.018334820160283895 0 -0.023330769425099825 0.01814811857724509 0 -0.023126558761134914 0.018165339954346053 0 -0.023326782498586083 0.018334820160283895 0 -0.023126558761134914 0.018165339954346053 0 -0.023096109160710383 0.018517867244246724 0 -0.022825539797324008 0.018345510662066074 0 -0.023592478136355358 0.018223985627628829 0 -0.023326782498586083 0.018334820160283895 0 -0.023457034767122451 0.018662581631829711 0 -0.023126558761134914 0.018165339954346053 0 -0.023326782498586083 0.018334820160283895 0 -0.023096109160710383 0.018517867244246724 0 -0.023326782498586083 0.018334820160283895 0 -0.023457034767122451 0.018662581631829711 0 -0.023096109160710383 0.018517867244246724 0 -0.023592478136355358 0.018223985627628829 0 -0.023457034767122451 0.018662581631829711 0 -0.023946582253652218 0.018547444588165193 0 -0.023592478136355358 0.018223985627628829 0 -0.023989295149511775 0.018249788197754652 0 -0.023946582253652218 0.018547444588165193 0 -0.023457034767122451 0.018662581631829711 0 -0.023773649777415862 0.018983900094203251 0 -0.023946582253652218 0.018547444588165193 0 -0.023393362184083149 0.019151651671986767 0 -0.023457034767122451 0.018662581631829711 0 -0.023773649777415862 0.018983900094203251 0 -0.023393362184083149 0.019151651671986767 0 -0.023457034767122451 0.018662581631829711 0 -0.023074174646031478 0.01890136068269407 0 -0.023457034767122451 0.018662581631829711 0 -0.023096109160710383 0.018517867244246724 0 -0.023074174646031478 0.01890136068269407 0 -0.023062038930797432 0.019308605076807622 0 -0.023074174646031478 0.01890136068269407 0 -0.022636643987915296 0.019087024518950068 0 -0.023096109160710383 0.018517867244246724 0 -0.023074174646031478 0.01890136068269407 0 -0.022765912015025376 0.018677698922091819 0 -0.023074174646031478 0.01890136068269407 0 -0.022636643987915296 0.019087024518950068 0 -0.022765912015025376 0.018677698922091819 0 -0.023096109160710383 0.018517867244246724 0 -0.022765912015025376 0.018677698922091819 0 -0.022825539797324008 0.018345510662066074 0 -0.022765912015025376 0.018677698922091819 0 -0.022825539797324008 0.018345510662066074 0 -0.02215946455046414 0.018525048516538595 0 -0.022636643987915296 0.019087024518950068 0 -0.022765912015025376 0.018677698922091819 0 -0.02215946455046414 0.018525048516538595 0 -0.022092167275152175 0.0191548881193223 0 -0.022636643987915296 0.019087024518950068 0 -0.02215946455046414 0.018525048516538595 0 -0.01545372384543198 0.023369619752619652 0 -0.018247741093518711 0.022033695948744627 0 -0.01271703414478235 0.026905210903379755 0 -0.013887215432170249 0.025881481173741509 0 -0.012716448972970739 0.024850892248090246 0 -0.01271703414478235 0.026905210903379755 0 -0.012102467521778494 0.024962195821083652 0 -0.012716448972970739 0.024850892248090246 0 -0.021314623696875926 0.019246470208574701 0 -0.022092167275152175 0.0191548881193223 0 -0.02215946455046414 0.018525048516538595 0 -0.01545372384543198 0.023369619752619652 0 -0.011651537868714222 0.026304162715665783 0 -0.012468291604575341 0.026767619350446557 0 -0.011468145115723867 0.026117518308964856 0 -0.012102467521778494 0.024962195821083652 0 -0.010847686303319984 0.025653996687056348 0 -0.011468145115723867 0.026117518308964856 0 -0.011352321173129034 0.025437331513734108 0 -0.0096302942210454538 0.025773628153186234 0 -0.010700306720802745 0.026081724543166505 0 -0.0088828058391366305 0.026574013595547855 0 -0.010164166506309394 0.026777546660660862 0 -0.0096989006310406328 0.026385461729915901 0 -0.010818852757333037 0.025133166130090537 0 -0.012394782686300662 0.025059055645242814 0 -0.010687733075441595 0.025239681046922445 0 -0.010268176416249906 0.025008884071853438 0 -0.011631688474602983 0.025108219190231616 0 -0.010687733075441595 0.025239681046922445 0 -0.011631688474602983 0.025108219190231616 0 -0.011842642520841473 0.025223798082197442 0 -0.011006404883555346 0.025000916642009371 0 -0.012102467521778494 0.024962195821083652 0 -0.012716448972970739 0.024850892248090246 0 -0.011006404883555346 0.025000916642009371 0 -0.011352321173129034 0.025437331513734108 0 -0.012102467521778494 0.024962195821083652 0 -0.011468145115723867 0.026117518308964856 0 -0.011352321173129034 0.025437331513734108 0 -0.012102467521778494 0.024962195821083652 0 -0.010164166506309394 0.026777546660660862 0 -0.0096989006310406328 0.026385461729915901 0 -0.01005831061204911 0.026424325281586492 0 -0.010164166506309394 0.026777546660660862 0 -0.010275763142816075 0.026469715477326312 0 -0.01005831061204911 0.026424325281586492 0 -0.013266820064060596 0.024543875206988038 0 -0.012394782686300662 0.025059055645242814 0 -0.011523885628402085 0.026897499869083769 0 -0.010164166506309394 0.026777546660660862 0 -0.010602946241346054 0.026465878947548156 0 -0.013012074195910028 0.025193438322761424 0 -0.011631688474602983 0.025108219190231616 0 -0.011842642520841473 0.025223798082197442 0 -0.013266820064060596 0.024543875206988038 0 -0.010700306720802745 0.026081724543166505 0 -0.014568221911424008 0.024729044378257247 0 -0.013887215432170249 0.025881481173741509 0 -0.012716448972970739 0.024850892248090246 0 -0.010164166506309394 0.026777546660660862 0 -0.010602946241346054 0.026465878947548156 0 -0.010275763142816075 0.026469715477326312 0 -0.010602946241346054 0.026465878947548156 0 -0.010867456300512153 0.025966601606043634 0 -0.011282259459079309 0.026469892185014759 0 -0.010602946241346054 0.026465878947548156 0 -0.010201527783273889 0.026112718200727358 0 -0.010867456300512153 0.025966601606043634 0 -0.010275763142816075 0.026469715477326312 0 -0.010201527783273889 0.026112718200727358 0 -0.01005831061204911 0.026424325281586492 0 -0.010602946241346054 0.026465878947548156 0 -0.010275763142816075 0.026469715477326312 0 -0.010201527783273889 0.026112718200727358 0 -0.010201527783273889 0.026112718200727358 0 -0.010867456300512153 0.025966601606043634 0 -0.010046713136831847 0.025549743342620692 0 -0.0092485248663773598 0.026183063575424 0 -0.0096989006310406328 0.026385461729915901 0 -0.0094489790993187908 0.025805877071360617 0 -0.010201527783273889 0.026112718200727358 0 -0.0096989006310406328 0.026385461729915901 0 -0.0094489790993187908 0.025805877071360617 0 -0.010201527783273889 0.026112718200727358 0 -0.0096989006310406328 0.026385461729915901 0 -0.01005831061204911 0.026424325281586492 0 -0.010201527783273889 0.026112718200727358 0 -0.0094489790993187908 0.025805877071360617 0 -0.010046713136831847 0.025549743342620692 0 -0.0091750008261912968 0.024999965874463542 0 -0.010046713136831847 0.025549743342620692 0 -0.010435743734907535 0.024999659600185908 0 -0.0091750008261912968 0.024999965874463542 0 -0.0094489790993187908 0.025805877071360617 0 -0.010046713136831847 0.025549743342620692 0 -0.010867456300512153 0.025966601606043634 0 -0.010046713136831847 0.025549743342620692 0 -0.010435743734907535 0.024999659600185908 0 -0.010436678994497999 0.025000222036943815 0 -0.01117006961514219 0.025615143037136075 0 -0.010867456300512153 0.025966601606043634 0 -0.010435743734907535 0.024999659600185908 0 -0.011789115858338533 0.025403487934712358 0 -0.010435703636947367 0.025000004691999412 0 -0.011543640454162549 0.024999989574908357 0 -0.011639776176368653 0.025557621045914591 0 -0.011789115858338533 0.025403487934712358 0 -0.011706254404380912 0.026349624868321118 0 -0.012174519466964295 0.026051800420847968 0 -0.010867456300512153 0.025966601606043634 0 -0.011789115858338533 0.025403487934712358 0 -0.011706254404380912 0.026349624868321118 0 -0.011873259526783361 0.026576625921227105 0 -0.011706254404380912 0.026349624868321118 0 -0.012159910085159185 0.026413457815413047 0 -0.010867456300512153 0.025966601606043634 0 -0.011706254404380912 0.026349624868321118 0 -0.011282259459079309 0.026469892185014759 0 -0.011789115858338533 0.025403487934712358 0 -0.012174519466964295 0.026051800420847968 0 -0.013068048419579807 0.025898226661856254 0 -0.018876812493374862 0.021402862557422065 0 -0.01684307421092171 0.023197083665157631 0 -0.021470279129531488 0.018203717201623754 0 -0.022899258799577656 0.017500302413995018 0 -0.023448130312642295 0.016500861784298708 0 -0.01117006961514219 0.025615143037136075 0 -0.01684307421092171 0.023197083665157631 0 -0.011909397955598562 0.026925092410097145 0 -0.012159910085159185 0.026413457815413047 0 -0.013068048419579807 0.025898226661856254 0 -0.012159910085159185 0.026413457815413047 0 -0.012174519466964295 0.026051800420847968 0 -0.013068048419579807 0.025898226661856254 0 -0.011706254404380912 0.026349624868321118 0 -0.012159910085159185 0.026413457815413047 0 -0.012174519466964295 0.026051800420847968 0 -0.011639776176368653 0.025557621045914591 0 -0.012346794268438752 0.025468899452681944 0 -0.012738774166340583 0.02608008777900241 0 -0.011543640454162549 0.024999989574908357 0 -0.012346794268438752 0.025468899452681944 0 -0.012651771018244206 0.024999954077144341 0 -0.011543640454162549 0.024999989574908357 0 -0.011639776176368653 0.025557621045914591 0 -0.012346794268438752 0.025468899452681944 0 -0.012651771018244206 0.024999954077144341 0 -0.013034037310176055 0.025680808589838084 0 -0.013759617182401719 0.025000005662096168 0 -0.012346794268438752 0.025468899452681944 0 -0.013034037310176055 0.025680808589838084 0 -0.012905616941846006 0.02616118011710844 0 -0.012346794268438752 0.025468899452681944 0 -0.012651771018244206 0.024999954077144341 0 -0.013034037310176055 0.025680808589838084 0 -0.013758813981793013 0.025001703949853446 0 -0.016306143134379197 0.025063367795017853 0 -0.013034037310176055 0.025680808589838084 0 -0.013759617182401719 0.025000005662096168 0 -0.013985172153182818 0.026155130843999258 0 -0.013759735586327294 0.024999709812880754 0 -0.01403735742785831 0.026502042790625957 0 -0.014146539459961981 0.02531037057892049 0 -0.014524241574519627 0.026263950548816313 0 -0.012905616941846006 0.02616118011710844 0 -0.014661696091257814 0.026869926975111414 0 -0.017480741551774644 0.022502205050062483 0 -0.021623982685082224 0.021047954408939296 0 -0.023762159885424041 0.016659707065165008 0 -0.024227656798003223 0.017463578975554988 0 -0.025666111499974338 0.017605754587170036 0 -0.012531988920890504 0.025752420641959577 0 -0.016306143134379197 0.025063367795017853 0 -0.016306143134379197 0.025063367795017853 0 -0.021623982685082224 0.021047954408939296 0 -0.013034037310176055 0.025680808589838084 0 -0.014524241574519627 0.026263950548816313 0 -0.012905616941846006 0.02616118011710844 0 -0.012346794268438752 0.025468899452681944 0 -0.012905616941846006 0.02616118011710844 0 -0.012738774166340583 0.02608008777900241 0 -0.017480741551774644 0.022502205050062483 0 -0.01684307421092171 0.023197083665157631 0 -0.023762159885424041 0.016659707065165008 0 -0.023401133706451003 0.017252542641971094 0 -0.024227656798003223 0.017463578975554988 0 -0.022899258799577656 0.017500302413995018 0 -0.023448130312642295 0.016500861784298708 0 -0.023401133706451003 0.017252542641971094 0 -0.023762159885424041 0.016659707065165008 0 -0.023448130312642295 0.016500861784298708 0 -0.023401133706451003 0.017252542641971094 0 -0.022899258799577656 0.017500302413995018 0 -0.023401133706451003 0.017252542641971094 0 -0.023219433396814638 0.018095274513685988 0 -0.023401133706451003 0.017252542641971094 0 -0.023219433396814638 0.018095274513685988 0 -0.024227656798003223 0.017463578975554988 0 -0.024002281971813887 0.017827598825241868 0 -0.024786538665517267 0.017868724428896407 0 -0.024400334689389087 0.018397477161901116 0 -0.023219433396814638 0.018095274513685988 0 -0.024227656798003223 0.017463578975554988 0 -0.024786538665517267 0.017868724428896407 0 -0.024244423045405396 0.017904031297077638 0 -0.024418576972497309 0.017899275715949851 0 -0.024002281971813887 0.017827598825241868 0 -0.023989295149511775 0.018249788197754652 0 -0.024400334689389087 0.018397477161901116 0 -0.024227656798003223 0.017463578975554988 0 -0.024786538665517267 0.017868724428896407 0 -0.025666111499974338 0.017605754587170036 0 -0.025666111499974338 0.017605754587170036 0 -0.025359877535459988 0.018281751239090954 0 -0.025838739718825561 0.019024652744623741 0 -0.024786538665517267 0.017868724428896407 0 -0.025666111499974338 0.017605754587170036 0 -0.025359877535459988 0.018281751239090954 0 -0.024786538665517267 0.017868724428896407 0 -0.025105165459833562 0.018595083442620026 0 -0.024400334689389087 0.018397477161901116 0 -0.024786538665517267 0.017868724428896407 0 -0.025359877535459988 0.018281751239090954 0 -0.025105165459833562 0.018595083442620026 0 -0.025359877535459988 0.018281751239090954 0 -0.025105165459833562 0.018595083442620026 0 -0.025838739718825561 0.019024652744623741 0 -0.025105165459833562 0.018595083442620026 0 -0.025838739718825561 0.019024652744623741 0 -0.025330218670226619 0.019132094021433028 0 -0.025105165459833562 0.018595083442620026 0 -0.024695310075025706 0.019019599736472388 0 -0.025330218670226619 0.019132094021433028 0 -0.024695310075025706 0.019019599736472388 0 -0.024232669081150848 0.018805671596756522 0 -0.024400334689389087 0.018397477161901116 0 -0.023773649777415862 0.018983900094203251 0 -0.024232669081150848 0.018805671596756522 0 -0.024145184347194423 0.01916844893720469 0 -0.023773649777415862 0.018983900094203251 0 -0.024232669081150848 0.018805671596756522 0 -0.023946582253652218 0.018547444588165193 0 -0.024695310075025706 0.019019599736472388 0 -0.024232669081150848 0.018805671596756522 0 -0.024145184347194423 0.01916844893720469 0 -0.023989295149511775 0.018249788197754652 0 -0.023946582253652218 0.018547444588165193 0 -0.024400334689389087 0.018397477161901116 0 -0.024232669081150848 0.018805671596756522 0 -0.023946582253652218 0.018547444588165193 0 -0.024400334689389087 0.018397477161901116 0 -0.025105165459833562 0.018595083442620026 0 -0.024695310075025706 0.019019599736472388 0 -0.024400334689389087 0.018397477161901116 0 -0.027697904320052352 0.019066563236059784 0 -0.027895664573144411 0.018997468021285765 0 -0.027838561397268525 0.019144186556276581 0 -0.024810204081038251 0.021100027824083298 0 -0.025226143019005543 0.021368313026913111 0 -0.027697904320052352 0.019066563236059784 0 -0.027642604019918336 0.018894431901958681 0 -0.027895664573144411 0.018997468021285765 0 -0.027697904320052352 0.019066563236059784 0 -0.02749414072614375 0.019096268160951828 0 -0.027696177196933059 0.019202737382425786 0 -0.027697904320052352 0.019066563236059784 0 -0.02749414072614375 0.019096268160951828 0 -0.027642604019918336 0.018894431901958681 0 -0.01966744624001816 0.021765856847390536 0 -0.019807232891916767 0.02247391164144787 0 -0.021815345743056509 0.022815543015333613 0 -0.019807232891916767 0.02247391164144787 0 -0.021815345743056509 0.022815543015333613 0 -0.021328420454350589 0.023147568051821384 0 -0.021623982685082224 0.021047954408939296 0 -0.027224983889066363 0.018522392159746617 0 -0.016306143134379197 0.025063367795017853 0 -0.018651120966909875 0.025227688147173639 0 -0.027363541199989405 0.018794314819259639 0 -0.02749414072614375 0.019096268160951828 0 -0.027642604019918336 0.018894431901958681 0 -0.021623982685082224 0.021047954408939296 0 -0.024810204081038251 0.021100027824083298 0 -0.021815345743056509 0.022815543015333613 0 -0.021328420454350589 0.023147568051821384 0 -0.022845724872230071 0.023808318646548744 0 -0.015985405598767488 0.027515845900584007 0 -0.01573672618931542 0.026597462392480193 0 -0.017145738048006835 0.02711914669585461 0 -0.01573672618931542 0.026597462392480193 0 -0.016213309504250015 0.025763997808469906 0 -0.017145738048006835 0.02711914669585461 0 -0.01573672618931542 0.026597462392480193 0 -0.015022150165416736 0.026046244498151294 0 -0.016213309504250015 0.025763997808469906 0 -0.01403735742785831 0.026502042790625957 0 -0.015985405598767488 0.027515845900584007 0 -0.01573672618931542 0.026597462392480193 0 -0.01403735742785831 0.026502042790625957 0 -0.015022150165416736 0.026046244498151294 0 -0.014146539459961981 0.02531037057892049 0 -0.01403735742785831 0.026502042790625957 0 -0.01573672618931542 0.026597462392480193 0 -0.015022150165416736 0.026046244498151294 0 -0.013759735586327294 0.024999709812880754 0 -0.014146539459961981 0.02531037057892049 0 -0.015009726757241933 0.025000178817976275 0 -0.015022150165416736 0.026046244498151294 0 -0.014146539459961981 0.02531037057892049 0 -0.016213309504250015 0.025763997808469906 0 -0.013812374010874713 0.025536386128037412 0 -0.016952299608899827 0.024778317996791373 0 -0.014146539459961981 0.02531037057892049 0 -0.015453038560236743 0.02569939328600751 0 -0.015009726757241933 0.025000178817976275 0 -0.015466167951721004 0.025748068006662971 0 -0.015009661792639512 0.024999993980329701 0 -0.015838131225929777 0.025000010292210086 0 -0.016952299608899827 0.024778317996791373 0 -0.015009786301531006 0.025000237856548879 0 -0.015466167951721004 0.025748068006662971 0 -0.015838131225929777 0.025000010292210086 0 -0.016265316916160587 0.025479200482633295 0 -0.015466167951721004 0.025748068006662971 0 -0.016265316916160587 0.025479200482633295 0 -0.016497185673616303 0.026103910305477492 0 -0.015838131225929777 0.025000010292210086 0 -0.016265316916160587 0.025479200482633295 0 -0.016666757985816159 0.024999961416835886 0 -0.016265316916160587 0.025479200482633295 0 -0.017148040691016053 0.025704015662093491 0 -0.016497185673616303 0.026103910305477492 0 -0.016265316916160587 0.025479200482633295 0 -0.016666757985816159 0.024999961416835886 0 -0.017148040691016053 0.025704015662093491 0 -0.016666932337680622 0.025000308437259602 0 -0.017147800216378111 0.025335644215123413 0 -0.021609853590264749 0.022997936623635761 0 -0.022987704840208775 0.023452544422205505 0 -0.022075795001004612 0.024051705841556158 0 -0.018814103979931371 0.024415446803441605 0 -0.022240893056800604 0.025662178970726045 0 -0.017148040691016053 0.025704015662093491 0 -0.016497185673616303 0.026103910305477492 0 -0.017631917268681022 0.026474563207130247 0 -0.021609853590264749 0.022997936623635761 0 -0.021022799178581322 0.023839104414736946 0 -0.022075795001004612 0.024051705841556158 0 -0.016952299608899827 0.024778317996791373 0 -0.018994882762126276 0.025643600354249906 0 -0.020169612247727241 0.022556319785822107 0 -0.021609853590264749 0.022997936623635761 0 -0.021022799178581322 0.023839104414736946 0 -0.016952299608899827 0.024778317996791373 0 -0.018814103979931371 0.024415446803441605 0 -0.016667123439430252 0.024999578290054544 0 -0.017235917197982897 0.025537958317140511 0 -0.018567580072175963 0.025415320294224095 0 -0.016667123439430252 0.024999578290054544 0 -0.018567580072175963 0.025415320294224095 0 -0.01975251978986212 0.024999410944475393 0 -0.017235917197982897 0.025537958317140511 0 -0.018567580072175963 0.025415320294224095 0 -0.01778119060573146 0.026149494064680107 0 -0.017147800216378111 0.025335644215123413 0 -0.022240893056800604 0.025662178970726045 0 -0.018567580072175963 0.025415320294224095 0 -0.01778119060573146 0.026149494064680107 0 -0.019274733445914131 0.026286447594554129 0 -0.030550389048903642 0.027513320017021791 0 -0.026887053494539868 0.026339550523679981 0 -0.028095187433267981 0.023133194669836654 0 -0.022240893056800604 0.025662178970726045 0 -0.023405101754525121 0.026463553356235164 0 -0.026887053494539868 0.026339550523679981 0 -0.028095187433267981 0.023133194669836654 0 -0.025546328218383818 0.023396802816827249 0 -0.022987704840208775 0.023452544422205505 0 -0.022832305262080219 0.024661744390731741 0 -0.022075795001004612 0.024051705841556158 0 -0.022987704840208775 0.023452544422205505 0 -0.022832305262080219 0.024661744390731741 0 -0.023879051401665689 0.024976359506324798 0 -0.022240893056800604 0.025662178970726045 0 -0.026642019515785709 0.024414563759896438 0 -0.022832305262080219 0.024661744390731741 0 -0.021858028382058393 0.025058294545647102 0 -0.023342614622927756 0.025734606247825989 0 -0.022832305262080219 0.024661744390731741 0 -0.023879051401665689 0.024976359506324798 0 -0.023342614622927756 0.025734606247825989 0 -0.028095187433267981 0.023133194669836654 0 -0.026495915847827452 0.022191266190198896 0 -0.026844527269052156 0.020869977615139156 0 -0.028095187433267981 0.023133194669836654 0 -0.026495915847827452 0.022191266190198896 0 -0.025546328218383818 0.023396802816827249 0 -0.018994882762126276 0.025643600354249906 0 -0.022933680410780949 0.024561681881765975 0 -0.018651120966909875 0.025227688147173639 0 -0.022933680410780949 0.024561681881765975 0 -0.015985405598767488 0.027515845900584007 0 -0.017145738048006835 0.02711914669585461 0 -0.018096926877774224 0.028509141993569343 0 -0.021022799178581322 0.023839104414736946 0 -0.022075795001004612 0.024051705841556158 0 -0.021858028382058393 0.025058294545647102 0 -0.022832305262080219 0.024661744390731741 0 -0.022075795001004612 0.024051705841556158 0 -0.021858028382058393 0.025058294545647102 0 -0.028284275323316468 0.020692581641937647 0 -0.028280493577341068 0.020595784385347229 0 -0.028200759883638887 0.020487812930083883 0 -0.022933680410780949 0.024561681881765975 0 -0.026129110829641432 0.023100561837695682 0 -0.023958616348393844 0.023848966828541041 0 -0.02436253760544678 0.024467460917393508 0 -0.022845724872230071 0.023808318646548744 0 -0.022933680410780949 0.024561681881765975 0 -0.026843688036671667 0.021543267573823046 0 -0.026843688036671667 0.021543267573823046 0 -0.025226143019005543 0.021368313026913111 0 -0.028150380685191396 0.019118477419716173 0 -0.027895664573144411 0.018997468021285765 0 -0.027978575500124517 0.019162722883911919 0 -0.021815345743056509 0.022815543015333613 0 -0.023958616348393844 0.023848966828541041 0 -0.022845724872230071 0.023808318646548744 0 -0.027895664573144411 0.018997468021285765 0 -0.027838561397268525 0.019144186556276581 0 -0.027978575500124517 0.019162722883911919 0 -0.027838561397268525 0.019144186556276581 0 -0.027978575500124517 0.019162722883911919 0 -0.027907567342922223 0.019290755391859215 0 -0.027978575500124517 0.019162722883911919 0 -0.028077636891065318 0.019284309288227712 0 -0.027907567342922223 0.019290755391859215 0 -0.028150380685191396 0.019118477419716173 0 -0.027978575500124517 0.019162722883911919 0 -0.028077636891065318 0.019284309288227712 0 -0.026843688036671667 0.021543267573823046 0 -0.028303824682935793 0.019758234659319189 0 -0.028150380685191396 0.019118477419716173 0 -0.028077636891065318 0.019284309288227712 0 -0.028264748661332967 0.019332381337046331 0 -0.028077636891065318 0.019284309288227712 0 -0.028231550221111602 0.019469812088251222 0 -0.027972325255554042 0.019387971676986165 0 -0.028077636891065318 0.019284309288227712 0 -0.028231550221111602 0.019469812088251222 0 -0.028264748661332967 0.019332381337046331 0 -0.027972325255554042 0.019387971676986165 0 -0.027907567342922223 0.019290755391859215 0 -0.027760964428119539 0.019411897418121892 0 -0.028077636891065318 0.019284309288227712 0 -0.027972325255554042 0.019387971676986165 0 -0.027907567342922223 0.019290755391859215 0 -0.026642019515785709 0.024414563759896438 0 -0.026118296178546128 0.02254775346301971 0 -0.026129110829641432 0.023100561837695682 0 -0.026118296178546128 0.02254775346301971 0 -0.023879051401665689 0.024976359506324798 0 -0.023342614622927756 0.025734606247825989 0 -0.024727335799053583 0.026371625663274299 0 -0.028200759883638887 0.020487812930083883 0 -0.028176794550344317 0.020377649246272798 0 -0.027686432646000885 0.020294087448824522 0 -0.028176794550344317 0.020377649246272798 0 -0.028010483127298934 0.020064695758713839 0 -0.027686432646000885 0.020294087448824522 0 -0.028280493577341068 0.020595784385347229 0 -0.028200759883638887 0.020487812930083883 0 -0.028176794550344317 0.020377649246272798 0 -0.026843688036671667 0.021543267573823046 0 -0.028695460713229853 0.020428742268820795 0 -0.028892698240175079 0.020735007038276951 0 -0.028176794550344317 0.020377649246272798 0 -0.028606611039562531 0.020233079216326905 0 -0.028257276158080383 0.020089138236572893 0 -0.028176794550344317 0.020377649246272798 0 -0.028606611039562531 0.020233079216326905 0 -0.028257276158080383 0.020089138236572893 0 -0.028176794550344317 0.020377649246272798 0 -0.028010483127298934 0.020064695758713839 0 -0.028231550221111602 0.019469812088251222 0 -0.028307014426343379 0.019675047653581582 0 -0.028404827117622107 0.019370373407316878 0 -0.028303824682935793 0.019758234659319189 0 -0.028333370710042084 0.019693535217371497 0 -0.028231550221111602 0.019469812088251222 0 -0.028264748661332967 0.019332381337046331 0 -0.028307014426343379 0.019675047653581582 0 -0.028257276158080383 0.020089138236572893 0 -0.028606611039562531 0.020233079216326905 0 -0.028307014426343379 0.019675047653581582 0 -0.028257276158080383 0.020089138236572893 0 -0.028307014426343379 0.019675047653581582 0 -0.028010483127298934 0.020064695758713839 0 -0.028307014426343379 0.019675047653581582 0 -0.027983491953287341 0.019754836590942539 0 -0.028010483127298934 0.020064695758713839 0 -0.027983491953287341 0.019754836590942539 0 -0.028010483127298934 0.020064695758713839 0 -0.027686432646000885 0.020294087448824522 0 -0.027983491953287341 0.019754836590942539 0 -0.028404827117622107 0.019370373407316878 0 -0.028176195701543286 0.019286529903668772 0 -0.028307014426343379 0.019675047653581582 0 -0.027983491953287341 0.019754836590942539 0 -0.028404827117622107 0.019370373407316878 0 -0.028404827117622107 0.019370373407316878 0 -0.028176195701543286 0.019286529903668772 0 -0.028693630178324027 0.01889269072648363 0 -0.028404827117622107 0.019370373407316878 0 -0.028538401009096333 0.01907201529968482 0 -0.028693630178324027 0.01889269072648363 0 -0.028176195701543286 0.019286529903668772 0 -0.028103444119017409 0.018655990777082451 0 -0.028693630178324027 0.01889269072648363 0 -0.027972325255554042 0.019387971676986165 0 -0.028187914093738557 0.019419094366659683 0 -0.027724032370285864 0.019504007532892123 0 -0.027972325255554042 0.019387971676986165 0 -0.027724032370285864 0.019504007532892123 0 -0.027760964428119539 0.019411897418121892 0 -0.028231550221111602 0.019469812088251222 0 -0.027972325255554042 0.019387971676986165 0 -0.028187914093738557 0.019419094366659683 0 -0.028231550221111602 0.019469812088251222 0 -0.028404827117622107 0.019370373407316878 0 -0.028187914093738557 0.019419094366659683 0 -0.028404827117622107 0.019370373407316878 0 -0.028187914093738557 0.019419094366659683 0 -0.028538401009096333 0.01907201529968482 0 -0.028171777537310493 0.019380611493872577 0 -0.028105798659374286 0.019227473909362625 0 -0.028187914093738557 0.019419094366659683 0 -0.027724032370285864 0.019504007532892123 0 -0.027659937334137217 0.019522782045836733 0 -0.027724032370285864 0.019504007532892123 0 -0.027656437542525236 0.019491383028856227 0 -0.027509281764398548 0.019458365956277746 0 -0.027724032370285864 0.019504007532892123 0 -0.027760964428119539 0.019411897418121892 0 -0.027656437542525236 0.019491383028856227 0 -0.02709193304585986 0.01969653399198559 0 -0.027373933610272568 0.01961167661650623 0 -0.026836040835740947 0.019827260075551401 0 -0.027760964428119539 0.019411897418121892 0 -0.027656437542525236 0.019491383028856227 0 -0.027614896458048356 0.019345383057944542 0 -0.02709193304585986 0.01969653399198559 0 -0.026836040835740947 0.019827260075551401 0 -0.026568647230926039 0.019793682307508192 0 -0.027375506527857668 0.019593010930528759 0 -0.027033782441337036 0.019694952169454046 0 -0.02709193304585986 0.01969653399198559 0 -0.027373933610272568 0.01961167661650623 0 -0.027486194153579457 0.019473882494776783 0 -0.027375506527857668 0.019593010930528759 0 -0.027488889365259919 0.019509096835882943 0 -0.025145870481215676 0.020098960474110517 0 -0.025126720243664486 0.020088827673133379 0 -0.02518757566965843 0.020101810908977981 0 -0.025065990787989632 0.020041829980071573 0 -0.025107133460128512 0.020090140759639365 0 -0.02518757566965843 0.020101810908977981 0 -0.025107133460128512 0.020090140759639365 0 -0.025126720243664486 0.020088827673133379 0 -0.025116446867852225 0.020057416975381787 0 -0.025107133460128512 0.020090140759639365 0 -0.025126720243664486 0.020088827673133379 0 -0.02518757566965843 0.020101810908977981 0 -0.025065990787989632 0.020041829980071573 0 -0.025236036072805224 0.020037871573692329 0 -0.025110355124450999 0.019860452732988414 0 -0.025065990787989632 0.020041829980071573 0 -0.02518757566965843 0.020101810908977981 0 -0.025236036072805224 0.020037871573692329 0 -0.026328789833782503 0.019812359439995798 0 -0.026099669510787883 0.019903287390138233 0 -0.025145870481215676 0.020098960474110517 0 -0.02518757566965843 0.020101810908977981 0 -0.025398521212553024 0.020138080412809772 0 -0.02518757566965843 0.020101810908977981 0 -0.025236036072805224 0.020037871573692329 0 -0.025398521212553024 0.020138080412809772 0 -0.025398521212553024 0.020138080412809772 0 -0.025550933484386595 0.019862166413184862 0 -0.025904353591307126 0.019459244577015433 0 -0.025550933484386595 0.019862166413184862 0 -0.024395449930538975 0.02026264116309107 0 -0.025049967808692845 0.019629303664789721 0 -0.025236036072805224 0.020037871573692329 0 -0.025550933484386595 0.019862166413184862 0 -0.025110355124450999 0.019860452732988414 0 -0.025523553197787829 0.019908283178806708 0 -0.02460865955593787 0.020043263966069227 0 -0.025236036072805224 0.020037871573692329 0 -0.025398521212553024 0.020138080412809772 0 -0.025550933484386595 0.019862166413184862 0 -0.023735331576618144 0.019591802417671667 0 -0.024395449930538975 0.02026264116309107 0 -0.024432769254548171 0.01951997597663227 0 -0.024395449930538975 0.02026264116309107 0 -0.024432769254548171 0.01951997597663227 0 -0.025049967808692845 0.019629303664789721 0 -0.024695310075025706 0.019019599736472388 0 -0.024432769254548171 0.01951997597663227 0 -0.024145184347194423 0.01916844893720469 0 -0.024695310075025706 0.019019599736472388 0 -0.024432769254548171 0.01951997597663227 0 -0.025049967808692845 0.019629303664789721 0 -0.023735331576618144 0.019591802417671667 0 -0.024432769254548171 0.01951997597663227 0 -0.024145184347194423 0.01916844893720469 0 -0.025550933484386595 0.019862166413184862 0 -0.025049967808692845 0.019629303664789721 0 -0.025904353591307126 0.019459244577015433 0 -0.024695310075025706 0.019019599736472388 0 -0.025049967808692845 0.019629303664789721 0 -0.025330218670226619 0.019132094021433028 0 -0.025049967808692845 0.019629303664789721 0 -0.025330218670226619 0.019132094021433028 0 -0.025904353591307126 0.019459244577015433 0 -0.025838739718825561 0.019024652744623741 0 -0.025330218670226619 0.019132094021433028 0 -0.025904353591307126 0.019459244577015433 0 -0.02749414072614375 0.019096268160951828 0 -0.027696177196933059 0.019202737382425786 0 -0.027614896458048356 0.019345383057944542 0 -0.027224983889066363 0.018522392159746617 0 -0.027033782441337036 0.019694952169454046 0 -0.025838739718825561 0.019024652744623741 0 -0.025904353591307126 0.019459244577015433 0 -0.026568647230926039 0.019793682307508192 0 -0.027838561397268525 0.019144186556276581 0 -0.027907567342922223 0.019290755391859215 0 -0.027696177196933059 0.019202737382425786 0 -0.027907567342922223 0.019290755391859215 0 -0.027696177196933059 0.019202737382425786 0 -0.027740071212250805 0.019317298765783857 0 -0.027697904320052352 0.019066563236059784 0 -0.027838561397268525 0.019144186556276581 0 -0.027696177196933059 0.019202737382425786 0 -0.027907567342922223 0.019290755391859215 0 -0.027760964428119539 0.019411897418121892 0 -0.027740071212250805 0.019317298765783857 0 -0.027760964428119539 0.019411897418121892 0 -0.027740071212250805 0.019317298765783857 0 -0.027614896458048356 0.019345383057944542 0 -0.027696177196933059 0.019202737382425786 0 -0.027740071212250805 0.019317298765783857 0 -0.027614896458048356 0.019345383057944542 0 -0.026099669510787883 0.019903287390138233 0 -0.025970486918615095 0.019428908685038288 0 -0.026836040835740947 0.019827260075551401 0 -0.025904353591307126 0.019459244577015433 0 -0.026568647230926039 0.019793682307508192 0 -0.024999891723306217 0.022389838896337468 0 -0.024648219925893167 0.022591084156539622 0 -0.024999478485429234 0.022394168929040077 0 -0.02447267681799286 0.023398696690351131 0 -0.025000436421189737 0.022930073053500914 0 -0.024014988300232055 0.023328046203565978 0 -0.02447267681799286 0.023398696690351131 0 -0.025000436421189737 0.022930073053500914 0 -0.024999478485429234 0.022394168929040077 0 -0.02447267681799286 0.023398696690351131 0 -0.024121376849506205 0.024851468641732422 0 -0.023726604780862578 0.024533754638775943 0 -0.02447267681799286 0.023398696690351131 0 -0.024121376849506205 0.024851468641732422 0 -0.023726604780862578 0.024533754638775943 0 -0.024014988300232055 0.023328046203565978 0 -0.023242309577013506 0.024648810942422533 0 -0.023726604780862578 0.024533754638775943 0 -0.024014988300232055 0.023328046203565978 0 -0.02447267681799286 0.023398696690351131 0 -0.023781130687459018 0.024866985019178015 0 -0.024171538627069875 0.024450655075722579 0 -0.02301991818402702 0.024924141585411723 0 -0.023781130687459018 0.024866985019178015 0 -0.024998022566299391 0.022940450566465456 0 -0.024171538627069875 0.024450655075722579 0 -0.023846508244405214 0.024097394258343216 0 -0.024999554005588117 0.02293427698791586 0 -0.024998022566299391 0.022940450566465456 0 -0.024999402707526361 0.024997242229070182 0 -0.024171538627069875 0.024450655075722579 0 -0.024999402707526361 0.024997242229070182 0 -0.024171538627069875 0.024450655075722579 0 -0.022028617441507102 0.024998896041314122 0 -0.024171538627069875 0.024450655075722579 0 -0.022809844345390969 0.024866881172696417 0 -0.022028617441507102 0.024998896041314122 0 -0.024171538627069875 0.024450655075722579 0 -0.022809844345390969 0.024866881172696417 0 -0.02301991818402702 0.024924141585411723 0 -0.022809844345390969 0.024866881172696417 0 -0.022028617441507102 0.024998896041314122 0 -0.021959647275248427 0.025090195490815322 0 -0.022809844345390969 0.024866881172696417 0 -0.022396868658872214 0.025042184470849025 0 -0.021959647275248427 0.025090195490815322 0 -0.022396868658872214 0.025042184470849025 0 -0.02301991818402702 0.024924141585411723 0 -0.022434610640708227 0.025060658529283589 0 -0.022396868658872214 0.025042184470849025 0 -0.022434610640708227 0.025060658529283589 0 -0.021816499622375134 0.025205323451542132 0 -0.022396868658872214 0.025042184470849025 0 -0.021816499622375134 0.025205323451542132 0 -0.021959647275248427 0.025090195490815322 0 -0.022809844345390969 0.024866881172696417 0 -0.022396868658872214 0.025042184470849025 0 -0.02301991818402702 0.024924141585411723 0 -0.024014988300232055 0.023328046203565978 0 -0.023242309577013506 0.024648810942422533 0 -0.022434610640708227 0.025060658529283589 0 -0.023846508244405214 0.024097394258343216 0 -0.022606692412160317 0.024914721570934672 0 -0.023781130687459018 0.024866985019178015 0 -0.02301991818402702 0.024924141585411723 0 -0.022434610640708227 0.025060658529283589 0 -0.022434610640708227 0.025060658529283589 0 -0.02153379316870474 0.025437705522292502 0 -0.022452968141454241 0.025304271152297671 0 -0.023242309577013506 0.024648810942422533 0 -0.022434610640708227 0.025060658529283589 0 -0.022452968141454241 0.025304271152297671 0 -0.02370394914723431 0.023369229655168182 0 -0.023639718086216385 0.023367398285761384 0 -0.022434610640708227 0.025060658529283589 0 -0.02153379316870474 0.025437705522292502 0 -0.021816499622375134 0.025205323451542132 0 -0.02153379316870474 0.025437705522292502 0 -0.021034657907572186 0.025353022390023766 0 -0.021816499622375134 0.025205323451542132 0 -0.02370394914723431 0.023369229655168182 0 -0.023711716803808326 0.023259209268006096 0 -0.02590945013593644 0.021380845712090403 0 -0.026163877795256911 0.021661539988893148 0 -0.026182293374725458 0.02119000136796725 0 -0.02153379316870474 0.025437705522292502 0 -0.021034657907572186 0.025353022390023766 0 -0.020788846886287848 0.024790355605031067 0 -0.021034657907572186 0.025353022390023766 0 -0.021816499622375134 0.025205323451542132 0 -0.021122675069781736 0.025299404793279273 0 -0.022028617441507102 0.024998896041314122 0 -0.021122675069781736 0.025299404793279273 0 -0.01975251978986212 0.024999410944475393 0 -0.021816499622375134 0.025205323451542132 0 -0.021959647275248427 0.025090195490815322 0 -0.021122675069781736 0.025299404793279273 0 -0.022028617441507102 0.024998896041314122 0 -0.021959647275248427 0.025090195490815322 0 -0.021122675069781736 0.025299404793279273 0 -0.021034657907572186 0.025353022390023766 0 -0.021122675069781736 0.025299404793279273 0 -0.020564837662353418 0.025591844317661653 0 -0.021122675069781736 0.025299404793279273 0 -0.020564837662353418 0.025591844317661653 0 -0.01975251978986212 0.024999410944475393 0 -0.018567580072175963 0.025415320294224095 0 -0.020564837662353418 0.025591844317661653 0 -0.01975251978986212 0.024999410944475393 0 -0.018567580072175963 0.025415320294224095 0 -0.019274733445914131 0.026286447594554129 0 -0.020564837662353418 0.025591844317661653 0 -0.019274733445914131 0.026286447594554129 0 -0.020564837662353418 0.025591844317661653 0 -0.021626576118513683 0.025722474298302427 0 -0.023405101754525121 0.026463553356235164 0 -0.021420276579148589 0.025675160568442327 0 -0.026887053494539868 0.026339550523679981 0 -0.021626576118513683 0.025722474298302427 0 -0.025546328218383818 0.023396802816827249 0 -0.021034657907572186 0.025353022390023766 0 -0.020564837662353418 0.025591844317661653 0 -0.021626576118513683 0.025722474298302427 0 -0.021034657907572186 0.025353022390023766 0 -0.021626576118513683 0.025722474298302427 0 -0.020788846886287848 0.024790355605031067 0 -0.026163877795256911 0.021661539988893148 0 -0.026141700594211253 0.021870278827349109 0 -0.026273989194052688 0.021457037881755396 0 -0.023711716803808326 0.023259209268006096 0 -0.025617770884713894 0.023476567657864746 0 -0.021626576118513683 0.025722474298302427 0 -0.020788846886287848 0.024790355605031067 0 -0.025546328218383818 0.023396802816827249 0 -0.026163877795256911 0.021661539988893148 0 -0.026141700594211253 0.021870278827349109 0 -0.025546328218383818 0.023396802816827249 0 -0.026141700594211253 0.021870278827349109 0 -0.026495915847827452 0.022191266190198896 0 -0.025546328218383818 0.023396802816827249 0 -0.026530634661378352 0.021145999885205914 0 -0.026701818399284635 0.021039651857863908 0 -0.02686818817930987 0.020678614299635242 0 -0.026701818399284635 0.021039651857863908 0 -0.026897146845101444 0.020919776258179635 0 -0.02686818817930987 0.020678614299635242 0 -0.026530634661378352 0.021145999885205914 0 -0.026701818399284635 0.021039651857863908 0 -0.026576753276210521 0.021298414196165016 0 -0.02620488598590124 0.022367927829417739 0 -0.026118296178546128 0.02254775346301971 0 -0.026897146845101444 0.020919776258179635 0 -0.026844527269052156 0.020869977615139156 0 -0.026576753276210521 0.021298414196165016 0 -0.026701818399284635 0.021039651857863908 0 -0.026897146845101444 0.020919776258179635 0 -0.026576753276210521 0.021298414196165016 0 -0.026495915847827452 0.022191266190198896 0 -0.026844527269052156 0.020869977615139156 0 -0.026576753276210521 0.021298414196165016 0 -0.026141700594211253 0.021870278827349109 0 -0.026495915847827452 0.022191266190198896 0 -0.026576753276210521 0.021298414196165016 0 -0.026141700594211253 0.021870278827349109 0 -0.026530634661378352 0.021145999885205914 0 -0.026576753276210521 0.021298414196165016 0 -0.026141700594211253 0.021870278827349109 0 -0.026530634661378352 0.021145999885205914 0 -0.026273989194052688 0.021457037881755396 0 -0.026273989194052688 0.021457037881755396 0 -0.026448522884331215 0.020935009903108526 0 -0.026182293374725458 0.02119000136796725 0 -0.026163877795256911 0.021661539988893148 0 -0.026273989194052688 0.021457037881755396 0 -0.026182293374725458 0.02119000136796725 0 -0.026530634661378352 0.021145999885205914 0 -0.026448522884331215 0.020935009903108526 0 -0.02686818817930987 0.020678614299635242 0 -0.026530634661378352 0.021145999885205914 0 -0.026273989194052688 0.021457037881755396 0 -0.026448522884331215 0.020935009903108526 0 -0.026448522884331215 0.020935009903108526 0 -0.026842309914600737 0.020212781618059235 0 -0.02686818817930987 0.020678614299635242 0 -0.026448522884331215 0.020935009903108526 0 -0.026842309914600737 0.020212781618059235 0 -0.026371948965262015 0.02046697463670643 0 -0.026842309914600737 0.020212781618059235 0 -0.026733582354698512 0.019780551407028404 0 -0.026371948965262015 0.02046697463670643 0 -0.026842309914600737 0.020212781618059235 0 -0.027324764067069331 0.020082039516768728 0 -0.02686818817930987 0.020678614299635242 0 -0.027983491953287341 0.019754836590942539 0 -0.027686432646000885 0.020294087448824522 0 -0.027324764067069331 0.020082039516768728 0 -0.026897146845101444 0.020919776258179635 0 -0.027324764067069331 0.020082039516768728 0 -0.02686818817930987 0.020678614299635242 0 -0.026897146845101444 0.020919776258179635 0 -0.026906157874348784 0.021036323473548342 0 -0.027324764067069331 0.020082039516768728 0 -0.026118296178546128 0.02254775346301971 0 -0.027046516014545989 0.019779426557960385 0 -0.027983491953287341 0.019754836590942539 0 -0.028176195701543286 0.019286529903668772 0 -0.027441702802219917 0.01943400582899088 0 -0.026842309914600737 0.020212781618059235 0 -0.027324764067069331 0.020082039516768728 0 -0.027441702802219917 0.01943400582899088 0 -0.027983491953287341 0.019754836590942539 0 -0.027324764067069331 0.020082039516768728 0 -0.027441702802219917 0.01943400582899088 0 -0.028176195701543286 0.019286529903668772 0 -0.027441702802219917 0.01943400582899088 0 -0.028103444119017409 0.018655990777082451 0 -0.027441702802219917 0.01943400582899088 0 -0.027460025468118109 0.018536056347788678 0 -0.028103444119017409 0.018655990777082451 0 -0.027441702802219917 0.01943400582899088 0 -0.026837760599105028 0.019100301111818256 0 -0.027460025468118109 0.018536056347788678 0 -0.026842309914600737 0.020212781618059235 0 -0.027441702802219917 0.01943400582899088 0 -0.026733582354698512 0.019780551407028404 0 -0.027441702802219917 0.01943400582899088 0 -0.026733582354698512 0.019780551407028404 0 -0.026837760599105028 0.019100301111818256 0 -0.026733582354698512 0.019780551407028404 0 -0.026300179808889206 0.019649870682975832 0 -0.026371948965262015 0.02046697463670643 0 -0.026733582354698512 0.019780551407028404 0 -0.026837760599105028 0.019100301111818256 0 -0.026300179808889206 0.019649870682975832 0 -0.026837760599105028 0.019100301111818256 0 -0.026438685290094566 0.018834310638263529 0 -0.026944328275705875 0.018389531120711063 0 -0.026837760599105028 0.019100301111818256 0 -0.026438685290094566 0.018834310638263529 0 -0.026300179808889206 0.019649870682975832 0 -0.026438685290094566 0.018834310638263529 0 -0.026300179808889206 0.019649870682975832 0 -0.026255922102787599 0.019536807301633017 0 -0.026300179808889206 0.019649870682975832 0 -0.025767331581929377 0.020793838696725908 0 -0.024938108181343403 0.020434982486534071 0 -0.026300179808889206 0.019649870682975832 0 -0.026371948965262015 0.02046697463670643 0 -0.025767331581929377 0.020793838696725908 0 -0.026448522884331215 0.020935009903108526 0 -0.026371948965262015 0.02046697463670643 0 -0.026182293374725458 0.02119000136796725 0 -0.026371948965262015 0.02046697463670643 0 -0.026182293374725458 0.02119000136796725 0 -0.025767331581929377 0.020793838696725908 0 -0.02590945013593644 0.021380845712090403 0 -0.026182293374725458 0.02119000136796725 0 -0.025767331581929377 0.020793838696725908 0 -0.02590945013593644 0.021380845712090403 0 -0.025767331581929377 0.020793838696725908 0 -0.025066203985207064 0.021258282601687474 0 -0.025767331581929377 0.020793838696725908 0 -0.025066203985207064 0.021258282601687474 0 -0.024938108181343403 0.020434982486534071 0 -0.025757648469823265 0.020155731399687214 0 -0.024572176640648129 0.021966888695940448 0 -0.025066203985207064 0.021258282601687474 0 -0.024938108181343403 0.020434982486534071 0 -0.024067580807114436 0.021034329997289401 0 -0.023242309577013506 0.024648810942422533 0 -0.022452968141454241 0.025304271152297671 0 -0.023866892692662661 0.025019543208669615 0 -0.023639718086216385 0.023367398285761384 0 -0.024572176640648129 0.021966888695940448 0 -0.023726604780862578 0.024533754638775943 0 -0.023242309577013506 0.024648810942422533 0 -0.023866892692662661 0.025019543208669615 0 -0.026355519252356394 0.020126682091465585 0 -0.025982680092590547 0.02051656989512626 0 -0.02596451649481096 0.021100132588316153 0 -0.026355519252356394 0.020126682091465585 0 -0.026088754587029531 0.019806675512388957 0 -0.025982680092590547 0.02051656989512626 0 -0.026203736418126337 0.019757525919936934 0 -0.025757648469823265 0.020155731399687214 0 -0.026300179808889206 0.019649870682975832 0 -0.026355519252356394 0.020126682091465585 0 -0.026255922102787599 0.019536807301633017 0 -0.026438685290094566 0.018834310638263529 0 -0.026255922102787599 0.019536807301633017 0 -0.025993344236940091 0.019033411296339561 0 -0.026255922102787599 0.019536807301633017 0 -0.025993344236940091 0.019033411296339561 0 -0.026088754587029531 0.019806675512388957 0 -0.026355519252356394 0.020126682091465585 0 -0.026255922102787599 0.019536807301633017 0 -0.026088754587029531 0.019806675512388957 0 -0.025993344236940091 0.019033411296339561 0 -0.026088754587029531 0.019806675512388957 0 -0.025713633698370989 0.019782940697184784 0 -0.025993344236940091 0.019033411296339561 0 -0.025713633698370989 0.019782940697184784 0 -0.025488549036607969 0.018911914415443709 0 -0.025713633698370989 0.019782940697184784 0 -0.025488549036607969 0.018911914415443709 0 -0.024999789294018502 0.019593196727220465 0 -0.025488549036607969 0.018911914415443709 0 -0.024999789294018502 0.019593196727220465 0 -0.024999691037589693 0.018195417969704798 0 -0.025713633698370989 0.019782940697184784 0 -0.024999789294018502 0.019593196727220465 0 -0.025541853941503954 0.02071476686836694 0 -0.024999789294018502 0.019593196727220465 0 -0.024999743139818783 0.020990786492726867 0 -0.025541853941503954 0.02071476686836694 0 -0.025713633698370989 0.019782940697184784 0 -0.025982680092590547 0.02051656989512626 0 -0.025541853941503954 0.02071476686836694 0 -0.026088754587029531 0.019806675512388957 0 -0.025713633698370989 0.019782940697184784 0 -0.025982680092590547 0.02051656989512626 0 -0.025982680092590547 0.02051656989512626 0 -0.025541853941503954 0.02071476686836694 0 -0.02575092760312148 0.020898713953024596 0 -0.02575092760312148 0.020898713953024596 0 -0.025589189971807907 0.021127552905162127 0 -0.025883528395494747 0.021253404847730792 0 -0.025541853941503954 0.02071476686836694 0 -0.02575092760312148 0.020898713953024596 0 -0.025589189971807907 0.021127552905162127 0 -0.025982680092590547 0.02051656989512626 0 -0.02575092760312148 0.020898713953024596 0 -0.025883528395494747 0.021253404847730792 0 -0.025982680092590547 0.02051656989512626 0 -0.02596451649481096 0.021100132588316153 0 -0.025883528395494747 0.021253404847730792 0 -0.023726604780862578 0.024533754638775943 0 -0.023866892692662661 0.025019543208669615 0 -0.024121376849506205 0.024851468641732422 0 -0.024572176640648129 0.021966888695940448 0 -0.024648219925893167 0.022591084156539622 0 -0.025589189971807907 0.021127552905162127 0 -0.025883528395494747 0.021253404847730792 0 -0.025329688794423166 0.021462294697763323 0 -0.024999743139818783 0.020990786492726867 0 -0.025541853941503954 0.02071476686836694 0 -0.025329688794423166 0.021462294697763323 0 -0.024999974115625399 0.022388815301567295 0 -0.024999743139818783 0.020990786492726867 0 -0.025329688794423166 0.021462294697763323 0 -0.024999974115625399 0.022388815301567295 0 -0.025883528395494747 0.021253404847730792 0 -0.025329688794423166 0.021462294697763323 0 -0.025541853941503954 0.02071476686836694 0 -0.025589189971807907 0.021127552905162127 0 -0.025329688794423166 0.021462294697763323 0 -0.024999721768740022 0.016797798342418884 0 -0.025843415349262048 0.017012131570471638 0 -0.026009457301321225 0.015709572258283094 0 -0.024999721768740022 0.016797798342418884 0 -0.026009457301321225 0.015709572258283094 0 -0.024999869185128202 0.015399857511062025 0 -0.025825055672176356 0.016895582352774288 0 -0.025613625579933963 0.015713640662453544 0 -0.024999721768740022 0.016797798342418884 0 -0.025603226091877603 0.017987238629113403 0 -0.025843415349262048 0.017012131570471638 0 -0.024999721768740022 0.016797798342418884 0 -0.024999691037589693 0.018195417969704798 0 -0.025603226091877603 0.017987238629113403 0 -0.025488549036607969 0.018911914415443709 0 -0.024999691037589693 0.018195417969704798 0 -0.025603226091877603 0.017987238629113403 0 -0.025993344236940091 0.019033411296339561 0 -0.025488549036607969 0.018911914415443709 0 -0.025603226091877603 0.017987238629113403 0 -0.025603226091877603 0.017987238629113403 0 -0.026173282055722443 0.017863754669547822 0 -0.025843415349262048 0.017012131570471638 0 -0.025993344236940091 0.019033411296339561 0 -0.025603226091877603 0.017987238629113403 0 -0.026173282055722443 0.017863754669547822 0 -0.026438685290094566 0.018834310638263529 0 -0.026173282055722443 0.017863754669547822 0 -0.026704772801808808 0.017663189797918238 0 -0.026438685290094566 0.018834310638263529 0 -0.025993344236940091 0.019033411296339561 0 -0.026173282055722443 0.017863754669547822 0 -0.026173282055722443 0.017863754669547822 0 -0.026451342372058304 0.016509938563975514 0 -0.026704772801808808 0.017663189797918238 0 -0.026173282055722443 0.017863754669547822 0 -0.025843415349262048 0.017012131570471638 0 -0.026451342372058304 0.016509938563975514 0 -0.025843415349262048 0.017012131570471638 0 -0.02594912552097187 0.016005400100179219 0 -0.025201933860990115 0.015732551751540386 0 -0.025843415349262048 0.017012131570471638 0 -0.02594912552097187 0.016005400100179219 0 -0.026451342372058304 0.016509938563975514 0 -0.02594912552097187 0.016005400100179219 0 -0.026451342372058304 0.016509938563975514 0 -0.02617276831279141 0.015149884355399768 0 -0.026451342372058304 0.016509938563975514 0 -0.027126510366948794 0.016589595643932011 0 -0.026989158655151162 0.015331311205753848 0 -0.027126510366948794 0.016589595643932011 0 -0.027603418855280042 0.015590160015534269 0 -0.026989158655151162 0.015331311205753848 0 -0.027126510366948794 0.016589595643932011 0 -0.027715404202881967 0.016609502512644345 0 -0.027603418855280042 0.015590160015534269 0 -0.027126510366948794 0.016589595643932011 0 -0.026704772801808808 0.017663189797918238 0 -0.027317234910357899 0.017661531457063315 0 -0.027126510366948794 0.016589595643932011 0 -0.027317234910357899 0.017661531457063315 0 -0.027715404202881967 0.016609502512644345 0 -0.026451342372058304 0.016509938563975514 0 -0.027126510366948794 0.016589595643932011 0 -0.026704772801808808 0.017663189797918238 0 -0.026438685290094566 0.018834310638263529 0 -0.026704772801808808 0.017663189797918238 0 -0.026944328275705875 0.018389531120711063 0 -0.026837760599105028 0.019100301111818256 0 -0.026944328275705875 0.018389531120711063 0 -0.027460025468118109 0.018536056347788678 0 -0.026944328275705875 0.018389531120711063 0 -0.027317234910357899 0.017661531457063315 0 -0.027460025468118109 0.018536056347788678 0 -0.026704772801808808 0.017663189797918238 0 -0.026944328275705875 0.018389531120711063 0 -0.027317234910357899 0.017661531457063315 0 -0.027317234910357899 0.017661531457063315 0 -0.027460025468118109 0.018536056347788678 0 -0.027946119705192556 0.017692879516715346 0 -0.027460025468118109 0.018536056347788678 0 -0.028103444119017409 0.018655990777082451 0 -0.027946119705192556 0.017692879516715346 0 -0.028103444119017409 0.018655990777082451 0 -0.027946119705192556 0.017692879516715346 0 -0.028917873486585435 0.017670620122473633 0 -0.027946119705192556 0.017692879516715346 0 -0.028271746617021483 0.016808950878923964 0 -0.027715404202881967 0.016609502512644345 0 -0.027946119705192556 0.017692879516715346 0 -0.028271746617021483 0.016808950878923964 0 -0.028917873486585435 0.017670620122473633 0 -0.027317234910357899 0.017661531457063315 0 -0.027946119705192556 0.017692879516715346 0 -0.027715404202881967 0.016609502512644345 0 -0.027715404202881967 0.016609502512644345 0 -0.028312071982929187 0.01575347881018958 0 -0.027603418855280042 0.015590160015534269 0 -0.028271746617021483 0.016808950878923964 0 -0.027715404202881967 0.016609502512644345 0 -0.028312071982929187 0.01575347881018958 0 -0.028271746617021483 0.016808950878923964 0 -0.028312071982929187 0.01575347881018958 0 -0.028971651370640419 0.016596378401699387 0 -0.028312071982929187 0.01575347881018958 0 -0.028014914114384903 0.014803358771945821 0 -0.028636603374073293 0.014575244821693079 0 -0.028312071982929187 0.01575347881018958 0 -0.028636603374073293 0.014575244821693079 0 -0.029027485598299662 0.015212940781131298 0 -0.028312071982929187 0.01575347881018958 0 -0.028014914114384903 0.014803358771945821 0 -0.027603418855280042 0.015590160015534269 0 -0.028014914114384903 0.014803358771945821 0 -0.028636603374073293 0.014575244821693079 0 -0.028151685403057191 0.013771633344365744 0 -0.028014914114384903 0.014803358771945821 0 -0.027486585518094183 0.014421573242362132 0 -0.027603418855280042 0.015590160015534269 0 -0.028014914114384903 0.014803358771945821 0 -0.028151685403057191 0.013771633344365744 0 -0.027486585518094183 0.014421573242362132 0 -0.028911119946014537 0.013784981280592808 0 -0.028683302368638135 0.013154066964958383 0 -0.028151685403057191 0.013771633344365744 0 -0.028636603374073293 0.014575244821693079 0 -0.028911119946014537 0.013784981280592808 0 -0.028151685403057191 0.013771633344365744 0 -0.028683302368638135 0.013154066964958383 0 -0.029396126995337647 0.012639924845170111 0 -0.028719624429220221 0.01237441299824844 0 -0.028683302368638135 0.013154066964958383 0 -0.027888978996982429 0.012665238388877943 0 -0.028719624429220221 0.01237441299824844 0 -0.028151685403057191 0.013771633344365744 0 -0.02743515066361886 0.013579188616169767 0 -0.027888978996982429 0.012665238388877943 0 -0.028683302368638135 0.013154066964958383 0 -0.028151685403057191 0.013771633344365744 0 -0.027888978996982429 0.012665238388877943 0 -0.028151685403057191 0.013771633344365744 0 -0.02743515066361886 0.013579188616169767 0 -0.027486585518094183 0.014421573242362132 0 -0.02743515066361886 0.013579188616169767 0 -0.026918639205434365 0.014269312327268972 0 -0.027486585518094183 0.014421573242362132 0 -0.02743515066361886 0.013579188616169767 0 -0.027248142062502576 0.012942565870322753 0 -0.027888978996982429 0.012665238388877943 0 -0.02743515066361886 0.013579188616169767 0 -0.027248142062502576 0.012942565870322753 0 -0.02682857587044175 0.013428339183318224 0 -0.027248142062502576 0.012942565870322753 0 -0.026857462520990336 0.012808972855988175 0 -0.02682857587044175 0.013428339183318224 0 -0.026857462520990336 0.012808972855988175 0 -0.02682857587044175 0.013428339183318224 0 -0.026349450128111972 0.012917715864295694 0 -0.02682857587044175 0.013428339183318224 0 -0.026918639205434365 0.014269312327268972 0 -0.026302109769522304 0.013824502258696072 0 -0.02743515066361886 0.013579188616169767 0 -0.02682857587044175 0.013428339183318224 0 -0.026918639205434365 0.014269312327268972 0 -0.026918639205434365 0.014269312327268972 0 -0.026989158655151162 0.015331311205753848 0 -0.02617276831279141 0.015149884355399768 0 -0.026918639205434365 0.014269312327268972 0 -0.027486585518094183 0.014421573242362132 0 -0.026989158655151162 0.015331311205753848 0 -0.027486585518094183 0.014421573242362132 0 -0.027603418855280042 0.015590160015534269 0 -0.026989158655151162 0.015331311205753848 0 -0.026451342372058304 0.016509938563975514 0 -0.026989158655151162 0.015331311205753848 0 -0.02617276831279141 0.015149884355399768 0 -0.02594912552097187 0.016005400100179219 0 -0.02617276831279141 0.015149884355399768 0 -0.025582749327777328 0.014922502976751888 0 -0.02594912552097187 0.016005400100179219 0 -0.025582749327777328 0.014922502976751888 0 -0.025201933860990115 0.015732551751540386 0 -0.02617276831279141 0.015149884355399768 0 -0.025755627047693897 0.014149937669038392 0 -0.026302109769522304 0.013824502258696072 0 -0.02617276831279141 0.015149884355399768 0 -0.025582749327777328 0.014922502976751888 0 -0.025755627047693897 0.014149937669038392 0 -0.026918639205434365 0.014269312327268972 0 -0.02617276831279141 0.015149884355399768 0 -0.026302109769522304 0.013824502258696072 0 -0.02682857587044175 0.013428339183318224 0 -0.026302109769522304 0.013824502258696072 0 -0.026349450128111972 0.012917715864295694 0 -0.025751418730864752 0.013339140441640933 0 -0.025621958768857592 0.01272841404678713 0 -0.025913280999910374 0.01257438399633024 0 -0.026349450128111972 0.012917715864295694 0 -0.025751418730864752 0.013339140441640933 0 -0.025913280999910374 0.01257438399633024 0 -0.025755627047693897 0.014149937669038392 0 -0.026302109769522304 0.013824502258696072 0 -0.025751418730864752 0.013339140441640933 0 -0.026302109769522304 0.013824502258696072 0 -0.026349450128111972 0.012917715864295694 0 -0.025751418730864752 0.013339140441640933 0 -0.025755627047693897 0.014149937669038392 0 -0.025751418730864752 0.013339140441640933 0 -0.025057351099832183 0.014263189725765402 0 -0.025751418730864752 0.013339140441640933 0 -0.025376161515704345 0.013006340747065293 0 -0.025057351099832183 0.014263189725765402 0 -0.025365569801406463 0.013126382321516314 0 -0.025472095078319403 0.014304932835591947 0 -0.025751418730864752 0.013339140441640933 0 -0.025621958768857592 0.01272841404678713 0 -0.025376161515704345 0.013006340747065293 0 -0.025621958768857592 0.01272841404678713 0 -0.025376161515704345 0.013006340747065293 0 -0.025419069879218808 0.012471688063851011 0 -0.024999678436037079 0.012604023106256671 0 -0.025376161515704345 0.013006340747065293 0 -0.024999813835217186 0.01400168636931815 0 -0.024999678436037079 0.012604023106256671 0 -0.025376161515704345 0.013006340747065293 0 -0.025419069879218808 0.012471688063851011 0 -0.025376161515704345 0.013006340747065293 0 -0.024999813835217186 0.01400168636931815 0 -0.025873747662979629 0.01433532561725577 0 -0.024999813835217186 0.01400168636931815 0 -0.025873747662979629 0.01433532561725577 0 -0.024999869185128202 0.015399857511062025 0 -0.025582749327777328 0.014922502976751888 0 -0.025755627047693897 0.014149937669038392 0 -0.025057351099832183 0.014263189725765402 0 -0.025472095078319403 0.014304932835591947 0 -0.025613625579933963 0.015713640662453544 0 -0.025873747662979629 0.01433532561725577 0 -0.026009457301321225 0.015709572258283094 0 -0.024999869185128202 0.015399857511062025 0 -0.025582749327777328 0.014922502976751888 0 -0.025057351099832183 0.014263189725765402 0 -0.025201933860990115 0.015732551751540386 0 -0.027691742064800032 0.019064616451227819 0 -0.027650408447490612 0.018896750428927061 0 -0.027824829625910506 0.018853515703187225 0 -0.027691742064800032 0.019064616451227819 0 -0.027545532826888788 0.019167951715559722 0 -0.027650408447490612 0.018896750428927061 0 -0.027691742064800032 0.019064616451227819 0 -0.027824829625910506 0.018853515703187225 0 -0.027751711681819082 0.019164006102002779 0 -0.026236991122902713 0.016407160121194111 0 -0.02639796351263185 0.019701893514237966 0 -0.027691742064800032 0.019064616451227819 0 -0.027654611355541071 0.019207254808574784 0 -0.027751711681819082 0.019164006102002779 0 -0.027691742064800032 0.019064616451227819 0 -0.027654611355541071 0.019207254808574784 0 -0.027545532826888788 0.019167951715559722 0 -0.027545532826888788 0.019167951715559722 0 -0.027447090342906516 0.019312836308016713 0 -0.027342894264131327 0.019100133745699899 0 -0.027545532826888788 0.019167951715559722 0 -0.027351878310775509 0.018874445571126719 0 -0.027342894264131327 0.019100133745699899 0 -0.027545532826888788 0.019167951715559722 0 -0.027523173116834637 0.018803048704193644 0 -0.027351878310775509 0.018874445571126719 0 -0.027545532826888788 0.019167951715559722 0 -0.027523173116834637 0.018803048704193644 0 -0.027650408447490612 0.018896750428927061 0 -0.027523173116834637 0.018803048704193644 0 -0.027597708969627488 0.01867215670965329 0 -0.027650408447490612 0.018896750428927061 0 -0.027523173116834637 0.018803048704193644 0 -0.027597708969627488 0.01867215670965329 0 -0.027357781801266103 0.018580168511734801 0 -0.027523173116834637 0.018803048704193644 0 -0.027351878310775509 0.018874445571126719 0 -0.027357781801266103 0.018580168511734801 0 -0.027597708969627488 0.01867215670965329 0 -0.027357781801266103 0.018580168511734801 0 -0.027569390346594259 0.018207535530789437 0 -0.028183058660366342 0.018448600732930552 0 -0.028125787372175554 0.018498128202812603 0 -0.028354142696442909 0.018803617061078449 0 -0.027597708969627488 0.01867215670965329 0 -0.027824829625910506 0.018853515703187225 0 -0.027569390346594259 0.018207535530789437 0 -0.028125787372175554 0.018498128202812603 0 -0.028354142696442909 0.018803617061078449 0 -0.027569390346594259 0.018207535530789437 0 -0.026236991122902713 0.016407160121194111 0 -0.028414931430959849 0.019132027087583211 0 -0.02819536470435997 0.018454093609208057 0 -0.028125787372175554 0.018498128202812603 0 -0.027569390346594259 0.018207535530789437 0 -0.026001363677260542 0.013159739486302013 0 -0.025959007036361163 0.013439511213823981 0 -0.027597708969627488 0.01867215670965329 0 -0.027650408447490612 0.018896750428927061 0 -0.027824829625910506 0.018853515703187225 0 -0.026001363677260542 0.013159739486302013 0 -0.026236991122902713 0.016407160121194111 0 -0.025829498300509287 0.0094105967439627475 0 -0.025613411994656186 0.0088920323258531529 0 -0.025320057109609214 0.0091193970911919095 0 -0.025829498300509287 0.0094105967439627475 0 -0.024946517284492174 0.0094500238200877582 0 -0.025320057109609214 0.0091193970911919095 0 -0.024946517284492174 0.0094500238200877582 0 -0.024884842500960208 0.008719406654097166 0 -0.024133685976977293 0.0085952252825921074 0 -0.024946517284492174 0.0094500238200877582 0 -0.025320057109609214 0.0091193970911919095 0 -0.024884842500960208 0.008719406654097166 0 -0.025613411994656186 0.0088920323258531529 0 -0.025320057109609214 0.0091193970911919095 0 -0.024884842500960208 0.008719406654097166 0 -0.024946517284492174 0.0094500238200877582 0 -0.023816149422885312 0.0093422911987207959 0 -0.024133685976977293 0.0085952252825921074 0 -0.023060283831646013 0.0083951281231127942 0 -0.023816149422885312 0.0093422911987207959 0 -0.024133685976977293 0.0085952252825921074 0 -0.023546748687929112 0.011200942405381442 0 -0.02401864020579602 0.015003717527520853 0 -0.023060283831646013 0.0083951281231127942 0 -0.02344622492758883 0.007643369688538325 0 -0.024133685976977293 0.0085952252825921074 0 -0.02344622492758883 0.007643369688538325 0 -0.024133685976977293 0.0085952252825921074 0 -0.024635286961763259 0.0080228927745426629 0 -0.026236991122902713 0.016407160121194111 0 -0.02401864020579602 0.015003717527520853 0 -0.025613411994656186 0.0088920323258531529 0 -0.024884842500960208 0.008719406654097166 0 -0.024635286961763259 0.0080228927745426629 0 -0.024510338806397653 0.018993057761556652 0 -0.025058051472551753 0.019551348389760505 0 -0.024896300849861015 0.019498320580882248 0 -0.024510338806397653 0.018993057761556652 0 -0.024896300849861015 0.019498320580882248 0 -0.024723613320596003 0.019566807472886302 0 -0.024884842500960208 0.008719406654097166 0 -0.024133685976977293 0.0085952252825921074 0 -0.024635286961763259 0.0080228927745426629 0 -0.02401864020579602 0.015003717527520853 0 -0.025014760796819656 0.016219558967010935 0 -0.025010129551105421 0.019581281074281601 0 -0.024896300849861015 0.019498320580882248 0 -0.024871385938649068 0.019691905803949625 0 -0.024896300849861015 0.019498320580882248 0 -0.024723613320596003 0.019566807472886302 0 -0.024871385938649068 0.019691905803949625 0 -0.025010129551105421 0.019581281074281601 0 -0.0250088366499958 0.019899637593457677 0 -0.025079437977675954 0.019937552930210642 0 -0.024723613320596003 0.019566807472886302 0 -0.024871385938649068 0.019691905803949625 0 -0.024922799215421593 0.019956891709793159 0 -0.02639796351263185 0.019701893514237966 0 -0.025704408783060954 0.019720168935676678 0 -0.027751711681819082 0.019164006102002779 0 -0.027683732006144466 0.019364071663755561 0 -0.027653805918726463 0.019293468601408178 0 -0.025010129551105421 0.019581281074281601 0 -0.024871385938649068 0.019691905803949625 0 -0.024929396833276826 0.019853635497108762 0 -0.024871385938649068 0.019691905803949625 0 -0.024929396833276826 0.019853635497108762 0 -0.024922799215421593 0.019956891709793159 0 -0.025010129551105421 0.019581281074281601 0 -0.024929396833276826 0.019853635497108762 0 -0.0250088366499958 0.019899637593457677 0 -0.024940034945957049 0.019920845134826858 0 -0.0250088366499958 0.019899637593457677 0 -0.025057943373277037 0.02003665018154557 0 -0.0250088366499958 0.019899637593457677 0 -0.025079437977675954 0.019937552930210642 0 -0.025057943373277037 0.02003665018154557 0 -0.025578260951976056 0.019824002175301711 0 -0.025704408783060954 0.019720168935676678 0 -0.024929396833276826 0.019853635497108762 0 -0.024940034945957049 0.019920845134826858 0 -0.0250088366499958 0.019899637593457677 0 -0.027683732006144466 0.019364071663755561 0 -0.027598660403826938 0.019374521453233515 0 -0.027653805918726463 0.019293468601408178 0 -0.025168074896767728 0.019988629114252834 0 -0.025010129551105421 0.019581281074281601 0 -0.025079437977675954 0.019937552930210642 0 -0.023254773448247626 0.01519942190712986 0 -0.023249128755331694 0.01524224105031572 0 -0.02323161998439072 0.015176936584835344 0 -0.024542724540758964 0.017948619867770074 0 -0.02401864020579602 0.015003717527520853 0 -0.025168074896767728 0.019988629114252834 0 -0.025102107461456101 0.020067878692044232 0 -0.025116446867852225 0.020057416975381787 0 -0.025168074896767728 0.019988629114252834 0 -0.025079437977675954 0.019937552930210642 0 -0.025116446867852225 0.020057416975381787 0 -0.025079437977675954 0.019937552930210642 0 -0.025116446867852225 0.020057416975381787 0 -0.025057943373277037 0.02003665018154557 0 -0.025126720243664486 0.020088827673133379 0 -0.025116446867852225 0.020057416975381787 0 -0.025057943373277037 0.02003665018154557 0 -0.025102107461456101 0.020067878692044232 0 -0.025107133460128512 0.020090140759639365 0 -0.025116446867852225 0.020057416975381787 0 -0.027373933610272568 0.01961167661650623 0 -0.027683732006144466 0.019364071663755561 0 -0.027486194153579457 0.019473882494776783 0 -0.025145870481215676 0.020098960474110517 0 -0.025022025704174462 0.020010187626446043 0 -0.025057943373277037 0.02003665018154557 0 -0.026328789833782503 0.019812359439995798 0 -0.025704408783060954 0.019720168935676678 0 -0.025145870481215676 0.020098960474110517 0 -0.025126720243664486 0.020088827673133379 0 -0.025057943373277037 0.02003665018154557 0 -0.027683732006144466 0.019364071663755561 0 -0.027486194153579457 0.019473882494776783 0 -0.027598660403826938 0.019374521453233515 0 -0.025704408783060954 0.019720168935676678 0 -0.025347780031011177 0.019872350377618874 0 -0.027486194153579457 0.019473882494776783 0 -0.027587852358890601 0.019344051734481057 0 -0.027509281764398548 0.019458365956277746 0 -0.02709193304585986 0.01969653399198559 0 -0.027486194153579457 0.019473882494776783 0 -0.027509281764398548 0.019458365956277746 0 -0.027486194153579457 0.019473882494776783 0 -0.027598660403826938 0.019374521453233515 0 -0.027587852358890601 0.019344051734481057 0 -0.027545532826888788 0.019167951715559722 0 -0.027587852358890601 0.019344051734481057 0 -0.027509281764398548 0.019458365956277746 0 -0.027598660403826938 0.019374521453233515 0 -0.027587852358890601 0.019344051734481057 0 -0.027653805918726463 0.019293468601408178 0 -0.027654611355541071 0.019207254808574784 0 -0.027545532826888788 0.019167951715559722 0 -0.027587852358890601 0.019344051734481057 0 -0.027654611355541071 0.019207254808574784 0 -0.027587852358890601 0.019344051734481057 0 -0.027653805918726463 0.019293468601408178 0 -0.027654611355541071 0.019207254808574784 0 -0.027751711681819082 0.019164006102002779 0 -0.027653805918726463 0.019293468601408178 0 -0.027545532826888788 0.019167951715559722 0 -0.027509281764398548 0.019458365956277746 0 -0.027447090342906516 0.019312836308016713 0 -0.027509281764398548 0.019458365956277746 0 -0.027551105650512969 0.019462504680144928 0 -0.027447090342906516 0.019312836308016713 0 -0.027724032370285864 0.019504007532892123 0 -0.027509281764398548 0.019458365956277746 0 -0.027551105650512969 0.019462504680144928 0 -0.027551105650512969 0.019462504680144928 0 -0.027659937334137217 0.019522782045836733 0 -0.027285017353179054 0.019308493108274476 0 -0.027724032370285864 0.019504007532892123 0 -0.027551105650512969 0.019462504680144928 0 -0.027659937334137217 0.019522782045836733 0 -0.028105798659374286 0.019227473909362625 0 -0.027869433288582497 0.019339508044924292 0 -0.028538401009096333 0.01907201529968482 0 -0.028588119977505239 0.01906625610059335 0 -0.028693630178324027 0.01889269072648363 0 -0.028538401009096333 0.01907201529968482 0 -0.028588119977505239 0.01906625610059335 0 -0.028587720048244818 0.019063127199208208 0 -0.027551105650512969 0.019462504680144928 0 -0.027285017353179054 0.019308493108274476 0 -0.027447090342906516 0.019312836308016713 0 -0.027285017353179054 0.019308493108274476 0 -0.027447090342906516 0.019312836308016713 0 -0.027342894264131327 0.019100133745699899 0 -0.028103444119017409 0.018655990777082451 0 -0.028693630178324027 0.01889269072648363 0 -0.028917873486585435 0.017670620122473633 0 -0.029608469101717487 0.018162345496995108 0 -0.028671629301644328 0.018940380284711539 0 -0.030155430927112412 0.01758625806619098 0 -0.028693630178324027 0.01889269072648363 0 -0.028917873486585435 0.017670620122473633 0 -0.030155430927112412 0.01758625806619098 0 -0.028917873486585435 0.017670620122473633 0 -0.029537106238917154 0.017101812792206277 0 -0.028917873486585435 0.017670620122473633 0 -0.029537106238917154 0.017101812792206277 0 -0.028971651370640419 0.016596378401699387 0 -0.028271746617021483 0.016808950878923964 0 -0.028917873486585435 0.017670620122473633 0 -0.028971651370640419 0.016596378401699387 0 -0.029537106238917154 0.017101812792206277 0 -0.029989850548355009 0.016467003415333584 0 -0.028971651370640419 0.016596378401699387 0 -0.030155430927112412 0.01758625806619098 0 -0.029537106238917154 0.017101812792206277 0 -0.029989850548355009 0.016467003415333584 0 -0.029989850548355009 0.016467003415333584 0 -0.029536258609316187 0.01591370134004931 0 -0.028971651370640419 0.016596378401699387 0 -0.029989850548355009 0.016467003415333584 0 -0.029536258609316187 0.01591370134004931 0 -0.03022673720508063 0.015486040832275829 0 -0.029536258609316187 0.01591370134004931 0 -0.028971651370640419 0.016596378401699387 0 -0.029027485598299662 0.015212940781131298 0 -0.028312071982929187 0.01575347881018958 0 -0.028971651370640419 0.016596378401699387 0 -0.029027485598299662 0.015212940781131298 0 -0.027869433288582497 0.019339508044924292 0 -0.028419542538251141 0.018089454708007623 0 -0.027285017353179054 0.019308493108274476 0 -0.027342894264131327 0.019100133745699899 0 -0.0270333170907711 0.018768561489629042 0 -0.027351878310775509 0.018874445571126719 0 -0.027342894264131327 0.019100133745699899 0 -0.0270333170907711 0.018768561489629042 0 -0.029608469101717487 0.018162345496995108 0 -0.028419542538251141 0.018089454708007623 0 -0.030155430927112412 0.01758625806619098 0 -0.029989850548355009 0.016467003415333584 0 -0.031009240825649414 0.016344528480660352 0 -0.028588119977505239 0.01906625610059335 0 -0.028587720048244818 0.019063127199208208 0 -0.028590524559763318 0.019010927267847692 0 -0.029989850548355009 0.016467003415333584 0 -0.030579976028694007 0.015874156005499501 0 -0.031009240825649414 0.016344528480660352 0 -0.029989850548355009 0.016467003415333584 0 -0.030579976028694007 0.015874156005499501 0 -0.03022673720508063 0.015486040832275829 0 -0.027357781801266103 0.018580168511734801 0 -0.0270333170907711 0.018768561489629042 0 -0.027162704828836225 0.018151272024148825 0 -0.028419542538251141 0.018089454708007623 0 -0.026803214417738048 0.018655451038159191 0 -0.027351878310775509 0.018874445571126719 0 -0.027357781801266103 0.018580168511734801 0 -0.0270333170907711 0.018768561489629042 0 -0.028419542538251141 0.018089454708007623 0 -0.028865839172693007 0.016365926614519202 0 -0.026597158154384754 0.01902081895409401 0 -0.027162704828836225 0.018151272024148825 0 -0.026650124221657717 0.017668017136160698 0 -0.030579976028694007 0.015874156005499501 0 -0.031009240825649414 0.016344528480660352 0 -0.031014738141669534 0.015295454998082348 0 -0.027162704828836225 0.018151272024148825 0 -0.026650124221657717 0.017668017136160698 0 -0.027307860048529094 0.017697124141353084 0 -0.030579976028694007 0.015874156005499501 0 -0.031014738141669534 0.015295454998082348 0 -0.03022673720508063 0.015486040832275829 0 -0.030274805330556973 0.015408338674899279 0 -0.030615641140296336 0.014576161086946361 0 -0.031014738141669534 0.015295454998082348 0 -0.03022673720508063 0.015486040832275829 0 -0.030492436451430176 0.01475166524518727 0 -0.026650124221657717 0.017668017136160698 0 -0.026698799208810322 0.01617035973656878 0 -0.027199104554917475 0.016992227988374985 0 -0.028865839172693007 0.016365926614519202 0 -0.028981981782947017 0.015447227181505204 0 -0.031014738141669534 0.015295454998082348 0 -0.030492436451430176 0.01475166524518727 0 -0.031042919066798444 0.014429522444137852 0 -0.026650124221657717 0.017668017136160698 0 -0.027199104554917475 0.016992227988374985 0 -0.027307860048529094 0.017697124141353084 0 -0.029536258609316187 0.01591370134004931 0 -0.03022673720508063 0.015486040832275829 0 -0.029027485598299662 0.015212940781131298 0 -0.03022673720508063 0.015486040832275829 0 -0.030776325947927879 0.014381913780574473 0 -0.029663597457359615 0.014202153257301649 0 -0.03022673720508063 0.015486040832275829 0 -0.029027485598299662 0.015212940781131298 0 -0.029663597457359615 0.014202153257301649 0 -0.028636603374073293 0.014575244821693079 0 -0.029027485598299662 0.015212940781131298 0 -0.029663597457359615 0.014202153257301649 0 -0.028911119946014537 0.013784981280592808 0 -0.029663597457359615 0.014202153257301649 0 -0.029363835239609632 0.013348188700690173 0 -0.028636603374073293 0.014575244821693079 0 -0.028911119946014537 0.013784981280592808 0 -0.029663597457359615 0.014202153257301649 0 -0.028911119946014537 0.013784981280592808 0 -0.028683302368638135 0.013154066964958383 0 -0.029363835239609632 0.013348188700690173 0 -0.029663597457359615 0.014202153257301649 0 -0.029979176100199456 0.013241379523543326 0 -0.030542099436118682 0.01356487097643286 0 -0.029663597457359615 0.014202153257301649 0 -0.029979176100199456 0.013241379523543326 0 -0.029363835239609632 0.013348188700690173 0 -0.030776325947927879 0.014381913780574473 0 -0.029663597457359615 0.014202153257301649 0 -0.030542099436118682 0.01356487097643286 0 -0.029979176100199456 0.013241379523543326 0 -0.030542099436118682 0.01356487097643286 0 -0.030659774621313519 0.012821129051913934 0 -0.029979176100199456 0.013241379523543326 0 -0.030659774621313519 0.012821129051913934 0 -0.030088993445930582 0.012534761462536292 0 -0.029979176100199456 0.013241379523543326 0 -0.029396126995337647 0.012639924845170111 0 -0.030088993445930582 0.012534761462536292 0 -0.028683302368638135 0.013154066964958383 0 -0.029363835239609632 0.013348188700690173 0 -0.029396126995337647 0.012639924845170111 0 -0.029979176100199456 0.013241379523543326 0 -0.029363835239609632 0.013348188700690173 0 -0.029396126995337647 0.012639924845170111 0 -0.026698799208810322 0.01617035973656878 0 -0.026846160640255315 0.014502617900588622 0 -0.027442736249506043 0.016000372263108367 0 -0.026698799208810322 0.01617035973656878 0 -0.027442736249506043 0.016000372263108367 0 -0.027199104554917475 0.016992227988374985 0 -0.030776325947927879 0.014381913780574473 0 -0.030542099436118682 0.01356487097643286 0 -0.031231621786233635 0.013283200024050834 0 -0.030615641140296336 0.014576161086946361 0 -0.031070889285957352 0.013653489387826141 0 -0.030492436451430176 0.01475166524518727 0 -0.031042919066798444 0.014429522444137852 0 -0.030727576361508399 0.01401880548718048 0 -0.030542099436118682 0.01356487097643286 0 -0.031231621786233635 0.013283200024050834 0 -0.030659774621313519 0.012821129051913934 0 -0.030659774621313519 0.012821129051913934 0 -0.031162024018253347 0.012639293481018396 0 -0.031124877318068473 0.012273561599370838 0 -0.031231621786233635 0.013283200024050834 0 -0.030659774621313519 0.012821129051913934 0 -0.031162024018253347 0.012639293481018396 0 -0.031070889285957352 0.013653489387826141 0 -0.030099973983581548 0.012409003511607203 0 -0.028981981782947017 0.015447227181505204 0 -0.027791761757994471 0.01335968935072465 0 -0.031231621786233635 0.013283200024050834 0 -0.031162024018253347 0.012639293481018396 0 -0.031629937393665424 0.012179634411192601 0 -0.030727576361508399 0.01401880548718048 0 -0.031090519345665046 0.013558858981703498 0 -0.030964249326770606 0.013273526960513041 0 -0.031042919066798444 0.014429522444137852 0 -0.030727576361508399 0.01401880548718048 0 -0.031090519345665046 0.013558858981703498 0 -0.027791761757994471 0.01335968935072465 0 -0.025762927717366518 0.013827983216375786 0 -0.024838940152233396 0.012478458644752702 0 -0.02441614682687427 0.012274182703530093 0 -0.024520722210737752 0.012565073624024328 0 -0.024838940152233396 0.012478458644752702 0 -0.02441614682687427 0.012274182703530093 0 -0.02454874446608913 0.01188772086249678 0 -0.02441614682687427 0.012274182703530093 0 -0.024226179484465801 0.01246453177863513 0 -0.024082797046161189 0.012219644960243551 0 -0.02441614682687427 0.012274182703530093 0 -0.024226179484465801 0.01246453177863513 0 -0.024520722210737752 0.012565073624024328 0 -0.02441614682687427 0.012274182703530093 0 -0.024082797046161189 0.012219644960243551 0 -0.024242095842598486 0.012011521428169393 0 -0.024082797046161189 0.012219644960243551 0 -0.023796655840755611 0.01216242188428714 0 -0.023840117590226438 0.012472907733770642 0 -0.024226179484465801 0.01246453177863513 0 -0.024082797046161189 0.012219644960243551 0 -0.023840117590226438 0.012472907733770642 0 -0.024082797046161189 0.012219644960243551 0 -0.023947856401546955 0.011933809530951824 0 -0.024242095842598486 0.012011521428169393 0 -0.024082797046161189 0.012219644960243551 0 -0.023796655840755611 0.01216242188428714 0 -0.023947856401546955 0.011933809530951824 0 -0.023796655840755611 0.01216242188428714 0 -0.023947856401546955 0.011933809530951824 0 -0.02359763333286435 0.011930753491975168 0 -0.023947856401546955 0.011933809530951824 0 -0.024157663110225921 0.011732502641047903 0 -0.024242095842598486 0.012011521428169393 0 -0.023947856401546955 0.011933809530951824 0 -0.024157663110225921 0.011732502641047903 0 -0.023825869473922241 0.011559833629543595 0 -0.023947856401546955 0.011933809530951824 0 -0.023825869473922241 0.011559833629543595 0 -0.02359763333286435 0.011930753491975168 0 -0.02441614682687427 0.012274182703530093 0 -0.02454874446608913 0.01188772086249678 0 -0.024242095842598486 0.012011521428169393 0 -0.024157663110225921 0.011732502641047903 0 -0.02454874446608913 0.01188772086249678 0 -0.024242095842598486 0.012011521428169393 0 -0.027442736249506043 0.016000372263108367 0 -0.027199104554917475 0.016992227988374985 0 -0.027900024977071506 0.017393068307729805 0 -0.025762927717366518 0.013827983216375786 0 -0.026188372637926421 0.014648909933934034 0 -0.024157663110225921 0.011732502641047903 0 -0.02454874446608913 0.01188772086249678 0 -0.024285710358327186 0.011324011534935955 0 -0.027199104554917475 0.016992227988374985 0 -0.027900024977071506 0.017393068307729805 0 -0.027307860048529094 0.017697124141353084 0 -0.024157663110225921 0.011732502641047903 0 -0.024285710358327186 0.011324011534935955 0 -0.023825869473922241 0.011559833629543595 0 -0.024285710358327186 0.011324011534935955 0 -0.023825869473922241 0.011559833629543595 0 -0.023889001375536449 0.011182821329451531 0 -0.024047056037952295 0.010761670078690701 0 -0.023889001375536449 0.011182821329451531 0 -0.023476411562810839 0.011141784109379703 0 -0.024047056037952295 0.010761670078690701 0 -0.024285710358327186 0.011324011534935955 0 -0.023889001375536449 0.011182821329451531 0 -0.026001363677260542 0.013159739486302013 0 -0.026188372637926421 0.014648909933934034 0 -0.02819536470435997 0.018454093609208057 0 -0.027900024977071506 0.017393068307729805 0 -0.027569390346594259 0.018207535530789437 0 -0.027162704828836225 0.018151272024148825 0 -0.027569390346594259 0.018207535530789437 0 -0.027307860048529094 0.017697124141353084 0 -0.027357781801266103 0.018580168511734801 0 -0.027162704828836225 0.018151272024148825 0 -0.027569390346594259 0.018207535530789437 0 -0.027900024977071506 0.017393068307729805 0 -0.027569390346594259 0.018207535530789437 0 -0.027307860048529094 0.017697124141353084 0 -0.023302224225008304 0.010140420009638671 0 -0.023816149422885312 0.0093422911987207959 0 -0.024653583683990361 0.010270027494859694 0 -0.024946517284492174 0.0094500238200877582 0 -0.023816149422885312 0.0093422911987207959 0 -0.024653583683990361 0.010270027494859694 0 -0.026001363677260542 0.013159739486302013 0 -0.024032594176067037 0.010288247513089455 0 -0.025829498300509287 0.0094105967439627475 0 -0.024946517284492174 0.0094500238200877582 0 -0.024653583683990361 0.010270027494859694 0 -0.023825869473922241 0.011559833629543595 0 -0.023476411562810839 0.011141784109379703 0 -0.023385295156590515 0.011667126762423976 0 -0.023825869473922241 0.011559833629543595 0 -0.023889001375536449 0.011182821329451531 0 -0.023476411562810839 0.011141784109379703 0 -0.0228837254362926 0.011557834957840612 0 -0.023476411562810839 0.011141784109379703 0 -0.023385295156590515 0.011667126762423976 0 -0.023302224225008304 0.010140420009638671 0 -0.023461577558874489 0.01116525020473012 0 -0.024653583683990361 0.010270027494859694 0 -0.023148626908331256 0.011435277609437041 0 -0.024032594176067037 0.010288247513089455 0 -0.0228837254362926 0.011557834957840612 0 -0.023128520959925267 0.012029936569944553 0 -0.023385295156590515 0.011667126762423976 0 -0.0228837254362926 0.011557834957840612 0 -0.022753912297011906 0.011982453241324874 0 -0.023128520959925267 0.012029936569944553 0 -0.023128520959925267 0.012029936569944553 0 -0.023385295156590515 0.011667126762423976 0 -0.02359763333286435 0.011930753491975168 0 -0.023825869473922241 0.011559833629543595 0 -0.023385295156590515 0.011667126762423976 0 -0.02359763333286435 0.011930753491975168 0 -0.023128520959925267 0.012029936569944553 0 -0.02359763333286435 0.011930753491975168 0 -0.023518670922457893 0.012264973806232269 0 -0.023796655840755611 0.01216242188428714 0 -0.02359763333286435 0.011930753491975168 0 -0.023518670922457893 0.012264973806232269 0 -0.023518670922457893 0.012264973806232269 0 -0.023139798069046393 0.012356929720967283 0 -0.023476619582803695 0.01252431080974677 0 -0.023518670922457893 0.012264973806232269 0 -0.023476619582803695 0.01252431080974677 0 -0.023840117590226438 0.012472907733770642 0 -0.023796655840755611 0.01216242188428714 0 -0.023518670922457893 0.012264973806232269 0 -0.023840117590226438 0.012472907733770642 0 -0.022675537761537946 0.012313311245560538 0 -0.023128520959925267 0.012029936569944553 0 -0.023139798069046393 0.012356929720967283 0 -0.023128520959925267 0.012029936569944553 0 -0.023518670922457893 0.012264973806232269 0 -0.023139798069046393 0.012356929720967283 0 -0.022675537761537946 0.012313311245560538 0 -0.023139798069046393 0.012356929720967283 0 -0.022942714668304495 0.012649346153484831 0 -0.023139798069046393 0.012356929720967283 0 -0.022942714668304495 0.012649346153484831 0 -0.023476619582803695 0.01252431080974677 0 -0.022942714668304495 0.012649346153484831 0 -0.023476619582803695 0.01252431080974677 0 -0.023719391910583715 0.012773401341807737 0 -0.02273508691366536 0.012402838929732212 0 -0.023927571879688716 0.011532876171848741 0 -0.023696696028832221 0.01259924664033242 0 -0.023476619582803695 0.01252431080974677 0 -0.023719391910583715 0.012773401341807737 0 -0.023696696028832221 0.01259924664033242 0 -0.023719391910583715 0.012773401341807737 0 -0.023840117590226438 0.012472907733770642 0 -0.023696696028832221 0.01259924664033242 0 -0.023476619582803695 0.01252431080974677 0 -0.023840117590226438 0.012472907733770642 0 -0.022785904872654701 0.01195394700897872 0 -0.022863003111258058 0.011890361971118401 0 -0.022868996716196667 0.011878978852342037 0 -0.022863003111258058 0.011890361971118401 0 -0.022868996716196667 0.011878978852342037 0 -0.022860808046756217 0.011848720030004209 0 -0.022785904872654701 0.01195394700897872 0 -0.022868996716196667 0.011878978852342037 0 -0.022790260172210659 0.011938845921743524 0 -0.022868996716196667 0.011878978852342037 0 -0.022920505168513985 0.011768042653090619 0 -0.022790260172210659 0.011938845921743524 0 -0.022920505168513985 0.011768042653090619 0 -0.022790260172210659 0.011938845921743524 0 -0.022900970939676676 0.011753181053183834 0 -0.022868996716196667 0.011878978852342037 0 -0.022899182301733725 0.011800582239460301 0 -0.022860808046756217 0.011848720030004209 0 -0.022868996716196667 0.011878978852342037 0 -0.022899182301733725 0.011800582239460301 0 -0.022920505168513985 0.011768042653090619 0 -0.022899182301733725 0.011800582239460301 0 -0.022920505168513985 0.011768042653090619 0 -0.022942144454444559 0.01171014089244612 0 -0.022920505168513985 0.011768042653090619 0 -0.022942144454444559 0.01171014089244612 0 -0.023030736339376866 0.011626046756846396 0 -0.022920505168513985 0.011768042653090619 0 -0.023030736339376866 0.011626046756846396 0 -0.023020672467533417 0.011598173993274976 0 -0.022920505168513985 0.011768042653090619 0 -0.022900970939676676 0.011753181053183834 0 -0.023020672467533417 0.011598173993274976 0 -0.031729214877243152 0.0096973786569136047 0 -0.031255001786676263 0.0099969812622878601 0 -0.031170099143502966 0.0095062437646714713 0 -0.022826600693357662 0.011719592421795226 0 -0.022942144454444559 0.01171014089244612 0 -0.022903648296149205 0.011540641962799232 0 -0.022826600693357662 0.011719592421795226 0 -0.022942144454444559 0.01171014089244612 0 -0.022860808046756217 0.011848720030004209 0 -0.022899182301733725 0.011800582239460301 0 -0.022942144454444559 0.01171014089244612 0 -0.022860808046756217 0.011848720030004209 0 -0.026639565399507518 0.010829551562713756 0 -0.024050296083932977 0.011588018609341983 0 -0.026114527625038637 0.011935529053728199 0 -0.025694236718163534 0.011268193050242592 0 -0.026293104852735918 0.0114488971116713 0 -0.026639565399507518 0.010829551562713756 0 -0.028889202423502632 0.010814529783678977 0 -0.031729214877243152 0.0096973786569136047 0 -0.03147858603310047 0.010401930537010863 0 -0.031255001786676263 0.0099969812622878601 0 -0.025694236718163534 0.011268193050242592 0 -0.026107183164554484 0.010980619815583197 0 -0.025889711785407984 0.010577874636375967 0 -0.026293104852735918 0.0114488971116713 0 -0.026107183164554484 0.010980619815583197 0 -0.026481019447323062 0.010954546289093269 0 -0.025694236718163534 0.011268193050242592 0 -0.026293104852735918 0.0114488971116713 0 -0.026107183164554484 0.010980619815583197 0 -0.026107183164554484 0.010980619815583197 0 -0.026515326238209562 0.010589193315552869 0 -0.026481019447323062 0.010954546289093269 0 -0.023927571879688716 0.011532876171848741 0 -0.024050296083932977 0.011588018609341983 0 -0.025260443214729412 0.010573702362353566 0 -0.025694236718163534 0.011268193050242592 0 -0.025889711785407984 0.010577874636375967 0 -0.023719391910583715 0.012773401341807737 0 -0.023840117590226438 0.012472907733770642 0 -0.024269961432302437 0.012798867373247123 0 -0.023927571879688716 0.011532876171848741 0 -0.024916651347450795 0.011684268881914759 0 -0.024226179484465801 0.01246453177863513 0 -0.023840117590226438 0.012472907733770642 0 -0.024269961432302437 0.012798867373247123 0 -0.024916651347450795 0.011684268881914759 0 -0.027162606445524946 0.011924292185931683 0 -0.026107183164554484 0.010980619815583197 0 -0.025889711785407984 0.010577874636375967 0 -0.026515326238209562 0.010589193315552869 0 -0.024269961432302437 0.012798867373247123 0 -0.024520722210737752 0.012565073624024328 0 -0.024817773080271447 0.012810593510351822 0 -0.024226179484465801 0.01246453177863513 0 -0.024269961432302437 0.012798867373247123 0 -0.024520722210737752 0.012565073624024328 0 -0.024838940152233396 0.012478458644752702 0 -0.024520722210737752 0.012565073624024328 0 -0.024817773080271447 0.012810593510351822 0 -0.027791761757994471 0.01335968935072465 0 -0.030099973983581548 0.012409003511607203 0 -0.027791761757994471 0.01335968935072465 0 -0.027162606445524946 0.011924292185931683 0 -0.028350946342552738 0.013238636414649542 0 -0.02849739839342268 0.011634315695689859 0 -0.027894330365346585 0.012157354796677993 0 -0.02839558020865943 0.012499912990042016 0 -0.028836519956434898 0.01250553025126875 0 -0.028985962961619333 0.010869930122936387 0 -0.028085185432005676 0.011628791106529616 0 -0.02849739839342268 0.011634315695689859 0 -0.027894330365346585 0.012157354796677993 0 -0.029540134564464748 0.011944777483835755 0 -0.027162606445524946 0.011924292185931683 0 -0.031541524534762166 0.011975351905491238 0 -0.031629937393665424 0.012179634411192601 0 -0.031124877318068473 0.012273561599370838 0 -0.031053910329091477 0.011456539633095158 0 -0.030939282316215313 0.0114537687072289 0 -0.031025034324309926 0.01119343234370904 0 -0.030260412861096934 0.011678300280061405 0 -0.029897659930375582 0.011673548152962157 0 -0.03009471668284357 0.012137790439545241 0 -0.029540134564464748 0.011944777483835755 0 -0.030590995873692118 0.011959681938538903 0 -0.029540134564464748 0.011944777483835755 0 -0.030099973983581548 0.012409003511607203 0 -0.030590995873692118 0.011959681938538903 0 -0.030099973983581548 0.012409003511607203 0 -0.031162024018253347 0.012639293481018396 0 -0.031629937393665424 0.012179634411192601 0 -0.031124877318068473 0.012273561599370838 0 -0.031541524534762166 0.011975351905491238 0 -0.03071824942524368 0.011952993458796541 0 -0.031124877318068473 0.012273561599370838 0 -0.030590995873692118 0.011959681938538903 0 -0.030699524372329097 0.01189293115331116 0 -0.030659774621313519 0.012821129051913934 0 -0.03071824942524368 0.011952993458796541 0 -0.030088993445930582 0.012534761462536292 0 -0.030659774621313519 0.012821129051913934 0 -0.03071824942524368 0.011952993458796541 0 -0.031124877318068473 0.012273561599370838 0 -0.030457891564029119 0.011816844278384024 0 -0.030040406610442438 0.011113700366346083 0 -0.030497493212063246 0.010398725248706399 0 -0.031239756488639265 0.011825643039607411 0 -0.030457891564029119 0.011816844278384024 0 -0.030497493212063246 0.010398725248706399 0 -0.030590995873692118 0.011959681938538903 0 -0.030666996449840504 0.010346625374722179 0 -0.030939282316215313 0.0114537687072289 0 -0.030889323502079236 0.010831447921231393 0 -0.030497493212063246 0.010398725248706399 0 -0.030939282316215313 0.0114537687072289 0 -0.030889323502079236 0.010831447921231393 0 -0.031025034324309926 0.01119343234370904 0 -0.028889202423502632 0.010814529783678977 0 -0.029346730977126409 0.011044027186648405 0 -0.030889323502079236 0.010831447921231393 0 -0.03126201593691523 0.010688322028373399 0 -0.031217298305969959 0.011031140718321194 0 -0.03147858603310047 0.010401930537010863 0 -0.03126201593691523 0.010688322028373399 0 -0.03121273457632881 0.01106689310036383 0 -0.030330543523471965 0.01072276457738144 0 -0.029346730977126409 0.011044027186648405 0 -0.030889323502079236 0.010831447921231393 0 -0.031217298305969959 0.011031140718321194 0 -0.031025034324309926 0.01119343234370904 0 -0.029540134564464748 0.011944777483835755 0 -0.029346730977126409 0.011044027186648405 0 -0.027162606445524946 0.011924292185931683 0 -0.029346730977126409 0.011044027186648405 0 -0.031053910329091477 0.011456539633095158 0 -0.031217298305969959 0.011031140718321194 0 -0.031025034324309926 0.01119343234370904 0 -0.029396126995337647 0.012639924845170111 0 -0.029242425056179685 0.011880421930318068 0 -0.028719624429220221 0.01237441299824844 0 -0.029396126995337647 0.012639924845170111 0 -0.029242425056179685 0.011880421930318068 0 -0.029857391333402476 0.011894865020573634 0 -0.03071824942524368 0.011952993458796541 0 -0.029857391333402476 0.011894865020573634 0 -0.030088993445930582 0.012534761462536292 0 -0.030699524372329097 0.01189293115331116 0 -0.029905060667744374 0.011888600712106593 0 -0.029396126995337647 0.012639924845170111 0 -0.029857391333402476 0.011894865020573634 0 -0.030088993445930582 0.012534761462536292 0 -0.030457891564029119 0.011816844278384024 0 -0.029857391333402476 0.011894865020573634 0 -0.030040406610442438 0.011113700366346083 0 -0.029857391333402476 0.011894865020573634 0 -0.030040406610442438 0.011113700366346083 0 -0.029518862221363431 0.011182158446458961 0 -0.029242425056179685 0.011880421930318068 0 -0.029518862221363431 0.011182158446458961 0 -0.028757629440462697 0.011313862203483472 0 -0.029518862221363431 0.011182158446458961 0 -0.029368668628889118 0.010478837620105222 0 -0.028757629440462697 0.011313862203483472 0 -0.029242425056179685 0.011880421930318068 0 -0.029857391333402476 0.011894865020573634 0 -0.029518862221363431 0.011182158446458961 0 -0.030040406610442438 0.011113700366346083 0 -0.02986878831821534 0.01025892042142601 0 -0.030497493212063246 0.010398725248706399 0 -0.030040406610442438 0.011113700366346083 0 -0.029518862221363431 0.011182158446458961 0 -0.02986878831821534 0.01025892042142601 0 -0.029518862221363431 0.011182158446458961 0 -0.029368668628889118 0.010478837620105222 0 -0.02986878831821534 0.01025892042142601 0 -0.02986878831821534 0.01025892042142601 0 -0.029909370284101969 0.0096462883757495593 0 -0.029664976658008588 0.0094988738634974902 0 -0.029368668628889118 0.010478837620105222 0 -0.02986878831821534 0.01025892042142601 0 -0.029664976658008588 0.0094988738634974902 0 -0.02986878831821534 0.01025892042142601 0 -0.029909370284101969 0.0096462883757495593 0 -0.03024003192075822 0.0096603748341473963 0 -0.029909370284101969 0.0096462883757495593 0 -0.029664976658008588 0.0094988738634974902 0 -0.02989148520701064 0.0092301108272021936 0 -0.029664976658008588 0.0094988738634974902 0 -0.028958170231055444 0.010180857505420306 0 -0.028831591960782624 0.009432760537949109 0 -0.029368668628889118 0.010478837620105222 0 -0.029664976658008588 0.0094988738634974902 0 -0.028958170231055444 0.010180857505420306 0 -0.030976995641453637 0.010407422977925499 0 -0.030497493212063246 0.010398725248706399 0 -0.030920420988650815 0.009959724859102884 0 -0.031255001786676263 0.0099969812622878601 0 -0.030976995641453637 0.010407422977925499 0 -0.030920420988650815 0.009959724859102884 0 -0.03147858603310047 0.010401930537010863 0 -0.031255001786676263 0.0099969812622878601 0 -0.030976995641453637 0.010407422977925499 0 -0.03147858603310047 0.010401930537010863 0 -0.03126201593691523 0.010688322028373399 0 -0.030976995641453637 0.010407422977925499 0 -0.030889323502079236 0.010831447921231393 0 -0.03126201593691523 0.010688322028373399 0 -0.030976995641453637 0.010407422977925499 0 -0.030889323502079236 0.010831447921231393 0 -0.030976995641453637 0.010407422977925499 0 -0.030497493212063246 0.010398725248706399 0 -0.02986878831821534 0.01025892042142601 0 -0.030497493212063246 0.010398725248706399 0 -0.03024003192075822 0.0096603748341473963 0 -0.030497493212063246 0.010398725248706399 0 -0.03024003192075822 0.0096603748341473963 0 -0.030920420988650815 0.009959724859102884 0 -0.03024003192075822 0.0096603748341473963 0 -0.029822553760510646 0.0090087153845474742 0 -0.02989148520701064 0.0092301108272021936 0 -0.029909370284101969 0.0096462883757495593 0 -0.03024003192075822 0.0096603748341473963 0 -0.02989148520701064 0.0092301108272021936 0 -0.031729214877243152 0.0096973786569136047 0 -0.031170099143502966 0.0095062437646714713 0 -0.031220729686278301 0.0087967307858319212 0 -0.03024003192075822 0.0096603748341473963 0 -0.031170099143502966 0.0095062437646714713 0 -0.031220729686278301 0.0087967307858319212 0 -0.03024003192075822 0.0096603748341473963 0 -0.030920420988650815 0.009959724859102884 0 -0.031170099143502966 0.0095062437646714713 0 -0.031255001786676263 0.0099969812622878601 0 -0.030920420988650815 0.009959724859102884 0 -0.031170099143502966 0.0095062437646714713 0 -0.03024003192075822 0.0096603748341473963 0 -0.02942294005340201 0.0085038961771930714 0 -0.029822553760510646 0.0090087153845474742 0 -0.030453521300554998 0.0093331552519220901 0 -0.029562752993455437 0.009316613324621777 0 -0.02942294005340201 0.0085038961771930714 0 -0.029328162348828197 0.0084688093108281834 0 -0.029605491744939878 0.0087224573813153624 0 -0.029562752993455437 0.009316613324621777 0 -0.029460340180626335 0.0091027563116528841 0 -0.02942294005340201 0.0085038961771930714 0 -0.029605491744939878 0.0087224573813153624 0 -0.029822553760510646 0.0090087153845474742 0 -0.029328162348828197 0.0084688093108281834 0 -0.029605491744939878 0.0087224573813153624 0 -0.029434444922351373 0.0086652450259781487 0 -0.029605491744939878 0.0087224573813153624 0 -0.029667126826824337 0.0087869361260770294 0 -0.029434444922351373 0.0086652450259781487 0 -0.029822553760510646 0.0090087153845474742 0 -0.02989148520701064 0.0092301108272021936 0 -0.029809461960590641 0.0089380222058015064 0 -0.029809461960590641 0.0089380222058015064 0 -0.029667126826824337 0.0087869361260770294 0 -0.029849276522824507 0.0088818662469907494 0 -0.02989148520701064 0.0092301108272021936 0 -0.029809461960590641 0.0089380222058015064 0 -0.029849276522824507 0.0088818662469907494 0 -0.029605491744939878 0.0087224573813153624 0 -0.029809461960590641 0.0089380222058015064 0 -0.029667126826824337 0.0087869361260770294 0 -0.029605491744939878 0.0087224573813153624 0 -0.029822553760510646 0.0090087153845474742 0 -0.029809461960590641 0.0089380222058015064 0 -0.029667126826824337 0.0087869361260770294 0 -0.029541591171378334 0.0088122796532195072 0 -0.029849276522824507 0.0088818662469907494 0 -0.029541591171378334 0.0088122796532195072 0 -0.029906257751007942 0.0087634404323438889 0 -0.029849276522824507 0.0088818662469907494 0 -0.029667126826824337 0.0087869361260770294 0 -0.029541591171378334 0.0088122796532195072 0 -0.029434444922351373 0.0086652450259781487 0 -0.029541591171378334 0.0088122796532195072 0 -0.028874398473647107 0.0087221919467211154 0 -0.029434444922351373 0.0086652450259781487 0 -0.029328162348828197 0.0084688093108281834 0 -0.028874398473647107 0.0087221919467211154 0 -0.029434444922351373 0.0086652450259781487 0 -0.029664976658008588 0.0094988738634974902 0 -0.029514136395924831 0.0088535170744219547 0 -0.028831591960782624 0.009432760537949109 0 -0.029664976658008588 0.0094988738634974902 0 -0.02989148520701064 0.0092301108272021936 0 -0.029849276522824507 0.0088818662469907494 0 -0.029664976658008588 0.0094988738634974902 0 -0.029849276522824507 0.0088818662469907494 0 -0.029514136395924831 0.0088535170744219547 0 -0.029906257751007942 0.0087634404323438889 0 -0.029849276522824507 0.0088818662469907494 0 -0.029514136395924831 0.0088535170744219547 0 -0.029906257751007942 0.0087634404323438889 0 -0.029514136395924831 0.0088535170744219547 0 -0.029666998812601882 0.00831694604661448 0 -0.029906257751007942 0.0087634404323438889 0 -0.029666998812601882 0.00831694604661448 0 -0.030131236730819619 0.0088879712373094548 0 -0.029541591171378334 0.0088122796532195072 0 -0.029906257751007942 0.0087634404323438889 0 -0.030131236730819619 0.0088879712373094548 0 -0.030161072666846062 0.0088233832159983604 0 -0.030318938167248281 0.0086900822651400002 0 -0.030131236730819619 0.0088879712373094548 0 -0.030007633780485862 0.0099291287183286663 0 -0.030554948816137489 0.010350388762822493 0 -0.030131236730819619 0.0088879712373094548 0 -0.029734836409896524 0.0076831003287283883 0 -0.030245747708566775 0.007215595952309091 0 -0.029666998812601882 0.00831694604661448 0 -0.030131236730819619 0.0088879712373094548 0 -0.029734836409896524 0.0076831003287283883 0 -0.029666998812601882 0.00831694604661448 0 -0.029734836409896524 0.0076831003287283883 0 -0.02932703782853624 0.0078082391770067927 0 -0.029541591171378334 0.0088122796532195072 0 -0.028874398473647107 0.0087221919467211154 0 -0.028917802824208385 0.0095666390218225664 0 -0.028874398473647107 0.0087221919467211154 0 -0.028917802824208385 0.0095666390218225664 0 -0.028089534387854966 0.0091498533305784998 0 -0.029541591171378334 0.0088122796532195072 0 -0.030131236730819619 0.0088879712373094548 0 -0.028917802824208385 0.0095666390218225664 0 -0.030131236730819619 0.0088879712373094548 0 -0.029400453440568099 0.0099736801642083522 0 -0.028917802824208385 0.0095666390218225664 0 -0.030131236730819619 0.0088879712373094548 0 -0.030007633780485862 0.0099291287183286663 0 -0.029400453440568099 0.0099736801642083522 0 -0.030007633780485862 0.0099291287183286663 0 -0.029400453440568099 0.0099736801642083522 0 -0.029531004653422441 0.01040385333576356 0 -0.029400453440568099 0.0099736801642083522 0 -0.02874709494395649 0.010410831689473207 0 -0.029157103130630187 0.010547104376641261 0 -0.029400453440568099 0.0099736801642083522 0 -0.028917802824208385 0.0095666390218225664 0 -0.02874709494395649 0.010410831689473207 0 -0.028917802824208385 0.0095666390218225664 0 -0.028155580660016822 0.010389625205630618 0 -0.027870619057461646 0.0099361039091202547 0 -0.028917802824208385 0.0095666390218225664 0 -0.028155580660016822 0.010389625205630618 0 -0.02874709494395649 0.010410831689473207 0 -0.028155580660016822 0.010389625205630618 0 -0.027870619057461646 0.0099361039091202547 0 -0.027508657693593064 0.010982429308474222 0 -0.027870619057461646 0.0099361039091202547 0 -0.026786794178337688 0.010937423174393127 0 -0.027508657693593064 0.010982429308474222 0 -0.027870619057461646 0.0099361039091202547 0 -0.026609908979883395 0.010296871841792682 0 -0.026786794178337688 0.010937423174393127 0 -0.027870619057461646 0.0099361039091202547 0 -0.027291223944156808 0.0095964513025175342 0 -0.026609908979883395 0.010296871841792682 0 -0.028917802824208385 0.0095666390218225664 0 -0.027870619057461646 0.0099361039091202547 0 -0.028089534387854966 0.0091498533305784998 0 -0.028089534387854966 0.0091498533305784998 0 -0.026487190245698171 0.0090100322151275437 0 -0.027943343121130462 0.0084559714167962586 0 -0.027291223944156808 0.0095964513025175342 0 -0.028089534387854966 0.0091498533305784998 0 -0.026487190245698171 0.0090100322151275437 0 -0.027870619057461646 0.0099361039091202547 0 -0.027291223944156808 0.0095964513025175342 0 -0.028089534387854966 0.0091498533305784998 0 -0.025376796640041822 0.010264920605330251 0 -0.02722111013497519 0.0095688270920446118 0 -0.025376796640041822 0.010264920605330251 0 -0.025294459233045762 0.010766974162133432 0 -0.026487190245698171 0.0090100322151275437 0 -0.026609908979883395 0.010296871841792682 0 -0.024995723021577872 0.011260910587186878 0 -0.027291223944156808 0.0095964513025175342 0 -0.026487190245698171 0.0090100322151275437 0 -0.026609908979883395 0.010296871841792682 0 -0.025376796640041822 0.010264920605330251 0 -0.02364978504461504 0.011073434636702986 0 -0.025557387637731521 0.0094769476817199369 0 -0.024048452143858621 0.010973043769467703 0 -0.024995723021577872 0.011260910587186878 0 -0.023551027776786276 0.011370751505179912 0 -0.023686716923508461 0.011174347491708425 0 -0.023456676402694505 0.011269731085841853 0 -0.024048452143858621 0.010973043769467703 0 -0.023686716923508461 0.011174347491708425 0 -0.023566787100813013 0.011230209170640472 0 -0.023551027776786276 0.011370751505179912 0 -0.023686716923508461 0.011174347491708425 0 -0.023824255924865853 0.011384024393572816 0 -0.024048452143858621 0.010973043769467703 0 -0.023686716923508461 0.011174347491708425 0 -0.023824255924865853 0.011384024393572816 0 -0.023686716923508461 0.011174347491708425 0 -0.023456676402694505 0.011269731085841853 0 -0.023566787100813013 0.011230209170640472 0 -0.023566787100813013 0.011230209170640472 0 -0.023290593132703867 0.011397795643925724 0 -0.023321212705516112 0.011357809991186395 0 -0.023456676402694505 0.011269731085841853 0 -0.023566787100813013 0.011230209170640472 0 -0.023321212705516112 0.011357809991186395 0 -0.023092656614168192 0.011256437557157165 0 -0.024048452143858621 0.010973043769467703 0 -0.023566787100813013 0.011230209170640472 0 -0.023092656614168192 0.011256437557157165 0 -0.023566787100813013 0.011230209170640472 0 -0.023290593132703867 0.011397795643925724 0 -0.023092656614168192 0.011256437557157165 0 -0.023290593132703867 0.011397795643925724 0 -0.023072692991256583 0.011539951838228901 0 -0.023290593132703867 0.011397795643925724 0 -0.023171124529942255 0.011486524844952058 0 -0.023072692991256583 0.011539951838228901 0 -0.023290593132703867 0.011397795643925724 0 -0.023321212705516112 0.011357809991186395 0 -0.023171124529942255 0.011486524844952058 0 -0.023321212705516112 0.011357809991186395 0 -0.023171124529942255 0.011486524844952058 0 -0.02315732144927346 0.011443448126364254 0 -0.023171124529942255 0.011486524844952058 0 -0.023030736339376866 0.011626046756846396 0 -0.023020672467533417 0.011598173993274976 0 -0.023171124529942255 0.011486524844952058 0 -0.023020672467533417 0.011598173993274976 0 -0.02315732144927346 0.011443448126364254 0 -0.022942144454444559 0.01171014089244612 0 -0.023030736339376866 0.011626046756846396 0 -0.023072692991256583 0.011539951838228901 0 -0.023171124529942255 0.011486524844952058 0 -0.023030736339376866 0.011626046756846396 0 -0.023072692991256583 0.011539951838228901 0 -0.022942144454444559 0.01171014089244612 0 -0.023072692991256583 0.011539951838228901 0 -0.022903648296149205 0.011540641962799232 0 -0.026639565399507518 0.010829551562713756 0 -0.024373062723392212 0.011194858968888572 0 -0.026713817113292154 0.0098670523899944598 0 -0.026966314473388209 0.010275682422077955 0 -0.026514472460326361 0.010375512933672861 0 -0.026639565399507518 0.010829551562713756 0 -0.029562752993455437 0.009316613324621777 0 -0.029253795264349142 0.0083397821546371941 0 -0.029328162348828197 0.0084688093108281834 0 -0.027943343121130462 0.0084559714167962586 0 -0.029328162348828197 0.0084688093108281834 0 -0.028874398473647107 0.0087221919467211154 0 -0.027943343121130462 0.0084559714167962586 0 -0.026966314473388209 0.010275682422077955 0 -0.026514472460326361 0.010375512933672861 0 -0.026639137712145464 0.010583700434970238 0 -0.029562752993455437 0.009316613324621777 0 -0.02722111013497519 0.0095688270920446118 0 -0.028874398473647107 0.0087221919467211154 0 -0.028089534387854966 0.0091498533305784998 0 -0.027943343121130462 0.0084559714167962586 0 -0.023092656614168192 0.011256437557157165 0 -0.023072692991256583 0.011539951838228901 0 -0.022903648296149205 0.011540641962799232 0 -0.025376796640041822 0.010264920605330251 0 -0.024373062723392212 0.011194858968888572 0 -0.026301417661226425 0.010887713247260318 0 -0.026514472460326361 0.010375512933672861 0 -0.026639137712145464 0.010583700434970238 0 -0.024999987844694066 0.009808081006039665 0 -0.025795246446359794 0.0097176433833284642 0 -0.025438166134720722 0.010479470234670777 0 -0.025000159441135268 0.009808109186603067 0 -0.025831659533419486 0.0096762640436052171 0 -0.025831659533419486 0.0096762640436052171 0 -0.026159272412052931 0.0098792537995485499 0 -0.025787916413472375 0.010946421509788853 0 -0.026159272412052931 0.0098792537995485499 0 -0.025795246446359794 0.0097176433833284642 0 -0.026094949470053728 0.010580304811496596 0 -0.026616273749523682 0.009620198239727153 0 -0.025507712046566045 0.011228555131585128 0 -0.025842668537137348 0.011155753230612421 0 -0.025788258714792376 0.010598269995154863 0 -0.025795246446359794 0.0097176433833284642 0 -0.026094949470053728 0.010580304811496596 0 -0.025438166134720722 0.010479470234670777 0 -0.025507712046566045 0.011228555131585128 0 -0.025694971587437401 0.011645476787415695 0 -0.025842668537137348 0.011155753230612421 0 -0.026094949470053728 0.010580304811496596 0 -0.025438166134720722 0.010479470234670777 0 -0.025455375872817241 0.010987360208352196 0 -0.024999987844694066 0.009808081006039665 0 -0.025438166134720722 0.010479470234670777 0 -0.024999811441347265 0.01120640104815194 0 -0.025438166134720722 0.010479470234670777 0 -0.024999811441347265 0.01120640104815194 0 -0.025455375872817241 0.010987360208352196 0 -0.024999811441347265 0.01120640104815194 0 -0.025455375872817241 0.010987360208352196 0 -0.025394308647758049 0.011668787943331581 0 -0.026094949470053728 0.010580304811496596 0 -0.025455375872817241 0.010987360208352196 0 -0.025394308647758049 0.011668787943331581 0 -0.024999678436037079 0.012604023106256671 0 -0.025394308647758049 0.011668787943331581 0 -0.025419069879218808 0.012471688063851011 0 -0.024999678436037079 0.012604023106256671 0 -0.024999811441347265 0.01120640104815194 0 -0.025394308647758049 0.011668787943331581 0 -0.025394308647758049 0.011668787943331581 0 -0.025419069879218808 0.012471688063851011 0 -0.025660403988663403 0.012232751733196885 0 -0.025621958768857592 0.01272841404678713 0 -0.025660403988663403 0.012232751733196885 0 -0.025913280999910374 0.01257438399633024 0 -0.025621958768857592 0.01272841404678713 0 -0.025419069879218808 0.012471688063851011 0 -0.025660403988663403 0.012232751733196885 0 -0.025660403988663403 0.012232751733196885 0 -0.025694971587437401 0.011645476787415695 0 -0.025905866937640239 0.01201388634920595 0 -0.025507712046566045 0.011228555131585128 0 -0.025394308647758049 0.011668787943331581 0 -0.025694971587437401 0.011645476787415695 0 -0.025394308647758049 0.011668787943331581 0 -0.025660403988663403 0.012232751733196885 0 -0.025694971587437401 0.011645476787415695 0 -0.025787916413472375 0.010946421509788853 0 -0.025436054209431857 0.011583222367201645 0 -0.025694971587437401 0.011645476787415695 0 -0.026053423821173413 0.011515623675420599 0 -0.025842668537137348 0.011155753230612421 0 -0.026053423821173413 0.011515623675420599 0 -0.025905866937640239 0.01201388634920595 0 -0.026232768132033117 0.012125489435477883 0 -0.025694971587437401 0.011645476787415695 0 -0.026053423821173413 0.011515623675420599 0 -0.025905866937640239 0.01201388634920595 0 -0.025660403988663403 0.012232751733196885 0 -0.025905866937640239 0.01201388634920595 0 -0.025913280999910374 0.01257438399633024 0 -0.026349450128111972 0.012917715864295694 0 -0.025913280999910374 0.01257438399633024 0 -0.026232768132033117 0.012125489435477883 0 -0.025905866937640239 0.01201388634920595 0 -0.025913280999910374 0.01257438399633024 0 -0.026232768132033117 0.012125489435477883 0 -0.026857462520990336 0.012808972855988175 0 -0.026349450128111972 0.012917715864295694 0 -0.02667194691532206 0.012232019435332284 0 -0.026349450128111972 0.012917715864295694 0 -0.026232768132033117 0.012125489435477883 0 -0.02667194691532206 0.012232019435332284 0 -0.026232768132033117 0.012125489435477883 0 -0.026486841423069066 0.011504873662872698 0 -0.02667194691532206 0.012232019435332284 0 -0.026053423821173413 0.011515623675420599 0 -0.026232768132033117 0.012125489435477883 0 -0.026486841423069066 0.011504873662872698 0 -0.026486841423069066 0.011504873662872698 0 -0.026568636139349473 0.010871732580702917 0 -0.026178501179045389 0.010935926843148815 0 -0.026053423821173413 0.011515623675420599 0 -0.026486841423069066 0.011504873662872698 0 -0.026178501179045389 0.010935926843148815 0 -0.026053423821173413 0.011515623675420599 0 -0.026178501179045389 0.010935926843148815 0 -0.025842668537137348 0.011155753230612421 0 -0.026178501179045389 0.010935926843148815 0 -0.025842668537137348 0.011155753230612421 0 -0.025788258714792376 0.010598269995154863 0 -0.026178501179045389 0.010935926843148815 0 -0.025788258714792376 0.010598269995154863 0 -0.026538225831128012 0.01047225264027634 0 -0.026159272412052931 0.0098792537995485499 0 -0.026793436349552547 0.0099364503488716619 0 -0.026568683274067584 0.01088909575132394 0 -0.026793436349552547 0.0099364503488716619 0 -0.026568636139349473 0.010871732580702917 0 -0.026178501179045389 0.010935926843148815 0 -0.026538225831128012 0.01047225264027634 0 -0.026449160762339222 0.010035194374494301 0 -0.027012350686397714 0.010564027473318756 0 -0.027568214488570303 0.0097772026227399729 0 -0.026568636139349473 0.010871732580702917 0 -0.026449160762339222 0.010035194374494301 0 -0.027012350686397714 0.010564027473318756 0 -0.027012350686397714 0.010564027473318756 0 -0.027524833021852133 0.010862870302502268 0 -0.027568214488570303 0.0097772026227399729 0 -0.027524833021852133 0.010862870302502268 0 -0.028258682500486555 0.010572924181709397 0 -0.027568214488570303 0.0097772026227399729 0 -0.027524833021852133 0.010862870302502268 0 -0.026960839400104328 0.011194836513533221 0 -0.027349304580457152 0.011541596058693157 0 -0.026486841423069066 0.011504873662872698 0 -0.026568636139349473 0.010871732580702917 0 -0.026960839400104328 0.011194836513533221 0 -0.027012350686397714 0.010564027473318756 0 -0.027524833021852133 0.010862870302502268 0 -0.026960839400104328 0.011194836513533221 0 -0.026568636139349473 0.010871732580702917 0 -0.027012350686397714 0.010564027473318756 0 -0.026960839400104328 0.011194836513533221 0 -0.026486841423069066 0.011504873662872698 0 -0.026953796626239684 0.011779298199815671 0 -0.02667194691532206 0.012232019435332284 0 -0.026486841423069066 0.011504873662872698 0 -0.026960839400104328 0.011194836513533221 0 -0.026953796626239684 0.011779298199815671 0 -0.026960839400104328 0.011194836513533221 0 -0.026953796626239684 0.011779298199815671 0 -0.027349304580457152 0.011541596058693157 0 -0.026953796626239684 0.011779298199815671 0 -0.027268766368022973 0.012238451814118282 0 -0.027349304580457152 0.011541596058693157 0 -0.026857462520990336 0.012808972855988175 0 -0.02667194691532206 0.012232019435332284 0 -0.027268766368022973 0.012238451814118282 0 -0.026953796626239684 0.011779298199815671 0 -0.02667194691532206 0.012232019435332284 0 -0.027268766368022973 0.012238451814118282 0 -0.027248142062502576 0.012942565870322753 0 -0.026857462520990336 0.012808972855988175 0 -0.027268766368022973 0.012238451814118282 0 -0.027268766368022973 0.012238451814118282 0 -0.027917064160871023 0.011638814470716628 0 -0.027888978996982429 0.012665238388877943 0 -0.027248142062502576 0.012942565870322753 0 -0.027268766368022973 0.012238451814118282 0 -0.027888978996982429 0.012665238388877943 0 -0.027268766368022973 0.012238451814118282 0 -0.027349304580457152 0.011541596058693157 0 -0.027917064160871023 0.011638814470716628 0 -0.027524833021852133 0.010862870302502268 0 -0.027349304580457152 0.011541596058693157 0 -0.027917064160871023 0.011638814470716628 0 -0.027917064160871023 0.011638814470716628 0 -0.02831576240353742 0.012002179423347097 0 -0.028757629440462697 0.011313862203483472 0 -0.027917064160871023 0.011638814470716628 0 -0.028757629440462697 0.011313862203483472 0 -0.028258682500486555 0.010572924181709397 0 -0.027888978996982429 0.012665238388877943 0 -0.02831576240353742 0.012002179423347097 0 -0.028719624429220221 0.01237441299824844 0 -0.027917064160871023 0.011638814470716628 0 -0.027888978996982429 0.012665238388877943 0 -0.02831576240353742 0.012002179423347097 0 -0.029242425056179685 0.011880421930318068 0 -0.028719624429220221 0.01237441299824844 0 -0.028757629440462697 0.011313862203483472 0 -0.02831576240353742 0.012002179423347097 0 -0.028719624429220221 0.01237441299824844 0 -0.028757629440462697 0.011313862203483472 0 -0.028757629440462697 0.011313862203483472 0 -0.028258682500486555 0.010572924181709397 0 -0.028958170231055444 0.010180857505420306 0 -0.029368668628889118 0.010478837620105222 0 -0.028757629440462697 0.011313862203483472 0 -0.028958170231055444 0.010180857505420306 0 -0.027524833021852133 0.010862870302502268 0 -0.027917064160871023 0.011638814470716628 0 -0.028258682500486555 0.010572924181709397 0 -0.028258682500486555 0.010572924181709397 0 -0.028831591960782624 0.009432760537949109 0 -0.027568214488570303 0.0097772026227399729 0 -0.028258682500486555 0.010572924181709397 0 -0.028958170231055444 0.010180857505420306 0 -0.028831591960782624 0.009432760537949109 0 -0.028791953056336184 0.0094541448522201376 0 -0.027832971702197007 0.0096169015852414844 0 -0.028831591960782624 0.009432760537949109 0 -0.02829187840546106 0.0088392717242933953 0 -0.028075892275272185 0.0094870901708159587 0 -0.028831591960782624 0.009432760537949109 0 -0.028876372423921673 0.0087048109935829975 0 -0.02829187840546106 0.0088392717242933953 0 -0.028876372423921673 0.0087048109935829975 0 -0.028525352777230017 0.0080844615365707646 0 -0.02829187840546106 0.0088392717242933953 0 -0.029514136395924831 0.0088535170744219547 0 -0.028876372423921673 0.0087048109935829975 0 -0.029139130403435218 0.008210923956684938 0 -0.029514136395924831 0.0088535170744219547 0 -0.028831591960782624 0.009432760537949109 0 -0.028876372423921673 0.0087048109935829975 0 -0.029666998812601882 0.00831694604661448 0 -0.029139130403435218 0.008210923956684938 0 -0.02932703782853624 0.0078082391770067927 0 -0.029514136395924831 0.0088535170744219547 0 -0.029666998812601882 0.00831694604661448 0 -0.029139130403435218 0.008210923956684938 0 -0.029734836409896524 0.0076831003287283883 0 -0.02932703782853624 0.0078082391770067927 0 -0.029212997643406905 0.0071789151793960719 0 -0.029139130403435218 0.008210923956684938 0 -0.02932703782853624 0.0078082391770067927 0 -0.028847790833872712 0.0076077248021799489 0 -0.02932703782853624 0.0078082391770067927 0 -0.029212997643406905 0.0071789151793960719 0 -0.028847790833872712 0.0076077248021799489 0 -0.028847790833872712 0.0076077248021799489 0 -0.028453240747116547 0.0074220502882533443 0 -0.028700571160588252 0.006992088894025035 0 -0.029212997643406905 0.0071789151793960719 0 -0.028847790833872712 0.0076077248021799489 0 -0.028700571160588252 0.006992088894025035 0 -0.028847790833872712 0.0076077248021799489 0 -0.028525352777230017 0.0080844615365707646 0 -0.028453240747116547 0.0074220502882533443 0 -0.028876372423921673 0.0087048109935829975 0 -0.029139130403435218 0.008210923956684938 0 -0.028525352777230017 0.0080844615365707646 0 -0.029139130403435218 0.008210923956684938 0 -0.028847790833872712 0.0076077248021799489 0 -0.028525352777230017 0.0080844615365707646 0 -0.028525352777230017 0.0080844615365707646 0 -0.027886498565991749 0.0082911437725271403 0 -0.027946162250828254 0.0075161912811879637 0 -0.028525352777230017 0.0080844615365707646 0 -0.028453240747116547 0.0074220502882533443 0 -0.027946162250828254 0.0075161912811879637 0 -0.027946162250828254 0.0075161912811879637 0 -0.027770526737760343 0.0067772037350371005 0 -0.028228357578618479 0.0068736501702977813 0 -0.028453240747116547 0.0074220502882533443 0 -0.028228357578618479 0.0068736501702977813 0 -0.028700571160588252 0.006992088894025035 0 -0.028453240747116547 0.0074220502882533443 0 -0.027946162250828254 0.0075161912811879637 0 -0.028228357578618479 0.0068736501702977813 0 -0.027373235899178859 0.0071129659988146731 0 -0.027770526737760343 0.0067772037350371005 0 -0.027352488170023923 0.0065546459858176476 0 -0.027946162250828254 0.0075161912811879637 0 -0.027373235899178859 0.0071129659988146731 0 -0.027770526737760343 0.0067772037350371005 0 -0.027946162250828254 0.0075161912811879637 0 -0.027373235899178859 0.0071129659988146731 0 -0.027489577381461575 0.0078904867259001737 0 -0.027373235899178859 0.0071129659988146731 0 -0.027489577381461575 0.0078904867259001737 0 -0.026847220364165248 0.0080395393148001114 0 -0.027886498565991749 0.0082911437725271403 0 -0.027946162250828254 0.0075161912811879637 0 -0.027489577381461575 0.0078904867259001737 0 -0.027886498565991749 0.0082911437725271403 0 -0.027489577381461575 0.0078904867259001737 0 -0.027376049358742993 0.0084220440634389087 0 -0.027489577381461575 0.0078904867259001737 0 -0.027376049358742993 0.0084220440634389087 0 -0.026847220364165248 0.0080395393148001114 0 -0.027886498565991749 0.0082911437725271403 0 -0.027641208223532904 0.0089386314017373698 0 -0.027376049358742993 0.0084220440634389087 0 -0.027641208223532904 0.0089386314017373698 0 -0.027376049358742993 0.0084220440634389087 0 -0.026976410152647314 0.008887752749134472 0 -0.027886498565991749 0.0082911437725271403 0 -0.027641208223532904 0.0089386314017373698 0 -0.02829187840546106 0.0088392717242933953 0 -0.028525352777230017 0.0080844615365707646 0 -0.027886498565991749 0.0082911437725271403 0 -0.02829187840546106 0.0088392717242933953 0 -0.027641208223532904 0.0089386314017373698 0 -0.02829187840546106 0.0088392717242933953 0 -0.028075892275272185 0.0094870901708159587 0 -0.027063777152742073 0.0096438790633424087 0 -0.027641208223532904 0.0089386314017373698 0 -0.026976410152647314 0.008887752749134472 0 -0.027063777152742073 0.0096438790633424087 0 -0.027641208223532904 0.0089386314017373698 0 -0.028075892275272185 0.0094870901708159587 0 -0.026793436349552547 0.0099364503488716619 0 -0.027832971702197007 0.0096169015852414844 0 -0.027168163481816145 0.0095958503893050599 0 -0.026533814575682609 0.0088497303498237118 0 -0.027098355587494367 0.0087801321222588085 0 -0.026793436349552547 0.0099364503488716619 0 -0.027040587722235408 0.0088085129834886266 0 -0.026042880204321116 0.009733670589912001 0 -0.027168163481816145 0.0095958503893050599 0 -0.026533814575682609 0.0088497303498237118 0 -0.026481061875276168 0.0095022861876208828 0 -0.026973557990142963 0.0084680141923416524 0 -0.025981260774739369 0.0085801208227557473 0 -0.026159272412052931 0.0098792537995485499 0 -0.026795292671393717 0.0085887800255747115 0 -0.026973557990142963 0.0084680141923416524 0 -0.026364170091240684 0.0078892658628329278 0 -0.027405825111782509 0.0074616455756345325 0 -0.026973557990142963 0.0084680141923416524 0 -0.026364170091240684 0.0078892658628329278 0 -0.025981260774739369 0.0085801208227557473 0 -0.027376049358742993 0.0084220440634389087 0 -0.026976410152647314 0.008887752749134472 0 -0.026847220364165248 0.0080395393148001114 0 -0.027040587722235408 0.0088085129834886266 0 -0.027070293458618878 0.0078069514995099919 0 -0.026795292671393717 0.0085887800255747115 0 -0.027070293458618878 0.0078069514995099919 0 -0.026533814575682609 0.0088497303498237118 0 -0.027098355587494367 0.0087801321222588085 0 -0.027026647474169319 0.0079606921593604954 0 -0.027070293458618878 0.0078069514995099919 0 -0.02709162258773325 0.0069252378312080753 0 -0.027296075870105074 0.0072275891560360092 0 -0.027070293458618878 0.0078069514995099919 0 -0.027405825111782509 0.0074616455756345325 0 -0.027251859798022738 0.0067637661877342154 0 -0.026599711015440255 0.0070928878799018658 0 -0.027251859798022738 0.0067637661877342154 0 -0.026670579806459226 0.0064638961503591533 0 -0.027027914712119322 0.0062289410809622907 0 -0.027373235899178859 0.0071129659988146731 0 -0.026983781245957544 0.0077691361906183859 0 -0.026927386000482507 0.0071465327546039919 0 -0.02709162258773325 0.0069252378312080753 0 -0.027039651493416705 0.0063700123463830312 0 -0.027373235899178859 0.0071129659988146731 0 -0.026927386000482507 0.0071465327546039919 0 -0.027352488170023923 0.0065546459858176476 0 -0.026670579806459226 0.0064638961503591533 0 -0.026599711015440255 0.0070928878799018658 0 -0.025926665935010161 0.0064829204872092656 0 -0.027251859798022738 0.0067637661877342154 0 -0.026670579806459226 0.0064638961503591533 0 -0.026599711015440255 0.0070928878799018658 0 -0.026364170091240684 0.0078892658628329278 0 -0.027405825111782509 0.0074616455756345325 0 -0.026599711015440255 0.0070928878799018658 0 -0.026364170091240684 0.0078892658628329278 0 -0.026599711015440255 0.0070928878799018658 0 -0.025827818074610136 0.0075275760197939662 0 -0.026599711015440255 0.0070928878799018658 0 -0.025827818074610136 0.0075275760197939662 0 -0.025926665935010161 0.0064829204872092656 0 -0.025926665935010161 0.0064829204872092656 0 -0.024999926424286414 0.0071586969019688564 0 -0.024999908993685035 0.0058340894163945905 0 -0.025827818074610136 0.0075275760197939662 0 -0.025926665935010161 0.0064829204872092656 0 -0.024999926424286414 0.0071586969019688564 0 -0.025827818074610136 0.0075275760197939662 0 -0.024999926424286414 0.0071586969019688564 0 -0.024999942319521039 0.0084833978194395008 0 -0.025827818074610136 0.0075275760197939662 0 -0.024999942319521039 0.0084833978194395008 0 -0.025981260774739369 0.0085801208227557473 0 -0.026364170091240684 0.0078892658628329278 0 -0.025827818074610136 0.0075275760197939662 0 -0.025981260774739369 0.0085801208227557473 0 -0.025743710017051457 0.0096362650497154746 0 -0.026481061875276168 0.0095022861876208828 0 -0.025981260774739369 0.0085801208227557473 0 -0.025743710017051457 0.0096362650497154746 0 -0.024999942319521039 0.0084833978194395008 0 -0.025981260774739369 0.0085801208227557473 0 -0.024999941136481484 0.0098079485729105562 0 -0.025743710017051457 0.0096362650497154746 0 -0.024999942319521039 0.0084833978194395008 0 -0.024999856533609369 0.0031846613367873321 0 -0.025679628946393925 0.0042746458813937042 0 -0.025825314263197865 0.0031164789696133985 0 -0.025679628946393925 0.0042746458813937042 0 -0.026273133894701487 0.0040479751097377619 0 -0.025825314263197865 0.0031164789696133985 0 -0.025679628946393925 0.0042746458813937042 0 -0.02621325655356882 0.0050925294939163568 0 -0.026273133894701487 0.0040479751097377619 0 -0.024999856533609369 0.0031846613367873321 0 -0.025679628946393925 0.0042746458813937042 0 -0.024999875527388891 0.0045094636923253082 0 -0.025679628946393925 0.0042746458813937042 0 -0.024999875527388891 0.0045094636923253082 0 -0.025719853577248809 0.0053659164302259608 0 -0.024999875527388891 0.0045094636923253082 0 -0.024999908993685035 0.0058340894163945905 0 -0.025719853577248809 0.0053659164302259608 0 -0.025926665935010161 0.0064829204872092656 0 -0.024999908993685035 0.0058340894163945905 0 -0.025719853577248809 0.0053659164302259608 0 -0.025926665935010161 0.0064829204872092656 0 -0.025719853577248809 0.0053659164302259608 0 -0.026436281255428181 0.0058241413712630677 0 -0.025679628946393925 0.0042746458813937042 0 -0.025719853577248809 0.0053659164302259608 0 -0.02621325655356882 0.0050925294939163568 0 -0.025719853577248809 0.0053659164302259608 0 -0.02621325655356882 0.0050925294939163568 0 -0.026436281255428181 0.0058241413712630677 0 -0.02621325655356882 0.0050925294939163568 0 -0.026861271589102072 0.0054282703805016309 0 -0.026647726412347857 0.004712201868831257 0 -0.02621325655356882 0.0050925294939163568 0 -0.026436281255428181 0.0058241413712630677 0 -0.026861271589102072 0.0054282703805016309 0 -0.026670579806459226 0.0064638961503591533 0 -0.026436281255428181 0.0058241413712630677 0 -0.027027914712119322 0.0062289410809622907 0 -0.026436281255428181 0.0058241413712630677 0 -0.027027914712119322 0.0062289410809622907 0 -0.026861271589102072 0.0054282703805016309 0 -0.026670579806459226 0.0064638961503591533 0 -0.025926665935010161 0.0064829204872092656 0 -0.026436281255428181 0.0058241413712630677 0 -0.027027914712119322 0.0062289410809622907 0 -0.027337148092967473 0.0059175631461787625 0 -0.026861271589102072 0.0054282703805016309 0 -0.026927386000482507 0.0071465327546039919 0 -0.027027914712119322 0.0062289410809622907 0 -0.027352488170023923 0.0065546459858176476 0 -0.027027914712119322 0.0062289410809622907 0 -0.027337148092967473 0.0059175631461787625 0 -0.027352488170023923 0.0065546459858176476 0 -0.027337148092967473 0.0059175631461787625 0 -0.026861271589102072 0.0054282703805016309 0 -0.027417919685615896 0.0053055284876934068 0 -0.026861271589102072 0.0054282703805016309 0 -0.027068191845258185 0.0048712584345365169 0 -0.027417919685615896 0.0053055284876934068 0 -0.027068191845258185 0.0048712584345365169 0 -0.027505488097339076 0.0046737029473790598 0 -0.027417919685615896 0.0053055284876934068 0 -0.027068191845258185 0.0048712584345365169 0 -0.026995596869569653 0.004173896063044572 0 -0.027505488097339076 0.0046737029473790598 0 -0.027068191845258185 0.0048712584345365169 0 -0.026647726412347857 0.004712201868831257 0 -0.026995596869569653 0.004173896063044572 0 -0.026861271589102072 0.0054282703805016309 0 -0.027068191845258185 0.0048712584345365169 0 -0.026647726412347857 0.004712201868831257 0 -0.02621325655356882 0.0050925294939163568 0 -0.026647726412347857 0.004712201868831257 0 -0.026273133894701487 0.0040479751097377619 0 -0.026647726412347857 0.004712201868831257 0 -0.026273133894701487 0.0040479751097377619 0 -0.026995596869569653 0.004173896063044572 0 -0.026273133894701487 0.0040479751097377619 0 -0.026676178520750275 0.0031812897740345816 0 -0.025825314263197865 0.0031164789696133985 0 -0.026273133894701487 0.0040479751097377619 0 -0.026995596869569653 0.004173896063044572 0 -0.026676178520750275 0.0031812897740345816 0 -0.027224911164172749 0.0035173656204053674 0 -0.026995596869569653 0.004173896063044572 0 -0.026676178520750275 0.0031812897740345816 0 -0.027224911164172749 0.0035173656204053674 0 -0.026995596869569653 0.004173896063044572 0 -0.027604477071575664 0.0040082721168212274 0 -0.026995596869569653 0.004173896063044572 0 -0.027604477071575664 0.0040082721168212274 0 -0.027505488097339076 0.0046737029473790598 0 -0.027604477071575664 0.0040082721168212274 0 -0.028217397948485743 0.0037905740485124173 0 -0.028029813484821853 0.004497931996218482 0 -0.027224911164172749 0.0035173656204053674 0 -0.027604477071575664 0.0040082721168212274 0 -0.027647967946301033 0.0032899718898684194 0 -0.027604477071575664 0.0040082721168212274 0 -0.028217397948485743 0.0037905740485124173 0 -0.027647967946301033 0.0032899718898684194 0 -0.028217397948485743 0.0037905740485124173 0 -0.028619611102104526 0.0044290935472024911 0 -0.028733830767568448 0.0038611722802445203 0 -0.028217397948485743 0.0037905740485124173 0 -0.028619611102104526 0.0044290935472024911 0 -0.028029813484821853 0.004497931996218482 0 -0.028619611102104526 0.0044290935472024911 0 -0.028399480135167989 0.0051193187863190033 0 -0.028867766551633516 0.0050591564175939659 0 -0.028619611102104526 0.0044290935472024911 0 -0.028399480135167989 0.0051193187863190033 0 -0.028029813484821853 0.004497931996218482 0 -0.028399480135167989 0.0051193187863190033 0 -0.027925573638611485 0.0051305101723229454 0 -0.028029813484821853 0.004497931996218482 0 -0.027925573638611485 0.0051305101723229454 0 -0.028029813484821853 0.004497931996218482 0 -0.027505488097339076 0.0046737029473790598 0 -0.027604477071575664 0.0040082721168212274 0 -0.028029813484821853 0.004497931996218482 0 -0.027505488097339076 0.0046737029473790598 0 -0.027925573638611485 0.0051305101723229454 0 -0.027505488097339076 0.0046737029473790598 0 -0.027417919685615896 0.0053055284876934068 0 -0.027925573638611485 0.0051305101723229454 0 -0.027417919685615896 0.0053055284876934068 0 -0.027786042185905066 0.0057312242806796185 0 -0.027337148092967473 0.0059175631461787625 0 -0.027417919685615896 0.0053055284876934068 0 -0.027786042185905066 0.0057312242806796185 0 -0.027337148092967473 0.0059175631461787625 0 -0.027648196902192407 0.0062612393020682567 0 -0.027352488170023923 0.0065546459858176476 0 -0.027337148092967473 0.0059175631461787625 0 -0.027786042185905066 0.0057312242806796185 0 -0.027648196902192407 0.0062612393020682567 0 -0.027786042185905066 0.0057312242806796185 0 -0.027648196902192407 0.0062612393020682567 0 -0.028077611166479746 0.0062173143597905418 0 -0.027648196902192407 0.0062612393020682567 0 -0.027770526737760343 0.0067772037350371005 0 -0.028077611166479746 0.0062173143597905418 0 -0.027648196902192407 0.0062612393020682567 0 -0.027770526737760343 0.0067772037350371005 0 -0.027352488170023923 0.0065546459858176476 0 -0.028228357578618479 0.0068736501702977813 0 -0.02852154881173934 0.0063463013421191164 0 -0.028700571160588252 0.006992088894025035 0 -0.027770526737760343 0.0067772037350371005 0 -0.028228357578618479 0.0068736501702977813 0 -0.028077611166479746 0.0062173143597905418 0 -0.028228357578618479 0.0068736501702977813 0 -0.028077611166479746 0.0062173143597905418 0 -0.02852154881173934 0.0063463013421191164 0 -0.028077611166479746 0.0062173143597905418 0 -0.02852154881173934 0.0063463013421191164 0 -0.028262912886717194 0.0057057788713518959 0 -0.02852154881173934 0.0063463013421191164 0 -0.028262912886717194 0.0057057788713518959 0 -0.028836290802040268 0.0057650021327918695 0 -0.027786042185905066 0.0057312242806796185 0 -0.028077611166479746 0.0062173143597905418 0 -0.028262912886717194 0.0057057788713518959 0 -0.027925573638611485 0.0051305101723229454 0 -0.027786042185905066 0.0057312242806796185 0 -0.028262912886717194 0.0057057788713518959 0 -0.028399480135167989 0.0051193187863190033 0 -0.027925573638611485 0.0051305101723229454 0 -0.028262912886717194 0.0057057788713518959 0 -0.028399480135167989 0.0051193187863190033 0 -0.028262912886717194 0.0057057788713518959 0 -0.028836290802040268 0.0057650021327918695 0 -0.028836290802040268 0.0057650021327918695 0 -0.029402213309822491 0.0054124682214166187 0 -0.028867766551633516 0.0050591564175939659 0 -0.028836290802040268 0.0057650021327918695 0 -0.02904637318370613 0.0065033008699595923 0 -0.029437332509175525 0.0060929449037699715 0 -0.02852154881173934 0.0063463013421191164 0 -0.028836290802040268 0.0057650021327918695 0 -0.02904637318370613 0.0065033008699595923 0 -0.02852154881173934 0.0063463013421191164 0 -0.02904637318370613 0.0065033008699595923 0 -0.028700571160588252 0.006992088894025035 0 -0.029212997643406905 0.0071789151793960719 0 -0.02904637318370613 0.0065033008699595923 0 -0.028700571160588252 0.006992088894025035 0 -0.02904637318370613 0.0065033008699595923 0 -0.029666689128548803 0.006787127323154115 0 -0.029437332509175525 0.0060929449037699715 0 -0.029734836409896524 0.0076831003287283883 0 -0.029212997643406905 0.0071789151793960719 0 -0.029666689128548803 0.006787127323154115 0 -0.029212997643406905 0.0071789151793960719 0 -0.02904637318370613 0.0065033008699595923 0 -0.029666689128548803 0.006787127323154115 0 -0.029666689128548803 0.006787127323154115 0 -0.029437332509175525 0.0060929449037699715 0 -0.029997959607446858 0.005839129497866114 0 -0.028836290802040268 0.0057650021327918695 0 -0.029437332509175525 0.0060929449037699715 0 -0.029402213309822491 0.0054124682214166187 0 -0.029437332509175525 0.0060929449037699715 0 -0.029402213309822491 0.0054124682214166187 0 -0.029997959607446858 0.005839129497866114 0 -0.029988771702210433 0.0096644480166061964 0 -0.029706633621202183 0.0094427730899535409 0 -0.030106466365824733 0.01015151973250863 0 -0.029402213309822491 0.0054124682214166187 0 -0.029580618259516373 0.0045305641288081932 0 -0.029997959607446858 0.005839129497866114 0 -0.029402213309822491 0.0054124682214166187 0 -0.029108460687404986 0.0046277742402155821 0 -0.029580618259516373 0.0045305641288081932 0 -0.029397814529012977 0.006234832435074401 0 -0.030120268414706046 0.0081287592187135639 0 -0.029798897029008634 0.0068964621210163791 0 -0.029397814529012977 0.006234832435074401 0 -0.029402213309822491 0.0054124682214166187 0 -0.028867766551633516 0.0050591564175939659 0 -0.029108460687404986 0.0046277742402155821 0 -0.028399480135167989 0.0051193187863190033 0 -0.028836290802040268 0.0057650021327918695 0 -0.028867766551633516 0.0050591564175939659 0 -0.028619611102104526 0.0044290935472024911 0 -0.028867766551633516 0.0050591564175939659 0 -0.029108460687404986 0.0046277742402155821 0 -0.029108460687404986 0.0046277742402155821 0 -0.029139732472059015 0.0040652265907524486 0 -0.029580618259516373 0.0045305641288081932 0 -0.028619611102104526 0.0044290935472024911 0 -0.029108460687404986 0.0046277742402155821 0 -0.029139732472059015 0.0040652265907524486 0 -0.028619611102104526 0.0044290935472024911 0 -0.028733830767568448 0.0038611722802445203 0 -0.029139732472059015 0.0040652265907524486 0 -0.028733830767568448 0.0038611722802445203 0 -0.029139732472059015 0.0040652265907524486 0 -0.029021221378132459 0.0036798575784275189 0 -0.029139732472059015 0.0040652265907524486 0 -0.029272806486196231 0.0038082225495328641 0 -0.029021221378132459 0.0036798575784275189 0 -0.029139732472059015 0.0040652265907524486 0 -0.029272806486196231 0.0038082225495328641 0 -0.029422807808640348 0.0040376290478037757 0 -0.029272806486196231 0.0038082225495328641 0 -0.029422807808640348 0.0040376290478037757 0 -0.029500489120051852 0.0039028337506858022 0 -0.029477233596057709 0.0040272224992563581 0 -0.029500489120051852 0.0039028337506858022 0 -0.029461214781952117 0.00406444812352504 0 -0.029466014637069705 0.0034182961446459896 0 -0.028554471274065414 0.0029594171382446226 0 -0.029422807808640348 0.0040376290478037757 0 -0.029477233596057709 0.0040272224992563581 0 -0.029453615983149318 0.0040667993382692254 0 -0.029422807808640348 0.0040376290478037757 0 -0.029477233596057709 0.0040272224992563581 0 -0.029500489120051852 0.0039028337506858022 0 -0.029463257424552632 0.0040816639617236678 0 -0.029422807808640348 0.0040376290478037757 0 -0.029453615983149318 0.0040667993382692254 0 -0.029463257424552632 0.0040816639617236678 0 -0.029422807808640348 0.0040376290478037757 0 -0.029386834358343789 0.0041061591156245454 0 -0.029139732472059015 0.0040652265907524486 0 -0.029422807808640348 0.0040376290478037757 0 -0.029386834358343789 0.0041061591156245454 0 -0.028778033799242195 0.0042869400288002377 0 -0.029397814529012977 0.006234832435074401 0 -0.027008755257930769 0.00037527675113171256 0 -0.026948231677326118 0.00033219489573741784 0 -0.027055204047850459 0.00046485047049734703 0 -0.028010258310803057 0.0017506018038718877 0 -0.028554471274065414 0.0029594171382446226 0 -0.029500489120051852 0.0039028337506858022 0 -0.029246192806337255 0.0033739534700866587 0 -0.029680517919858065 0.0039917851096580919 0 -0.027008755257930769 0.00037527675113171256 0 -0.026948231677326118 0.00033219489573741784 0 -0.026937546142783177 0.00032444134386007867 0 -0.029272806486196231 0.0038082225495328641 0 -0.029500489120051852 0.0039028337506858022 0 -0.029246192806337255 0.0033739534700866587 0 -0.029272806486196231 0.0038082225495328641 0 -0.029021221378132459 0.0036798575784275189 0 -0.029246192806337255 0.0033739534700866587 0 -0.029021221378132459 0.0036798575784275189 0 -0.029246192806337255 0.0033739534700866587 0 -0.028653340288886241 0.0033704272309851872 0 -0.029246192806337255 0.0033739534700866587 0 -0.028547856261547471 0.0026226446894602844 0 -0.028653340288886241 0.0033704272309851872 0 -0.028733830767568448 0.0038611722802445203 0 -0.029021221378132459 0.0036798575784275189 0 -0.028653340288886241 0.0033704272309851872 0 -0.028010258310803057 0.0017506018038718877 0 -0.027841648036708747 0.0015369170260137598 0 -0.026948231677326118 0.00033219489573741784 0 -0.027014445144826517 0.00039947996507916101 0 -0.027141140068941264 0.00042137195336793617 0 -0.026948231677326118 0.00033219489573741784 0 -0.027014445144826517 0.00039947996507916101 0 -0.026937546142783177 0.00032444134386007867 0 -0.027014445144826517 0.00039947996507916101 0 -0.027097217101093418 0.00049605840793737893 0 -0.027141140068941264 0.00042137195336793617 0 -0.027014445144826517 0.00039947996507916101 0 -0.026868224057903862 0.00039726960062586519 0 -0.026969616647303653 0.00047794629470378165 0 -0.027014445144826517 0.00039947996507916101 0 -0.026868224057903862 0.00039726960062586519 0 -0.026937546142783177 0.00032444134386007867 0 -0.027008755257930769 0.00037527675113171256 0 -0.026937546142783177 0.00032444134386007867 0 -0.02707786949021302 0.00036562758787934702 0 -0.026953324138580096 0.00031291726020699279 0 -0.026748520050673467 0.00024026963665503914 0 -0.026868224057903862 0.00039726960062586519 0 -0.026937546142783177 0.00032444134386007867 0 -0.026752744627160825 0.00031017103138117845 0 -0.026937546142783177 0.00032444134386007867 0 -0.026752744627160825 0.00031017103138117845 0 -0.026580465933140104 0.00012689493677726989 0 -0.026868224057903862 0.00039726960062586519 0 -0.026752744627160825 0.00031017103138117845 0 -0.026770115401674614 0.00039325840506301764 0 -0.026752744627160825 0.00031017103138117845 0 -0.026770115401674614 0.00039325840506301764 0 -0.026657925833094578 0.00039865064625633107 0 -0.026750242937281933 0.00045391408742265541 0 -0.02668080073662021 0.00049991989745945347 0 -0.026657925833094578 0.00039865064625633107 0 -0.026770115401674614 0.00039325840506301764 0 -0.026750242937281933 0.00045391408742265541 0 -0.026657925833094578 0.00039865064625633107 0 -0.026770115401674614 0.00039325840506301764 0 -0.026750242937281933 0.00045391408742265541 0 -0.026839644823671179 0.00046055176482251464 0 -0.026868224057903862 0.00039726960062586519 0 -0.026839644823671179 0.00046055176482251464 0 -0.026969616647303653 0.00047794629470378165 0 -0.026839644823671179 0.00046055176482251464 0 -0.026853758721198644 0.00053304446420926997 0 -0.026969616647303653 0.00047794629470378165 0 -0.026868224057903862 0.00039726960062586519 0 -0.026770115401674614 0.00039325840506301764 0 -0.026839644823671179 0.00046055176482251464 0 -0.026750242937281933 0.00045391408742265541 0 -0.026839644823671179 0.00046055176482251464 0 -0.026853758721198644 0.00053304446420926997 0 -0.026853758721198644 0.00053304446420926997 0 -0.02668080073662021 0.00049991989745945347 0 -0.026751834404390624 0.00056914521117130783 0 -0.026750242937281933 0.00045391408742265541 0 -0.026853758721198644 0.00053304446420926997 0 -0.02668080073662021 0.00049991989745945347 0 -0.02668080073662021 0.00049991989745945347 0 -0.026751834404390624 0.00056914521117130783 0 -0.026638509360751305 0.00052726044181358191 0 -0.026751834404390624 0.00056914521117130783 0 -0.026866023254787923 0.00072119525650182347 0 -0.026638509360751305 0.00052726044181358191 0 -0.025595037921026055 7.2407492596534729e-05 0 -0.025903066316607423 -0.00011694405343879108 0 -0.026400432191056981 0.00036503354546256765 0 -0.026065883564379017 0.00042404350380657538 0 -0.02653306105657503 0.00046275499961937226 0 -0.026853758721198644 0.00053304446420926997 0 -0.026751834404390624 0.00056914521117130783 0 -0.026866023254787923 0.00072119525650182347 0 -0.025463086827298073 -0.00030582459647576223 0 -0.025595037921026055 7.2407492596534729e-05 0 -0.025903066316607423 -0.00011694405343879108 0 -0.025463086827298073 -0.00030582459647576223 0 -0.025595037921026055 7.2407492596534729e-05 0 -0.024671694579652185 -0.00014272310956041861 0 -0.026065883564379017 0.00042404350380657538 0 -0.026755970700640754 -4.6432400617133006e-05 0 -0.026866023254787923 0.00072119525650182347 0 -0.027012621090483479 0.0006211171057185431 0 -0.027218151462427835 0.00078792067974807652 0 -0.026853758721198644 0.00053304446420926997 0 -0.026866023254787923 0.00072119525650182347 0 -0.027012621090483479 0.0006211171057185431 0 -0.027012621090483479 0.0006211171057185431 0 -0.027143617258055332 0.00059746226669756322 0 -0.027218151462427835 0.00078792067974807652 0 -0.027012621090483479 0.0006211171057185431 0 -0.026969616647303653 0.00047794629470378165 0 -0.027143617258055332 0.00059746226669756322 0 -0.026853758721198644 0.00053304446420926997 0 -0.027012621090483479 0.0006211171057185431 0 -0.026969616647303653 0.00047794629470378165 0 -0.026969616647303653 0.00047794629470378165 0 -0.027097217101093418 0.00049605840793737893 0 -0.027143617258055332 0.00059746226669756322 0 -0.027014445144826517 0.00039947996507916101 0 -0.026969616647303653 0.00047794629470378165 0 -0.027097217101093418 0.00049605840793737893 0 -0.027169509352074787 0.00056891302012217508 0 -0.027143617258055332 0.00059746226669756322 0 -0.02720532665292337 0.00061763580305597193 0 -0.027097217101093418 0.00049605840793737893 0 -0.027169509352074787 0.00056891302012217508 0 -0.027143617258055332 0.00059746226669756322 0 -0.027143617258055332 0.00059746226669756322 0 -0.027239898176049788 0.00054138107855011472 0 -0.02720532665292337 0.00061763580305597193 0 -0.027242649549100054 0.00082726564991141493 0 -0.026755970700640754 -4.6432400617133006e-05 0 -0.027114384939141058 0.0002656075251723461 0 -0.02720532665292337 0.00061763580305597193 0 -0.027098595273969 0.00068282850303078588 0 -0.027114384939141058 0.0002656075251723461 0 -0.027239898176049788 0.00054138107855011472 0 -0.02720532665292337 0.00061763580305597193 0 -0.027169509352074787 0.00056891302012217508 0 -0.02720532665292337 0.00061763580305597193 0 -0.027193446664950903 0.00067214653865640614 0 -0.02720532665292337 0.00061763580305597193 0 -0.027193446664950903 0.00067214653865640614 0 -0.027098595273969 0.00068282850303078588 0 -0.027771709815795648 0.0018223060924446978 0 -0.027691227430526252 0.0025978979643497312 0 -0.028547856261547471 0.0026226446894602844 0 -0.027691227430526252 0.0025978979643497312 0 -0.028547856261547471 0.0026226446894602844 0 -0.028156057668331253 0.0031350226360726059 0 -0.027426776686720614 0.0012258275441511734 0 -0.027841648036708747 0.0015369170260137598 0 -0.027169509352074787 0.00056891302012217508 0 -0.027193446664950903 0.00067214653865640614 0 -0.027141140068941264 0.00042137195336793617 0 -0.027097217101093418 0.00049605840793737893 0 -0.027169509352074787 0.00056891302012217508 0 -0.027141140068941264 0.00042137195336793617 0 -0.028547856261547471 0.0026226446894602844 0 -0.028156057668331253 0.0031350226360726059 0 -0.028653340288886241 0.0033704272309851872 0 -0.028217397948485743 0.0037905740485124173 0 -0.028733830767568448 0.0038611722802445203 0 -0.028653340288886241 0.0033704272309851872 0 -0.028217397948485743 0.0037905740485124173 0 -0.028156057668331253 0.0031350226360726059 0 -0.028653340288886241 0.0033704272309851872 0 -0.028217397948485743 0.0037905740485124173 0 -0.028156057668331253 0.0031350226360726059 0 -0.027647967946301033 0.0032899718898684194 0 -0.027691227430526252 0.0025978979643497312 0 -0.028156057668331253 0.0031350226360726059 0 -0.027647967946301033 0.0032899718898684194 0 -0.027691227430526252 0.0025978979643497312 0 -0.027647967946301033 0.0032899718898684194 0 -0.027265338868741884 0.0029542870228979152 0 -0.027265338868741884 0.0029542870228979152 0 -0.026676178520750275 0.0031812897740345816 0 -0.027077466306296243 0.0021599488425705993 0 -0.027224911164172749 0.0035173656204053674 0 -0.027647967946301033 0.0032899718898684194 0 -0.027265338868741884 0.0029542870228979152 0 -0.027224911164172749 0.0035173656204053674 0 -0.027265338868741884 0.0029542870228979152 0 -0.026676178520750275 0.0031812897740345816 0 -0.026676178520750275 0.0031812897740345816 0 -0.027077466306296243 0.0021599488425705993 0 -0.02600772749709607 0.0021417392661833316 0 -0.02703612349134896 0.0021297040098946138 0 -0.026016666364809267 0.0020038480287517201 0 -0.027691227430526252 0.0025978979643497312 0 -0.027265338868741884 0.0029542870228979152 0 -0.027077466306296243 0.0021599488425705993 0 -0.027771709815795648 0.0018223060924446978 0 -0.027691227430526252 0.0025978979643497312 0 -0.027077466306296243 0.0021599488425705993 0 -0.027193446664950903 0.00067214653865640614 0 -0.027098595273969 0.00068282850303078588 0 -0.026840217756475975 0.00091466472544786067 0 -0.027426776686720614 0.0012258275441511734 0 -0.026857137684991109 0.00091694209318562135 0 -0.027771709815795648 0.0018223060924446978 0 -0.027077466306296243 0.0021599488425705993 0 -0.026840217756475975 0.00091466472544786067 0 -0.027114384939141058 0.0002656075251723461 0 -0.027098595273969 0.00068282850303078588 0 -0.026840217756475975 0.00091466472544786067 0 -0.027114384939141058 0.0002656075251723461 0 -0.02622983249559372 -0.00025589242431250556 0 -0.026840217756475975 0.00091466472544786067 0 -0.02622983249559372 -0.00025589242431250556 0 -0.026840217756475975 0.00091466472544786067 0 -0.025947675707761384 0.00076343256585943839 0 -0.027077466306296243 0.0021599488425705993 0 -0.026840217756475975 0.00091466472544786067 0 -0.026004814996210365 0.0018548340392304161 0 -0.026840217756475975 0.00091466472544786067 0 -0.025947675707761384 0.00076343256585943839 0 -0.026004814996210365 0.0018548340392304161 0 -0.025947675707761384 0.00076343256585943839 0 -0.024999867478483699 0.0018595939654903507 0 -0.026004814996210365 0.0018548340392304161 0 -0.02622983249559372 -0.00025589242431250556 0 -0.025947675707761384 0.00076343256585943839 0 -0.024999947113505543 0.00049851183579735926 0 -0.025947675707761384 0.00076343256585943839 0 -0.024999947113505543 0.00049851183579735926 0 -0.024999867478483699 0.0018595939654903507 0 -0.024999904460727203 0.0018603674025220432 0 -0.02600772749709607 0.0021417392661833316 0 -0.025825314263197865 0.0031164789696133985 0 -0.025000105504144065 0.0018598756475688171 0 -0.026016666364809267 0.0020038480287517201 0 -0.026676178520750275 0.0031812897740345816 0 -0.02600772749709607 0.0021417392661833316 0 -0.025825314263197865 0.0031164789696133985 0 -0.024999856533609369 0.0031846613367873321 0 -0.024999904460727203 0.0018603674025220432 0 -0.025825314263197865 0.0031164789696133985 0 -0.026011312785281977 0.013355768400263217 0 -0.027442198374061481 0.013425137075103755 0 -0.026239874918812061 0.014248870868795015 0 -0.026011312785281977 0.013355768400263217 0 -0.025625119634726381 0.013798007358668799 0 -0.025452804914772104 0.013469572627341589 0 -0.026011312785281977 0.013355768400263217 0 -0.025452804914772104 0.013469572627341589 0 -0.025133467425340689 0.013103138944902372 0 -0.026011312785281977 0.013355768400263217 0 -0.025133467425340689 0.013103138944902372 0 -0.025822276086729035 0.012581991884092217 0 -0.026011312785281977 0.013355768400263217 0 -0.026599526210884478 0.012745099896067799 0 -0.025822276086729035 0.012581991884092217 0 -0.027442198374061481 0.013425137075103755 0 -0.026599526210884478 0.012745099896067799 0 -0.027340373755739892 0.012270792618987798 0 -0.026011312785281977 0.013355768400263217 0 -0.027442198374061481 0.013425137075103755 0 -0.026599526210884478 0.012745099896067799 0 -0.028280641022706707 0.004072899716045424 0 -0.028268458414880293 0.004251487524195313 0 -0.028529711679395275 0.0041544199386874215 0 -0.023271433132995685 0.00045666141665861958 0 -0.024783583415403227 0.00058564784566920297 0 -0.023793810332741468 0.0014506615014651869 0 -0.02790161742097946 0.0090560750387707629 0 -0.024705514760037937 0.0055724089043469706 0 -0.027830905417728341 0.0044124918930666095 0 -0.02839588881765626 0.0043777881248611801 0 -0.028411104868481019 0.004423871794303192 0 -0.028268458414880293 0.004251487524195313 0 -0.027830905417728341 0.0044124918930666095 0 -0.02839588881765626 0.0043777881248611801 0 -0.028280641022706707 0.004072899716045424 0 -0.028268458414880293 0.004251487524195313 0 -0.027830905417728341 0.0044124918930666095 0 -0.024705514760037937 0.0055724089043469706 0 -0.027147986580893003 0.0019167825526036433 0 -0.026011312785281977 0.013355768400263217 0 -0.026239874918812061 0.014248870868795015 0 -0.025625119634726381 0.013798007358668799 0 -0.024705514760037937 0.0055724089043469706 0 -0.023440854145075355 0.0087854550018090036 0 -0.026239874918812061 0.014248870868795015 0 -0.025625119634726381 0.013798007358668799 0 -0.025209567112365997 0.014090131542426203 0 -0.022103968341124013 0.0040725245514490272 0 -0.022642718448374208 0.0041202040967861951 0 -0.022549470620716713 0.0036399040415780316 0 -0.024705514760037937 0.0055724089043469706 0 -0.020426331221749618 -0.0011633743693935585 0 -0.023440854145075355 0.0087854550018090036 0 -0.020827330791674266 0.0058720617723485519 0 -0.020750148235581155 0.0049093376230324517 0 -0.021874675140304254 0.0050236028297906609 0 -0.020746094451350873 0.0043339430159192302 0 -0.020827330791674266 0.0058720617723485519 0 -0.019173415584717773 -0.00051450345715723267 0 -0.023440854145075355 0.0087854550018090036 0 -0.019173415584717773 -0.00051450345715723267 0 -0.025193187842564909 0.014020994280235451 0 -0.023925256576876212 0.013673300849678488 0 -0.024518632627790044 0.013427709600633312 0 -0.022642718448374208 0.0041202040967861951 0 -0.022549470620716713 0.0036399040415780316 0 -0.022634919865381957 0.0036905406919033037 0 -0.025204776732243774 0.013836626177216442 0 -0.025193187842564909 0.014020994280235451 0 -0.024518632627790044 0.013427709600633312 0 -0.025625119634726381 0.013798007358668799 0 -0.025204776732243774 0.013836626177216442 0 -0.025452804914772104 0.013469572627341589 0 -0.025625119634726381 0.013798007358668799 0 -0.025204776732243774 0.013836626177216442 0 -0.025209567112365997 0.014090131542426203 0 -0.023626725855349251 0.010582325433088091 0 -0.023440854145075355 0.0087854550018090036 0 -0.017247181923761703 -0.0025833167803506535 0 -0.019308180454557986 -0.0013758594411786818 0 -0.016737593609962784 -0.0017142910784623047 0 -0.023925256576876212 0.013673300849678488 0 -0.024518632627790044 0.013427709600633312 0 -0.023756509923756438 0.012574786954628913 0 -0.024518632627790044 0.013427709600633312 0 -0.02448429583392615 0.012621030833386622 0 -0.023756509923756438 0.012574786954628913 0 -0.025204776732243774 0.013836626177216442 0 -0.025452804914772104 0.013469572627341589 0 -0.025133467425340689 0.013103138944902372 0 -0.025204776732243774 0.013836626177216442 0 -0.024518632627790044 0.013427709600633312 0 -0.025133467425340689 0.013103138944902372 0 -0.024518632627790044 0.013427709600633312 0 -0.025133467425340689 0.013103138944902372 0 -0.02448429583392615 0.012621030833386622 0 -0.025133467425340689 0.013103138944902372 0 -0.025070120244222543 0.012492758297377038 0 -0.02448429583392615 0.012621030833386622 0 -0.025133467425340689 0.013103138944902372 0 -0.025070120244222543 0.012492758297377038 0 -0.025822276086729035 0.012581991884092217 0 -0.02448429583392615 0.012621030833386622 0 -0.024727681879365616 0.012224600375442813 0 -0.02413205138854746 0.011809915850484935 0 -0.025070120244222543 0.012492758297377038 0 -0.025246693574601901 0.011958072529906209 0 -0.025822276086729035 0.012581991884092217 0 -0.024727681879365616 0.012224600375442813 0 -0.025246693574601901 0.011958072529906209 0 -0.02413205138854746 0.011809915850484935 0 -0.025070120244222543 0.012492758297377038 0 -0.02448429583392615 0.012621030833386622 0 -0.024727681879365616 0.012224600375442813 0 -0.025070120244222543 0.012492758297377038 0 -0.024727681879365616 0.012224600375442813 0 -0.025246693574601901 0.011958072529906209 0 -0.02448429583392615 0.012621030833386622 0 -0.023756509923756438 0.012574786954628913 0 -0.02413205138854746 0.011809915850484935 0 -0.023756509923756438 0.012574786954628913 0 -0.02413205138854746 0.011809915850484935 0 -0.023453823719509121 0.011787336656446133 0 -0.024048452143858621 0.010973043769467703 0 -0.02413205138854746 0.011809915850484935 0 -0.023824255924865853 0.011384024393572816 0 -0.02413205138854746 0.011809915850484935 0 -0.023824255924865853 0.011384024393572816 0 -0.023453823719509121 0.011787336656446133 0 -0.023551027776786276 0.011370751505179912 0 -0.023824255924865853 0.011384024393572816 0 -0.023453823719509121 0.011787336656446133 0 -0.024048452143858621 0.010973043769467703 0 -0.02413205138854746 0.011809915850484935 0 -0.024995723021577872 0.011260910587186878 0 -0.025246693574601901 0.011958072529906209 0 -0.02413205138854746 0.011809915850484935 0 -0.024995723021577872 0.011260910587186878 0 -0.025246693574601901 0.011958072529906209 0 -0.024995723021577872 0.011260910587186878 0 -0.025951059462168954 0.011212347078009471 0 -0.026609908979883395 0.010296871841792682 0 -0.024995723021577872 0.011260910587186878 0 -0.025951059462168954 0.011212347078009471 0 -0.026609908979883395 0.010296871841792682 0 -0.025951059462168954 0.011212347078009471 0 -0.026786794178337688 0.010937423174393127 0 -0.025951059462168954 0.011212347078009471 0 -0.026786794178337688 0.010937423174393127 0 -0.026261169946466288 0.011564103803038708 0 -0.026261169946466288 0.011564103803038708 0 -0.02638656602932803 0.0121252215524464 0 -0.027038235019497703 0.011611887615580537 0 -0.026786794178337688 0.010937423174393127 0 -0.026261169946466288 0.011564103803038708 0 -0.027038235019497703 0.011611887615580537 0 -0.025246693574601901 0.011958072529906209 0 -0.025951059462168954 0.011212347078009471 0 -0.026261169946466288 0.011564103803038708 0 -0.025246693574601901 0.011958072529906209 0 -0.026261169946466288 0.011564103803038708 0 -0.02638656602932803 0.0121252215524464 0 -0.025246693574601901 0.011958072529906209 0 -0.02638656602932803 0.0121252215524464 0 -0.025822276086729035 0.012581991884092217 0 -0.02638656602932803 0.0121252215524464 0 -0.026599526210884478 0.012745099896067799 0 -0.025822276086729035 0.012581991884092217 0 -0.027442198374061481 0.013425137075103755 0 -0.027340373755739892 0.012270792618987798 0 -0.028733732327597107 0.012433717236664525 0 -0.02638656602932803 0.0121252215524464 0 -0.026599526210884478 0.012745099896067799 0 -0.027340373755739892 0.012270792618987798 0 -0.02638656602932803 0.0121252215524464 0 -0.027340373755739892 0.012270792618987798 0 -0.027038235019497703 0.011611887615580537 0 -0.027340373755739892 0.012270792618987798 0 -0.027038235019497703 0.011611887615580537 0 -0.027987178356152758 0.011540031132259513 0 -0.027038235019497703 0.011611887615580537 0 -0.027508657693593064 0.010982429308474222 0 -0.027987178356152758 0.011540031132259513 0 -0.027508657693593064 0.010982429308474222 0 -0.02822356133711787 0.010881437888273036 0 -0.027987178356152758 0.011540031132259513 0 -0.026786794178337688 0.010937423174393127 0 -0.027038235019497703 0.011611887615580537 0 -0.027508657693593064 0.010982429308474222 0 -0.028155580660016822 0.010389625205630618 0 -0.027508657693593064 0.010982429308474222 0 -0.02822356133711787 0.010881437888273036 0 -0.028155580660016822 0.010389625205630618 0 -0.02822356133711787 0.010881437888273036 0 -0.02874709494395649 0.010410831689473207 0 -0.02822356133711787 0.010881437888273036 0 -0.028692396588580003 0.011109830990492727 0 -0.02874709494395649 0.010410831689473207 0 -0.02822356133711787 0.010881437888273036 0 -0.027987178356152758 0.011540031132259513 0 -0.028692396588580003 0.011109830990492727 0 -0.028692396588580003 0.011109830990492727 0 -0.029157103130630187 0.010547104376641261 0 -0.029493570854085979 0.010889627747667791 0 -0.028692396588580003 0.011109830990492727 0 -0.02874709494395649 0.010410831689473207 0 -0.029157103130630187 0.010547104376641261 0 -0.029400453440568099 0.0099736801642083522 0 -0.029157103130630187 0.010547104376641261 0 -0.029531004653422441 0.01040385333576356 0 -0.029157103130630187 0.010547104376641261 0 -0.029531004653422441 0.01040385333576356 0 -0.029493570854085979 0.010889627747667791 0 -0.030007633780485862 0.0099291287183286663 0 -0.029531004653422441 0.01040385333576356 0 -0.029857049698837183 0.010543547653733592 0 -0.030007633780485862 0.0099291287183286663 0 -0.029857049698837183 0.010543547653733592 0 -0.030275823603706616 0.010398618553127773 0 -0.029531004653422441 0.01040385333576356 0 -0.029857049698837183 0.010543547653733592 0 -0.029493570854085979 0.010889627747667791 0 -0.029607556077830173 0.0091073969880123822 0 -0.029841801147920455 0.010201272691298717 0 -0.029857049698837183 0.010543547653733592 0 -0.029810290318868018 0.011036074585607857 0 -0.030275823603706616 0.010398618553127773 0 -0.029857049698837183 0.010543547653733592 0 -0.029810290318868018 0.011036074585607857 0 -0.029493570854085979 0.010889627747667791 0 -0.029607556077830173 0.0091073969880123822 0 -0.030044062582988952 0.010132978555493659 0 -0.029973973613779608 0.011237415409137856 0 -0.029493570854085979 0.010889627747667791 0 -0.028733732327597107 0.012433717236664525 0 -0.029607556077830173 0.0091073969880123822 0 -0.028789420395731777 0.0079168522952127191 0 -0.028953781177788757 0.003662152760955324 0 -0.029006178425359873 0.0038843200144073296 0 -0.02866019822154604 0.0038447990116959076 0 -0.027987178356152758 0.011540031132259513 0 -0.028692396588580003 0.011109830990492727 0 -0.028733732327597107 0.012433717236664525 0 -0.027340373755739892 0.012270792618987798 0 -0.027987178356152758 0.011540031132259513 0 -0.028733732327597107 0.012433717236664525 0 -0.028692396588580003 0.011109830990492727 0 -0.029493570854085979 0.010889627747667791 0 -0.028733732327597107 0.012433717236664525 0 -0.029666689128548803 0.006787127323154115 0 -0.030245747708566775 0.007215595952309091 0 -0.029997959607446858 0.005839129497866114 0 -0.030318938167248281 0.0086900822651400002 0 -0.030120268414706046 0.0081287592187135639 0 -0.029734836409896524 0.0076831003287283883 0 -0.029666689128548803 0.006787127323154115 0 -0.030245747708566775 0.007215595952309091 0 -0.030554948816137489 0.010350388762822493 0 -0.030405670173348363 0.010311272165001894 0 -0.030106466365824733 0.01015151973250863 0 -0.030383544915605732 0.010357502932041579 0 -0.030405670173348363 0.010311272165001894 0 -0.030275823603706616 0.010398618553127773 0 -0.030007633780485862 0.0099291287183286663 0 -0.030554948816137489 0.010350388762822493 0 -0.030275823603706616 0.010398618553127773 0 -0.030554948816137489 0.010350388762822493 0 -0.030405670173348363 0.010311272165001894 0 -0.030275823603706616 0.010398618553127773 0 -0.030383544915605732 0.010357502932041579 0 -0.030405670173348363 0.010311272165001894 0 -0.030401874372064503 0.010142596871871421 0 -0.029607556077830173 0.0091073969880123822 0 -0.029693321298891552 0.0067270042991273322 0 -0.028953781177788757 0.003662152760955324 0 -0.029006178425359873 0.0038843200144073296 0 -0.029262511141112901 0.0038759232658274723 0 -0.029006178425359873 0.0038843200144073296 0 -0.029262511141112901 0.0038759232658274723 0 -0.029185287388043733 0.0039855569172973773 0 -0.030405670173348363 0.010311272165001894 0 -0.030401874372064503 0.010142596871871421 0 -0.030106466365824733 0.01015151973250863 0 -0.029463257424552632 0.0040816639617236678 0 -0.029262511141112901 0.0038759232658274723 0 -0.029311710251197356 0.0040530252522405072 0 -0.029988771702210433 0.0096644480166061964 0 -0.030401874372064503 0.010142596871871421 0 -0.030106466365824733 0.01015151973250863 0 -0.029798897029008634 0.0068964621210163791 0 -0.029693321298891552 0.0067270042991273322 0 -0.029463257424552632 0.0040816639617236678 0 -0.029311710251197356 0.0040530252522405072 0 -0.029404517020942 0.004091737638592754 0 -0.029185287388043733 0.0039855569172973773 0 -0.029039087718979322 0.0040432121988138664 0 -0.029196873725392578 0.0041797203545630539 0 -0.029311710251197356 0.0040530252522405072 0 -0.029185287388043733 0.0039855569172973773 0 -0.029196873725392578 0.0041797203545630539 0 -0.029262511141112901 0.0038759232658274723 0 -0.029311710251197356 0.0040530252522405072 0 -0.029185287388043733 0.0039855569172973773 0 -0.029006178425359873 0.0038843200144073296 0 -0.029185287388043733 0.0039855569172973773 0 -0.029039087718979322 0.0040432121988138664 0 -0.029196873725392578 0.0041797203545630539 0 -0.029376368515361372 0.0041672407666149373 0 -0.029017050245411249 0.0043347394459347247 0 -0.028554471274065414 0.0029594171382446226 0 -0.028162288412843722 0.0023879565017398308 0 -0.029196873725392578 0.0041797203545630539 0 -0.028954050977483738 0.0041695144064513075 0 -0.029017050245411249 0.0043347394459347247 0 -0.029039087718979322 0.0040432121988138664 0 -0.029196873725392578 0.0041797203545630539 0 -0.028954050977483738 0.0041695144064513075 0 -0.029311710251197356 0.0040530252522405072 0 -0.029196873725392578 0.0041797203545630539 0 -0.029324375141189258 0.0041234807036089399 0 -0.029376368515361372 0.0041672407666149373 0 -0.029486758741572881 0.0041827103848621127 0 -0.029017050245411249 0.0043347394459347247 0 -0.029311710251197356 0.0040530252522405072 0 -0.029324375141189258 0.0041234807036089399 0 -0.029404517020942 0.004091737638592754 0 -0.029196873725392578 0.0041797203545630539 0 -0.029324375141189258 0.0041234807036089399 0 -0.029376368515361372 0.0041672407666149373 0 -0.029324375141189258 0.0041234807036089399 0 -0.029376368515361372 0.0041672407666149373 0 -0.029404517020942 0.004091737638592754 0 -0.029376368515361372 0.0041672407666149373 0 -0.029442229212597752 0.0040860219056838261 0 -0.029461214781952117 0.00406444812352504 0 -0.029501702864439282 0.0038083176717069204 0 -0.028554471274065414 0.0029594171382446226 0 -0.029477233596057709 0.0040272224992563581 0 -0.029453615983149318 0.0040667993382692254 0 -0.029442229212597752 0.0040860219056838261 0 -0.029477233596057709 0.0040272224992563581 0 -0.029442229212597752 0.0040860219056838261 0 -0.029461214781952117 0.00406444812352504 0 -0.029463257424552632 0.0040816639617236678 0 -0.029453615983149318 0.0040667993382692254 0 -0.029404517020942 0.004091737638592754 0 -0.029453615983149318 0.0040667993382692254 0 -0.029442229212597752 0.0040860219056838261 0 -0.029404517020942 0.004091737638592754 0 -0.029376368515361372 0.0041672407666149373 0 -0.029442229212597752 0.0040860219056838261 0 -0.029404517020942 0.004091737638592754 0 -0.028280641022706707 0.004072899716045424 0 -0.02866019822154604 0.0038447990116959076 0 -0.028529711679395275 0.0041544199386874215 0 -0.02790161742097946 0.0090560750387707629 0 -0.028789420395731777 0.0079168522952127191 0 -0.02866019822154604 0.0038447990116959076 0 -0.028529711679395275 0.0041544199386874215 0 -0.028792589735807051 0.0040281578878179408 0 -0.028529711679395275 0.0041544199386874215 0 -0.028792589735807051 0.0040281578878179408 0 -0.028686653632880543 0.0042420866994124081 0 -0.029006178425359873 0.0038843200144073296 0 -0.02866019822154604 0.0038447990116959076 0 -0.028792589735807051 0.0040281578878179408 0 -0.029006178425359873 0.0038843200144073296 0 -0.029039087718979322 0.0040432121988138664 0 -0.028792589735807051 0.0040281578878179408 0 -0.029039087718979322 0.0040432121988138664 0 -0.028792589735807051 0.0040281578878179408 0 -0.028954050977483738 0.0041695144064513075 0 -0.028792589735807051 0.0040281578878179408 0 -0.028954050977483738 0.0041695144064513075 0 -0.028686653632880543 0.0042420866994124081 0 -0.027170179035162553 0.00047234567062831231 0 -0.027198303843179311 0.00047900639258284706 0 -0.027178962565800078 0.00045335304628349839 0 -0.028954050977483738 0.0041695144064513075 0 -0.029017050245411249 0.0043347394459347247 0 -0.028686653632880543 0.0042420866994124081 0 -0.028162288412843722 0.0023879565017398308 0 -0.027147986580893003 0.0019167825526036433 0 -0.029017050245411249 0.0043347394459347247 0 -0.028686653632880543 0.0042420866994124081 0 -0.028410916669591686 0.0044103374709830315 0 -0.028529711679395275 0.0041544199386874215 0 -0.028686653632880543 0.0042420866994124081 0 -0.02839588881765626 0.0043777881248611801 0 -0.028686653632880543 0.0042420866994124081 0 -0.02839588881765626 0.0043777881248611801 0 -0.028410916669591686 0.0044103374709830315 0 -0.028268458414880293 0.004251487524195313 0 -0.028529711679395275 0.0041544199386874215 0 -0.02839588881765626 0.0043777881248611801 0 -0.027275389425709392 0.0022492349431311952 0 -0.027147986580893003 0.0019167825526036433 0 -0.027198303843179311 0.00047900639258284706 0 -0.027188055142770021 0.00045163473942964953 0 -0.027178962565800078 0.00045335304628349839 0 -0.027147986580893003 0.0019167825526036433 0 -0.024857261218948386 -7.0580254635676321e-06 0 -0.025517965341154403 -0.00014208370889512889 0 -0.026074871117691883 -3.1391822430963709e-05 0 -0.02577869453433667 5.7480506385309646e-05 0 -0.027188055142770021 0.00045163473942964953 0 -0.027178962565800078 0.00045335304628349839 0 -0.027165374513527036 0.0004233783194846967 0 -0.024857261218948386 -7.0580254635676321e-06 0 -0.026932666420179406 0.00023847688456877882 0 -0.027170179035162553 0.00047234567062831231 0 -0.027178962565800078 0.00045335304628349839 0 -0.027162969067812445 0.00044563187268901382 0 -0.027178962565800078 0.00045335304628349839 0 -0.027162969067812445 0.00044563187268901382 0 -0.027165374513527036 0.0004233783194846967 0 -0.025943881980663379 0.00017543880634040892 0 -0.026224228052406595 0.00010801691412167983 0 -0.025978431665298146 0.00044610192825591963 0 -0.026074871117691883 -3.1391822430963709e-05 0 -0.02577869453433667 5.7480506385309646e-05 0 -0.025943881980663379 0.00017543880634040892 0 -0.026074871117691883 -3.1391822430963709e-05 0 -0.025943881980663379 0.00017543880634040892 0 -0.026224228052406595 0.00010801691412167983 0 -0.02577869453433667 5.7480506385309646e-05 0 -0.025943881980663379 0.00017543880634040892 0 -0.025678489736433337 0.00029770325102065637 0 -0.025943881980663379 0.00017543880634040892 0 -0.025678489736433337 0.00029770325102065637 0 -0.025978431665298146 0.00044610192825591963 0 -0.025517965341154403 -0.00014208370889512889 0 -0.02577869453433667 5.7480506385309646e-05 0 -0.025678489736433337 0.00029770325102065637 0 -0.021971794681737239 -0.002399745212411479 0 -0.022087660587730585 -0.0020667138979016861 0 -0.02167537290936038 -0.0022758665984200987 0 -0.024857261218948386 -7.0580254635676321e-06 0 -0.02190766103260541 -0.0034333973472030661 0 -0.018132521963595827 -0.0074871874483847913 0 -0.018807305399728722 -0.0069162729247742903 0 -0.018576511477641427 -0.0074473847277128323 0 -0.02190766103260541 -0.0034333973472030661 0 -0.019734916030774784 -0.005319695701386816 0 -0.027008755257930769 0.00037527675113171256 0 -0.027067675394219844 0.00041004924401925142 0 -0.02707786949021302 0.00036562758787934702 0 -0.027008755257930769 0.00037527675113171256 0 -0.027055204047850459 0.00046485047049734703 0 -0.027067675394219844 0.00041004924401925142 0 -0.027055204047850459 0.00046485047049734703 0 -0.027067675394219844 0.00041004924401925142 0 -0.027116578207557474 0.00043257500141204397 0 -0.027067675394219844 0.00041004924401925142 0 -0.027116578207557474 0.00043257500141204397 0 -0.02707786949021302 0.00036562758787934702 0 -0.026932666420179406 0.00023847688456877882 0 -0.026748520050673467 0.00024026963665503914 0 -0.027055204047850459 0.00046485047049734703 0 -0.027170179035162553 0.00047234567062831231 0 -0.027116578207557474 0.00043257500141204397 0 -0.027165374513527036 0.0004233783194846967 0 -0.027116578207557474 0.00043257500141204397 0 -0.02707786949021302 0.00036562758787934702 0 -0.027170179035162553 0.00047234567062831231 0 -0.027162969067812445 0.00044563187268901382 0 -0.027116578207557474 0.00043257500141204397 0 -0.027162969067812445 0.00044563187268901382 0 -0.027165374513527036 0.0004233783194846967 0 -0.027116578207557474 0.00043257500141204397 0 -0.026074871117691883 -3.1391822430963709e-05 0 -0.026224228052406595 0.00010801691412167983 0 -0.026580465933140104 0.00012689493677726989 0 -0.026437775887354322 0.00030682494774730184 0 -0.026224228052406595 0.00010801691412167983 0 -0.026477176256356011 0.00056250182024132742 0 -0.026437775887354322 0.00030682494774730184 0 -0.026224228052406595 0.00010801691412167983 0 -0.026580465933140104 0.00012689493677726989 0 -0.026752744627160825 0.00031017103138117845 0 -0.026580465933140104 0.00012689493677726989 0 -0.026657925833094578 0.00039865064625633107 0 -0.026437775887354322 0.00030682494774730184 0 -0.026580465933140104 0.00012689493677726989 0 -0.026520835590345942 0.00039894804189014184 0 -0.026580465933140104 0.00012689493677726989 0 -0.026657925833094578 0.00039865064625633107 0 -0.026520835590345942 0.00039894804189014184 0 -0.02668080073662021 0.00049991989745945347 0 -0.026577729966736345 0.00047217694886161833 0 -0.026657925833094578 0.00039865064625633107 0 -0.02668080073662021 0.00049991989745945347 0 -0.026577729966736345 0.00047217694886161833 0 -0.026638509360751305 0.00052726044181358191 0 -0.026577729966736345 0.00047217694886161833 0 -0.026536106702087829 0.00048435724372151024 0 -0.026638509360751305 0.00052726044181358191 0 -0.026577729966736345 0.00047217694886161833 0 -0.026657925833094578 0.00039865064625633107 0 -0.026520835590345942 0.00039894804189014184 0 -0.026577729966736345 0.00047217694886161833 0 -0.026520835590345942 0.00039894804189014184 0 -0.026500996264771103 0.00048606075134406939 0 -0.026500996264771103 0.00048606075134406939 0 -0.026536106702087829 0.00048435724372151024 0 -0.026453685406923326 0.00046262168189867015 0 -0.026577729966736345 0.00047217694886161833 0 -0.026500996264771103 0.00048606075134406939 0 -0.026536106702087829 0.00048435724372151024 0 -0.026224228052406595 0.00010801691412167983 0 -0.026218460175511216 0.0005760440519342599 0 -0.025978431665298146 0.00044610192825591963 0 -0.022491938007291809 -0.0037048174451527337 0 -0.022573127046272502 -0.0038487161429450654 0 -0.022636139041396802 -0.0036253771021087173 0 -0.026510229237990103 0.00073999492854969504 0 -0.025337801873478505 -0.00086562495658570144 0 -0.026437775887354322 0.00030682494774730184 0 -0.026520835590345942 0.00039894804189014184 0 -0.026477176256356011 0.00056250182024132742 0 -0.026520835590345942 0.00039894804189014184 0 -0.026500996264771103 0.00048606075134406939 0 -0.026477176256356011 0.00056250182024132742 0 -0.026500996264771103 0.00048606075134406939 0 -0.026477176256356011 0.00056250182024132742 0 -0.026453685406923326 0.00046262168189867015 0 -0.025337801873478505 -0.00086562495658570144 0 -0.024528159852808918 -0.0014740425091087004 0 -0.022452556614075459 -0.003969186801184214 0 -0.022491938007291809 -0.0037048174451527337 0 -0.022573127046272502 -0.0038487161429450654 0 -0.026585389982015244 -0.00034813241231758385 0 -0.026623592544392432 0.0002332121491066373 0 -0.026428965311422938 -9.7235522605397529e-05 0 -0.024600440962863217 -0.0019725009182149696 0 -0.025337801873478505 -0.00086562495658570144 0 -0.026623592544392432 0.0002332121491066373 0 -0.026274528719304132 3.6455782890598821e-05 0 -0.026428965311422938 -9.7235522605397529e-05 0 -0.025337801873478505 -0.00086562495658570144 0 -0.02653483407358442 0.00029592024583850794 0 -0.026866023254787923 0.00072119525650182347 0 -0.026453685406923326 0.00046262168189867015 0 -0.026638509360751305 0.00052726044181358191 0 -0.025595037921026055 7.2407492596534729e-05 0 -0.026400432191056981 0.00036503354546256765 0 -0.026453685406923326 0.00046262168189867015 0 -0.026477176256356011 0.00056250182024132742 0 -0.026400432191056981 0.00036503354546256765 0 -0.026453685406923326 0.00046262168189867015 0 -0.026226744773563092 -0.00031481920600924795 0 -0.026274528719304132 3.6455782890598821e-05 0 -0.026428965311422938 -9.7235522605397529e-05 0 -0.025877803713130507 -0.00010699014235464388 0 -0.02653483407358442 0.00029592024583850794 0 -0.026226744773563092 -0.00031481920600924795 0 -0.025903066316607423 -0.00011694405343879108 0 -0.026274528719304132 3.6455782890598821e-05 0 -0.026536106702087829 0.00048435724372151024 0 -0.026453685406923326 0.00046262168189867015 0 -0.026638509360751305 0.00052726044181358191 0 -0.018132521963595827 -0.0074871874483847913 0 -0.018277532655073127 -0.0078631343638869838 0 -0.018144472198434718 -0.0080403683066883613 0 -0.018277532655073127 -0.0078631343638869838 0 -0.018326152626296027 -0.0081787711935784411 0 -0.018507288271882298 -0.0078206431164849002 0 -0.018132521963595827 -0.0074871874483847913 0 -0.018277532655073127 -0.0078631343638869838 0 -0.018576511477641427 -0.0074473847277128323 0 -0.018277532655073127 -0.0078631343638869838 0 -0.018507288271882298 -0.0078206431164849002 0 -0.018576511477641427 -0.0074473847277128323 0 -0.02190766103260541 -0.0034333973472030661 0 -0.02030176080734827 -0.0061946959548428099 0 -0.022772958320399064 -0.003540344364829045 0 -0.022636139041396802 -0.0036253771021087173 0 -0.022703975723053181 -0.0037729113181747351 0 -0.02190766103260541 -0.0034333973472030661 0 -0.024528159852808918 -0.0014740425091087004 0 -0.018064911323381016 -0.0083836075709801602 0 -0.018144472198434718 -0.0080403683066883613 0 -0.018336316531800363 -0.0081281842186084492 0 -0.018474481238803839 -0.0078272828771991688 0 -0.018987824539046662 -0.007722016116393826 0 -0.018336316531800363 -0.0081281842186084492 0 -0.019655247993136653 -0.0067353643912033316 0 -0.02030176080734827 -0.0061946959548428099 0 -0.022626490619663039 -0.0040115845977354604 0 -0.022573127046272502 -0.0038487161429450654 0 -0.022703975723053181 -0.0037729113181747351 0 -0.019655247993136653 -0.0067353643912033316 0 -0.017915421662156802 -0.0086185504208311347 0 -0.022573127046272502 -0.0038487161429450654 0 -0.022636139041396802 -0.0036253771021087173 0 -0.022703975723053181 -0.0037729113181747351 0 -0.018474481238803839 -0.0078272828771991688 0 -0.018336316531800363 -0.0081281842186084492 0 -0.01828106718382928 -0.0079914122759588164 0 -0.018277532655073127 -0.0078631343638869838 0 -0.018144472198434718 -0.0080403683066883613 0 -0.018336316531800363 -0.0081281842186084492 0 -0.018277532655073127 -0.0078631343638869838 0 -0.018336316531800363 -0.0081281842186084492 0 -0.018326152626296027 -0.0081787711935784411 0 -0.018336316531800363 -0.0081281842186084492 0 -0.018326152626296027 -0.0081787711935784411 0 -0.01828106718382928 -0.0079914122759588164 0 -0.018258160358556399 -0.0076958494770092258 0 -0.01828106718382928 -0.0079914122759588164 0 -0.017856135302126853 -0.0080115650749726271 0 -0.018326152626296027 -0.0081787711935784411 0 -0.017856135302126853 -0.0080115650749726271 0 -0.01735412075525232 -0.0087211949501927802 0 -0.018326152626296027 -0.0081787711935784411 0 -0.01828106718382928 -0.0079914122759588164 0 -0.017856135302126853 -0.0080115650749726271 0 -0.017856135302126853 -0.0080115650749726271 0 -0.017261423029386602 -0.0081244496757402352 0 -0.01735412075525232 -0.0087211949501927802 0 -0.017261423029386602 -0.0081244496757402352 0 -0.01735412075525232 -0.0087211949501927802 0 -0.016845695554986332 -0.0084481518994820818 0 -0.017468267738131819 -0.007777356249640017 0 -0.017856135302126853 -0.0080115650749726271 0 -0.017261423029386602 -0.0081244496757402352 0 -0.019248740467165196 -0.0078015703749327245 0 -0.019152199950204181 -0.0073414249049579732 0 -0.019744609467285866 -0.0076011265452091787 0 -0.018275915080180366 -0.0080550418321992147 0 -0.015781394151278737 -0.0098203530411484757 0 -0.016844036575251877 -0.0083220676502345856 0 -0.016507043796692506 -0.0084567174591836762 0 -0.01650593248534632 -0.0081435787653231367 0 -0.018275915080180366 -0.0080550418321992147 0 -0.01588573401802304 -0.0070203848632213019 0 -0.019248740467165196 -0.0078015703749327245 0 -0.018576511477641427 -0.0074473847277128323 0 -0.019152199950204181 -0.0073414249049579732 0 -0.018326152626296027 -0.0081787711935784411 0 -0.01926112031531596 -0.0078327796458170749 0 -0.018507288271882298 -0.0078206431164849002 0 -0.018275915080180366 -0.0080550418321992147 0 -0.018925567790373642 -0.0075269730170017075 0 -0.01926112031531596 -0.0078327796458170749 0 -0.018507288271882298 -0.0078206431164849002 0 -0.018576511477641427 -0.0074473847277128323 0 -0.018320580630530735 -0.0082501024862712182 0 -0.018275915080180366 -0.0080550418321992147 0 -0.018807305399728722 -0.0069162729247742903 0 -0.018576511477641427 -0.0074473847277128323 0 -0.019152199950204181 -0.0073414249049579732 0 -0.019152199950204181 -0.0073414249049579732 0 -0.019406047499296048 -0.0069278892302292987 0 -0.019744609467285866 -0.0076011265452091787 0 -0.018807305399728722 -0.0069162729247742903 0 -0.019152199950204181 -0.0073414249049579732 0 -0.019406047499296048 -0.0069278892302292987 0 -0.022736016780269572 -0.00048911354133424154 0 -0.020426331221749618 -0.0011633743693935585 0 -0.018807305399728722 -0.0069162729247742903 0 -0.019406047499296048 -0.0069278892302292987 0 -0.019685821097331711 -0.0063245022947637812 0 -0.02167537290936038 -0.0022758665984200987 0 -0.021609464263806041 -0.0024538318117273889 0 -0.021205633758722458 -0.0024917747116929238 0 -0.019734916030774784 -0.005319695701386816 0 -0.020426331221749618 -0.0011633743693935585 0 -0.023271433132995685 0.00045666141665861958 0 -0.023793810332741468 0.0014506615014651869 0 -0.022373624101289718 0.0012126969408885386 0 -0.019406047499296048 -0.0069278892302292987 0 -0.019685821097331711 -0.0063245022947637812 0 -0.019776540838254707 -0.0064067891533065189 0 -0.024857261218948386 -7.0580254635676321e-06 0 -0.022736016780269572 -0.00048911354133424154 0 -0.024783583415403227 0.00058564784566920297 0 -0.025141676608948161 0.0016452730910404376 0 -0.023793810332741468 0.0014506615014651869 0 -0.021971794681737239 -0.002399745212411479 0 -0.02167537290936038 -0.0022758665984200987 0 -0.021609464263806041 -0.0024538318117273889 0 -0.015444908281972558 -0.0020930628326052336 0 -0.015809762101580149 -0.0022036037464594552 0 -0.015122859761268091 -0.0022712506111060059 0 -0.019173415584717773 -0.00051450345715723267 0 -0.01553787402906503 -0.0021909149790685541 0 -0.015441476032573407 -0.0019896384628841535 0 -0.015203327516513074 -0.0019645310515179234 0 -0.015444908281972558 -0.0020930628326052336 0 -0.015441476032573407 -0.0019896384628841535 0 -0.015203327516513074 -0.0019645310515179234 0 -0.015311862911925303 -0.0017745898291627097 0 -0.015203327516513074 -0.0019645310515179234 0 -0.015444908281972558 -0.0020930628326052336 0 -0.015122859761268091 -0.0022712506111060059 0 -0.018573623197390685 -0.0020694814705417351 0 -0.014422426941849097 -0.0015569775869004403 0 -0.015441476032573407 -0.0019896384628841535 0 -0.015806272007501534 -0.0021211139108033459 0 -0.015311862911925303 -0.0017745898291627097 0 -0.015444908281972558 -0.0020930628326052336 0 -0.015809762101580149 -0.0022036037464594552 0 -0.015806272007501534 -0.0021211139108033459 0 -0.019173415584717773 -0.00051450345715723267 0 -0.018573623197390685 -0.0020694814705417351 0 -0.020426331221749618 -0.0011633743693935585 0 -0.019173415584717773 -0.00051450345715723267 0 -0.01830835786205879 -0.001219733616760654 0 -0.018654013736392527 -0.0010194111888105189 0 -0.018654033591565436 -0.0015259119888273362 0 -0.020426331221749618 -0.0011633743693935585 0 -0.018573623197390685 -0.0020694814705417351 0 -0.015441476032573407 -0.0019896384628841535 0 -0.015444908281972558 -0.0020930628326052336 0 -0.015806272007501534 -0.0021211139108033459 0 -0.018573623197390685 -0.0020694814705417351 0 -0.01588573401802304 -0.0070203848632213019 0 -0.015791712141211403 -0.0022079425638309295 0 -0.015311862911925303 -0.0017745898291627097 0 -0.015760544990901196 -0.0015468324864618089 0 -0.019406047499296048 -0.0069278892302292987 0 -0.019776540838254707 -0.0064067891533065189 0 -0.019744609467285866 -0.0076011265452091787 0 -0.013753617791475646 -0.0064094303419128399 0 -0.01588573401802304 -0.0070203848632213019 0 -0.015311862911925303 -0.0017745898291627097 0 -0.015157279315058062 -0.0017161391206886073 0 -0.015760544990901196 -0.0015468324864618089 0 -0.015203327516513074 -0.0019645310515179234 0 -0.015311862911925303 -0.0017745898291627097 0 -0.015157279315058062 -0.0017161391206886073 0 -0.012760792625163598 -0.011273506929269806 0 -0.01305414605998638 -0.01061193116989277 0 -0.01375823011551845 -0.010837214541298028 0 -0.01305414605998638 -0.01061193116989277 0 -0.01375823011551845 -0.010837214541298028 0 -0.013750654223952958 -0.010353236633338954 0 -0.01588573401802304 -0.0070203848632213019 0 -0.015781394151278737 -0.0098203530411484757 0 -0.016807920941772275 -0.007689933346345156 0 -0.017261423029386602 -0.0081244496757402352 0 -0.016845695554986332 -0.0084481518994820818 0 -0.015781394151278737 -0.0098203530411484757 0 -0.013390436910753202 -0.010583932746464733 0 -0.016608482417558787 -0.0089900860545258365 0 -0.015781394151278737 -0.0098203530411484757 0 -0.016308681359138096 -0.010111443057080739 0 -0.016294477830995975 -0.01208833353362267 0 -0.01415034869920551 -0.010933271874825378 0 -0.01305414605998638 -0.01061193116989277 0 -0.013750654223952958 -0.010353236633338954 0 -0.012824033053641718 -0.0099126484733189097 0 -0.01305414605998638 -0.01061193116989277 0 -0.012824033053641718 -0.0099126484733189097 0 -0.012110966003581667 -0.010184389703701368 0 -0.012065728796793495 -0.0095905327668931138 0 -0.012110966003581667 -0.010184389703701368 0 -0.01126044608690278 -0.010050156527808713 0 -0.012110966003581667 -0.010184389703701368 0 -0.011420753073994535 -0.01081858317427176 0 -0.01126044608690278 -0.010050156527808713 0 -0.012110966003581667 -0.010184389703701368 0 -0.011420753073994535 -0.01081858317427176 0 -0.012257183281849694 -0.010808773922076026 0 -0.01305414605998638 -0.01061193116989277 0 -0.012110966003581667 -0.010184389703701368 0 -0.012257183281849694 -0.010808773922076026 0 -0.012760792625163598 -0.011273506929269806 0 -0.01305414605998638 -0.01061193116989277 0 -0.012257183281849694 -0.010808773922076026 0 -0.0094522840423495926 -0.012088272296696232 0 -0.0093462104066226216 -0.012146352503489026 0 -0.00958496637277928 -0.012098651334943497 0 -0.0091760597552269611 -0.012292479432750206 0 -0.0093462104066226216 -0.012146352503489026 0 -0.0091184792613426772 -0.012266188634421089 0 -0.0091760597552269611 -0.012292479432750206 0 -0.0093462104066226216 -0.012146352503489026 0 -0.00958496637277928 -0.012098651334943497 0 -0.010061034318065992 -0.011868231687639556 0 -0.00958496637277928 -0.012098651334943497 0 -0.0089991267872127599 -0.012599388928966502 0 -0.011420753073994535 -0.01081858317427176 0 -0.01126044608690278 -0.010050156527808713 0 -0.010225560862417087 -0.010844882823285327 0 -0.010680336710374046 -0.010928217278745848 0 -0.009622548987986642 -0.011719126505067255 0 -0.0091760597552269611 -0.012292479432750206 0 -0.0089991267872127599 -0.012599388928966502 0 -0.0090045850040873787 -0.012426267438026736 0 -0.0091760597552269611 -0.012292479432750206 0 -0.00958496637277928 -0.012098651334943497 0 -0.0089991267872127599 -0.012599388928966502 0 -0.010225560862417087 -0.010844882823285327 0 -0.010792852370153717 -0.011448778176762925 0 -0.010067445140527197 -0.011714904716968903 0 -0.011420753073994535 -0.01081858317427176 0 -0.010792852370153717 -0.011448778176762925 0 -0.011683407478622385 -0.011761951879579 0 -0.011420753073994535 -0.01081858317427176 0 -0.010225560862417087 -0.010844882823285327 0 -0.010792852370153717 -0.011448778176762925 0 -0.013358888153267121 -0.0020304825553332478 0 -0.014445213054168769 -0.0018068840635762293 0 -0.013951677529318033 -0.0022533772487228132 0 -0.010792852370153717 -0.011448778176762925 0 -0.010359806841064498 -0.012259441359029465 0 -0.011683407478622385 -0.011761951879579 0 -0.012261875564228109 -0.0073058725228976901 0 -0.013006887531200672 -0.0067830511747657722 0 -0.010792852370153717 -0.011448778176762925 0 -0.010359806841064498 -0.012259441359029465 0 -0.010067445140527197 -0.011714904716968903 0 -0.010359806841064498 -0.012259441359029465 0 -0.010067445140527197 -0.011714904716968903 0 -0.0096524622452460393 -0.012070855210193283 0 -0.012760792625163598 -0.011273506929269806 0 -0.012257183281849694 -0.010808773922076026 0 -0.011683407478622385 -0.011761951879579 0 -0.013753617791475646 -0.0064094303419128399 0 -0.013006887531200672 -0.0067830511747657722 0 -0.015157279315058062 -0.0017161391206886073 0 -0.014445213054168769 -0.0018068840635762293 0 -0.014939787422109595 -0.0020043793170822733 0 -0.011420753073994535 -0.01081858317427176 0 -0.012257183281849694 -0.010808773922076026 0 -0.011683407478622385 -0.011761951879579 0 -0.014445213054168769 -0.0018068840635762293 0 -0.014682245359854748 -0.0021273995328167697 0 -0.014939787422109595 -0.0020043793170822733 0 -0.014445213054168769 -0.0018068840635762293 0 -0.014411227650106384 -0.0021221575560384622 0 -0.013951677529318033 -0.0022533772487228132 0 -0.014445213054168769 -0.0018068840635762293 0 -0.014411227650106384 -0.0021221575560384622 0 -0.014682245359854748 -0.0021273995328167697 0 -0.014411227650106384 -0.0021221575560384622 0 -0.014682245359854748 -0.0021273995328167697 0 -0.014396663108477249 -0.002354099885031961 0 -0.014682245359854748 -0.0021273995328167697 0 -0.014939787422109595 -0.0020043793170822733 0 -0.015122859761268091 -0.0022712506111060059 0 -0.015203327516513074 -0.0019645310515179234 0 -0.015157279315058062 -0.0017161391206886073 0 -0.014939787422109595 -0.0020043793170822733 0 -0.015203327516513074 -0.0019645310515179234 0 -0.014939787422109595 -0.0020043793170822733 0 -0.015122859761268091 -0.0022712506111060059 0 -0.017247181923761703 -0.0025833167803506535 0 -0.016737593609962784 -0.0017142910784623047 0 -0.014811732513561392 -0.002873290885125555 0 -0.020827330791674266 0.0058720617723485519 0 -0.016027574677705068 0.0017905958012277689 0 -0.01553787402906503 -0.0021909149790685541 0 -0.014657232359840096 -0.0022580909314802848 0 -0.014682245359854748 -0.0021273995328167697 0 -0.015122859761268091 -0.0022712506111060059 0 -0.014396663108477249 -0.002354099885031961 0 -0.020506898925816801 0.0070680799757264975 0 -0.018505933401321818 0.0059578399524332169 0 -0.018091337781716968 0.0068893646015556909 0 -0.020827330791674266 0.0058720617723485519 0 -0.021151247418092611 0.010066796024417044 0 -0.023925256576876212 0.013673300849678488 0 -0.023756509923756438 0.012574786954628913 0 -0.023029605831911416 0.012788342071292166 0 -0.021151247418092611 0.010066796024417044 0 -0.020028742866524975 0.0083831983946722616 0 -0.018505933401321818 0.0059578399524332169 0 -0.018091337781716968 0.0068893646015556909 0 -0.016800792755517005 0.0059583155135705381 0 -0.016737593609962784 -0.0017142910784623047 0 -0.014811732513561392 -0.002873290885125555 0 -0.014396663108477249 -0.002354099885031961 0 -0.014811732513561392 -0.002873290885125555 0 -0.014396663108477249 -0.002354099885031961 0 -0.013951677529318033 -0.0022533772487228132 0 -0.014411227650106384 -0.0021221575560384622 0 -0.014396663108477249 -0.002354099885031961 0 -0.013951677529318033 -0.0022533772487228132 0 -0.013951677529318033 -0.0022533772487228132 0 -0.013398015514213454 -0.0026677016623984106 0 -0.013189390638634528 -0.0024293388956877441 0 -0.016027574677705068 0.0017905958012277689 0 -0.014401228031901707 -0.00010656459716992101 0 -0.014811732513561392 -0.002873290885125555 0 -0.013951677529318033 -0.0022533772487228132 0 -0.01317485613500167 -0.0029567573219576961 0 -0.013233876655820787 -0.0029686678576949749 0 -0.014401228031901707 -0.00010656459716992101 0 -0.013358888153267121 -0.0020304825553332478 0 -0.013951677529318033 -0.0022533772487228132 0 -0.013189390638634528 -0.0024293388956877441 0 -0.013358888153267121 -0.0020304825553332478 0 -0.013189390638634528 -0.0024293388956877441 0 -0.01239004296770768 -0.0023981728413416557 0 -0.013398015514213454 -0.0026677016623984106 0 -0.013189390638634528 -0.0024293388956877441 0 -0.013195308410604848 -0.0026613389752209982 0 -0.013189390638634528 -0.0024293388956877441 0 -0.013195308410604848 -0.0026613389752209982 0 -0.012730143535291186 -0.0027433671517933379 0 -0.015622410956624531 0.0066974762443599385 0 -0.015223565903456698 0.0052226645422493775 0 -0.013721728739348571 0.0050696671926937229 0 -0.013374207863803642 -0.0026511109339472623 0 -0.013195308410604848 -0.0026613389752209982 0 -0.012641862679437815 -0.0031905830820101086 0 -0.014401228031901707 -0.00010656459716992101 0 -0.013990103961224876 0.0016844790476056024 0 -0.014401228031901707 -0.00010656459716992101 0 -0.013616685442266107 -0.00072144502800134639 0 -0.018091337781716968 0.0068893646015556909 0 -0.015622410956624531 0.0066974762443599385 0 -0.016800792755517005 0.0059583155135705381 0 -0.015622410956624531 0.0066974762443599385 0 -0.016800792755517005 0.0059583155135705381 0 -0.015223565903456698 0.0052226645422493775 0 -0.018505933401321818 0.0059578399524332169 0 -0.016800792755517005 0.0059583155135705381 0 -0.016466059742554932 0.0047994944221885893 0 -0.016800792755517005 0.0059583155135705381 0 -0.016466059742554932 0.0047994944221885893 0 -0.015223565903456698 0.0052226645422493775 0 -0.016466059742554932 0.0047994944221885893 0 -0.015223565903456698 0.0052226645422493775 0 -0.014364959752962984 0.0036139210546531275 0 -0.015223565903456698 0.0052226645422493775 0 -0.014364959752962984 0.0036139210546531275 0 -0.014153981897874044 0.0046773571427490756 0 -0.020028742866524975 0.0083831983946722616 0 -0.014990804750381467 0.0087941007415125692 0 -0.022601880158808946 0.012175236074418587 0 -0.022717652699899629 0.011692792531355583 0 -0.022305971867946361 0.011873585525197317 0 -0.022601880158808946 0.012175236074418587 0 -0.022717652699899629 0.011692792531355583 0 -0.022993786948695555 0.011813708550308877 0 -0.022993786948695555 0.011813708550308877 0 -0.023453823719509121 0.011787336656446133 0 -0.023245828121539105 0.011542866399712196 0 -0.022993786948695555 0.011813708550308877 0 -0.023453823719509121 0.011787336656446133 0 -0.023105312622899887 0.012214392877175954 0 -0.023551027776786276 0.011370751505179912 0 -0.023453823719509121 0.011787336656446133 0 -0.023245828121539105 0.011542866399712196 0 -0.023756509923756438 0.012574786954628913 0 -0.023453823719509121 0.011787336656446133 0 -0.023105312622899887 0.012214392877175954 0 -0.023756509923756438 0.012574786954628913 0 -0.023029605831911416 0.012788342071292166 0 -0.023105312622899887 0.012214392877175954 0 -0.022601880158808946 0.012175236074418587 0 -0.022993786948695555 0.011813708550308877 0 -0.023105312622899887 0.012214392877175954 0 -0.023029605831911416 0.012788342071292166 0 -0.022601880158808946 0.012175236074418587 0 -0.023105312622899887 0.012214392877175954 0 -0.0031507982662065462 -0.0017630381015591617 0 -0.0025418882665794547 -0.0016393782037907273 0 -0.0027333929391697106 -0.0023202059341752845 0 -0.0025418882665794547 -0.0016393782037907273 0 -0.0019906718246941405 -0.0012351774593144722 0 -0.001708217633019433 -0.0020168404537161109 0 -0.0025418882665794547 -0.0016393782037907273 0 -0.0027333929391697106 -0.0023202059341752845 0 -0.001708217633019433 -0.0020168404537161109 0 -0.0019807714429161479 -0.0026931417050190484 0 -0.0027333929391697106 -0.0023202059341752845 0 -0.001708217633019433 -0.0020168404537161109 0 -0.0019807714429161479 -0.0026931417050190484 0 -0.0024836477945515871 -0.0026680321355467412 0 -0.0027333929391697106 -0.0023202059341752845 0 -0.0031507982662065462 -0.0017630381015591617 0 -0.0027333929391697106 -0.0023202059341752845 0 -0.003481385828580008 -0.0023534238391942131 0 -0.0024836477945515871 -0.0026680321355467412 0 -0.0027333929391697106 -0.0023202059341752845 0 -0.0027477357604294909 -0.0029719115899610022 0 -0.0079807545133976799 -0.0016757789812519147 0 -0.0014682033476159577 -0.0034756762104849468 0 -0.0027333929391697106 -0.0023202059341752845 0 -0.003481385828580008 -0.0023534238391942131 0 -0.0027477357604294909 -0.0029719115899610022 0 -0.0079807545133976799 -0.0016757789812519147 0 -0.0081090858189060058 0.004454710431580057 0 -0.011438352178131711 0.0030560554858417282 0 -0.012680858568311849 0.0024263147464483369 0 -0.013721728739348571 0.0050696671926937229 0 -0.011438352178131711 0.0030560554858417282 0 -0.012680858568311849 0.0024263147464483369 0 -0.010966499867072908 0.0014693353750707325 0 -0.010286847481549474 0.011587001010515701 0 -0.0099538531848336678 0.011361591302070368 0 -0.0098284477455343935 0.012089381381533527 0 -0.012680858568311849 0.0024263147464483369 0 -0.014369133785909771 0.0033848700159709554 0 -0.014153981897874044 0.0046773571427490756 0 -0.011518560144921466 0.0070272924054305495 0 -0.014990804750381467 0.0087941007415125692 0 -0.012680858568311849 0.0024263147464483369 0 -0.013721728739348571 0.0050696671926937229 0 -0.014153981897874044 0.0046773571427490756 0 -0.015223565903456698 0.0052226645422493775 0 -0.013721728739348571 0.0050696671926937229 0 -0.014153981897874044 0.0046773571427490756 0 -0.014990804750381467 0.0087941007415125692 0 -0.01475405133179571 0.0035217928868416684 0 -0.0031507982662065462 -0.0017630381015591617 0 -0.003481385828580008 -0.0023534238391942131 0 -0.0037825521404385824 -0.0014365263889646945 0 -0.0079807545133976799 -0.0016757789812519147 0 -0.013990103961224876 0.0016844790476056024 0 -0.0079807545133976799 -0.0016757789812519147 0 -0.0080166187763581684 -0.00169196258914222 0 -0.011954188109982755 -0.0037044685619519822 0 -0.012641862679437815 -0.0031905830820101086 0 -0.012197451004997049 -0.0030739365794314934 0 -0.0037825521404385824 -0.0014365263889646945 0 -0.0040815861262214507 -0.0005580858123509099 0 -0.0030699779910272175 -0.00089373459614478239 0 -0.0080166187763581684 -0.00169196258914222 0 -0.0085855016067355027 -0.00582781729946635 0 -0.0031507982662065462 -0.0017630381015591617 0 -0.0037825521404385824 -0.0014365263889646945 0 -0.0030699779910272175 -0.00089373459614478239 0 -0.012197451004997049 -0.0030739365794314934 0 -0.012730143535291186 -0.0027433671517933379 0 -0.01239004296770768 -0.0023981728413416557 0 -0.012641862679437815 -0.0031905830820101086 0 -0.012197451004997049 -0.0030739365794314934 0 -0.012730143535291186 -0.0027433671517933379 0 -0.013195308410604848 -0.0026613389752209982 0 -0.012641862679437815 -0.0031905830820101086 0 -0.012730143535291186 -0.0027433671517933379 0 -0.013189390638634528 -0.0024293388956877441 0 -0.012730143535291186 -0.0027433671517933379 0 -0.01239004296770768 -0.0023981728413416557 0 -0.012261875564228109 -0.0073058725228976901 0 -0.0085855016067355027 -0.00582781729946635 0 -0.0085855016067355027 -0.00582781729946635 0 -0.0081988020846653614 -0.012615052067996535 0 -0.0091828555820940953 -0.012088150261688385 0 -0.0091214433696714652 -0.011967566749437348 0 -0.0091939002845879761 -0.012049602232559463 0 -0.0090591812445031533 -0.012481559568280844 0 -0.0096524622452460393 -0.012070855210193283 0 -0.0091939002845879761 -0.012049602232559463 0 -0.0091828555820940953 -0.012088150261688385 0 -0.0091214433696714652 -0.011967566749437348 0 -0.008199528140000965 -0.011739042068741396 0 -0.0091828555820940953 -0.012088150261688385 0 -0.008199528140000965 -0.011739042068741396 0 -0.0079366117839569737 -0.012434673527268788 0 -0.0085855016067355027 -0.00582781729946635 0 -0.0050913164036841896 -0.0067838970717996362 0 -0.008199528140000965 -0.011739042068741396 0 -0.0071398186790396058 -0.011997319918614281 0 -0.0073860094773568405 -0.011164011148612053 0 -0.008199528140000965 -0.011739042068741396 0 -0.0079366117839569737 -0.012434673527268788 0 -0.0071398186790396058 -0.011997319918614281 0 -0.0031507982662065462 -0.0017630381015591617 0 -0.0025418882665794547 -0.0016393782037907273 0 -0.0030699779910272175 -0.00089373459614478239 0 -0.0067898814455528735 -0.012739198175079753 0 -0.0071398186790396058 -0.011997319918614281 0 -0.0062368712376698271 -0.012271754328869688 0 -0.0050913164036841896 -0.0067838970717996362 0 -0.0045349625284800167 -0.0070966226028420527 0 -0.0079366117839569737 -0.012434673527268788 0 -0.0067898814455528735 -0.012739198175079753 0 -0.0071398186790396058 -0.011997319918614281 0 -0.0025418882665794547 -0.0016393782037907273 0 -0.0030699779910272175 -0.00089373459614478239 0 -0.0019906718246941405 -0.0012351774593144722 0 -0.0071398186790396058 -0.011997319918614281 0 -0.0073860094773568405 -0.011164011148612053 0 -0.0064289220993412844 -0.011584414588557647 0 -0.0066087004208954586 -0.0095895143339679821 0 -0.0057237909991499341 -0.0090578235917641563 0 -0.0057132588218929657 -0.010019165102653561 0 -0.0068804088613731674 -0.010306121241032954 0 -0.0063768756397013984 -0.010876704964033047 0 -0.0068804088613731674 -0.010306121241032954 0 -0.0085639416057685484 -0.01100558805222932 0 -0.008199528140000965 -0.011739042068741396 0 -0.0073860094773568405 -0.011164011148612053 0 -0.0084423513996410432 -0.010665763738321834 0 -0.0066087004208954586 -0.0095895143339679821 0 -0.0068505134456508807 -0.0089539396043661484 0 -0.0073793415553357325 -0.0091761493120653143 0 -0.0068505134456508807 -0.0089539396043661484 0 -0.0073793415553357325 -0.0091761493120653143 0 -0.0069455525951001634 -0.0085574216466651025 0 -0.0085639416057685484 -0.01100558805222932 0 -0.0078790043664488212 -0.010425017003384182 0 -0.0089619835359987035 -0.012403648145047349 0 -0.0089657506604690178 -0.012337818838744295 0 -0.008850533573358044 -0.012312899958254657 0 -0.0068505134456508807 -0.0089539396043661484 0 -0.0065537376759508123 -0.0085921512829006362 0 -0.0061779887385086272 -0.0089714190785036355 0 -0.0067168957154109758 -0.0089413626865539522 0 -0.0061622690701727293 -0.0090706928723587304 0 -0.0066087004208954586 -0.0095895143339679821 0 -0.0068505134456508807 -0.0089539396043661484 0 -0.0057237909991499341 -0.0090578235917641563 0 -0.010067445140527197 -0.011714904716968903 0 -0.0096524622452460393 -0.012070855210193283 0 -0.0091382895484273443 -0.011999724908892445 0 -0.010359806841064498 -0.012259441359029465 0 -0.0090591812445031533 -0.012481559568280844 0 -0.0096524622452460393 -0.012070855210193283 0 -0.0091214433696714652 -0.011967566749437348 0 -0.0091939002845879761 -0.012049602232559463 0 -0.0091382895484273443 -0.011999724908892445 0 -0.0096524622452460393 -0.012070855210193283 0 -0.0091939002845879761 -0.012049602232559463 0 -0.0091382895484273443 -0.011999724908892445 0 -0.0091214433696714652 -0.011967566749437348 0 -0.008199528140000965 -0.011739042068741396 0 -0.0084423513996410432 -0.010665763738321834 0 -0.0091214433696714652 -0.011967566749437348 0 -0.0091382895484273443 -0.011999724908892445 0 -0.0093009005454896751 -0.012093912435755144 0 -0.0092312485361714398 -0.01209523087345468 0 -0.0085639416057685484 -0.01100558805222932 0 -0.0089619835359987035 -0.012403648145047349 0 -0.0089657506604690178 -0.012337818838744295 0 -0.0091091741246944295 -0.012301045916169529 0 -0.0089657506604690178 -0.012337818838744295 0 -0.0091091741246944295 -0.012301045916169529 0 -0.0089483776712997523 -0.012355079793336592 0 -0.0091382895484273443 -0.011999724908892445 0 -0.0093009005454896751 -0.012093912435755144 0 -0.0091091741246944295 -0.012301045916169529 0 -0.0085639416057685484 -0.01100558805222932 0 -0.0089947413149962848 -0.0120951900034212 0 -0.009622548987986642 -0.011719126505067255 0 -0.0091762903842737952 -0.011992159247833889 0 -0.010225560862417087 -0.010844882823285327 0 -0.010067445140527197 -0.011714904716968903 0 -0.0091382895484273443 -0.011999724908892445 0 -0.0089991267872127599 -0.012599388928966502 0 -0.0091382895484273443 -0.011999724908892445 0 -0.0091091741246944295 -0.012301045916169529 0 -0.0089991267872127599 -0.012599388928966502 0 -0.0091091741246944295 -0.012301045916169529 0 -0.0090045850040873787 -0.012426267438026736 0 -0.0091091741246944295 -0.012301045916169529 0 -0.0090045850040873787 -0.012426267438026736 0 -0.0089483776712997523 -0.012355079793336592 0 -0.0089657506604690178 -0.012337818838744295 0 -0.0089483776712997523 -0.012355079793336592 0 -0.008850533573358044 -0.012312899958254657 0 -0.0090045850040873787 -0.012426267438026736 0 -0.0089483776712997523 -0.012355079793336592 0 -0.0089072191087031238 -0.012361387985327283 0 -0.0089483776712997523 -0.012355079793336592 0 -0.0089072191087031238 -0.012361387985327283 0 -0.0087562043828456632 -0.012342407928950588 0 -0.0087612522995408806 -0.012376898904011091 0 -0.0089072191087031238 -0.012361387985327283 0 -0.0087562043828456632 -0.012342407928950588 0 -0.009004957979316457 -0.012250128686022774 0 -0.0089072191087031238 -0.012361387985327283 0 -0.0091184792613426772 -0.012266188634421089 0 -0.0090045850040873787 -0.012426267438026736 0 -0.0089072191087031238 -0.012361387985327283 0 -0.0091184792613426772 -0.012266188634421089 0 -0.0091760597552269611 -0.012292479432750206 0 -0.0090045850040873787 -0.012426267438026736 0 -0.0091184792613426772 -0.012266188634421089 0 -0.0065537376759508123 -0.0085921512829006362 0 -0.0069455525951001634 -0.0085574216466651025 0 -0.0066365873210699174 -0.0080914842568882202 0 -0.0065537376759508123 -0.0085921512829006362 0 -0.0066365873210699174 -0.0080914842568882202 0 -0.0061900808947592065 -0.0084166295588998814 0 -0.0068505134456508807 -0.0089539396043661484 0 -0.0065537376759508123 -0.0085921512829006362 0 -0.0069455525951001634 -0.0085574216466651025 0 -0.0089483776712997523 -0.012355079793336592 0 -0.008850533573358044 -0.012312899958254657 0 -0.0087562043828456632 -0.012342407928950588 0 -0.008850533573358044 -0.012312899958254657 0 -0.0087562043828456632 -0.012342407928950588 0 -0.0088396215715311095 -0.012286057494336691 0 -0.0078790043664488212 -0.010425017003384182 0 -0.0075990576894288397 -0.0099776760288180048 0 -0.0087510485865534698 -0.012473228120719214 0 -0.0087562043828456632 -0.012342407928950588 0 -0.0088396215715311095 -0.012286057494336691 0 -0.0066365873210699174 -0.0080914842568882202 0 -0.0061145147615905811 -0.0080515268411494156 0 -0.0061900808947592065 -0.0084166295588998814 0 -0.0061145147615905811 -0.0080515268411494156 0 -0.0061900808947592065 -0.0084166295588998814 0 -0.0056660669433354635 -0.0081901860787800991 0 -0.0065537376759508123 -0.0085921512829006362 0 -0.0061900808947592065 -0.0084166295588998814 0 -0.0061779887385086272 -0.0089714190785036355 0 -0.0061900808947592065 -0.0084166295588998814 0 -0.0057962304532565307 -0.0085788349432547924 0 -0.0061779887385086272 -0.0089714190785036355 0 -0.0057962304532565307 -0.0085788349432547924 0 -0.0056660669433354635 -0.0081901860787800991 0 -0.0054313212975594799 -0.0083562184789697236 0 -0.0061900808947592065 -0.0084166295588998814 0 -0.0057962304532565307 -0.0085788349432547924 0 -0.0056660669433354635 -0.0081901860787800991 0 -0.0056983809071507133 -0.0079260329212380021 0 -0.0061145147615905811 -0.0080515268411494156 0 -0.0056660669433354635 -0.0081901860787800991 0 -0.0068243252133591828 -0.0097677864550607691 0 -0.0060648809872439705 -0.0078878082280777525 0 -0.0056660669433354635 -0.0081901860787800991 0 -0.0053230212624357153 -0.0082317721893731283 0 -0.0054313212975594799 -0.0083562184789697236 0 -0.003764935946789671 -0.010091998914045991 0 -0.0019612671884121666 -0.0095272911643332694 0 -0.0042309568108956034 -0.0085542945306959963 0 -0.0068243252133591828 -0.0097677864550607691 0 -0.0041687925868607832 -0.0083898450116723939 0 -0.0056756479882375697 -0.008037631788109895 0 -0.0056660669433354635 -0.0081901860787800991 0 -0.0053230212624357153 -0.0082317721893731283 0 -0.004601443542822113 -0.0093976618499785614 0 -0.0042309568108956034 -0.0085542945306959963 0 -0.0050310048122799763 -0.0085027404077158385 0 -0.003764935946789671 -0.010091998914045991 0 -0.004601443542822113 -0.0093976618499785614 0 -0.0042309568108956034 -0.0085542945306959963 0 -0.0041687925868607832 -0.0083898450116723939 0 -0.005486618757082823 -0.0081847260088657794 0 -0.0053230212624357153 -0.0082317721893731283 0 -0.0053317120108318768 -0.0082853488344170317 0 -0.0054313212975594799 -0.0083562184789697236 0 -0.0053230212624357153 -0.0082317721893731283 0 -0.0053317120108318768 -0.0082853488344170317 0 -0.005290881910860093 -0.0082222519361277568 0 -0.0053317120108318768 -0.0082853488344170317 0 -0.0054313212975594799 -0.0083562184789697236 0 -0.0053684358446131697 -0.0083155014371232988 0 -0.0057064354952701801 -0.0084759988739839375 0 -0.0041163126656001909 -0.0085542943415645913 0 -0.0053684358446131697 -0.0083155014371232988 0 -0.0053470389699313593 -0.0083082635246738042 0 -0.005338659329662869 -0.0083017876953321006 0 -0.0054313212975594799 -0.0083562184789697236 0 -0.0053684358446131697 -0.0083155014371232988 0 -0.0053470389699313593 -0.0083082635246738042 0 -0.0053317120108318768 -0.0082853488344170317 0 -0.0053684358446131697 -0.0083155014371232988 0 -0.005338659329662869 -0.0083017876953321006 0 -0.0053317120108318768 -0.0082853488344170317 0 -0.005338659329662869 -0.0083017876953321006 0 -0.005302807526111156 -0.0082557470248218728 0 -0.0026957623865544737 -0.00867378030681892 0 -0.0042412301632613249 -0.0084338067081786341 0 -0.0029275522602120701 -0.007221115524137723 0 -0.0038457802147496118 -0.0085041451676320587 0 -0.0048104337548245868 -0.0083260846922326645 0 -0.0026957623865544737 -0.00867378030681892 0 -0.0016331265848402695 -0.0076175936977695285 0 -0.0029275522602120701 -0.007221115524137723 0 -0.0011198696130002605 -0.0089079008952377518 0 -0.0026957623865544737 -0.00867378030681892 0 -0.0016331265848402695 -0.0076175936977695285 0 -0.0041163126656001909 -0.0085542943415645913 0 -0.0038457802147496118 -0.0085041451676320587 0 -0.0011198696130002605 -0.0089079008952377518 0 -0.0016331265848402695 -0.0076175936977695285 0 -0.00063212474106741237 -0.0067157628840096772 0 -0.0041163126656001909 -0.0085542943415645913 0 -0.0030095535176639151 -0.0094300033564103051 0 -0.0045403512834135207 -0.0091994617834728776 0 -0.0051927133992359844 -0.0096806321012429166 0 -0.0047886866885873507 -0.010450580540536956 0 -0.0045403512834135207 -0.0091994617834728776 0 -0.0051927133992359844 -0.0096806321012429166 0 -0.0057237909991499341 -0.0090578235917641563 0 -0.0051927133992359844 -0.0096806321012429166 0 -0.0057237909991499341 -0.0090578235917641563 0 -0.0057132588218929657 -0.010019165102653561 0 -0.0057962304532565307 -0.0085788349432547924 0 -0.0054313212975594799 -0.0083562184789697236 0 -0.0055158897242143521 -0.0090339020504812267 0 -0.0057962304532565307 -0.0085788349432547924 0 -0.0055158897242143521 -0.0090339020504812267 0 -0.0061779887385086272 -0.0089714190785036355 0 -0.0041163126656001909 -0.0085542943415645913 0 -0.0061622690701727293 -0.0090706928723587304 0 -0.0052606734073561996 -0.0082408093742980682 0 -0.0053018072785329436 -0.0082363847456692046 0 -0.0052575455220965307 -0.0082206540075277224 0 -0.0051667337075482203 -0.0082180857500013908 0 -0.0052606734073561996 -0.0082408093742980682 0 -0.0052575455220965307 -0.0082206540075277224 0 -0.0051667337075482203 -0.0082180857500013908 0 -0.0052606734073561996 -0.0082408093742980682 0 -0.0052370763494042419 -0.0082304362746131871 0 -0.0052220794531211449 -0.0081994056143182819 0 -0.0051304133289662903 -0.0081734021986195823 0 -0.0052370763494042419 -0.0082304362746131871 0 -0.0052687484901322839 -0.008324764724048998 0 -0.0052370763494042419 -0.0082304362746131871 0 -0.0052708701946705527 -0.0082918058542065035 0 -0.0052606734073561996 -0.0082408093742980682 0 -0.0052370763494042419 -0.0082304362746131871 0 -0.0052708701946705527 -0.0082918058542065035 0 -0.0052799373949162553 -0.0082739386225563483 0 -0.0052708701946705527 -0.0082918058542065035 0 -0.0052727030573004423 -0.0083103536421493887 0 -0.0052606734073561996 -0.0082408093742980682 0 -0.0052799373949162553 -0.0082739386225563483 0 -0.0052708701946705527 -0.0082918058542065035 0 -0.0052685373007266903 -0.0083521930945238947 0 -0.0052708701946705527 -0.0082918058542065035 0 -0.005265274422788172 -0.0083473576792732519 0 -0.0052708701946705527 -0.0082918058542065035 0 -0.005265274422788172 -0.0083473576792732519 0 -0.0052727030573004423 -0.0083103536421493887 0 -0.0052422519055861051 -0.0083989828843881592 0 -0.005265274422788172 -0.0083473576792732519 0 -0.0052567089920713015 -0.0083500061086633354 0 -0.005265274422788172 -0.0083473576792732519 0 -0.0052727030573004423 -0.0083103536421493887 0 -0.0052567089920713015 -0.0083500061086633354 0 -0.0052727030573004423 -0.0083103536421493887 0 -0.0052778153144623311 -0.0082956340352998027 0 -0.0052567089920713015 -0.0083500061086633354 0 -0.0052799373949162553 -0.0082739386225563483 0 -0.0052727030573004423 -0.0083103536421493887 0 -0.0052778153144623311 -0.0082956340352998027 0 -0.0053018072785329436 -0.0082363847456692046 0 -0.0053062013056127495 -0.0082411407242884965 0 -0.0052778153144623311 -0.0082956340352998027 0 -0.0052799373949162553 -0.0082739386225563483 0 -0.0053018072785329436 -0.0082363847456692046 0 -0.0052778153144623311 -0.0082956340352998027 0 -0.0052606734073561996 -0.0082408093742980682 0 -0.0052799373949162553 -0.0082739386225563483 0 -0.0053018072785329436 -0.0082363847456692046 0 -0.0053062013056127495 -0.0082411407242884965 0 -0.0052860270171503024 -0.0082480145056613198 0 -0.0053214475931244809 -0.008233316271272776 0 -0.0052860270171503024 -0.0082480145056613198 0 -0.005246557685781225 -0.0083270834462080782 0 -0.005290881910860093 -0.0082222519361277568 0 -0.0053062013056127495 -0.0082411407242884965 0 -0.0052860270171503024 -0.0082480145056613198 0 -0.0052778153144623311 -0.0082956340352998027 0 -0.0052860270171503024 -0.0082480145056613198 0 -0.0052778153144623311 -0.0082956340352998027 0 -0.005246557685781225 -0.0083270834462080782 0 -0.0052778153144623311 -0.0082956340352998027 0 -0.0052415040487618298 -0.0083569356367137037 0 -0.005246557685781225 -0.0083270834462080782 0 -0.0052778153144623311 -0.0082956340352998027 0 -0.0052415040487618298 -0.0083569356367137037 0 -0.0052567089920713015 -0.0083500061086633354 0 -0.0052415040487618298 -0.0083569356367137037 0 -0.0052567089920713015 -0.0083500061086633354 0 -0.0052114581035472675 -0.0084188791336789384 0 -0.0052422519055861051 -0.0083989828843881592 0 -0.0052567089920713015 -0.0083500061086633354 0 -0.0052114581035472675 -0.0084188791336789384 0 -0.0051488932166904242 -0.0084915239123428948 0 -0.0052114581035472675 -0.0084188791336789384 0 -0.0051793761703092253 -0.0084239600480058817 0 -0.0052415040487618298 -0.0083569356367137037 0 -0.0052114581035472675 -0.0084188791336789384 0 -0.0051793761703092253 -0.0084239600480058817 0 -0.0052415040487618298 -0.0083569356367137037 0 -0.0051793761703092253 -0.0084239600480058817 0 -0.005246557685781225 -0.0083270834462080782 0 -0.0051793761703092253 -0.0084239600480058817 0 -0.005246557685781225 -0.0083270834462080782 0 -0.0051583910369878321 -0.0084256602174039522 0 -0.0042309568108956034 -0.0085542945306959963 0 -0.0050310048122799763 -0.0085027404077158385 0 -0.005290881910860093 -0.0082222519361277568 0 -0.0051583910369878321 -0.0084256602174039522 0 -0.0050310048122799763 -0.0085027404077158385 0 -0.005290881910860093 -0.0082222519361277568 0 -0.005246557685781225 -0.0083270834462080782 0 -0.0051583910369878321 -0.0084256602174039522 0 -0.005290881910860093 -0.0082222519361277568 0 -0.0050702531466478486 -0.008506879475443865 0 -0.0051793761703092253 -0.0084239600480058817 0 -0.0051583910369878321 -0.0084256602174039522 0 -0.0051488932166904242 -0.0084915239123428948 0 -0.0050702531466478486 -0.008506879475443865 0 -0.0051793761703092253 -0.0084239600480058817 0 -0.0050702531466478486 -0.008506879475443865 0 -0.0051583910369878321 -0.0084256602174039522 0 -0.0050310048122799763 -0.0085027404077158385 0 -0.0053317120108318768 -0.0082853488344170317 0 -0.005290881910860093 -0.0082222519361277568 0 -0.005302807526111156 -0.0082557470248218728 0 -0.0052860270171503024 -0.0082480145056613198 0 -0.005290881910860093 -0.0082222519361277568 0 -0.005302807526111156 -0.0082557470248218728 0 -0.005338659329662869 -0.0083017876953321006 0 -0.005302807526111156 -0.0082557470248218728 0 -0.0052994388464802289 -0.0082428252236831021 0 -0.005302807526111156 -0.0082557470248218728 0 -0.0052994388464802289 -0.0082428252236831021 0 -0.0053353253801041558 -0.0082276513863431874 0 -0.0042412301632613249 -0.0084338067081786341 0 -0.0049889364125684501 -0.0076358419428375953 0 -0.0041914872035174059 -0.006905881313811096 0 -0.0052994388464802289 -0.0082428252236831021 0 -0.0054119912848671929 -0.0081609936083579613 0 -0.0053353253801041558 -0.0082276513863431874 0 -0.0042412301632613249 -0.0084338067081786341 0 -0.0054119912848671929 -0.0081609936083579613 0 -0.0049889364125684501 -0.0076358419428375953 0 -0.0048104337548245868 -0.0083260846922326645 0 -0.0053411128702642646 -0.008195237339808965 0 -0.0054119912848671929 -0.0081609936083579613 0 -0.0056103752976910219 -0.0079164202658810658 0 -0.0049889364125684501 -0.0076358419428375953 0 -0.0054119912848671929 -0.0081609936083579613 0 -0.0053680314790538848 -0.008197991693212418 0 -0.0053353253801041558 -0.0082276513863431874 0 -0.0053680314790538848 -0.008197991693212418 0 -0.0053353253801041558 -0.0082276513863431874 0 -0.0053214475931244809 -0.008233316271272776 0 -0.005302807526111156 -0.0082557470248218728 0 -0.0053353253801041558 -0.0082276513863431874 0 -0.0053214475931244809 -0.008233316271272776 0 -0.0052860270171503024 -0.0082480145056613198 0 -0.005302807526111156 -0.0082557470248218728 0 -0.0053214475931244809 -0.008233316271272776 0 -0.0053018072785329436 -0.0082363847456692046 0 -0.0053062013056127495 -0.0082411407242884965 0 -0.0053554485101730831 -0.0082032742084904627 0 -0.0053062013056127495 -0.0082411407242884965 0 -0.0053214475931244809 -0.008233316271272776 0 -0.0053554485101730831 -0.0082032742084904627 0 -0.0053018072785329436 -0.0082363847456692046 0 -0.0053554485101730831 -0.0082032742084904627 0 -0.0052575455220965307 -0.0082206540075277224 0 -0.0053680314790538848 -0.008197991693212418 0 -0.0053554485101730831 -0.0082032742084904627 0 -0.0054391138174090872 -0.0081250141211385574 0 -0.0053680314790538848 -0.008197991693212418 0 -0.0053214475931244809 -0.008233316271272776 0 -0.0053554485101730831 -0.0082032742084904627 0 -0.0056103752976910219 -0.0079164202658810658 0 -0.0054391138174090872 -0.0081250141211385574 0 -0.0053276558173857439 -0.0081863616235230783 0 -0.0054119912848671929 -0.0081609936083579613 0 -0.0053680314790538848 -0.008197991693212418 0 -0.0054391138174090872 -0.0081250141211385574 0 -0.0054119912848671929 -0.0081609936083579613 0 -0.0056103752976910219 -0.0079164202658810658 0 -0.0054391138174090872 -0.0081250141211385574 0 -0.0053554485101730831 -0.0082032742084904627 0 -0.0054391138174090872 -0.0081250141211385574 0 -0.005280604710435211 -0.0081964691063389095 0 -0.0051673184972262321 -0.0082544055392210856 0 -0.005280604710435211 -0.0081964691063389095 0 -0.0053276558173857439 -0.0081863616235230783 0 -0.0054391138174090872 -0.0081250141211385574 0 -0.005280604710435211 -0.0081964691063389095 0 -0.0053276558173857439 -0.0081863616235230783 0 -0.0053554485101730831 -0.0082032742084904627 0 -0.005280604710435211 -0.0081964691063389095 0 -0.0052575455220965307 -0.0082206540075277224 0 -0.0050882674004898284 -0.0082520216310108894 0 -0.005280604710435211 -0.0081964691063389095 0 -0.0052575455220965307 -0.0082206540075277224 0 -0.0050755077900493445 -0.0047545217363467946 0 -0.0050776726626186449 -0.0047655801949093883 0 -0.0050794604199637383 -0.0047443324561820847 0 -0.0033717429923468449 -0.0046807266636483408 0 -0.0059690874344276437 -0.0065254223817980102 0 -0.0033717429923468449 -0.0046807266636483408 0 -0.0059641849116061707 -0.0029579169700055014 0 -0.0051673184972262321 -0.0082544055392210856 0 -0.0051762056392799368 -0.0084121276815228418 0 -0.0053276558173857439 -0.0081863616235230783 0 -0.0051762056392799368 -0.0084121276815228418 0 -0.0053276558173857439 -0.0081863616235230783 0 -0.0054362988008197308 -0.0083728776831291669 0 -0.0056103752976910219 -0.0079164202658810658 0 -0.0063583616145079349 -0.0065574146500485828 0 -0.0051343795926896557 -0.0067078458392286862 0 -0.0056103752976910219 -0.0079164202658810658 0 -0.0053276558173857439 -0.0081863616235230783 0 -0.0054362988008197308 -0.0083728776831291669 0 -0.0055317265030969884 -0.0081965155637732431 0 -0.0059690874344276437 -0.0065254223817980102 0 -0.0072879706152913911 -0.0062371125824370096 0 -0.0059454524330283852 -0.004764885701070096 0 -0.0080928516135723369 -0.0045565034268554962 0 -0.0059690874344276437 -0.0065254223817980102 0 -0.0059641849116061707 -0.0029579169700055014 0 -0.0059690874344276437 -0.0065254223817980102 0 -0.0055817677933856997 -0.0066319833770812709 0 -0.0051343795926896557 -0.0067078458392286862 0 -0.004622421633993715 -0.0055047712537874176 0 -0.0059454524330283852 -0.004764885701070096 0 -0.0072879706152913911 -0.0062371125824370096 0 -0.0051343795926896557 -0.0067078458392286862 0 -0.0059454524330283852 -0.004764885701070096 0 -0.0056103752976910219 -0.0079164202658810658 0 -0.0049889364125684501 -0.0076358419428375953 0 -0.0051343795926896557 -0.0067078458392286862 0 -0.0049889364125684501 -0.0076358419428375953 0 -0.0051343795926896557 -0.0067078458392286862 0 -0.0041914872035174059 -0.006905881313811096 0 -0.0042412301632613249 -0.0084338067081786341 0 -0.0041914872035174059 -0.006905881313811096 0 -0.0029275522602120701 -0.007221115524137723 0 -0.0041914872035174059 -0.006905881313811096 0 -0.004622421633993715 -0.0055047712537874176 0 -0.0033864074909648063 -0.0053902609513988052 0 -0.0051343795926896557 -0.0067078458392286862 0 -0.0041914872035174059 -0.006905881313811096 0 -0.004622421633993715 -0.0055047712537874176 0 -0.0045898336177022771 -0.003645982420517206 0 -0.0033864074909648063 -0.0053902609513988052 0 -0.0031002352879622307 -0.0036551760201833914 0 -0.004622421633993715 -0.0055047712537874176 0 -0.0045898336177022771 -0.003645982420517206 0 -0.0033864074909648063 -0.0053902609513988052 0 -0.0045898336177022771 -0.003645982420517206 0 -0.0034749700664639229 -0.0021300271985524415 0 -0.0052075597646089834 -0.0013164138865273296 0 -0.0045898336177022771 -0.003645982420517206 0 -0.0031002352879622307 -0.0036551760201833914 0 -0.0034749700664639229 -0.0021300271985524415 0 -0.0045898336177022771 -0.003645982420517206 0 -0.0066055587601447294 -0.0029393421409279045 0 -0.0052075597646089834 -0.0013164138865273296 0 -0.0068229395252697332 -0.0029740693872602761 0 -0.0051524137616875028 -0.0012682325556928886 0 -0.004622421633993715 -0.0055047712537874176 0 -0.0045898336177022771 -0.003645982420517206 0 -0.0059454524330283852 -0.004764885701070096 0 -0.0045898336177022771 -0.003645982420517206 0 -0.0059454524330283852 -0.004764885701070096 0 -0.0066055587601447294 -0.0029393421409279045 0 -0.0068229395252697332 -0.0029740693872602761 0 -0.0059641849116061707 -0.0029579169700055014 0 -0.0059454524330283852 -0.004764885701070096 0 -0.0066055587601447294 -0.0029393421409279045 0 -0.0080928516135723369 -0.0045565034268554962 0 -0.0084261458553413805 -0.0018103866931524191 0 -0.006372501112377086 -0.0024397263067648112 0 -0.0075069353336952287 -0.0036646958258028813 0 -0.0057746704840203689 -0.0015824298508552931 0 -0.0059641849116061707 -0.0029579169700055014 0 -0.0028291942745808743 -0.0010615141805379192 0 -0.0026388877239314477 -0.00060816639699213073 0 -0.0031295382464017461 -0.00049548224026142111 0 -0.0028415730479471862 -0.00019435354298401333 0 -0.0026388877239314477 -0.00060816639699213073 0 -0.0031295382464017461 -0.00049548224026142111 0 -0.0062368712376698271 -0.012271754328869688 0 -0.0055282539579669908 -0.011975941182960718 0 -0.0057513128789630583 -0.013064790930035092 0 -0.00049164856649181615 -0.006774295446588547 0 -0.0011459690203345144 -0.0052209282429911521 0 2.8332921077754377e-05 -0.0043271797974862893 0 -0.0030095535176639151 -0.0094300033564103051 0 -0.0027260649350627983 -0.0060508371708974896 0 -0.0067898814455528735 -0.012739198175079753 0 -0.0062368712376698271 -0.012271754328869688 0 -0.0057513128789630583 -0.013064790930035092 0 -0.0062368712376698271 -0.012271754328869688 0 -0.0064289220993412844 -0.011584414588557647 0 -0.0055282539579669908 -0.011975941182960718 0 -0.0071398186790396058 -0.011997319918614281 0 -0.0062368712376698271 -0.012271754328869688 0 -0.0064289220993412844 -0.011584414588557647 0 -0.0051927133992359844 -0.0096806321012429166 0 -0.0057132588218929657 -0.010019165102653561 0 -0.0047886866885873507 -0.010450580540536956 0 -0.0063768756397013984 -0.010876704964033047 0 -0.0030095535176639151 -0.0094300033564103051 0 -0.0030095535176639151 -0.0094300033564103051 0 -0.0015853751774490218 -0.0075972065383460843 0 -0.0016331265848402695 -0.0076175936977695285 0 -0.00063212474106741237 -0.0067157628840096772 0 -0.0013770945081721662 -0.0063252460807665866 0 -0.0016331265848402695 -0.0076175936977695285 0 -0.0020833600770185853 -0.0068306923892703019 0 -0.0029275522602120701 -0.007221115524137723 0 -0.0016331265848402695 -0.0076175936977695285 0 -0.0020833600770185853 -0.0068306923892703019 0 -0.0013770945081721662 -0.0063252460807665866 0 -0.0020833600770185853 -0.0068306923892703019 0 -0.0013770945081721662 -0.0063252460807665866 0 -0.0024040992356440939 -0.0061397174008170777 0 -0.0041914872035174059 -0.006905881313811096 0 -0.0029275522602120701 -0.007221115524137723 0 -0.0033864074909648063 -0.0053902609513988052 0 -0.0020833600770185853 -0.0068306923892703019 0 -0.0029275522602120701 -0.007221115524137723 0 -0.0024040992356440939 -0.0061397174008170777 0 -0.0029275522602120701 -0.007221115524137723 0 -0.0024040992356440939 -0.0061397174008170777 0 -0.0033864074909648063 -0.0053902609513988052 0 -0.0024040992356440939 -0.0061397174008170777 0 -0.0033864074909648063 -0.0053902609513988052 0 -0.0021738883491587884 -0.0050405410627000274 0 -0.00049164856649181615 -0.006774295446588547 0 -0.0013770945081721662 -0.0063252460807665866 0 -0.0011459690203345144 -0.0052209282429911521 0 -0.0013770945081721662 -0.0063252460807665866 0 -0.0024040992356440939 -0.0061397174008170777 0 -0.0021738883491587884 -0.0050405410627000274 0 -0.0013770945081721662 -0.0063252460807665866 0 -0.0021738883491587884 -0.0050405410627000274 0 -0.0011459690203345144 -0.0052209282429911521 0 -0.0021738883491587884 -0.0050405410627000274 0 -0.0017191484824027807 -0.0035561001576208937 0 -0.0031002352879622307 -0.0036551760201833914 0 -0.0021738883491587884 -0.0050405410627000274 0 -0.0011459690203345144 -0.0052209282429911521 0 -0.0017191484824027807 -0.0035561001576208937 0 -0.0033864074909648063 -0.0053902609513988052 0 -0.0021738883491587884 -0.0050405410627000274 0 -0.0031002352879622307 -0.0036551760201833914 0 -0.0031002352879622307 -0.0036551760201833914 0 -0.0034749700664639229 -0.0021300271985524415 0 -0.0018904204176920809 -0.0021983872440315966 0 -0.0017191484824027807 -0.0035561001576208937 0 -0.0011639098206562293 -0.0029756661312591842 0 -0.0018904204176920809 -0.0021983872440315966 0 -0.0017191484824027807 -0.0035561001576208937 0 -0.0031002352879622307 -0.0036551760201833914 0 -0.0018904204176920809 -0.0021983872440315966 0 -0.00090639416317464582 -0.0026027815036220618 0 -0.0011639098206562293 -0.0029756661312591842 0 -0.00083807354974654348 -0.0036491434663018622 0 -0.00088372147344099167 -0.002456271120370176 0 -0.0011639098206562293 -0.0029756661312591842 0 -0.0018904204176920809 -0.0021983872440315966 0 -0.00088372147344099167 -0.002456271120370176 0 -0.00090639416317464582 -0.0026027815036220618 0 -0.0011639098206562293 -0.0029756661312591842 0 -0.00088372147344099167 -0.002456271120370176 0 -0.00099625414958228234 -0.0026401182736173578 0 -0.00090639416317464582 -0.0026027815036220618 0 -0.0017191484824027807 -0.0035561001576208937 0 -0.0011639098206562293 -0.0029756661312591842 0 -0.00083807354974654348 -0.0036491434663018622 0 -0.00056804154430378025 -0.0013697445321276824 0 -0.0027260649350627983 -0.0060508371708974896 0 -0.0010752845188391677 -0.003551742090131513 0 -0.0027260649350627983 -0.0060508371708974896 0 -0.0011459690203345144 -0.0052209282429911521 0 -0.0017191484824027807 -0.0035561001576208937 0 2.8332921077754377e-05 -0.0043271797974862893 0 -0.0045349625284800167 -0.0070966226028420527 0 -0.0027260649350627983 -0.0060508371708974896 0 -0.0019906718246941405 -0.0012351774593144722 0 -0.00079734278946356845 -0.0016572381227254094 0 -0.001708217633019433 -0.0020168404537161109 0 -0.00090639416317464582 -0.0026027815036220618 0 -0.00079734278946356845 -0.0016572381227254094 0 -0.001708217633019433 -0.0020168404537161109 0 -0.0019807714429161479 -0.0026931417050190484 0 -0.001708217633019433 -0.0020168404537161109 0 -0.0013669445979328115 -0.0026107532339248243 0 -0.00090639416317464582 -0.0026027815036220618 0 -0.001708217633019433 -0.0020168404537161109 0 -0.0013669445979328115 -0.0026107532339248243 0 -0.00099625414958228234 -0.0026401182736173578 0 -0.00090639416317464582 -0.0026027815036220618 0 -0.0013669445979328115 -0.0026107532339248243 0 -0.0019807714429161479 -0.0026931417050190484 0 -0.0018365967497041081 -0.0031794777199051741 0 -0.0013209688428812479 -0.0030572107890321299 0 -0.0015684191553652698 -0.0029578991817614561 0 -0.0019328380300871017 -0.0021503888164933834 0 -0.0019807714429161479 -0.0026931417050190484 0 -0.0013669445979328115 -0.0026107532339248243 0 -0.00092906476159961319 -0.0029755765168549132 0 -0.0018365967497041081 -0.0031794777199051741 0 -0.001756389924581242 -0.0036667871925453129 0 -0.0013209688428812479 -0.0030572107890321299 0 -0.00099625414958228234 -0.0026401182736173578 0 -0.0013669445979328115 -0.0026107532339248243 0 -0.00092906476159961319 -0.0029755765168549132 0 -0.0049688205943846722 0.003201491731537521 0 -0.0019328380300871017 -0.0021503888164933834 0 -0.0039388709947175268 0.0015852605261617984 0 -0.0040373806797408939 0.0015080908204888137 0 -0.0040415697650908588 0.0013890746555409632 0 -0.0039797455542641908 0.0016107911707895703 0 -0.0039388709947175268 0.0015852605261617984 0 -0.0040373806797408939 0.0015080908204888137 0 -0.0060593023869568311 0.0053604758789517143 0 -0.0061409172062052543 0.0073939283269764001 0 -0.0053109105816908624 0.0061138322015532832 0 -0.0065465895811692718 0.006021788467273163 0 -0.0061487082698826415 0.0065962572825268607 0 -0.0060593023869568311 0.0053604758789517143 0 -0.0049688205943846722 0.003201491731537521 0 -0.0061409172062052543 0.0073939283269764001 0 -0.0049688205943846722 0.003201491731537521 0 -0.0041232425528616324 0.0015964415255400458 0 -0.0040373806797408939 0.0015080908204888137 0 -0.0041926563162840245 0.0014681848366462503 0 -0.0039797455542641908 0.0016107911707895703 0 -0.0041232425528616324 0.0015964415255400458 0 -0.0040373806797408939 0.0015080908204888137 0 -0.0060593023869568311 0.0053604758789517143 0 -0.003662984110754912 0.002009558029367791 0 -0.0040373806797408939 0.0015080908204888137 0 -0.0040415697650908588 0.0013890746555409632 0 -0.0041926563162840245 0.0014681848366462503 0 -0.00036801120417423309 -0.0017362351196698106 0 -0.0012473746855249273 -0.0017841281286581098 0 -0.0016770918167129155 -0.00086933275275485552 0 -0.0019328380300871017 -0.0021503888164933834 0 -0.0031046582873538306 0.00049293554523705051 0 -0.0011334673579319068 -0.0021806843447846492 0 -0.0019328380300871017 -0.0021503888164933834 0 -0.00088372147344099167 -0.002456271120370176 0 -0.00099625414958228234 -0.0026401182736173578 0 -0.00092906476159961319 -0.0029755765168549132 0 -0.00088372147344099167 -0.002456271120370176 0 -0.00036801120417423309 -0.0017362351196698106 0 -0.0012473746855249273 -0.0017841281286581098 0 -0.0018904204176920809 -0.0021983872440315966 0 -0.0027637413346477038 -0.00120335282234348 0 -0.0016770918167129155 -0.00086933275275485552 0 -0.00088372147344099167 -0.002456271120370176 0 -0.0012473746855249273 -0.0017841281286581098 0 -0.0018904204176920809 -0.0021983872440315966 0 -0.0012473746855249273 -0.0017841281286581098 0 -0.0018904204176920809 -0.0021983872440315966 0 -0.0016770918167129155 -0.00086933275275485552 0 -0.0034749700664639229 -0.0021300271985524415 0 -0.0018904204176920809 -0.0021983872440315966 0 -0.0027637413346477038 -0.00120335282234348 0 -0.0034749700664639229 -0.0021300271985524415 0 -0.0027637413346477038 -0.00120335282234348 0 -0.0037671744313528929 -0.00093623303644761052 0 -0.0027637413346477038 -0.00120335282234348 0 -0.0031002616695798178 0.00015518954235477429 0 -0.0016770918167129155 -0.00086933275275485552 0 -0.0027637413346477038 -0.00120335282234348 0 -0.0031002616695798178 0.00015518954235477429 0 -0.0037671744313528929 -0.00093623303644761052 0 -0.0041232425528616324 0.0015964415255400458 0 -0.0041926563162840245 0.0014681848366462503 0 -0.0042207043369950235 0.0015748043921487505 0 -0.0037444779627788393 0.00075275974283785761 0 -0.0031046582873538306 0.00049293554523705051 0 -0.0043327583769095937 0.0014087559720933731 0 -0.0041926563162840245 0.0014681848366462503 0 -0.0042207043369950235 0.0015748043921487505 0 -0.0041232425528616324 0.0015964415255400458 0 -0.0042207043369950235 0.0015748043921487505 0 -0.0041283173088319733 0.0016615563871048237 0 -0.0042207043369950235 0.0015748043921487505 0 -0.0042821209630675592 0.0019676998049086396 0 -0.0041283173088319733 0.0016615563871048237 0 -0.0042207043369950235 0.0015748043921487505 0 -0.0044091330374194347 0.001595076000274806 0 -0.0042821209630675592 0.0019676998049086396 0 -0.0043327583769095937 0.0014087559720933731 0 -0.0042207043369950235 0.0015748043921487505 0 -0.0044091330374194347 0.001595076000274806 0 -0.0044091330374194347 0.001595076000274806 0 -0.0042821209630675592 0.0019676998049086396 0 -0.0048146673364926947 0.0022607579874699222 0 -0.007814972074097544 0.01390776977484488 0 -0.007395442136726548 0.013582447224373769 0 -0.0078975781217276719 0.013542995583662565 0 -0.007814972074097544 0.01390776977484488 0 -0.0082159902984062713 0.013752140017828866 0 -0.0083606700426029443 0.014070280939884347 0 -0.0059792418189894506 0.0079001911959522692 0 -0.006435923655410414 0.0082211104627411043 0 -0.007814972074097544 0.01390776977484488 0 -0.0082159902984062713 0.013752140017828866 0 -0.0078975781217276719 0.013542995583662565 0 -0.0082159902984062713 0.013752140017828866 0 -0.0085986157611221536 0.013813952148317026 0 -0.0083606700426029443 0.014070280939884347 0 -0.0085986157611221536 0.013813952148317026 0 -0.0087371833009810048 0.014012088323378831 0 -0.0083606700426029443 0.014070280939884347 0 -0.008871546824283965 0.013836146614484792 0 -0.0087371833009810048 0.014012088323378831 0 -0.0089170756613884267 0.013998777158250488 0 -0.0085986157611221536 0.013813952148317026 0 -0.008871546824283965 0.013836146614484792 0 -0.0087371833009810048 0.014012088323378831 0 -0.0086733226601651212 0.014147954915672065 0 -0.0087610088727996527 0.014140303924838518 0 -0.0087371833009810048 0.014012088323378831 0 -0.0087610088727996527 0.014140303924838518 0 -0.0087371833009810048 0.014012088323378831 0 -0.0089170756613884267 0.013998777158250488 0 -0.0041723975135741047 0.0016376888876495988 0 -0.0041232425528616324 0.0015964415255400458 0 -0.0041283173088319733 0.0016615563871048237 0 -0.0060593023869568311 0.0053604758789517143 0 -0.006435923655410414 0.0082211104627411043 0 -0.0086733226601651212 0.014147954915672065 0 -0.0087371833009810048 0.014012088323378831 0 -0.0083606700426029443 0.014070280939884347 0 -0.0081393898871986795 -0.00042443769699030532 0 -0.0069899530750545539 -0.00078957878663549349 0 -0.007814382288370272 0.00084847005085489358 0 -0.0084261458553413805 -0.0018103866931524191 0 -0.006372501112377086 -0.0024397263067648112 0 -0.0069899530750545539 -0.00078957878663549349 0 -0.0084261458553413805 -0.0018103866931524191 0 -0.0081393898871986795 -0.00042443769699030532 0 -0.0069899530750545539 -0.00078957878663549349 0 -0.006372501112377086 -0.0024397263067648112 0 -0.0069899530750545539 -0.00078957878663549349 0 -0.0052075597646089834 -0.0013164138865273296 0 -0.0069899530750545539 -0.00078957878663549349 0 -0.0061566512492198487 0.00033162425065753112 0 -0.007814382288370272 0.00084847005085489358 0 -0.0069899530750545539 -0.00078957878663549349 0 -0.0061566512492198487 0.00033162425065753112 0 -0.0052075597646089834 -0.0013164138865273296 0 -0.0061566512492198487 0.00033162425065753112 0 -0.0052075597646089834 -0.0013164138865273296 0 -0.0047922767135623948 0.0011444345833911958 0 -0.0034749700664639229 -0.0021300271985524415 0 -0.0052075597646089834 -0.0013164138865273296 0 -0.0037671744313528929 -0.00093623303644761052 0 -0.0037444779627788393 0.00075275974283785761 0 -0.0047332846319147418 0.0011625515917522962 0 -0.0031002616695798178 0.00015518954235477429 0 -0.0037671744313528929 -0.00093623303644761052 0 -0.0047922767135623948 0.0011444345833911958 0 -0.0052075597646089834 -0.0013164138865273296 0 -0.0037671744313528929 -0.00093623303644761052 0 -0.0047922767135623948 0.0011444345833911958 0 -0.0044091330374194347 0.001595076000274806 0 -0.0047922767135623948 0.0011444345833911958 0 -0.0048146673364926947 0.0022607579874699222 0 -0.0043327583769095937 0.0014087559720933731 0 -0.0044091330374194347 0.001595076000274806 0 -0.0047922767135623948 0.0011444345833911958 0 -0.007814972074097544 0.01390776977484488 0 -0.0070637815324086214 0.013552190317860395 0 -0.007395442136726548 0.013582447224373769 0 -0.0042821209630675592 0.0019676998049086396 0 -0.0048146673364926947 0.0022607579874699222 0 -0.0048231322811065347 0.0023526101302949161 0 -0.0059792418189894506 0.0079001911959522692 0 -0.0061542495230926088 0.0076976606211903702 0 -0.0048146673364926947 0.0022607579874699222 0 -0.0045219298340880548 0.0024456419207993692 0 -0.0043667830150116351 0.0029000420298439422 0 -0.0048755054703893208 0.0022947092687759393 0 -0.0052086437197328261 0.0022825965557063911 0 -0.0048146673364926947 0.0022607579874699222 0 -0.0045219298340880548 0.0024456419207993692 0 -0.0048231322811065347 0.0023526101302949161 0 -0.0061566512492198487 0.00033162425065753112 0 -0.0047922767135623948 0.0011444345833911958 0 -0.0062435322784340046 0.0016680070156908854 0 -0.0047922767135623948 0.0011444345833911958 0 -0.0048146673364926947 0.0022607579874699222 0 -0.0062435322784340046 0.0016680070156908854 0 -0.0061566512492198487 0.00033162425065753112 0 -0.0062435322784340046 0.0016680070156908854 0 -0.007814382288370272 0.00084847005085489358 0 -0.0052086437197328261 0.0022825965557063911 0 -0.0061020698143131168 0.002086680913368453 0 -0.0045219298340880548 0.0024456419207993692 0 -0.0043667830150116351 0.0029000420298439422 0 -0.004205656941522559 0.0025685426592568857 0 -0.0043667830150116351 0.0029000420298439422 0 -0.004205656941522559 0.0025685426592568857 0 -0.0037131316718665413 0.0027035927274670401 0 -0.0045219298340880548 0.0024456419207993692 0 -0.004205656941522559 0.0025685426592568857 0 -0.0041869212053837921 0.0022492870513797091 0 -0.004205656941522559 0.0025685426592568857 0 -0.0037131316718665413 0.0027035927274670401 0 -0.0041869212053837921 0.0022492870513797091 0 -0.0043667830150116351 0.0029000420298439422 0 -0.0037131316718665413 0.0027035927274670401 0 -0.0036868724822530204 0.0033154953451542232 0 -0.0031901945023471759 0.0029534231852201718 0 -0.0037131316718665413 0.0027035927274670401 0 -0.0036868724822530204 0.0033154953451542232 0 -0.0033947272804861961 0.0023454346954215857 0 -0.0034755873959507488 0.0030077224779779528 0 -0.0046762107782178566 0.0025041623113929339 0 -0.0039506273138761438 0.012065887583113602 0 -0.0047294560441757403 0.01006282341375442 0 -0.0032919955493891967 0.0055036382449782616 0 -0.0047294560441757403 0.01006282341375442 0 -0.0035675192623105057 0.0096719837128513061 0 -0.0035707630178922214 0.0096539220629903097 0 -0.0036097308898509605 0.0096615100462251798 0 -0.0034755873959507488 0.0030077224779779528 0 -0.0048642464956058671 0.0033076264453095004 0 -0.0046762107782178566 0.0025041623113929339 0 -0.0032287089405364285 0.00233081090012932 0 -0.0037131316718665413 0.0027035927274670401 0 -0.0041869212053837921 0.0022492870513797091 0 -0.0034178821575765669 0.0027643087348639766 0 -0.0043698013917566302 0.0021256372340186236 0 -0.0048642464956058671 0.0033076264453095004 0 -0.0046762107782178566 0.0025041623113929339 0 -0.0055354689745334192 0.0030024976022323124 0 -0.0047294560441757403 0.01006282341375442 0 -0.0059000304656567958 0.0080406282498015954 0 -0.0047294560441757403 0.01006282341375442 0 -0.0066835517327436438 0.014050943846891711 0 -0.0053266787106792174 0.014572570666977232 0 -0.0059551629195921888 0.014213952482716206 0 -0.0053222045159956209 0.014024521114236861 0 -0.0053266787106792174 0.014572570666977232 0 -0.0059551629195921888 0.014213952482716206 0 -0.0064398553277683727 0.014598512034730135 0 -0.0054040347558527435 0.012651108584959055 0 -0.0066361084791735792 0.012818767368731103 0 -0.0062440692097103052 0.013172268455726643 0 -0.0059551629195921888 0.014213952482716206 0 -0.0064398553277683727 0.014598512034730135 0 -0.0065099580800347372 0.01402783587514549 0 -0.0048642464956058671 0.0033076264453095004 0 -0.0055354689745334192 0.0030024976022323124 0 -0.0064130550704349001 0.0035812418166036477 0 -0.0043698013917566302 0.0021256372340186236 0 -0.0061542495230926088 0.0076976606211903702 0 -0.0059000304656567958 0.0080406282498015954 0 -0.0061542495230926088 0.0076976606211903702 0 -0.0045219298340880548 0.0024456419207993692 0 -0.0041869212053837921 0.0022492870513797091 0 -0.0048231322811065347 0.0023526101302949161 0 -0.0062440692097103052 0.013172268455726643 0 -0.0067693704404160676 0.013198324812656056 0 -0.0070029995175391662 0.013568154940082173 0 -0.0066361084791735792 0.012818767368731103 0 -0.0062440692097103052 0.013172268455726643 0 -0.0067693704404160676 0.013198324812656056 0 -0.007395442136726548 0.013582447224373769 0 -0.007168388379913313 0.013228912633696042 0 -0.0076219954691757524 0.013061894082762827 0 -0.0066361084791735792 0.012818767368731103 0 -0.0067693704404160676 0.013198324812656056 0 -0.007168388379913313 0.013228912633696042 0 -0.0067693704404160676 0.013198324812656056 0 -0.0070029995175391662 0.013568154940082173 0 -0.007168388379913313 0.013228912633696042 0 -0.0070029995175391662 0.013568154940082173 0 -0.007395442136726548 0.013582447224373769 0 -0.007168388379913313 0.013228912633696042 0 -0.0061542495230926088 0.0076976606211903702 0 -0.0076058297897419044 0.011120592454497759 0 -0.0066835517327436438 0.014050943846891711 0 -0.0074780066707917942 0.013699309692404096 0 -0.0064398553277683727 0.014598512034730135 0 -0.0069965568367508805 0.014155222328023572 0 -0.0074766144086202448 0.014412605493783625 0 -0.0066361084791735792 0.012818767368731103 0 -0.007168388379913313 0.013228912633696042 0 -0.0076219954691757524 0.013061894082762827 0 -0.0064398553277683727 0.014598512034730135 0 -0.0069965568367508805 0.014155222328023572 0 -0.0065099580800347372 0.01402783587514549 0 -0.0069965568367508805 0.014155222328023572 0 -0.0070301840075231515 0.013761867851210415 0 -0.0074137515763925636 0.013908109415748654 0 -0.0069965568367508805 0.014155222328023572 0 -0.0070301840075231515 0.013761867851210415 0 -0.0065099580800347372 0.01402783587514549 0 -0.0070301840075231515 0.013761867851210415 0 -0.007078586806691438 0.013311636971657903 0 -0.0065419282891039741 0.01357245104325407 0 -0.0070301840075231515 0.013761867851210415 0 -0.0065419282891039741 0.01357245104325407 0 -0.0065099580800347372 0.01402783587514549 0 -0.0070301840075231515 0.013761867851210415 0 -0.007078586806691438 0.013311636971657903 0 -0.0075303159675046416 0.013483202670965358 0 -0.0070913878911416268 0.01286522115681837 0 -0.007078586806691438 0.013311636971657903 0 -0.0076597859171564009 0.013014440461942106 0 -0.0070913878911416268 0.01286522115681837 0 -0.007078586806691438 0.013311636971657903 0 -0.0065732102541203891 0.013184021311299398 0 -0.007078586806691438 0.013311636971657903 0 -0.0065732102541203891 0.013184021311299398 0 -0.0065419282891039741 0.01357245104325407 0 -0.0065732102541203891 0.013184021311299398 0 -0.0060261617707388603 0.013361554889543969 0 -0.0065419282891039741 0.01357245104325407 0 -0.0062775261988124277 0.012833365206826675 0 -0.0055099764776711255 0.013093322549588286 0 -0.0060261617707388603 0.013361554889543969 0 -0.0062775261988124277 0.012833365206826675 0 -0.0065732102541203891 0.013184021311299398 0 -0.0060261617707388603 0.013361554889543969 0 -0.0060261617707388603 0.013361554889543969 0 -0.0060220065007023432 0.013840651610771618 0 -0.0065419282891039741 0.01357245104325407 0 -0.0060220065007023432 0.013840651610771618 0 -0.0065419282891039741 0.01357245104325407 0 -0.0065099580800347372 0.01402783587514549 0 -0.0059551629195921888 0.014213952482716206 0 -0.0060220065007023432 0.013840651610771618 0 -0.0065099580800347372 0.01402783587514549 0 -0.0060220065007023432 0.013840651610771618 0 -0.0053222045159956209 0.014024521114236861 0 -0.0051477120714962252 0.013645515718943667 0 -0.0059551629195921888 0.014213952482716206 0 -0.0060220065007023432 0.013840651610771618 0 -0.0053222045159956209 0.014024521114236861 0 -0.0060261617707388603 0.013361554889543969 0 -0.0060220065007023432 0.013840651610771618 0 -0.0051477120714962252 0.013645515718943667 0 -0.0055099764776711255 0.013093322549588286 0 -0.0060261617707388603 0.013361554889543969 0 -0.0051477120714962252 0.013645515718943667 0 -0.0055099764776711255 0.013093322549588286 0 -0.0049340004617230288 0.013148974266305425 0 -0.0051477120714962252 0.013645515718943667 0 -0.004250619693336081 0.01372288852248991 0 -0.0049340004617230288 0.013148974266305425 0 -0.0051477120714962252 0.013645515718943667 0 -0.004250619693336081 0.01372288852248991 0 -0.0043671431535293242 0.01380399716046992 0 -0.0051477120714962252 0.013645515718943667 0 -0.0043671431535293242 0.01380399716046992 0 -0.0053266787106792174 0.014572570666977232 0 -0.0053222045159956209 0.014024521114236861 0 -0.0043671431535293242 0.01380399716046992 0 -0.0053222045159956209 0.014024521114236861 0 -0.0051477120714962252 0.013645515718943667 0 -0.0087491318957809115 0.013727151669446271 0 -0.0082920912899146874 0.01373915595641882 0 -0.0088252464620523843 0.013722216405667524 0 -0.0083132274730936019 0.014122339084847477 0 -0.0086132195003904791 0.013628160553466672 0 -0.0088252464620523843 0.013722216405667524 0 -0.0086132195003904791 0.013628160553466672 0 -0.0089660230901939444 0.013518397969483922 0 -0.0088252464620523843 0.013722216405667524 0 -0.0089660230901939444 0.013518397969483922 0 -0.0091041286169537532 0.013666130144670866 0 -0.008871546824283965 0.013836146614484792 0 -0.0088252464620523843 0.013722216405667524 0 -0.0091041286169537532 0.013666130144670866 0 -0.0085986157611221536 0.013813952148317026 0 -0.008871546824283965 0.013836146614484792 0 -0.0088252464620523843 0.013722216405667524 0 -0.0085986157611221536 0.013813952148317026 0 -0.0088252464620523843 0.013722216405667524 0 -0.0083256044504741705 0.013355371856625487 0 -0.0082159902984062713 0.013752140017828866 0 -0.0085986157611221536 0.013813952148317026 0 -0.0083256044504741705 0.013355371856625487 0 -0.0082159902984062713 0.013752140017828866 0 -0.0078975781217276719 0.013542995583662565 0 -0.0083256044504741705 0.013355371856625487 0 -0.007395442136726548 0.013582447224373769 0 -0.0078975781217276719 0.013542995583662565 0 -0.0076219954691757524 0.013061894082762827 0 -0.0078975781217276719 0.013542995583662565 0 -0.0076219954691757524 0.013061894082762827 0 -0.0083256044504741705 0.013355371856625487 0 -0.0074766144086202448 0.014412605493783625 0 -0.0079902222431429294 0.013731470358486257 0 -0.0074137515763925636 0.013908109415748654 0 -0.0069965568367508805 0.014155222328023572 0 -0.0074766144086202448 0.014412605493783625 0 -0.0074137515763925636 0.013908109415748654 0 -0.0074766144086202448 0.014412605493783625 0 -0.0083132274730936019 0.014122339084847477 0 -0.0079902222431429294 0.013731470358486257 0 -0.0083132274730936019 0.014122339084847477 0 -0.0079902222431429294 0.013731470358486257 0 -0.0086132195003904791 0.013628160553466672 0 -0.0074780066707917942 0.013699309692404096 0 -0.0082920912899146874 0.01373915595641882 0 -0.0079902222431429294 0.013731470358486257 0 -0.0084472294394915548 0.013255468553114973 0 -0.0086132195003904791 0.013628160553466672 0 -0.0079902222431429294 0.013731470358486257 0 -0.0079826282432064084 0.013270738958309106 0 -0.0084472294394915548 0.013255468553114973 0 -0.0079902222431429294 0.013731470358486257 0 -0.0074137515763925636 0.013908109415748654 0 -0.0075303159675046416 0.013483202670965358 0 -0.0079902222431429294 0.013731470358486257 0 -0.0075303159675046416 0.013483202670965358 0 -0.0079826282432064084 0.013270738958309106 0 -0.0070301840075231515 0.013761867851210415 0 -0.0074137515763925636 0.013908109415748654 0 -0.0075303159675046416 0.013483202670965358 0 -0.007078586806691438 0.013311636971657903 0 -0.0075303159675046416 0.013483202670965358 0 -0.0076597859171564009 0.013014440461942106 0 -0.0075303159675046416 0.013483202670965358 0 -0.0076597859171564009 0.013014440461942106 0 -0.0079826282432064084 0.013270738958309106 0 -0.0082383335308938172 0.012867350653437828 0 -0.0076597859171564009 0.013014440461942106 0 -0.0079826282432064084 0.013270738958309106 0 -0.0082383335308938172 0.012867350653437828 0 -0.0079826282432064084 0.013270738958309106 0 -0.0084472294394915548 0.013255468553114973 0 -0.0084472294394915548 0.013255468553114973 0 -0.0088832992474163312 0.013244773902036301 0 -0.0089177932840041468 0.012835980861110364 0 -0.0082383335308938172 0.012867350653437828 0 -0.0084472294394915548 0.013255468553114973 0 -0.0089177932840041468 0.012835980861110364 0 -0.0084472294394915548 0.013255468553114973 0 -0.0086132195003904791 0.013628160553466672 0 -0.0088832992474163312 0.013244773902036301 0 -0.0086132195003904791 0.013628160553466672 0 -0.0089660230901939444 0.013518397969483922 0 -0.0088832992474163312 0.013244773902036301 0 -0.0089660230901939444 0.013518397969483922 0 -0.0088832992474163312 0.013244773902036301 0 -0.0093640938394278003 0.013124989220930774 0 -0.0088832992474163312 0.013244773902036301 0 -0.0091475658839136401 0.013001618954473994 0 -0.0093640938394278003 0.013124989220930774 0 -0.0091475658839136401 0.013001618954473994 0 -0.0089177932840041468 0.012835980861110364 0 -0.0094074230309891677 0.012825305371564207 0 -0.0088832992474163312 0.013244773902036301 0 -0.0091475658839136401 0.013001618954473994 0 -0.0089177932840041468 0.012835980861110364 0 -0.0094074230309891677 0.012825305371564207 0 -0.0095338748469935546 0.01295842900212649 0 -0.0093640938394278003 0.013124989220930774 0 -0.0091475658839136401 0.013001618954473994 0 -0.0094074230309891677 0.012825305371564207 0 -0.0093640938394278003 0.013124989220930774 0 -0.0094074230309891677 0.012825305371564207 0 -0.0095338748469935546 0.01295842900212649 0 -0.0096890100176400366 0.012899433186958914 0 -0.0095338748469935546 0.01295842900212649 0 -0.0096685774812077987 0.013016021810348714 0 -0.0096890100176400366 0.012899433186958914 0 -0.0095338748469935546 0.01295842900212649 0 -0.0096685774812077987 0.013016021810348714 0 -0.0093640938394278003 0.013124989220930774 0 -0.010309268429892335 0.013080928921595064 0 -0.010204975209710943 0.012989347134805374 0 -0.010222054376451352 0.013069002998874472 0 -0.010263576806791032 0.013113618638067244 0 -0.010309268429892335 0.013080928921595064 0 -0.010222054376451352 0.013069002998874472 0 -0.0099461651406385129 0.013055507449772944 0 -0.010058881402567684 0.013008455997927042 0 -0.0096685774812077987 0.013016021810348714 0 -0.0096732623964916314 0.012963530942684138 0 -0.0098915203233865545 0.01302136360322689 0 -0.0098194208406870761 0.013019372327251933 0 -0.0099461651406385129 0.013055507449772944 0 -0.0096685774812077987 0.013016021810348714 0 -0.0097736409375913554 0.01306493630543107 0 -0.0098915203233865545 0.01302136360322689 0 -0.0093426339080996314 0.013052005953744391 0 -0.0095372565070026699 0.013414453551127388 0 -0.0093640938394278003 0.013124989220930774 0 -0.0097736409375913554 0.01306493630543107 0 -0.0098564315345941143 0.013048873539294518 0 -0.0089660230901939444 0.013518397969483922 0 -0.0093640938394278003 0.013124989220930774 0 -0.0091041286169537532 0.013666130144670866 0 -0.0096685774812077987 0.013016021810348714 0 -0.0093640938394278003 0.013124989220930774 0 -0.0097736409375913554 0.01306493630543107 0 -0.0097736409375913554 0.01306493630543107 0 -0.0099230128213015113 0.013003431176560006 0 -0.0098915203233865545 0.01302136360322689 0 -0.0098564315345941143 0.013048873539294518 0 -0.0099230128213015113 0.013003431176560006 0 -0.010009584124474263 0.012943994809069425 0 -0.0097736409375913554 0.01306493630543107 0 -0.0098564315345941143 0.013048873539294518 0 -0.0099230128213015113 0.013003431176560006 0 -0.0099230128213015113 0.013003431176560006 0 -0.010009584124474263 0.012943994809069425 0 -0.0099923305475045042 0.012947160113016167 0 -0.0098564315345941143 0.013048873539294518 0 -0.010009584124474263 0.012943994809069425 0 -0.010029248076005354 0.012929325663372447 0 -0.010009584124474263 0.012943994809069425 0 -0.010025631701429963 0.012892497690770466 0 -0.0099923305475045042 0.012947160113016167 0 -0.0097708972254941691 0.012723664757504286 0 -0.009102021850026407 0.013038511361436803 0 -0.0095372565070026699 0.013414453551127388 0 -0.009102021850026407 0.013038511361436803 0 -0.008871546824283965 0.013836146614484792 0 -0.0091041286169537532 0.013666130144670866 0 -0.0090463946551913275 0.013859677204463109 0 -0.010043821199150621 0.012929286994625823 0 -0.0099860699899236415 0.012884244075338018 0 -0.010011996198361083 0.012833624466428046 0 -0.010025631701429963 0.012892497690770466 0 -0.010043821199150621 0.012929286994625823 0 -0.010011996198361083 0.012833624466428046 0 -0.010025631701429963 0.012892497690770466 0 -0.0099923305475045042 0.012947160113016167 0 -0.010043821199150621 0.012929286994625823 0 -0.0099230128213015113 0.013003431176560006 0 -0.0099923305475045042 0.012947160113016167 0 -0.010043821199150621 0.012929286994625823 0 -0.01004729814576754 0.012948778587511998 0 -0.010058881402567684 0.013008455997927042 0 -0.0099230128213015113 0.013003431176560006 0 -0.010043821199150621 0.012929286994625823 0 -0.0098915203233865545 0.01302136360322689 0 -0.010043821199150621 0.012929286994625823 0 -0.010143051588970555 0.013020368247898487 0 -0.010066803769778981 0.012970838928488031 0 -0.010043821199150621 0.012929286994625823 0 -0.010066803769778981 0.012970838928488031 0 -0.0099860699899236415 0.012884244075338018 0 -0.010143051588970555 0.013020368247898487 0 -0.010066803769778981 0.012970838928488031 0 -0.010096674631794441 0.013047385241440069 0 -0.010143051588970555 0.013020368247898487 0 -0.010204975209710943 0.012989347134805374 0 -0.010222054376451352 0.013069002998874472 0 -0.010043821199150621 0.012929286994625823 0 -0.010143051588970555 0.013020368247898487 0 -0.010204975209710943 0.012989347134805374 0 -0.01020605005884179 0.013142446418098157 0 -0.010143051588970555 0.013020368247898487 0 -0.010222054376451352 0.013069002998874472 0 -0.014085945256536492 0.012667053952814221 0 -0.01319800428829743 0.012605492379308797 0 -0.01020605005884179 0.013142446418098157 0 -0.010143051588970555 0.013020368247898487 0 -0.010096674631794441 0.013047385241440069 0 -0.020864035793016471 0.013081370687046397 0 -0.019812372077352997 0.013107544156774628 0 -0.021368268266357411 0.014551301160535931 0 -0.018644036379893633 0.012634246650236615 0 -0.02136747189926691 0.012699378027695881 0 -0.017902493229010729 0.012043281180486419 0 -0.0178160168206381 0.012384991232958241 0 -0.018371054396584589 0.012456374211293007 0 -0.022264912459862569 0.012391431753772542 0 -0.021765180775824525 0.012458789994555788 0 -0.022350728489152333 0.012396844106039041 0 -0.021880609659547537 0.01277583503391541 0 -0.02136747189926691 0.012699378027695881 0 -0.021765180775824525 0.012458789994555788 0 -0.020864035793016471 0.013081370687046397 0 -0.021368268266357411 0.014551301160535931 0 -0.023118569892129431 0.012338932320519767 0 -0.023182132725391134 0.012042602483070725 0 -0.022765830265650787 0.012003313557709047 0 -0.02136747189926691 0.012699378027695881 0 -0.018595495204830084 0.012144663202124839 0 -0.02136747189926691 0.012699378027695881 0 -0.023159468801498623 0.012031649739424886 0 -0.0178160168206381 0.012384991232958241 0 -0.018371054396584589 0.012456374211293007 0 -0.018297541806933593 0.012846174544553238 0 -0.01319800428829743 0.012605492379308797 0 -0.018595495204830084 0.012144663202124839 0 -0.010066803769778981 0.012970838928488031 0 -0.010096674631794441 0.013047385241440069 0 -0.010050397090278098 0.01296872132176414 0 -0.02273508691366536 0.012402838929732212 0 -0.022578638769810637 0.012308521045754871 0 -0.022675537761537946 0.012313311245560538 0 -0.022942714668304495 0.012649346153484831 0 -0.022456084806597571 0.01233820937574691 0 -0.022785904872654701 0.01195394700897872 0 -0.022456084806597571 0.01233820937574691 0 -0.022667611034069196 0.012085170148488814 0 -0.022675537761537946 0.012313311245560538 0 -0.022264912459862569 0.012391431753772542 0 -0.022456084806597571 0.01233820937574691 0 -0.022264912459862569 0.012391431753772542 0 -0.022350728489152333 0.012396844106039041 0 -0.022456084806597571 0.01233820937574691 0 -0.022456084806597571 0.01233820937574691 0 -0.022667611034069196 0.012085170148488814 0 -0.022765830265650787 0.012003313557709047 0 -0.022350728489152333 0.012396844106039041 0 -0.022456084806597571 0.01233820937574691 0 -0.022765830265650787 0.012003313557709047 0 -0.022785904872654701 0.01195394700897872 0 -0.022667611034069196 0.012085170148488814 0 -0.022790260172210659 0.011938845921743524 0 -0.022667611034069196 0.012085170148488814 0 -0.022790260172210659 0.011938845921743524 0 -0.022765830265650787 0.012003313557709047 0 -0.022790260172210659 0.011938845921743524 0 -0.022857162951092299 0.011802746150682121 0 -0.022765830265650787 0.012003313557709047 0 -0.022790260172210659 0.011938845921743524 0 -0.022857162951092299 0.011802746150682121 0 -0.022900970939676676 0.011753181053183834 0 -0.022857162951092299 0.011802746150682121 0 -0.022765830265650787 0.012003313557709047 0 -0.0229500648297374 0.011738706707969287 0 -0.022857162951092299 0.011802746150682121 0 -0.022964398044716276 0.011601980869665178 0 -0.022900970939676676 0.011753181053183834 0 -0.022857162951092299 0.011802746150682121 0 -0.0229500648297374 0.011738706707969287 0 -0.022964398044716276 0.011601980869665178 0 -0.022964398044716276 0.011601980869665178 0 -0.022900970939676676 0.011753181053183834 0 -0.023020672467533417 0.011598173993274976 0 -0.010066803769778981 0.012970838928488031 0 -0.010050397090278098 0.01296872132176414 0 -0.0099860699899236415 0.012884244075338018 0 -0.022972593636082572 0.011801933604391447 0 -0.0229500648297374 0.011738706707969287 0 -0.023012331931332758 0.01160330306041208 0 -0.018595495204830084 0.012144663202124839 0 -0.016214959887613286 0.012355065772208377 0 -0.023182132725391134 0.012042602483070725 0 -0.022765830265650787 0.012003313557709047 0 -0.0229500648297374 0.011738706707969287 0 -0.018595495204830084 0.012144663202124839 0 -0.024017079124860091 0.012307474607022868 0 -0.0229500648297374 0.011738706707969287 0 -0.022964398044716276 0.011601980869665178 0 -0.023012331931332758 0.01160330306041208 0 -0.022964398044716276 0.011601980869665178 0 -0.023012331931332758 0.01160330306041208 0 -0.022975183845867081 0.011490612030330496 0 -0.023012331931332758 0.01160330306041208 0 -0.022975183845867081 0.011490612030330496 0 -0.022870586150453117 0.011412554274900948 0 -0.016214959887613286 0.012355065772208377 0 -0.016398582366699808 0.011895536394753849 0 -0.0099860699899236415 0.012884244075338018 0 -0.009867168123577786 0.012689370425704815 0 -0.010011996198361083 0.012833624466428046 0 -0.022975183845867081 0.011490612030330496 0 -0.022976981448644334 0.011419652426904865 0 -0.023005748196739621 0.011483847858828746 0 -0.022975183845867081 0.011490612030330496 0 -0.022976981448644334 0.011419652426904865 0 -0.022870586150453117 0.011412554274900948 0 -0.022976981448644334 0.011419652426904865 0 -0.022870586150453117 0.011412554274900948 0 -0.02286289971408146 0.011445775861945657 0 -0.023020672467533417 0.011598173993274976 0 -0.023050279921267715 0.011501965248131751 0 -0.02315732144927346 0.011443448126364254 0 -0.022964398044716276 0.011601980869665178 0 -0.023020672467533417 0.011598173993274976 0 -0.023050279921267715 0.011501965248131751 0 -0.023050279921267715 0.011501965248131751 0 -0.023005748196739621 0.011483847858828746 0 -0.023086943475098282 0.01141869549115262 0 -0.022964398044716276 0.011601980869665178 0 -0.023050279921267715 0.011501965248131751 0 -0.023005748196739621 0.011483847858828746 0 -0.022964398044716276 0.011601980869665178 0 -0.022975183845867081 0.011490612030330496 0 -0.023005748196739621 0.011483847858828746 0 -0.022976981448644334 0.011419652426904865 0 -0.023005748196739621 0.011483847858828746 0 -0.023086943475098282 0.01141869549115262 0 -0.022976981448644334 0.011419652426904865 0 -0.023086943475098282 0.01141869549115262 0 -0.023073818371962332 0.011394003845292097 0 -0.023086943475098282 0.01141869549115262 0 -0.023235751936635695 0.011356079565688688 0 -0.023073818371962332 0.011394003845292097 0 -0.023050279921267715 0.011501965248131751 0 -0.023086943475098282 0.01141869549115262 0 -0.02315732144927346 0.011443448126364254 0 -0.023086943475098282 0.01141869549115262 0 -0.02315732144927346 0.011443448126364254 0 -0.023235751936635695 0.011356079565688688 0 -0.023321212705516112 0.011357809991186395 0 -0.02315732144927346 0.011443448126364254 0 -0.023235751936635695 0.011356079565688688 0 -0.023456676402694505 0.011269731085841853 0 -0.023235751936635695 0.011356079565688688 0 -0.023264079996589863 0.011377308944161542 0 -0.023235751936635695 0.011356079565688688 0 -0.023073818371962332 0.011394003845292097 0 -0.023264079996589863 0.011377308944161542 0 -0.023456676402694505 0.011269731085841853 0 -0.023321212705516112 0.011357809991186395 0 -0.023235751936635695 0.011356079565688688 0 -0.023073818371962332 0.011394003845292097 0 -0.023024782437473208 0.01150177440054599 0 -0.023264079996589863 0.011377308944161542 0 -0.023073818371962332 0.011394003845292097 0 -0.023024782437473208 0.01150177440054599 0 -0.02286289971408146 0.011445775861945657 0 -0.022993786948695555 0.011813708550308877 0 -0.023024782437473208 0.01150177440054599 0 -0.023245828121539105 0.011542866399712196 0 -0.022717652699899629 0.011692792531355583 0 -0.022993786948695555 0.011813708550308877 0 -0.023024782437473208 0.01150177440054599 0 -0.023024782437473208 0.01150177440054599 0 -0.023264079996589863 0.011377308944161542 0 -0.023245828121539105 0.011542866399712196 0 -0.023551027776786276 0.011370751505179912 0 -0.023456676402694505 0.011269731085841853 0 -0.023264079996589863 0.011377308944161542 0 -0.023551027776786276 0.011370751505179912 0 -0.023264079996589863 0.011377308944161542 0 -0.023245828121539105 0.011542866399712196 0 -0.009867168123577786 0.012689370425704815 0 -0.0098284477455343935 0.012089381381533527 0 -0.010086812565941542 0.012575976358195452 0 -0.016398582366699808 0.011895536394753849 0 -0.016302804654671807 0.012431424220695899 0 -0.022870586150453117 0.011412554274900948 0 -0.02286289971408146 0.011445775861945657 0 -0.022572176634480565 0.011520830842662227 0 -0.022976981448644334 0.011419652426904865 0 -0.023073818371962332 0.011394003845292097 0 -0.02286289971408146 0.011445775861945657 0 -0.022717652699899629 0.011692792531355583 0 -0.02286289971408146 0.011445775861945657 0 -0.022572176634480565 0.011520830842662227 0 -0.022717652699899629 0.011692792531355583 0 -0.023024782437473208 0.01150177440054599 0 -0.02286289971408146 0.011445775861945657 0 -0.022717652699899629 0.011692792531355583 0 -0.022305971867946361 0.011873585525197317 0 -0.022572176634480565 0.011520830842662227 0 -0.014990804750381467 0.0087941007415125692 0 -0.016302804654671807 0.012431424220695899 0 -0.010286847481549474 0.011587001010515701 0 -0.0098284477455343935 0.012089381381533527 0 -0.010237533206437948 0.012070970814286439 0 -0.0098284477455343935 0.012089381381533527 0 -0.010237533206437948 0.012070970814286439 0 -0.010086812565941542 0.012575976358195452 0 -0.010237533206437948 0.012070970814286439 0 -0.010787103643714827 0.012451255227741948 0 -0.010086812565941542 0.012575976358195452 0 -0.010237533206437948 0.012070970814286439 0 -0.01061615665659948 0.011777243019691188 0 -0.010787103643714827 0.012451255227741948 0 -0.010286847481549474 0.011587001010515701 0 -0.010237533206437948 0.012070970814286439 0 -0.01061615665659948 0.011777243019691188 0 -0.011518560144921466 0.0070272924054305495 0 -0.0081090858189060058 0.004454710431580057 0 -0.004063670036121265 -0.0017368167509269848 0 -0.0037355676606213436 -0.0028142000710164841 0 -0.0027477357604294909 -0.0029719115899610022 0 -0.0037355676606213436 -0.0028142000710164841 0 -0.0027477357604294909 -0.0029719115899610022 0 -0.0024319816885488271 -0.0034159309497754134 0 -0.0081090858189060058 0.004454710431580057 0 -0.0033522452880578525 0.00031588443585135284 0 -0.0018365967497041081 -0.0031794777199051741 0 -0.0022736061891885022 -0.0029868091585999713 0 -0.0024319816885488271 -0.0034159309497754134 0 -0.0019807714429161479 -0.0026931417050190484 0 -0.0018365967497041081 -0.0031794777199051741 0 -0.0022736061891885022 -0.0029868091585999713 0 -0.0019807714429161479 -0.0026931417050190484 0 -0.0024836477945515871 -0.0026680321355467412 0 -0.0022736061891885022 -0.0029868091585999713 0 -0.0024836477945515871 -0.0026680321355467412 0 -0.0027477357604294909 -0.0029719115899610022 0 -0.0022736061891885022 -0.0029868091585999713 0 -0.0027477357604294909 -0.0029719115899610022 0 -0.0022736061891885022 -0.0029868091585999713 0 -0.0024319816885488271 -0.0034159309497754134 0 -0.0059638727070978502 0.0053771407257247675 0 -0.0061716254439261606 0.0055366079150371136 0 -0.0063199324596434365 0.0053807446724151069 0 -0.0059638727070978502 0.0053771407257247675 0 -0.0059354865314863508 0.0054097369013564045 0 -0.0061716254439261606 0.0055366079150371136 0 -0.0018365967497041081 -0.0031794777199051741 0 -0.001756389924581242 -0.0036667871925453129 0 -0.0024319816885488271 -0.0034159309497754134 0 -0.0049688205943846722 0.003201491731537521 0 -0.0033522452880578525 0.00031588443585135284 0 -0.0061409172062052543 0.0073939283269764001 0 -0.0085145644854283942 0.010821697222867103 0 -0.0081090858189060058 0.004454710431580057 0 -0.0085145644854283942 0.010821697222867103 0 -0.0064080557627840019 0.005655251110086656 0 -0.0061716254439261606 0.0055366079150371136 0 -0.0063199324596434365 0.0053807446724151069 0 -0.0085145644854283942 0.010821697222867103 0 -0.009102021850026407 0.013038511361436803 0 -0.010110456286930809 0.012675660060363178 0 -0.010063795056959701 0.012820402611858765 0 -0.010064790166548546 0.012774472222610337 0 -0.0072453951178106119 0.010697625067774478 0 -0.0081136388484319422 0.011322516984985289 0 -0.0076245925341678778 0.012063254019440849 0 -0.0085990435360908755 0.010574841246299914 0 -0.0072453951178106119 0.010697625067774478 0 -0.0081136388484319422 0.011322516984985289 0 -0.0061409172062052543 0.0073939283269764001 0 -0.0082598257002674449 0.013112419558495651 0 -0.008871546824283965 0.013836146614484792 0 -0.0089170756613884267 0.013998777158250488 0 -0.0090463946551913275 0.013859677204463109 0 -0.0082598257002674449 0.013112419558495651 0 -0.009102021850026407 0.013038511361436803 0 -0.010110456286930809 0.012675660060363178 0 -0.010063795056959701 0.012820402611858765 0 -0.010101346647407701 0.012859501141456465 0 -0.010009584124474263 0.012943994809069425 0 -0.010063795056959701 0.012820402611858765 0 -0.010101346647407701 0.012859501141456465 0 -0.010009584124474263 0.012943994809069425 0 -0.010025631701429963 0.012892497690770466 0 -0.010063795056959701 0.012820402611858765 0 -0.010025631701429963 0.012892497690770466 0 -0.010064790166548546 0.012774472222610337 0 -0.010011996198361083 0.012833624466428046 0 -0.010025631701429963 0.012892497690770466 0 -0.010063795056959701 0.012820402611858765 0 -0.010064790166548546 0.012774472222610337 0 -0.009867168123577786 0.012689370425704815 0 -0.010011996198361083 0.012833624466428046 0 -0.010046205404022035 0.012731411469880089 0 -0.010064790166548546 0.012774472222610337 0 -0.010011996198361083 0.012833624466428046 0 -0.010046205404022035 0.012731411469880089 0 -0.010064790166548546 0.012774472222610337 0 -0.010086812565941542 0.012575976358195452 0 -0.010046205404022035 0.012731411469880089 0 -0.009867168123577786 0.012689370425704815 0 -0.010086812565941542 0.012575976358195452 0 -0.010046205404022035 0.012731411469880089 0 -0.0085145644854283942 0.010821697222867103 0 -0.010901250055934921 0.013002621696837465 0 -0.010110456286930809 0.012675660060363178 0 -0.010064790166548546 0.012774472222610337 0 -0.010086812565941542 0.012575976358195452 0 
</DataArray>
</PointData>
<CellData Scalars="region_id,cross_section_updated," Vectors="" Tensors="stress,">
<DataArray type="Float64" Name="region_id" format="ascii">
5 6 5 5 6 5 5 5 5 5 5 5 5 5 5 5 5 5 5 6 5 5 5 5 5 5 5 6 5 5 5 6 5 5 5 5 5 6 5 5 5 5 5 5 5 5 5 5 6 5 6 5 5 5 5 6 6 5 5 5 5 5 6 5 5 5 5 6 6 5 5 5 5 5 6 5 5 5 5 5 6 5 5 5 5 5 5 5 5 5 6 5 5 5 5 5 5 5 5 5 5 5 5 5 6 5 5 5 6 5 5 5 5 5 5 5 5 5 5 5 5 5 6 5 6 5 5 5 5 6 5 6 5 5 5 6 5 5 5 5 5 5 5 5 5 5 5 6 5 5 5 5 5 5 5 5 5 6 5 5 5 5 5 5 5 5 6 6 5 5 6 6 5 5 5 5 5 5 5 5 5 5 5 5 5 5 6 5 5 6 5 6 5 5 5 5 6 5 6 5 6 5 5 5 6 5 5 5 5 5 6 5 5 5 5 6 5 5 5 5 5 5 5 5 5 5 5 5 6 5 5 5 5 5 5 5 5 6 5 5 5 5 5 5 5 5 5 5 5 5 5 6 5 5 5 5 5 5 5 5 6 5 5 5 5 5 6 5 5 5 5 5 6 5 5 5 5 5 6 5 5 5 6 5 5 6 6 5 5 5 5 5 5 5 6 5 5 5 5 6 5 5 6 5 5 5 5 6 5 5 5 5 5 5 5 5 5 6 5 5 5 6 5 5 5 6 5 6 6 5 5 5 5 5 5 5 5 5 5 5 5 5 5 5 5 6 5 5 5 5 5 5 5 5 5 5 5 5 5 5 5 5 5 5 5 5 5 5 5 6 5 5 5 5 5 5 5 5 5 5 5 5 5 5 5 5 5 5 5 5 5 5 5 6 5 5 6 5 5 5 5 5 5 5 5 5 5 5 6 5 5 6 5 5 6 5 5 5 5 5 5 5 6 5 6 5 5 5 6 5 5 5 5 5 5 5 5 6 6 5 5 5 6 5 5 5 5 5 5 5 5 6 5 5 5 5 5 5 5 5 5 6 5 5 5 5 6 6 5 5 5 5 5 5 5 5 5 5 5 5 5 6 5 5 5 5 5 5 5 5 5 6 5 5 5 6 5 5 5 5 5 5 5 5 5 5 5 5 5 5 6 5 5 5 5 5 5 5 5 5 6 5 5 5 6 5 5 5 6 5 5 5 6 5 5 5 5 5 5 5 6 5 5 5 6 5 5 5 5 6 5 5 5 5 5 5 6 5 5 5 5 5 6 5 5 6 5 5 6 5 6 5 5 5 5 5 5 5 5 5 5 5 5 5 6 5 5 5 5 5 5 5 5 5 5 5 5 5 5 5 5 5 5 5 5 5 5 5 5 5 5 5 5 5 5 5 5 5 6 5 5 6 5 5 5 5 5 5 5 5 5 5 5 5 5 6 5 5 6 5 5 5 5 5 5 5 5 5 5 5 5 6 5 5 5 5 5 5 5 5 5 5 5 6 5 5 5 5 5 6 5 5 5 5 5 5 6 5 5 5 5 6 5 5 5 6 5 5 5 6 5 5 5 5 5 5 5 5 5 5 5 5 5 5 5 5 5 5 5 5 5 5 5 5 6 5 5 5 5 5 5 5 5 5 5 5 5 5 6 5 5 5 5 5 5 6 5 5 5 5 6 5 5 5 5 5 5 5 5 6 5 6 5 5 5 5 5 5 6 6 5 5 5 6 5 5 5 5 5 5 5 5 5 5 5 6 5 5 5 5 5 6 5 5 5 6 5 5 6 5 5 5 6 5 5 6 5 5 6 5 5 6 5 5 5 5 5 5 5 5 5 5 5 5 5 5 5 5 5 5 5 5 5 5 5 5 5 5 5 5 5 5 6 5 5 5 5 5 5 6 6 5 5 5 6 5 5 6 5 5 5 5 5 5 5 6 5 5 5 6 5 6 5 5 5 5 6 5 5 5 5 5 6 5 6 5 5 5 5 5 5 5 6 5 5 5 5 5 5 5 5 5 5 5 5 5 5 5 6 5 5 5 6 5 5 6 5 5 5 5 6 6 6 5 5 5 5 6 6 5 5 5 5 5 5 5 5 6 5 5 5 5 5 5 5 6 5 5 6 5 5 5 5 5 5 5 6 6 5 5 5 6 6 6 5 6 6 5 5 5 6 5 5 5 5 5 5 6 5 5 5 5 6 5 6 5 5 5 5 5 6 5 5 5 5 6 5 6 6 5 5 5 6 5 6 5 5 5 5 6 5 5 5 5 5 6 5 5 5 6 5 5 5 6 5 5 6 5 5 5 5 5 6 5 5 5 5 5 5 5 5 5 5 5 5 5 5 5 5 6 5 5 5 5 5 6 5 5 6 6 5 5 5 5 5 5 5 5 6 5 5 5 5 5 5 6 5 5 5 5 6 5 5 6 5 5 6 5 5 5 5 5 6 6 5 5 5 5 5 5 5 5 5 5 5 5 5 5 5 5 5 5 6 5 5 5 5 5 5 5 5 5 6 6 5 5 5 5 5 5 6 6 5 5 5 6 6 5 6 5 5 5 5 5 5 5 5 5 5 5 5 5 5 5 5 5 5 5 5 5 6 5 5 5 6 5 5 6 5 5 5 5 5 5 5 5 5 5 5 5 5 5 5 5 5 6 5 5 5 5 5 5 6 5 5 5 5 5 5 5 5 5 6 5 6 5 5 5 6 5 6 5 5 5 5 5 5 5 5 5 5 5 5 5 5 5 5 6 5 5 5 5 5 5 6 5 5 5 6 5 5 5 5 5 5 5 5 5 5 6 5 5 5 5 5 5 5 5 5 5 5 5 5 5 5 5 6 5 6 5 5 5 5 5 5 5 5 5 5 5 5 5 6 6 5 5 5 5 5 5 5 5 6 6 5 6 5 5 5 5 5 6 5 5 5 5 5 5 5 5 5 5 5 5 6 5 5 6 5 5 5 6 5 5 6 5 5 6 5 5 5 5 5 5 5 5 5 5 5 5 5 5 5 6 5 5 5 5 5 5 6 5 5 5 5 5 5 5 5 5 5 5 5 5 5 5 5 5 6 5 5 5 5 6 5 5 6 5 5 5 5 5 6 5 5 5 5 6 5 5 5 5 5 5 6 5 5 5 6 5 5 6 5 5 5 5 6 5 5 5 5 6 6 5 5 5 5 5 5 5 5 6 5 5 5 5 6 5 5 5 6 5 6 5 5 6 5 6 5 6 5 5 5 5 6 5 5 5 5 5 5 6 5 5 5 5 5 5 5 5 5 5 5 5 5 5 6 5 5 5 5 5 5 6 5 5 6 5 6 5 6 5 5 5 5 6 5 6 5 6 5 5 5 5 6 5 5 5 5 5 5 5 5 5 5 5 5 5 5 5 5 5 6 5 5 6 5 5 5 5 5 5 5 6 5 5 5 6 6 5 6 5 5 5 5 5 5 5 6 5 5 5 5 6 5 5 5 5 5 5 5 5 5 6 6 5 5 6 5 5 6 5 5 5 6 5 6 5 6 6 5 6 5 6 5 6 5 6 5 5 5 6 5 5 5 5 6 5 5 5 5 5 5 5 5 5 5 5 6 5 5 5 5 5 6 5 5 5 5 5 5 5 5 5 5 5 5 5 5 5 5 5 5 5 5 6 6 5 5 5 5 5 5 5 5 5 6 5 5 6 6 5 5 5 6 6 6 5 5 5 5 5 5 6 5 5 5 5 5 6 5 5 5 5 6 5 5 5 5 5 5 5 5 5 5 5 5 5 5 5 5 5 6 5 5 5 5 5 5 5 6 5 5 5 5 5 5 5 5 5 5 5 5 5 5 5 6 5 5 5 6 5 5 5 5 5 5 5 5 5 5 5 5 5 5 5 5 5 5 5 5 5 5 5 6 5 5 6 5 6 5 5 6 5 6 5 5 5 5 5 5 5 5 5 5 5 5 5 5 5 5 5 5 5 5 6 5 5 5 5 5 5 5 5 5 5 6 5 5 5 5 6 5 5 5 5 5 5 5 5 5 5 5 5 5 5 5 5 5 5 5 5 5 5 5 5 5 5 5 5 5 5 5 5 5 5 5 5 5 5 6 5 5 6 5 5 5 5 5 5 5 5 5 6 5 5 5 5 5 6 5 5 5 5 5 5 5 5 5 5 5 5 5 5 5 5 5 5 5 5 5 5 5 5 5 6 5 5 5 5 5 5 5 5 6 5 5 5 5 5 5 5 5 5 5 5 6 5 5 5 5 5 5 5 5 5 5 5 5 5 5 6 5 5 5 5 5 6 6 5 5 5 5 5 5 5 5 5 5 5 5 5 5 5 5 5 5 5 5 5 5 6 5 5 5 5 5 6 5 5 5 6 5 5 5 6 5 6 6 5 5 6 5 6 5 5 5 6 5 6 5 5 5 5 5 6 5 5 5 6 5 5 6 6 5 5 5 5 5 5 6 5 5 5 5 5 5 5 5 5 5 5 5 5 5 5 5 5 5 5 5 5 5 5 6 5 5 5 5 5 5 6 5 5 5 5 5 5 5 5 5 5 6 5 5 5 5 5 5 6 5 5 5 5 5 5 5 5 5 5 5 5 5 5 5 5 5 5 5 5 5 6 5 5 5 5 5 6 5 5 5 5 5 6 6 5 6 5 5 5 5 6 5 5 5 5 6 5 5 5 5 5 5 5 5 5 5 5 5 5 5 6 5 5 5 5 5 6 5 5 5 6 6 5 6 5 5 6 5 6 5 5 6 5 5 5 5 5 5 5 5 5 5 5 5 5 5 5 6 5 5 5 5 5 5 5 5 6 5 5 5 5 6 6 5 5 5 5 5 5 5 5 5 5 5 6 6 5 5 5 5 5 6 5 6 5 5 5 6 5 5 5 5 5 5 5 5 5 5 5 5 5 5 5 5 5 5 5 6 5 5 5 6 5 5 5 5 5 5 5 5 5 5 5 6 5 5 5 6 5 5 5 5 5 6 5 5 6 5 5 5 5 5 5 5 5 5 5 6 5 5 6 5 6 5 5 5 6 5 5 5 5 5 5 5 5 6 5 5 5 5 5 5 5 5 5 5 6 5 5 5 5 5 5 5 5 5 5 5 5 5 5 5 5 5 5 5 5 5 5 5 6 5 5 5 6 5 5 5 5 5 5 5 6 5 5 5 6 5 5 5 5 5 6 5 5 5 5 5 5 5 6 5 5 5 5 6 5 5 6 5 5 6 5 5 5 5 5 5 5 5 6 5 5 5 5 5 5 5 5 5 6 5 5 5 5 6 5 5 5 5 5 5 5 5 5 5 5 5 5 5 5 5 6 5 6 5 5 5 5 5 5 5 5 6 5 5 5 5 5 5 5 5 5 5 5 5 5 5 5 5 5 5 5 5 5 5 5 6 5 5 5 5 5 5 6 5 5 5 5 6 5 5 5 6 6 5 6 5 5 6 5 5 5 5 6 5 5 5 6 5 5 5 6 5 5 6 5 5 5 5 5 5 5 6 6 5 5 5 5 5 6 5 6 5 5 5 5 5 5 5 5 5 5 5 5 5 5 5 5 5 5 6 5 5 5 6 5 5 5 5 5 5 5 5 5 5 6 5 5 5 5 5 5 5 5 5 5 5 5 6 5 5 6 5 5 5 5 5 5 5 5 5 5 5 5 5 5 5 5 5 5 5 5 6 5 6 5 5 5 5 6 5 5 5 5 5 5 5 6 5 5 6 5 5 5 5 5 5 5 5 5 5 5 5 5 6 5 5 5 6 5 5 5 5 5 5 5 5 5 5 5 5 5 5 5 5 5 5 5 5 5 5 5 5 5 5 5 5 5 5 5 5 5 5 5 5 5 5 5 5 5 5 5 5 5 5 5 5 5 5 5 5 5 5 5 5 5 5 5 5 5 5 5 5 5 5 5 5 5 5 5 5 5 5 5 5 5 5 5 5 5 5 5 5 6 5 5 5 5 5 5 5 5 5 5 5 5 5 5 5 5 5 5 5 5 5 5 5 5 5 5 5 6 5 5 5 5 6 5 6 5 6 5 5 5 6 5 5 5 5 6 5 5 6 5 5 5 5 5 5 5 5 5 5 5 5 5 5 5 5 5 5 6 6 5 6 5 5 5 6 5 5 5 5 5 5 5 5 5 5 5 6 5 5 5 5 5 5 5 6 5 5 5 5 5 5 5 5 5 5 5 5 5 6 5 5 5 5 5 5 5 6 5 5 5 5 5 5 5 5 5 5 5 6 5 5 5 5 5 5 6 5 5 5 5 5 5 5 5 5 5 6 5 6 5 5 5 5 5 5 5 5 6 5 5 5 5 5 6 6 5 5 6 5 5 5 6 5 6 5 5 5 5 5 5 5 5 5 6 5 5 6 5 5 6 6 5 5 6 6 5 5 5 6 5 6 5 5 5 5 5 6 5 5 5 5 5 6 6 5 5 5 6 5 5 6 5 5 5 5 6 5 5 5 5 5 5 6 5 5 6 5 5 5 5 5 5 5 5 5 5 5 5 5 5 5 5 5 5 6 5 6 5 5 5 5 5 5 5 5 5 5 5 5 5 5 5 5 5 5 5 5 5 5 6 5 5 5 5 5 6 5 5 5 5 5 5 5 5 5 6 5 5 5 5 6 5 5 5 6 5 5 6 5 5 6 5 5 5 6 5 6 5 5 5 5 6 5 5 5 5 5 5 5 5 5 5 5 5 5 5 5 5 5 5 5 5 5 5 5 5 5 6 6 5 5 5 5 6 5 5 5 6 5 5 5 5 6 5 6 5 5 5 5 5 5 5 5 5 5 5 5 5 5 6 5 5 6 5 6 5 5 6 5 5 5 5 5 5 5 5 5 5 5 5 5 5 5 5 5 5 5 5 5 5 5 5 5 5 5 5 6 5 5 5 6 5 5 5 6 5 5 5 5 5 5 5 5 5 5 5 5 5 5 5 5 6 5 5 5 5 5 6 5 5 5 6 5 5 5 5 5 5 5 5 5 5 5 5 5 5 5 5 5 5 5 5 5 5 5 5 5 5 5 5 5 5 5 5 5 5 5 5 5 5 5 5 6 5 5 6 5 5 5 6 5 5 5 5 5 5 5 6 5 5 5 5 6 5 6 5 5 5 5 5 5 5 5 6 5 5 5 5 5 5 6 5 5 5 5 5 5 5 5 5 6 5 5 5 5 5 5 5 5 5 5 6 5 5 5 5 5 5 5 5 5 6 5 5 5 5 5 6 5 5 6 5 5 5 5 5 5 5 5 5 5 5 5 6 6 5 5 5 5 5 5 5 5 6 5 5 5 5 5 5 5 5 5 5 5 5 5 5 5 5 5 5 5 5 5 5 5 5 5 5 5 5 5 5 5 5 5 5 5 5 5 5 5 5 5 5 5 5 5 5 5 5 5 5 5 5 5 5 5 6 5 6 5 6 5 6 5 5 5 5 5 6 5 5 5 5 5 5 6 5 5 6 5 5 6 5 5 5 5 5 6 5 5 5 5 6 5 5 5 5 5 5 5 5 6 5 5 5 5 5 5 5 5 5 5 6 5 5 5 5 6 5 5 5 5 6 5 5 5 5 5 5 5 5 5 5 6 5 5 5 5 5 5 5 5 6 6 5 5 5 5 5 5 5 5 5 5 5 5 5 5 5 5 5 5 5 5 5 5 5 5 5 6 5 5 5 5 6 5 5 5 6 5 5 5 5 5 5 5 5 5 5 5 5 5 5 5 5 5 5 5 5 5 5 5 5 5 5 5 5 5 5 5 5 5 5 5 5 5 5 5 5 6 6 5 5 5 5 5 5 5 5 5 5 5 5 5 5 6 5 5 5 5 5 5 5 5 5 5 5 5 5 5 5 5 5 5 5 5 6 5 5 6 5 6 5 6 6 5 5 5 5 5 5 5 5 6 5 6 5 5 5 5 5 5 5 5 5 5 5 5 6 5 5 5 6 5 5 5 5 5 5 5 5 5 6 5 5 5 6 5 5 5 6 5 5 6 5 5 5 5 5 5 6 5 5 5 5 5 5 5 5 6 5 5 5 5 5 5 6 5 5 5 5 5 5 6 5 5 5 5 5 6 5 5 5 5 5 6 5 5 5 5 5 5 5 5 5 5 6 5 5 5 5 5 6 5 5 5 5 5 5 6 5 6 5 6 6 5 5 5 5 5 5 6 5 5 5 5 5 5 5 5 5 5 5 5 5 5 5 5 5 5 5 5 5 5 6 5 6 5 5 5 5 6 5 5 6 5 5 5 5 5 5 5 6 5 5 5 6 5 5 5 5 5 6 5 5 5 5 5 5 6 5 5 5 5 5 5 5 5 5 5 5 5 5 5 5 6 5 5 5 5 5 5 5 5 5 5 5 5 5 5 5 5 5 5 5 5 5 5 5 5 5 5 5 5 5 5 5 5 5 5 5 5 5 5 5 5 5 5 5 5 5 5 5 5 5 5 5 5 5 5 5 5 5 5 5 5 5 5 5 5 5 5 5 5 5 5 5 5 5 5 5 5 5 5 5 5 5 5 5 5 5 5 5 5 5 5 5 5 5 5 5 5 5 6 5 6 5 5 5 5 5 5 5 6 5 6 5 5 6 6 6 5 5 5 5 5 5 5 5 5 5 5 6 5 5 5 5 5 6 5 5 5 5 5 5 5 5 5 5 5 6 5 5 5 5 5 6 5 5 6 5 5 5 5 5 5 5 5 5 5 6 5 5 6 6 5 5 5 5 5 6 5 5 5 5 5 5 5 6 5 5 5 5 5 5 5 5 6 5 5 6 5 5 5 5 5 6 5 5 5 5 5 5 5 5 5 5 5 5 5 5 5 5 5 5 5 5 5 5 5 5 5 5 5 5 6 5 5 5 5 5 5 6 5 6 5 5 5 5 6 5 5 5 5 5 5 5 5 5 5 5 5 5 5 5 5 5 5 5 5 5 6 5 5 6 5 5 5 6 5 5 5 5 5 5 5 5 5 5 5 6 5 5 5 5 5 5 5 5 6 5 5 5 5 5 5 5 5 5 5 6 5 5 5 5 5 5 6 5 5 5 5 5 5 5 5 6 5 5 5 5 5 5 5 5 5 5 5 5 5 5 5 5 5 5 5 5 5 6 5 5 5 5 6 5 5 5 5 5 6 6 5 6 5 6 6 5 6 5 6 5 5 6 5 6 5 6 5 5 6 5 5 6 5 6 5 5 5 5 5 5 5 5 5 5 5 6 5 5 6 6 5 5 5 5 5 5 5 6 5 6 5 5 5 5 6 6 6 5 5 5 6 5 5 5 5 5 6 5 5 6 5 5 5 5 5 5 5 5 5 5 5 5 6 5 6 5 5 6 6 6 6 5 5 5 5 6 5 5 5 5 5 5 5 5 5 5 5 5 5 5 6 5 6 6 5 5 6 5 5 5 5 5 6 6 5 5 5 5 6 5 5 5 5 5 5 5 6 5 5 5 5 5 6 5 5 5 5 5 5 5 5 6 5 5 5 5 5 6 6 5 6 5 5 5 5 5 6 5 6 6 5 5 5 6 5 5 5 5 6 6 5 5 6 5 5 6 5 6 5 6 5 5 6 5 5 6 6 5 6 5 5 5 5 5 6 5 5 5 5 5 6 5 5 5 6 5 5 5 6 6 5 6 5 6 6 5 6 5 5 5 6 5 5 5 5 5 6 5 5 5 6 6 5 5 5 5 5 5 6 5 5 6 6 5 5 5 5 5 6 5 6 6 5 6 5 6 5 6 5 6 6 5 6 5 6 6 5 5 6 6 5 5 5 5 6 6 6 5 5 5 5 5 5 5 5 5 5 5 5 5 5 5 5 5 5 5 5 5 5 5 5 5 6 5 5 5 5 5 5 5 6 5 5 5 5 6 5 5 5 6 5 5 5 5 6 5 5 5 5 6 5 5 5 5 5 5 6 5 5 5 6 6 6 5 6 5 5 6 5 6 5 5 6 5 6 5 5 5 6 6 5 5 5 6 5 5 5 5 5 6 5 6 6 5 5 6 5 5 5 5 6 5 5 5 5 5 6 5 5 5 5 5 5 5 5 5 5 5 6 6 5 5 6 5 5 6 5 5 5 5 5 5 5 6 5 5 5 5 5 5 6 5 5 5 5 6 6 5 5 5 5 5 6 5 5 5 5 5 5 5 6 5 5 5 5 5 5 5 5 5 5 5 5 5 5 5 5 5 5 5 5 5 5 5 5 5 5 5 5 5 5 5 5 5 5 5 5 5 6 5 5 5 5 5 5 5 5 5 5 5 5 5 6 5 5 5 5 5 6 5 5 6 5 5 5 5 5 5 5 6 5 6 5 5 5 6 5 5 5 5 5 5 5 5 5 5 5 5 5 5 5 5 5 6 5 5 5 6 5 5 5 5 5 5 5 5 5 5 5 5 5 5 5 5 5 5 5 5 5 6 5 5 5 5 6 5 5 5 5 5 5 5 6 5 5 5 5 5 5 5 5 5 5 5 5 5 5 5 5 5 5 5 5 5 5 5 5 5 5 5 5 5 5 5 5 5 5 5 5 5 5 6 5 5 5 5 5 5 6 5 5 5 5 5 5 5 5 5 5 6 5 5 5 6 5 5 6 6 5 5 5 5 5 5 5 5 5 5 5 5 5 5 5 5 5 5 5 5 5 5 5 5 5 5 5 5 5 5 5 5 5 6 5 5 5 5 5 5 6 5 6 5 5 5 5 6 6 6 6 5 5 6 6 5 5 6 5 5 5 5 5 6 5 5 5 5 5 5 6 5 5 5 5 5 5 5 5 6 5 6 6 6 5 5 6 5 5 5 5 6 5 5 6 5 5 5 5 5 5 5 5 6 5 5 5 5 6 5 5 5 5 5 5 5 5 5 5 6 6 6 5 5 5 5 6 5 5 5 6 5 5 6 6 5 5 5 5 5 5 5 5 5 5 5 5 5 5 5 5 5 5 5 6 5 5 6 5 5 5 5 5 5 5 5 5 5 5 6 5 5 5 5 5 5 5 5 5 5 5 5 5 5 5 5 5 5 5 5 6 5 5 6 5 5 5 5 5 5 5 5 5 5 5 5 6 6 5 6 5 6 5 5 5 5 5 5 6 5 6 5 6 5 5 6 5 5 5 6 5 6 5 5 5 5 5 5 5 5 5 5 6 5 5 5 5 5 6 5 5 6 5 5 5 5 6 6 5 5 5 6 5 6 5 5 5 5 5 5 5 5 5 6 5 5 5 5 5 5 6 5 5 5 5 5 5 5 5 5 5 5 5 5 5 5 5 5 5 6 5 5 5 5 6 5 5 5 5 5 5 6 6 5 5 5 5 5 5 6 5 5 5 5 5 5 6 5 5 6 5 5 5 5 6 5 5 5 6 5 5 5 6 5 5 6 5 6 5 6 5 5 5 5 5 6 5 5 6 5 6 5 5 5 6 5 6 5 5 5 5 5 5 5 5 5 5 5 5 5 5 5 5 5 5 5 5 6 5 5 5 5 5 5 6 5 5 5 5 5 5 5 6 5 5 5 5 5 5 5 5 5 5 6 5 5 5 6 5 5 6 5 5 5 5 5 6 5 5 6 5 5 5 5 6 6 5 5 6 5 5 5 6 5 5 6 6 5 5 5 6 5 5 5 5 5 5 5 5 5 5 6 5 5 5 5 5 5 5 5 5 5 6 5 5 5 5 5 5 6 5 5 6 5 6 5 5 6 5 5 5 6 5 5 6 5 5 5 5 6 5 5 5 5 5 5 5 5 5 5 5 5 5 5 5 5 5 5 5 5 5 5 5 5 5 6 6 5 5 5 5 6 5 5 5 5 6 6 6 5 5 6 5 5 6 5 5 5 5 5 6 5 5 5 5 5 5 5 5 5 6 5 5 5 5 5 5 5 5 6 5 5 5 5 5 5 6 5 5 5 5 5 5 5 5 5 5 5 5 5 5 5 5 5 5 5 5 5 6 5 5 5 5 6 5 5 5 5 5 5 5 5 5 5 5 5 6 5 6 5 6 5 5 5 5 5 6 5 6 5 6 5 5 5 5 6 5 6 5 5 5 5 6 5 6 5 5 5 6 5 5 5 5 6 5 5 6 5 5 6 5 5 5 5 5 5 6 6 5 5 5 6 6 5 5 5 5 5 5 5 5 5 5 5 5 6 5 5 6 5 5 6 6 5 5 6 5 6 5 6 6 5 5 6 5 5 6 5 5 5 6 5 5 6 5 6 5 5 5 5 5 6 5 5 5 5 5 5 6 5 6 5 5 5 5 6 5 5 5 5 6 5 5 5 6 5 5 5 5 5 5 5 5 6 5 5 6 5 5 5 6 5 5 5 5 5 5 5 5 5 5 5 6 5 5 5 5 5 5 5 5 5 5 5 5 5 6 5 5 5 5 5 5 5 5 5 5 5 5 5 5 5 5 6 5 6 5 5 5 6 5 5 5 6 5 6 5 5 5 5 6 5 5 5 6 5 5 5 5 5 5 6 5 5 5 6 5 5 5 5 5 5 5 5 5 5 5 5 5 5 5 5 5 5 5 6 5 5 6 5 5 5 5 5 5 5 6 5 5 5 5 6 5 5 6 5 5 6 5 5 6 6 5 6 5 5 5 5 6 5 6 5 5 6 5 5 5 5 5 5 5 5 5 5 5 5 5 5 5 5 5 5 5 6 5 5 5 6 5 5 5 5 6 6 5 5 5 6 5 5 6 5 6 5 6 6 5 5 5 6 5 5 5 5 5 5 5 5 6 6 6 5 5 5 5 6 6 5 5 5 6 5 6 5 5 6 5 5 5 6 5 5 5 5 6 5 5 5 5 5 5 5 5 5 5 6 5 5 5 6 6 5 5 5 5 5 6 5 5 6 5 6 5 6 6 5 5 5 5 5 5 6 5 5 5 5 5 5 5 5 5 5 6 5 5 5 5 5 5 5 5 5 5 5 5 5 5 5 5 5 5 5 5 5 5 5 5 5 5 5 5 5 6 5 5 5 5 6 5 5 5 5 6 5 5 5 5 5 5 5 6 5 6 5 6 5 5 6 5 5 6 5 5 5 5 5 5 6 5 5 5 6 5 5 5 5 6 5 5 6 5 5 5 5 6 5 5 6 5 5 6 5 5 5 5 5 6 5 5 5 5 5 5 5 5 5 6 5 5 5 5 5 5 5 5 5 5 5 5 5 5 5 5 6 5 6 5 5 6 5 5 5 5 6 5 6 5 5 5 5 6 5 5 5 6 5 6 6 5 5 5 5 5 5 6 5 5 6 6 5 5 5 5 5 5 5 5 5 6 5 5 5 5 5 6 5 5 6 5 5 5 6 5 5 5 5 5 5 6 5 5 5 5 6 5 5 5 5 5 6 5 5 5 5 5 5 5 6 5 5 5 5 5 5 5 5 5 5 5 5 5 5 5 5 5 5 5 5 5 5 5 5 6 5 5 5 5 5 5 5 5 5 5 5 5 6 5 5 5 6 5 5 5 5 5 5 5 5 6 5 6 5 5 5 5 6 5 5 5 5 6 5 5 5 5 5 5 5 5 5 6 5 6 6 5 5 6 5 5 5 5 5 5 5 5 5 5 5 5 5 5 5 6 5 5 5 5 5 5 5 5 5 5 6 5 5 5 5 6 5 5 5 5 5 5 5 5 5 5 5 5 5 5 5 5 5 5 5 5 5 5 5 5 5 5 6 5 5 5 5 5 5 5 5 5 5 5 5 5 5 5 5 5 6 5 5 5 5 6 5 5 5 5 5 5 5 5 5 5 6 6 5 5 5 5 5 5 5 5 5 5 5 5 5 6 5 5 5 5 5 5 5 6 5 5 5 5 5 5 5 6 5 5 5 5 6 6 5 6 5 5 5 6 5 5 5 5 5 5 5 5 5 5 5 5 5 5 5 5 5 6 5 5 5 5 6 5 5 5 5 5 5 5 6 5 5 5 5 5 5 6 5 5 5 5 5 5 5 5 5 5 5 5 5 5 5 5 5 6 5 5 5 5 5 5 6 5 5 5 5 5 5 5 5 5 6 5 5 5 5 6 5 5 5 5 5 5 5 5 5 5 6 5 5 5 6 5 5 5 5 5 5 6 5 5 6 5 6 5 5 5 5 5 5 6 5 5 5 6 5 6 5 5 5 5 6 5 5 5 5 5 5 6 5 5 6 5 5 5 5 6 5 5 5 5 6 6 5 5 6 5 5 6 6 5 5 5 5 5 5 5 5 5 5 5 5 6 5 5 5 5 5 5 5 6 5 6 5 5 6 5 6 6 5 5 5 5 6 5 5 5 5 6 5 5 5 5 5 5 5 5 5 5 5 5 5 5 5 5 5 5 5 5 6 5 5 5 5 5 6 5 5 5 5 5 5 5 5 5 5 5 5 5 5 5 5 5 5 6 5 5 6 5 6 5 5 6 5 5 5 5 5 5 5 5 5 5 5 5 5 5 5 5 5 5 5 5 5 5 6 5 5 5 5 5 6 5 5 5 5 6 5 5 5 5 6 5 5 5 5 5 5 5 5 5 5 5 5 5 5 5 6 5 5 5 5 6 5 5 5 6 5 5 5 5 5 5 5 6 5 5 5 5 5 5 5 5 5 5 5 5 5 5 5 5 5 5 5 5 5 5 5 5 5 5 6 5 5 5 5 5 5 6 5 5 5 5 6 5 5 6 5 5 6 5 5 5 5 5 5 5 5 6 5 5 5 5 5 5 6 5 5 5 5 5 5 5 6 5 5 5 5 5 5 5 5 5 5 5 5 5 5 5 5 5 6 5 5 5 6 5 5 5 5 6 5 5 5 5 5 5 5 5 5 5 6 5 5 5 6 5 5 6 5 5 5 5 5 5 5 5 6 5 5 5 6 5 5 6 5 5 5 5 5 5 5 5 5 5 5 5 5 5 5 6 5 5 5 5 6 5 6 5 5 5 5 6 6 5 5 5 5 5 5 6 5 5 5 5 5 5 6 5 6 5 5 6 5 5 5 6 5 5 6 5 5 5 6 5 5 6 5 5 5 5 6 5 5 5 5 5 5 5 5 5 5 5 5 5 5 5 5 5 5 5 5 5 5 5 5 6 5 5 5 5 5 5 5 5 5 5 5 5 5 5 5 5 5 5 5 5 6 5 5 6 5 5 5 5 5 5 5 6 5 5 5 5 5 5 5 6 5 5 5 5 5 5 5 5 5 5 5 5 5 6 5 5 6 5 5 5 5 5 5 5 5 5 5 5 6 5 5 5 5 5 5 5 6 5 5 5 5 5 5 5 6 5 5 5 5 5 5 5 5 5 5 5 6 5 5 5 6 5 5 5 5 5 5 6 5 5 6 5 6 6 5 5 6 5 5 5 6 5 5 5 5 6 5 5 5 5 5 5 5 5 5 6 5 5 5 5 5 5 5 6 5 5 5 6 5 6 5 5 5 5 5 6 5 5 6 5 5 5 5 5 5 5 5 5 5 5 5 6 6 5 5 5 6 5 5 6 6 5 5 5 6 5 5 6 6 5 5 5 5 5 5 5 5 6 6 5 5 6 5 5 5 5 5 5 5 5 5 5 5 6 5 5 6 6 5 5 6 5 5 5 5 5 5 5 5 5 5 5 5 6 5 5 5 5 5 5 5 6 5 5 5 5 6 6 5 5 5 5 6 5 5 5 5 5 5 5 6 6 5 5 5 5 5 6 5 5 5 6 5 5 5 5 5 5 5 5 6 5 5 6 5 5 5 5 5 5 5 5 5 5 5 5 5 5 6 5 5 5 6 5 5 5 5 5 5 5 5 5 5 5 5 5 6 5 5 5 5 5 5 5 5 5 5 5 5 5 6 5 6 6 6 5 5 6 5 5 5 6 5 5 5 5 5 5 5 5 6 5 5 5 5 5 5 5 5 5 5 6 6 5 6 6 5 5 5 5 6 5 6 5 5 5 5 5 5 5 5 5 5 5 5 5 5 5 5 5 5 5 5 5 5 5 5 5 5 5 5 5 5 5 5 6 5 6 5 5 5 5 5 6 5 5 5 5 6 5 5 5 5 5 5 5 6 6 5 5 5 5 5 5 5 6 5 6 6 5 5 5 5 5 5 5 5 5 5 5 5 5 5 5 5 5 5 5 5 5 5 6 5 5 5 6 5 5 5 6 5 5 5 6 5 5 5 5 6 5 5 5 5 6 5 5 5 5 5 6 5 5 5 5 5 6 5 5 5 5 6 6 5 5 5 6 5 5 5 6 5 5 6 5 5 5 5 5 5 6 5 5 5 6 6 5 5 5 5 5 5 5 5 5 5 6 5 5 5 6 5 5 6 5 5 5 5 5 6 5 5 5 5 6 5 5 5 5 5 5 5 5 5 5 5 5 5 5 5 6 5 5 5 6 5 5 5 5 5 5 6 5 5 6 5 6 5 5 5 5 6 5 6 5 5 5 6 6 5 5 6 5 5 5 5 5 6 5 5 6 5 5 5 5 5 5 5 5 5 5 6 5 6 6 5 5 5 5 5 5 5 5 5 5 5 5 5 5 5 5 5 5 5 5 5 5 5 5 6 5 5 5 5 5 5 6 5 5 5 5 5 5 6 6 5 6 5 5 6 5 6 5 6 5 6 5 5 5 6 5 6 5 5 5 5 6 5 5 6 5 6 5 5 5 6 5 5 5 5 5 5 5 5 6 5 5 6 5 5 6 5 5 5 5 5 5 5 5 5 5 5 5 5 5 5 5 6 5 5 5 5 5 5 5 5 5 6 5 5 5 5 5 5 5 5 5 5 5 5 5 5 6 5 5 5 5 5 5 5 5 5 5 5 5 5 5 5 5 5 5 5 5 5 5 5 5 6 5 6 5 5 5 5 5 5 5 6 5 5 5 5 6 5 5 5 5 5 5 6 5 5 6 6 5 5 6 5 5 5 5 5 5 5 5 5 5 5 5 5 5 5 5 5 6 5 5 5 5 5 5 5 6 5 5 6 5 6 6 5 5 5 5 5 5 5 5 5 6 5 5 5 5 5 6 5 5 5 5 5 5 5 5 5 5 5 5 5 6 5 5 5 5 5 5 6 5 5 6 5 5 5 5 5 6 5 5 5 5 5 5 5 5 5 5 6 5 5 5 6 5 5 5 6 5 5 5 5 5 5 5 5 5 5 5 5 5 5 5 5 6 5 6 5 5 5 6 5 5 5 5 5 5 5 5 5 5 5 5 6 5 5 6 5 5 5 6 5 5 5 5 5 5 5 5 5 5 6 5 5 5 6 6 5 5 5 5 6 6 5 5 5 5 5 5 5 5 6 5 5 5 5 5 5 5 5 5 5 5 5 5 5 5 5 5 6 5 5 5 5 5 5 5 5 5 5 5 6 5 5 5 6 6 5 5 5 5 5 5 5 6 5 5 5 5 5 6 5 5 5 5 5 5 5 5 5 5 5 5 5 5 5 5 5 5 5 5 5 5 5 5 5 5 5 5 5 5 5 5 5 5 5 5 6 5 5 5 5 5 6 5 5 5 6 5 5 5 5 5 5 5 6 6 6 5 5 6 6 5 5 6 6 6 5 5 5 5 5 5 5 5 5 5 5 5 5 5 5 5 5 6 5 5 5 5 5 5 5 6 5 5 5 5 5 5 5 5 5 5 6 6 6 6 6 5 6 5 5 5 5 5 6 5 5 5 5 5 5 5 5 5 5 5 5 5 5 5 5 5 5 6 5 5 6 5 5 5 5 5 5 5 6 5 5 5 5 5 5 5 5 5 6 5 5 6 5 5 5 5 5 5 5 5 5 5 5 5 5 5 5 5 5 6 5 5 5 5 6 5 5 5 5 5 5 5 5 5 5 5 6 5 5 5 5 5 5 5 6 5 5 6 6 5 5 6 5 5 5 5 6 6 5 5 5 5 5 5 5 6 6 5 6 5 5 5 5 6 5 5 6 5 5 6 6 5 6 6 5 5 5 6 5 6 5 5 5 5 5 5 5 5 5 5 5 5 5 6 5 6 5 5 5 6 5 6 5 5 5 6 5 5 5 6 5 5 5 5 5 5 5 5 5 5 5 5 5 5 5 5 6 5 5 5 5 6 5 5 5 6 5 5 5 6 5 6 5 5 5 5 6 5 5 5 5 5 5 5 5 5 5 6 5 6 6 5 5 5 5 6 5 6 6 5 5 5 5 5 5 6 5 5 6 6 6 5 5 5 6 5 6 5 5 5 5 5 5 5 6 5 5 5 6 5 5 5 5 5 5 6 5 5 6 5 5 5 5 5 5 5 5 5 6 5 6 5 6 6 6 5 5 5 6 5 5 5 5 5 5 5 5 5 5 6 5 5 5 5 5 5 5 5 5 6 5 5 5 5 5 5 5 5 5 5 5 6 5 5 5 5 5 5 5 6 5 5 6 5 5 6 5 6 5 5 5 6 5 5 5 5 5 5 5 5 5 5 5 5 5 5 5 5 5 5 5 5 5 5 5 5 5 6 5 5 5 5 5 6 5 5 6 5 5 5 5 5 5 5 5 5 5 5 5 6 5 6 5 6 5 5 5 5 5 5 5 5 5 5 5 5 5 5 5 5 5 5 5 5 5 5 5 5 6 5 5 5 5 5 5 5 5 5 5 5 5 5 5 5 5 6 5 5 6 6 5 5 5 5 5 5 5 5 6 5 6 5 5 5 6 5 5 5 5 5 6 5 5 5 6 6 5 5 6 5 5 5 5 5 5 5 5 5 5 5 5 5 5 5 5 5 5 5 5 5 5 5 5 5 5 5 5 5 5 5 5 5 5 6 5 5 5 5 6 6 5 5 5 5 5 5 5 5 5 6 5 5 5 5 5 5 5 5 5 5 5 5 6 5 5 5 6 6 5 5 5 5 6 5 5 5 5 5 5 5 6 5 5 6 5 5 5 6 6 5 5 5 5 6 6 5 5 5 5 6 5 6 5 5 5 6 5 6 5 5 6 6 5 5 5 5 5 5 5 5 5 5 5 5 5 5 5 5 5 5 5 5 5 5 5 5 5 5 5 5 5 6 5 5 5 5 5 5 5 5 5 6 5 5 5 5 5 5 5 5 5 6 5 5 5 5 5 5 5 5 6 5 5 5 5 6 5 5 5 5 5 5 6 6 6 5 5 5 6 5 5 5 6 5 5 5 5 6 5 5 5 6 5 5 6 5 5 5 5 5 5 5 5 5 5 6 5 5 5 5 5 5 6 5 6 5 5 5 5 6 5 5 5 5 5 6 5 5 5 5 5 6 5 5 5 5 6 5 5 5 5 5 5 5 6 5 5 5 5 5 5 5 5 5 5 5 5 5 5 5 5 5 5 5 5 5 5 6 5 5 5 6 5 5 5 5 5 5 6 5 5 5 5 6 5 5 5 5 6 5 5 6 5 5 5 5 5 5 5 5 5 5 5 5 5 5 5 5 5 5 5 5 5 5 6 5 5 5 6 5 5 6 5 6 5 5 5 5 5 5 5 6 5 5 6 5 5 5 5 5 5 5 5 5 5 5 5 5 5 6 5 5 5 5 5 5 5 6 5 6 5 5 5 5 5 5 5 5 5 6 5 5 5 6 5 6 6 5 5 6 5 5 5 5 5 5 5 6 5 5 5 5 5 5 5 5 5 5 5 5 5 5 5 5 5 6 5 5 5 5 5 6 6 5 6 5 5 5 5 5 5 5 5 5 6 5 5 6 5 5 5 5 5 6 5 6 5 5 6 5 6 5 5 5 6 5 5 6 5 5 5 6 5 5 5 5 6 6 5 5 5 5 6 5 6 6 5 5 5 5 5 5 6 5 5 5 5 5 6 6 5 5 5 5 6 5 5 5 5 6 5 5 5 5 5 5 5 5 5 5 5 5 5 5 5 6 5 5 5 5 5 5 6 5 6 5 5 5 5 5 5 6 5 5 5 5 5 6 5 5 5 5 5 5 5 5 5 5 5 6 5 5 5 5 5 5 5 6 5 6 5 5 5 5 5 5 5 5 6 5 5 5 5 5 5 5 5 5 5 5 6 5 5 5 6 5 5 6 5 5 5 5 5 5 5 5 5 5 5 6 5 5 5 5 6 5 5 5 5 5 5 6 5 5 5 5 5 5 5 5 5 5 5 5 5 5 5 5 5 6 5 5 5 5 5 5 5 5 5 5 5 5 5 5 5 5 5 5 5 5 6 5 5 6 5 5 5 6 5 5 5 5 5 5 5 5 5 5 5 5 5 5 5 5 5 5 6 5 5 5 5 5 5 5 6 5 5 5 5 5 5 5 5 5 5 5 5 5 5 5 5 5 5 5 5 5 5 5 5 5 5 5 5 5 5 5 5 5 5 5 5 5 5 5 5 5 5 5 5 5 5 5 5 5 5 5 5 5 5 5 5 5 5 5 5 5 5 5 5 5 5 5 5 6 5 5 5 5 5 5 5 6 5 5 5 5 5 6 5 5 5 5 5 5 5 5 5 5 5 5 5 6 5 6 5 6 5 5 5 5 5 5 5 6 5 5 6 5 5 5 5 6 5 5 5 5 6 5 5 5 5 5 5 6 5 5 5 5 6 5 5 5 5 5 5 5 6 5 5 6 5 5 5 5 5 5 5 5 5 5 5 5 5 6 5 5 5 5 5 6 5 5 5 5 5 5 5 5 5 5 6 5 5 6 5 5 5 5 5 6 5 6 5 5 5 5 6 5 5 6 5 5 5 5 5 5 5 5 5 5 5 5 5 5 5 5 5 5 5 5 6 5 5 5 5 6 6 5 5 5 6 5 5 5 5 5 5 5 5 5 5 5 5 5 5 5 5 6 5 5 5 5 5 5 6 5 5 5 5 5 5 6 5 5 5 5 5 6 5 5 5 5 5 5 5 5 5 5 5 5 5 5 6 5 5 5 5 5 5 5 5 5 5 5 5 5 5 5 5 5 5 6 5 6 5 5 5 5 5 6 5 5 6 5 6 5 5 5 5 6 6 5 5 5 6 5 5 5 6 6 6 5 5 6 5 5 5 5 6 5 5 6 5 5 6 5 6 6 5 5 5 5 6 5 5 5 5 5 5 5 5 5 5 5 5 5 5 5 5 5 5 5 5 5 5 5 5 5 5 5 5 5 5 6 5 6 5 5 5 5 5 5 5 5 5 5 5 5 5 5 5 5 5 5 5 5 6 5 5 5 5 5 5 5 5 5 5 5 5 5 5 5 5 5 5 5 5 5 5 6 6 5 5 6 5 5 5 5 5 5 5 5 5 5 5 5 5 5 5 5 5 5 5 6 5 6 5 5 5 6 5 5 6 5 5 6 6 6 5 5 5 5 5 5 5 5 5 5 5 5 5 5 5 5 5 6 5 5 5 5 5 5 5 5 5 5 5 5 5 5 5 6 6 5 5 5 5 5 5 5 5 5 5 5 5 5 5 5 5 5 5 5 5 5 5 5 5 5 5 5 5 5 5 5 6 5 5 5 5 5 5 5 5 5 5 5 5 5 5 5 5 5 5 5 5 5 5 5 5 5 5 5 5 5 5 5 5 5 5 6 5 6 5 5 6 5 5 5 6 6 5 6 6 5 5 5 6 5 5 5 5 5 5 5 5 5 5 5 5 5 5 5 5 5 5 5 5 5 5 5 5 5 5 5 5 5 5 5 5 5 5 5 5 5 5 5 5 5 5 5 5 5 5 5 5 5 5 5 5 5 5 5 5 5 5 5 5 5 5 5 5 5 5 5 5 5 5 5 5 5 5 5 5 5 5 5 5 5 5 5 5 5 5 6 6 5 5 5 5 5 5 5 5 5 5 5 6 5 5 5 5 5 6 5 6 5 5 5 5 5 5 5 6 5 5 5 5 5 5 6 5 5 5 5 5 5 5 5 5 5 5 5 5 5 5 5 6 5 5 5 6 5 5 5 5 5 5 5 5 5 5 6 5 5 5 5 5 5 6 5 5 5 5 5 5 5 5 5 5 5 5 6 5 5 5 6 5 5 5 5 5 5 5 5 5 5 6 5 5 5 5 5 5 5 5 5 5 5 6 5 5 5 6 5 6 5 5 6 6 5 6 6 5 5 5 5 5 6 5 5 5 5 5 5 5 5 5 5 5 5 5 5 5 5 5 5 5 5 5 5 5 5 5 5 5 5 5 5 5 5 5 5 5 5 5 5 5 5 5 5 5 5 5 5 5 5 6 5 5 6 5 6 5 5 5 5 5 6 5 5 5 5 5 5 6 5 5 5 5 5 6 5 5 5 5 5 5 6 5 5 5 5 5 5 5 5 6 5 5 5 5 5 5 6 5 5 5 5 5 5 5 5 6 5 5 5 5 6 5 6 5 5 6 5 5 5 5 5 5 5 5 5 6 5 6 5 5 5 5 6 5 5 5 5 5 5 5 5 5 5 5 5 5 5 5 5 5 5 5 6 5 5 5 6 5 5 6 5 6 5 5 5 5 6 5 5 5 5 5 5 6 5 6 5 5 6 5 6 5 5 5 5 5 5 5 5 5 5 5 5 6 5 6 5 5 6 5 6 5 5 5 6 5 5 6 5 5 6 5 5 5 6 5 5 5 6 5 5 6 6 5 6 5 6 5 5 6 5 5 5 5 6 5 6 6 5 5 5 5 5 5 5 5 5 5 5 5 5 6 5 5 5 5 5 5 5 6 5 5 5 6 5 5 5 5 5 5 5 5 5 5 6 6 5 5 6 5 6 5 5 5 5 5 6 5 6 5 5 5 5 5 5 6 6 5 5 5 5 5 5 6 5 5 5 5 5 5 5 5 5 5 5 5 5 5 5 5 6 5 6 5 5 5 5 6 5 5 6 5 6 6 5 5 6 5 5 5 5 5 6 6 5 5 5 5 6 5 5 5 5 6 5 5 5 5 6 6 5 5 5 6 5 5 6 5 5 5 5 5 5 5 6 5 5 5 6 6 5 5 5 5 5 5 5 5 5 5 5 5 5 5 5 5 6 5 5 5 5 5 5 5 5 6 5 5 6 5 5 5 6 5 5 5 6 5 5 5 5 5 6 5 5 6 5 6 5 5 5 5 5 6 5 5 5 5 5 5 5 5 5 5 5 5 5 5 5 5 5 5 5 5 5 5 5 5 5 5 5 5 5 5 5 5 5 5 5 5 5 5 5 5 5 5 6 5 5 5 5 5 5 5 5 5 5 5 5 5 5 5 5 5 5 5 6 6 5 5 5 5 6 5 6 6 5 5 5 5 5 5 5 5 5 5 5 5 6 5 5 6 5 5 6 5 5 5 5 6 5 5 5 5 6 6 5 5 5 5 5 5 5 5 5 5 5 5 5 5 5 5 5 5 5 5 5 5 6 6 5 6 5 5 5 5 5 5 6 5 5 5 6 5 5 6 5 6 6 5 5 6 5 5 6 6 5 5 5 5 5 5 5 5 5 5 6 5 5 5 5 5 5 5 5 6 5 5 5 5 5 5 5 5 6 5 5 5 5 5 5 5 5 5 6 5 5 5 5 5 5 6 5 6 5 5 5 5 6 5 5 5 5 5 5 5 6 6 5 5 5 6 5 6 6 5 5 5 5 5 6 6 5 5 5 5 5 5 5 6 6 5 5 5 5 5 5 5 5 5 5 5 5 5 5 5 5 5 5 5 5 5 5 5 5 5 5 6 5 5 5 5 5 5 5 5 5 5 5 5 5 5 6 5 5 5 5 5 5 5 5 5 5 5 5 5 5 5 5 5 5 5 5 5 5 5 5 6 5 6 5 6 5 5 5 5 5 5 5 5 5 6 6 5 5 5 5 5 6 5 5 5 5 5 5 5 6 5 5 6 5 5 6 5 5 6 6 5 6 5 6 5 5 5 5 5 5 5 5 5 5 5 5 5 5 5 5 6 5 6 5 5 5 6 5 5 5 5 5 5 5 5 5 5 5 5 5 5 5 5 5 5 5 5 5 5 5 5 5 5 6 5 5 5 5 5 6 5 5 5 5 5 6 5 5 6 5 5 5 5 5 5 5 5 6 6 6 5 6 5 5 5 6 5 6 5 5 5 5 5 5 5 5 5 6 5 
</DataArray>
<DataArray type="Float64" Name="stress" NumberOfComponents="9" format="ascii">
-0.9746888609843154 1392.7805060101091 0 1392.7805060101091 -646.63214621116276 0 0 0 0 -1.9495014287164083 5.0936171978413824 0 5.0936171978413824 -1.522857961108059 0 0 0 0 -2352.192887039113 2145.3636375845053 0 2145.3636375845053 2.397338628694035 0 0 0 0 311.8221537810465 1271.4996150044374 0 1271.4996150044374 -1539.6410506020256 0 0 0 0 -1.7562701664438602 5.1626884800843555 0 5.1626884800843555 -1.5160437136975986 0 0 0 0 -728.00349565362558 1382.4882876453157 0 1382.4882876453157 -1277.6936407774592 0 0 0 0 -182.18761793064186 848.75181586011604 0 848.75181586011604 -2216.0665906647264 0 0 0 0 -1863.6486596635441 2077.6107519390644 0 2077.6107519390644 -1366.5762354368526 0 0 0 0 -2382.1344710137855 904.65134304088133 0 904.65134304088133 -1338.7077875018549 0 0 0 0 -687.37651728100172 1239.2264244819344 0 1239.2264244819344 -2397.6870281117735 0 0 0 0 -2580.1839535879512 1646.2430562308766 0 1646.2430562308766 -504.97964746795333 0 0 0 0 -990.30498297770828 1186.9863111934683 0 1186.9863111934683 -516.48450274957577 0 0 0 0 -1434.4512126185437 1719.1314479919092 0 1719.1314479919092 -631.56989492946013 0 0 0 0 -1782.0895400684167 1806.2879703981935 0 1806.2879703981935 -34.161024184279086 0 0 0 0 -1495.9141593034728 925.22779780771089 0 925.22779780771089 -26.149278758326545 0 0 0 0 542.16997751560871 1103.3443256484595 0 1103.3443256484595 -308.76259347808082 0 0 0 0 -948.85150486083876 1674.2922057636824 0 1674.2922057636824 0.71116627088485984 0 0 0 0 -1375.1925991001663 1344.6248660004221 0 1344.6248660004221 114.15981688993634 0 0 0 0 -1757.1067831348118 1736.4424736374822 0 1736.4424736374822 -0.04670250158413701 0 0 0 0 -4.0175133389929272 3.9516289690175057 0 3.9516289690175057 -2.2168588871261647 0 0 0 0 -852.05898074235301 1396.1162031300009 0 1396.1162031300009 -0.067864315144891552 0 0 0 0 -1097.4595352070905 -371.63074617419124 0 -371.63074617419124 33.746888213325292 0 0 0 0 -2768.5396185198206 1202.7128064734925 0 1202.7128064734925 249.7980573005043 0 0 0 0 -1256.5014514813884 871.6526780854656 0 871.6526780854656 273.47759091316766 0 0 0 0 102.32791238180653 53.186825486684029 0 53.186825486684029 52.76480040763272 0 0 0 0 77.375158871029271 110.42549848677663 0 110.42549848677663 -77.202493052842328 0 0 0 0 162.19563947046845 113.21683113423933 0 113.21683113423933 0.093954788485433718 0 0 0 0 -5.9236445818891639 4.8650461288329083 0 4.8650461288329083 -4.9849140410886719 0 0 0 0 -445.07602890433918 -180.61308341555559 0 -180.61308341555559 81.010798893174069 0 0 0 0 99.511252864802373 230.24775082651104 0 230.24775082651104 82.774827432096572 0 0 0 0 -408.05738330613531 288.31240239648469 0 288.31240239648469 18.801322308318049 0 0 0 0 -14.429697884991782 14.107343415504495 0 14.107343415504495 -12.59901303464261 0 0 0 0 -1282.9814255992387 6.8607658790970163 0 6.8607658790970163 218.84025026457675 0 0 0 0 -434.4575805084387 330.24766246986474 0 330.24766246986474 -345.20758871172438 0 0 0 0 111.08686464059792 64.797314332890892 0 64.797314332890892 -89.71598462734255 0 0 0 0 -25.755995158076985 -116.71679464355475 0 -116.71679464355475 -19.101307335861748 0 0 0 0 166.21415835875086 444.57764262830096 0 444.57764262830096 -569.63789035165973 0 0 0 0 -2.0102249865966755 3.1682262971859956 0 3.1682262971859956 -2.7159273913068773 0 0 0 0 416.94849966138827 724.00103714986835 0 724.00103714986835 -553.17623102087236 0 0 0 0 -42.793226783716818 187.73213671934354 0 187.73213671934354 -276.78777015433297 0 0 0 0 -725.64043358291383 1273.4135913740029 0 1273.4135913740029 -1105.8283595366374 0 0 0 0 257.8626004656835 36.961270606101607 0 36.961270606101607 -990.12830783999152 0 0 0 0 -52.329496665392071 57.15189924968945 0 57.15189924968945 116.89571470511146 0 0 0 0 -471.68188465720596 125.01750404975246 0 125.01750404975246 121.77653491606907 0 0 0 0 -111.48907050288835 318.75515150629508 0 318.75515150629508 213.36376317476788 0 0 0 0 26.745950959175389 12.750260628747128 0 12.750260628747128 145.14612390162074 0 0 0 0 385.45275828881131 81.595239832291554 0 81.595239832291554 -90.651196747683571 0 0 0 0 -127.06033001519972 139.94777556165718 0 139.94777556165718 220.89107292601693 0 0 0 0 1.0634802128483898 6.1912912268612246 0 6.1912912268612246 -8.8279360599655501 0 0 0 0 155.94927077803004 134.69765610972536 0 134.69765610972536 -71.726208965310434 0 0 0 0 -42.005876347172318 26.072650927501492 0 26.072650927501492 -15.772797469110799 0 0 0 0 -89.31614521586198 -19.605248573307108 0 -19.605248573307108 35.168271039467072 0 0 0 0 -114.29029568697842 -91.302891326880854 0 -91.302891326880854 106.09242012088362 0 0 0 0 -83.003027174439922 -65.193720811344974 0 -65.193720811344974 -29.480327107477933 0 0 0 0 -71.401246409281157 -181.78380706769531 0 -181.78380706769531 -165.71224066703144 0 0 0 0 -11.091067379274619 12.092479767008655 0 12.092479767008655 -10.403384166517386 0 0 0 0 -40.10691902014571 34.644123320671874 0 34.644123320671874 -14.077088809404046 0 0 0 0 -150.08063638055319 62.0530248721916 0 62.0530248721916 424.46211616764776 0 0 0 0 44.775613925332436 130.20971411372739 0 130.20971411372739 -66.239338830662973 0 0 0 0 55.696332492458168 -108.36479724168748 0 -108.36479724168748 70.456414553234936 0 0 0 0 -352.4914705632691 16.745050321856979 0 16.745050321856979 196.96766260304139 0 0 0 0 -33.947283561719814 121.77457244996913 0 121.77457244996913 -386.49555104697356 0 0 0 0 -3.9850369192987785 0.43673098961278356 0 0.43673098961278356 0.11386106344075042 0 0 0 0 -167.10301679987606 -104.71013581933948 0 -104.71013581933948 317.38059835867898 0 0 0 0 101.12256151207839 -106.2518105115596 0 -106.2518105115596 -223.64975384514401 0 0 0 0 -679.81357936453423 409.14287435500592 0 409.14287435500592 106.49405697501788 0 0 0 0 -269.49764088385564 46.615510795279988 0 46.615510795279988 110.580233587767 0 0 0 0 -1.3577541305212719 2.0988447484433514 0 2.0988447484433514 7.2900501421982682 0 0 0 0 -33.217181587689112 31.24301222309515 0 31.24301222309515 9.2761732999343565 0 0 0 0 -15.750306788024318 127.98458972864137 0 127.98458972864137 -64.319697142360383 0 0 0 0 -97.516355151121388 -9.1006557077053003 0 -9.1006557077053003 54.705006944135675 0 0 0 0 8.5183161214808933 123.58897708182121 0 123.58897708182121 -27.956562638042669 0 0 0 0 -48.834081390952633 30.519383655751881 0 30.519383655751881 133.51976323279087 0 0 0 0 21.686068844705005 97.348083256443715 0 97.348083256443715 -104.98426759548602 0 0 0 0 17.299640263818588 13.827479949772211 0 13.827479949772211 -2.4168845260815317 0 0 0 0 -16.077424362592865 76.920496884034947 0 76.920496884034947 -115.25212680761615 0 0 0 0 -48.634118235495407 108.43473957902825 0 108.43473957902825 -130.33588216395219 0 0 0 0 -71.634428462210053 104.10238853962801 0 104.10238853962801 -72.001038954564137 0 0 0 0 30.337602917592449 199.2881356462276 0 199.2881356462276 -224.49105561540637 0 0 0 0 -129.66147279797588 28.652357539027435 0 28.652357539027435 -95.705488396415603 0 0 0 0 11.730155897444888 4.2926053082530871 0 4.2926053082530871 1.8490429301404845 0 0 0 0 -107.71152827542392 -24.112822508206591 0 -24.112822508206591 354.51603811767927 0 0 0 0 -4.847395471733762 -29.367831106883386 0 -29.367831106883386 -33.267285882000579 0 0 0 0 74.114924986330152 69.166443817743129 0 69.166443817743129 -99.069614538413589 0 0 0 0 -122.5732318671362 179.84888348410095 0 179.84888348410095 -100.09696459014975 0 0 0 0 -78.163094170682598 -71.044283742823609 0 -71.044283742823609 -215.05804590671323 0 0 0 0 8.7103156693920027 200.16279368522373 0 200.16279368522373 -42.792304152892029 0 0 0 0 -54.163255041353295 -133.88534709384476 0 -133.88534709384476 520.24488519674196 0 0 0 0 -109.83108746862854 350.56456040912963 0 350.56456040912963 25.728011839910323 0 0 0 0 60.079377572998055 196.41308198600746 0 196.41308198600746 -452.95436825068828 0 0 0 0 3.8789490951915013 1.2684256082299754 0 1.2684256082299754 0.39240215254454114 0 0 0 0 -201.28734834154602 139.19758832806474 0 139.19758832806474 93.5371145961617 0 0 0 0 -637.88477491997764 703.14391532388618 0 703.14391532388618 -196.13486977931643 0 0 0 0 -202.05935797312122 186.01630342931458 0 186.01630342931458 19.044267716897593 0 0 0 0 -1.174207996664336 725.06360341833897 0 725.06360341833897 -588.07298414143361 0 0 0 0 -226.78176850421005 359.59566726502271 0 359.59566726502271 -1138.1427529191642 0 0 0 0 -585.49243806797313 936.20709454257303 0 936.20709454257303 -633.50123707902731 0 0 0 0 -0.50601036184021164 1068.8705517996614 0 1068.8705517996614 -986.97731241240399 0 0 0 0 -513.74976993377277 771.09673198232667 0 771.09673198232667 -334.78595633514487 0 0 0 0 -1305.3134821069543 1146.1860691930269 0 1146.1860691930269 -352.69643870408618 0 0 0 0 -375.82378568330023 1473.3316029084999 0 1473.3316029084999 -1381.062519416977 0 0 0 0 -2373.7196474571101 1611.6737191454995 0 1611.6737191454995 -697.88379798715323 0 0 0 0 -927.62174073467031 761.6613354676665 0 761.6613354676665 -302.8824763041921 0 0 0 0 -1434.1447485288081 364.8993516790797 0 364.8993516790797 164.52404023645795 0 0 0 0 -16.325747005810513 10.721009352393757 0 10.721009352393757 -7.6911383864564868 0 0 0 0 260.84609361078765 -244.13728606559744 0 -244.13728606559744 -237.48154316986984 0 0 0 0 -1174.7071903851756 497.59504403408937 0 497.59504403408937 -549.69182516835281 0 0 0 0 -167.53055529995981 -77.398461388076612 0 -77.398461388076612 364.25884434452746 0 0 0 0 -0.96969017596097729 -2.4644856514465658 0 -2.4644856514465658 1.0947013465023065 0 0 0 0 -137.84092182015229 403.81255822405728 0 403.81255822405728 -6.9831168375603738 0 0 0 0 123.96177451517178 260.01101336563624 0 260.01101336563624 2.2294768635983928 0 0 0 0 57.871417849055433 193.5304847490188 0 193.5304847490188 -6.9766601743303909 0 0 0 0 170.33385691932307 212.03363196817179 0 212.03363196817179 68.395623152115149 0 0 0 0 -14.071668284635962 279.15662222520405 0 279.15662222520405 -9.3554576922251727 0 0 0 0 170.07583880581655 343.14465026807818 0 343.14465026807818 -50.721510347553703 0 0 0 0 -20.12789124379924 230.51328829291015 0 230.51328829291015 83.261783430374635 0 0 0 0 239.37606123815203 325.14970105955581 0 325.14970105955581 -0.10354948139865883 0 0 0 0 361.69095202781864 135.01146418314966 0 135.01146418314966 92.045884327671956 0 0 0 0 599.16074787147227 18.884921299875714 0 18.884921299875714 27.947974280043127 0 0 0 0 507.08252503909898 264.63308643511118 0 264.63308643511118 -6.3556948806945002 0 0 0 0 696.92997906687742 263.65172935742521 0 263.65172935742521 0.28177678747306345 0 0 0 0 1317.3414133472907 -16.706189166332479 0 -16.706189166332479 -77.254614418539859 0 0 0 0 0.92403305800472424 -0.37750601440603759 0 -0.37750601440603759 2.0790069666571185 0 0 0 0 745.45458433866952 28.821596264511754 0 28.821596264511754 -26.453834716605343 0 0 0 0 1.6399412273714518 2.4204406829048537 0 2.4204406829048537 5.1296312546843978 0 0 0 0 372.48128649608225 42.60704992986939 0 42.60704992986939 18.681762666994473 0 0 0 0 441.73723361595694 133.56302572528148 0 133.56302572528148 -32.948560022836318 0 0 0 0 511.52000091964146 29.382354377012234 0 29.382354377012234 -19.266716484093195 0 0 0 0 381.38784221876995 64.007656115289137 0 64.007656115289137 18.19510480284589 0 0 0 0 1.9015680264575821 5.4615977570709902 0 5.4615977570709902 8.803972931491046 0 0 0 0 7.3227759511137265 26.45646162408957 0 26.45646162408957 7.5397683961055009 0 0 0 0 1.4216034906774127 6.2281013953843001 0 6.2281013953843001 -5.2973532744257454 0 0 0 0 -24.699620401726861 38.433540395802993 0 38.433540395802993 12.165661577493438 0 0 0 0 -47.656599151374394 -15.209496656512783 0 -15.209496656512783 -9.805858642255771 0 0 0 0 -112.78103322154129 -65.536132332115812 0 -65.536132332115812 7.4391867572412593 0 0 0 0 -1.3388688359732583 1.9100535252101523 0 1.9100535252101523 -4.1896342706121175 0 0 0 0 12.952889463143947 5.3210840794272372 0 5.3210840794272372 2.7794189517962877 0 0 0 0 -20.568566423562515 23.278013520980494 0 23.278013520980494 6.2179835783608723 0 0 0 0 -25.844046994831842 15.177855853682559 0 15.177855853682559 0.0078148262182367034 0 0 0 0 3.2833048724060063 1.8441609430301469 0 1.8441609430301469 0.39445255421742331 0 0 0 0 -0.64589746851561358 19.889994669898442 0 19.889994669898442 -0.17880705067364033 0 0 0 0 20.177450670143116 33.347353148099501 0 33.347353148099501 17.850961772419396 0 0 0 0 24.278519725579827 1.6460943607016816 0 1.6460943607016816 12.056527083317633 0 0 0 0 -344.21787135878549 -137.3753107897428 0 -137.3753107897428 8.113841914344448 0 0 0 0 -56.615022912053973 5.5010789241932798 0 5.5010789241932798 -56.403336917908746 0 0 0 0 -12.38893265232764 15.407205405637797 0 15.407205405637797 -0.01026516265119426 0 0 0 0 34.413936833921071 52.684454800585627 0 52.684454800585627 12.566562659994815 0 0 0 0 0.81590367122279872 0.19973759829400706 0 0.19973759829400706 -2.5523077674454271 0 0 0 0 -272.11526318697724 81.001519124387414 0 81.001519124387414 15.338322578412772 0 0 0 0 -97.24760304002848 80.901195323269349 0 80.901195323269349 -0.085492715043073986 0 0 0 0 -237.47304695868843 -60.278771385482287 0 -60.278771385482287 -142.19840978708817 0 0 0 0 -272.67511201502384 129.08158308893326 0 129.08158308893326 -8.1685349459876306 0 0 0 0 101.84062926842364 111.97604872018098 0 111.97604872018098 -4.9554763618361903 0 0 0 0 -146.90238480672997 22.829175224818755 0 22.829175224818755 20.009554075473716 0 0 0 0 -101.28463971753808 27.267032611576724 0 27.267032611576724 104.53416026152263 0 0 0 0 -30.786048394758836 25.655407542288231 0 25.655407542288231 65.199349349888507 0 0 0 0 54.97429488941998 157.68215435539605 0 157.68215435539605 92.422364452710553 0 0 0 0 -19.558506085225986 18.854417289749023 0 18.854417289749023 -18.060042156612809 0 0 0 0 61.935809662427346 130.44864317882093 0 130.44864317882093 68.67111630346335 0 0 0 0 43.188485743492492 37.33745381431072 0 37.33745381431072 -93.201479138733703 0 0 0 0 22.386591498019698 49.835585112137778 0 49.835585112137778 -32.966399162309244 0 0 0 0 90.404049645076157 -28.024247782333987 0 -28.024247782333987 -19.334752661321545 0 0 0 0 -23.068452619954769 62.419262286995945 0 62.419262286995945 -3.875732159067411 0 0 0 0 179.6477400859585 20.956809959752718 0 20.956809959752718 -341.10189791189623 0 0 0 0 80.455564776388201 128.26250334389988 0 128.26250334389988 -118.64591877067869 0 0 0 0 19.82991061413486 88.873161752926535 0 88.873161752926535 50.493273940999643 0 0 0 0 -17.063636726589834 23.183556142887831 0 23.183556142887831 -19.21127235281466 0 0 0 0 -3.3897431008298753 6.2139364170089806 0 6.2139364170089806 2.8510973350821587 0 0 0 0 12.537644116877345 22.171007824079425 0 22.171007824079425 40.762539543677121 0 0 0 0 58.612535275075061 68.309644931208823 0 68.309644931208823 22.628171703370754 0 0 0 0 27.737598664981078 32.289580251789573 0 32.289580251789573 -21.896285510423517 0 0 0 0 -34.329125598510757 29.476415183574389 0 29.476415183574389 11.048432215561377 0 0 0 0 12.023558498796774 8.9694401523011038 0 8.9694401523011038 55.453700448924792 0 0 0 0 94.477321912476327 -153.56335396855138 0 -153.56335396855138 97.082678370559734 0 0 0 0 -35.787441771099111 74.1287976769745 0 74.1287976769745 3.8503867690487823 0 0 0 0 -138.94343334808218 241.55445791128295 0 241.55445791128295 -179.68420677728136 0 0 0 0 99.995895760279382 31.517858478167909 0 31.517858478167909 -28.655306950160593 0 0 0 0 376.75372178680846 11.337983898032689 0 11.337983898032689 -319.17965497610567 0 0 0 0 -64.441043170780176 125.41707666116417 0 125.41707666116417 -65.894506354103214 0 0 0 0 -25.280819032806903 24.466828235381399 0 24.466828235381399 -123.36584119119652 0 0 0 0 -15.680157742070151 60.808366854318592 0 60.808366854318592 -120.45253083201533 0 0 0 0 -91.740458072388719 72.689694778042394 0 72.689694778042394 -105.49456299663143 0 0 0 0 -19.180653306955719 72.964017130289449 0 72.964017130289449 -43.526987108096364 0 0 0 0 46.121759240610118 40.935544655032572 0 40.935544655032572 -100.22652086296512 0 0 0 0 99.163760873379942 43.764913705170329 0 43.764913705170329 -34.692506707055145 0 0 0 0 1.0363281773497874 89.950239744644932 0 89.950239744644932 -62.671591229751357 0 0 0 0 -15.062834694630993 41.762390230076093 0 41.762390230076093 -51.645567010511826 0 0 0 0 85.01738215358273 11.954241993273172 0 11.954241993273172 -23.421330500335898 0 0 0 0 208.9159579416737 129.52241788808897 0 129.52241788808897 -356.25824907171773 0 0 0 0 -23.728647657068421 45.832389543580994 0 45.832389543580994 -67.35987221077994 0 0 0 0 147.42588542099111 52.989164322749275 0 52.989164322749275 2.8499858720606426 0 0 0 0 -0.93042172233715092 -0.81918467555119889 0 -0.81918467555119889 -2.6658265379467707 0 0 0 0 169.80757268057641 182.77605525480612 0 182.77605525480612 -178.64316318424949 0 0 0 0 -98.49040619830339 114.4055185697689 0 114.4055185697689 -97.313715890493768 0 0 0 0 34.416294837159512 -138.76482722234869 0 -138.76482722234869 -705.248061918639 0 0 0 0 180.16465586090271 60.841805144074897 0 60.841805144074897 -17.157199794091866 0 0 0 0 -0.73793506642749662 10.772801418534712 0 10.772801418534712 -14.447417357293602 0 0 0 0 127.494463018018 9.7593650604958384 0 9.7593650604958384 -35.577560148449265 0 0 0 0 5.8989606542358786 18.244972435661182 0 18.244972435661182 3.2508693749749682 0 0 0 0 37.187132105103956 246.95013040586855 0 246.95013040586855 77.845923431101255 0 0 0 0 14.953142075100345 12.786045670013614 0 12.786045670013614 -28.926379148377606 0 0 0 0 46.459906608361052 9.6840065881769988 0 9.6840065881769988 -22.30382547967929 0 0 0 0 1.9623196854417984 14.821970840827817 0 14.821970840827817 -39.593620516883675 0 0 0 0 53.968804413249018 61.769138578791171 0 61.769138578791171 -27.812407735778834 0 0 0 0 0.17118192579573588 4.9659673226257439 0 4.9659673226257439 -9.3711309325263841 0 0 0 0 14.841150196618401 86.602873903088039 0 86.602873903088039 145.89281243266305 0 0 0 0 9.1597208028615569 55.459380398213398 0 55.459380398213398 79.904258147609653 0 0 0 0 41.950261164456606 28.633077771177341 0 28.633077771177341 -16.51543568901252 0 0 0 0 -31.330783522425918 38.204714714142028 0 38.204714714142028 14.541886637161952 0 0 0 0 29.89769521018934 -0.57409105654369341 0 -0.57409105654369341 36.966782234958373 0 0 0 0 4.9924109553728044 12.634282374074303 0 12.634282374074303 3.3726203790132558 0 0 0 0 -147.90224085142472 -21.827808363945223 0 -21.827808363945223 52.342527313361643 0 0 0 0 269.26534953709051 -210.69109109212877 0 -210.69109109212877 -272.28806520075159 0 0 0 0 103.40937828626193 116.69417669805989 0 116.69417669805989 69.523728479543934 0 0 0 0 265.58153366829356 101.83542645747366 0 101.83542645747366 191.74360130300192 0 0 0 0 6.8429614843375504 0.390779813750882 0 0.390779813750882 1.0979497048710414 0 0 0 0 683.0173435150391 75.617839402093523 0 75.617839402093523 -33.121351178517216 0 0 0 0 26.793999693898513 169.38419132059789 0 169.38419132059789 37.010253061671392 0 0 0 0 381.7511387730965 64.52638620214293 0 64.52638620214293 -16.589616359618958 0 0 0 0 270.95476633339422 99.752044275955996 0 99.752044275955996 -142.0400709122041 0 0 0 0 150.68458039698453 220.43571574590896 0 220.43571574590896 -54.495979332314164 0 0 0 0 431.6401707224868 174.29616744679515 0 174.29616744679515 -147.99374364697724 0 0 0 0 293.33730082760303 111.85175759826234 0 111.85175759826234 -167.46598673715198 0 0 0 0 348.56129117462842 -124.06010478545068 0 -124.06010478545068 -8.058900331841869 0 0 0 0 129.44182549654579 281.90335896698161 0 281.90335896698161 -249.66116536146728 0 0 0 0 228.98250689697306 120.05149944804361 0 120.05149944804361 -0.91537702815548982 0 0 0 0 -118.85875612440577 287.77066930243018 0 287.77066930243018 39.136140679791424 0 0 0 0 -9.6081499061692739 496.36916962034957 0 496.36916962034957 -133.92958165075106 0 0 0 0 -1.0747068844346188 3.1294074341685771 0 3.1294074341685771 -5.7061715899571936 0 0 0 0 370.52058823078551 582.51223399800801 0 582.51223399800801 -130.59876723941125 0 0 0 0 65.415048966604445 39.450996288551323 0 39.450996288551323 -414.2294981488958 0 0 0 0 246.99508827786485 412.42798373493861 0 412.42798373493861 -110.94407232986123 0 0 0 0 271.67236666416466 390.50300707699535 0 390.50300707699535 -485.12000997086579 0 0 0 0 564.43695896213467 101.24454097662237 0 101.24454097662237 -19.743812279608392 0 0 0 0 -15.468948345583158 358.66596807019596 0 358.66596807019596 -1404.4164334986708 0 0 0 0 -32.684367658992414 400.36471335994793 0 400.36471335994793 -162.26048567023099 0 0 0 0 -1356.784629164722 944.16858428623163 0 944.16858428623163 808.63618036130356 0 0 0 0 -3.3236503743170687 7.45887420534401 0 7.45887420534401 -13.879271985726348 0 0 0 0 -1223.9292281228045 22.325679660811147 0 22.325679660811147 -217.22991533531604 0 0 0 0 -590.90650988232028 1003.0695097597199 0 1003.0695097597199 -584.03430244644551 0 0 0 0 -236.58631810895167 264.29763209934754 0 264.29763209934754 -162.3709078931679 0 0 0 0 -670.0955063582187 585.97808511018593 0 585.97808511018593 -99.879996122399461 0 0 0 0 -283.52318910655958 233.01918399002898 0 233.01918399002898 -65.403168781384011 0 0 0 0 50.474467139341868 176.02974340532819 0 176.02974340532819 -73.426724268614635 0 0 0 0 -120.60555691391164 445.56402578263805 0 445.56402578263805 -65.777817418478662 0 0 0 0 -299.98735519533147 338.79124060595859 0 338.79124060595859 6.8188874830884743 0 0 0 0 -92.244044484061305 100.53476893974585 0 100.53476893974585 -185.72050858772855 0 0 0 0 -86.730882054573158 116.36521626153626 0 116.36521626153626 -144.88991036755033 0 0 0 0 -56.007754368140013 129.23723847905057 0 129.23723847905057 -86.287293339501502 0 0 0 0 -91.308804640546441 106.18193617749421 0 106.18193617749421 -82.491279605121235 0 0 0 0 -85.136807468366897 66.881918725752257 0 66.881918725752257 -148.95536855340106 0 0 0 0 -100.8722596361275 46.724171625613025 0 46.724171625613025 16.164361032864026 0 0 0 0 -112.85043666735874 72.580129058758757 0 72.580129058758757 -90.074979375567636 0 0 0 0 -92.992557355530153 70.360971733771294 0 70.360971733771294 -130.62503051190106 0 0 0 0 -89.93139300675648 85.183095655839679 0 85.183095655839679 -169.5426775765518 0 0 0 0 229.0332526588154 274.06908780009144 0 274.06908780009144 -314.9980740732135 0 0 0 0 -1559.770199596318 591.99063116723846 0 591.99063116723846 -161.03516781212238 0 0 0 0 -1218.775396611215 374.58531207408851 0 374.58531207408851 51.583543040731456 0 0 0 0 -21.922616513889807 -420.00607721631241 0 -420.00607721631241 -244.48562377753842 0 0 0 0 45.152535985645954 848.29364148835521 0 848.29364148835521 -2384.0032069757799 0 0 0 0 -9.361990789982741 6.2962251148514952 0 6.2962251148514952 -0.60294181312742146 0 0 0 0 -931.14663083464256 186.81435231088835 0 186.81435231088835 1831.8541592345791 0 0 0 0 70.332774370781408 8.0688446293170273 0 8.0688446293170273 -1064.0932116375479 0 0 0 0 -879.37843772210181 100.8540946878129 0 100.8540946878129 422.87276545434543 0 0 0 0 -154.47602457607354 470.81108640813363 0 470.81108640813363 -749.57190465649182 0 0 0 0 -190.48022888016567 278.79981332494935 0 278.79981332494935 -472.82125586667826 0 0 0 0 -23.143193637201193 13.929636309661291 0 13.929636309661291 1.7828652288737838 0 0 0 0 9.1591621131374268 336.256477870862 0 336.256477870862 -1107.4343517923508 0 0 0 0 -549.0311595007297 -177.45967886479048 0 -177.45967886479048 965.22066227681353 0 0 0 0 349.49770393392828 596.04991712242918 0 596.04991712242918 -453.20025104423985 0 0 0 0 -156.82364103146574 299.93337353997231 0 299.93337353997231 -758.64806912005588 0 0 0 0 -22.84434266124299 198.89645418873988 0 198.89645418873988 -806.56559842466959 0 0 0 0 -95.207340601146086 49.73097015430173 0 49.73097015430173 14.998608191218935 0 0 0 0 -73.013009023256018 107.61104014260491 0 107.61104014260491 -95.869549671698223 0 0 0 0 -102.0347207200175 88.430008555071254 0 88.430008555071254 -50.96449605404996 0 0 0 0 -97.966999139025575 150.4013838016981 0 150.4013838016981 36.18827912411507 0 0 0 0 -118.91819297595521 151.10200394396315 0 151.10200394396315 209.03755676484434 0 0 0 0 136.98613333224785 336.91602363617494 0 336.91602363617494 400.66364991738146 0 0 0 0 -18.484991649425609 10.38737737162505 0 10.38737737162505 9.2405617068813797 0 0 0 0 -44.161531423931592 262.29292375122168 0 262.29292375122168 412.08016083935127 0 0 0 0 -116.82819649489829 338.29254708314693 0 338.29254708314693 413.68481383164908 0 0 0 0 31.517787084099837 265.40665847019773 0 265.40665847019773 332.33390201506336 0 0 0 0 -28.847440493826269 51.843377587604479 0 51.843377587604479 -75.171015227489534 0 0 0 0 129.29109684555078 240.33314785317543 0 240.33314785317543 -1235.3263732235864 0 0 0 0 -5.3295474252881831 236.84744419317212 0 236.84744419317212 505.85418491657765 0 0 0 0 -8.3405508506910735 16.145850780589313 0 16.145850780589313 -9.3808105465948728 0 0 0 0 -85.724392565121121 53.124248693102913 0 53.124248693102913 5.927246851556383 0 0 0 0 -53.249530943568971 348.53563106214278 0 348.53563106214278 -963.73440004006989 0 0 0 0 -140.38291203789413 53.566262361775443 0 53.566262361775443 40.255809571157442 0 0 0 0 -236.47078133250761 324.4148619165062 0 324.4148619165062 -668.74392094500945 0 0 0 0 -38.366667914102436 193.38224424893997 0 193.38224424893997 -673.53208600253856 0 0 0 0 -122.59043818075952 106.8969914322297 0 106.8969914322297 -430.25695386430016 0 0 0 0 -173.75310310789064 204.36850487056654 0 204.36850487056654 -294.47312725630763 0 0 0 0 -90.85411869960808 308.0696496046512 0 308.0696496046512 397.22153403286939 0 0 0 0 -24.703005551652922 29.326881346876831 0 29.326881346876831 -16.104650677532561 0 0 0 0 12.791162791007082 -165.55913419440913 0 -165.55913419440913 -168.86367418985355 0 0 0 0 -175.96888483437215 357.6355415114449 0 357.6355415114449 -598.3647093211448 0 0 0 0 163.86312976117915 40.002020947273195 0 40.002020947273195 -503.32953524584445 0 0 0 0 -58.402359161758795 298.19960559777974 0 298.19960559777974 -449.56996692220127 0 0 0 0 -24.706716449135648 48.835078019307829 0 48.835078019307829 -75.380553469118581 0 0 0 0 -106.04087804160372 345.74150063325578 0 345.74150063325578 -328.68080531599117 0 0 0 0 -246.54481128534826 175.40650802386153 0 175.40650802386153 103.72431022296951 0 0 0 0 -15.889322507293173 28.119419372821639 0 28.119419372821639 -16.831375970934356 0 0 0 0 -7.5003395276507945 54.667268669636542 0 54.667268669636542 -92.272241676429985 0 0 0 0 -22.876821085331358 -95.540179442118188 0 -95.540179442118188 -218.82297078262491 0 0 0 0 -260.95079388615704 528.09228006942976 0 528.09228006942976 -467.15696198443038 0 0 0 0 -130.67541759513551 70.111953011328296 0 70.111953011328296 -733.71932405499683 0 0 0 0 -1.3576322677346866 2.0583364608542922 0 2.0583364608542922 0.99791271010579052 0 0 0 0 62.670996661145182 505.62415179518393 0 505.62415179518393 -1739.7769958576828 0 0 0 0 -138.51544803926663 74.39558438333188 0 74.39558438333188 1202.8501390683005 0 0 0 0 -207.68947730460786 585.4639409352967 0 585.4639409352967 524.30848054331727 0 0 0 0 -163.83597210905646 358.70968486070478 0 358.70968486070478 234.02921671293007 0 0 0 0 -242.48987079023209 527.76272819156293 0 527.76272819156293 -142.82133518959017 0 0 0 0 -230.33572586583568 258.41841040012901 0 258.41841040012901 -147.35480897410889 0 0 0 0 -163.27442769084882 206.35520269170229 0 206.35520269170229 246.12755050593114 0 0 0 0 120.23060999229347 445.95271195939677 0 445.95271195939677 -143.01765504479408 0 0 0 0 387.88838071803912 208.11016010884487 0 208.11016010884487 95.346656275010901 0 0 0 0 0.51306386382758262 1.6046713061058711 0 1.6046713061058711 -2.9484686791009267 0 0 0 0 498.497241095145 151.07734289478685 0 151.07734289478685 -78.126254917662664 0 0 0 0 523.79659252747297 119.02558998322729 0 119.02558998322729 -39.541077504589339 0 0 0 0 364.72363832408155 -250.90075969682948 0 -250.90075969682948 168.90531685254973 0 0 0 0 1.1620798525945304 2.049529728644444 0 2.049529728644444 -2.5808025842923001 0 0 0 0 -589.84724369454125 423.64182312999401 0 423.64182312999401 -139.55233475366549 0 0 0 0 -223.85071068560501 433.81276000491562 0 433.81276000491562 -289.38495731548937 0 0 0 0 -254.51864456703333 365.03859881144308 0 365.03859881144308 -429.82192841777578 0 0 0 0 0.78519852043118021 4.4850131240761186 0 4.4850131240761186 1.0970377584800701 0 0 0 0 7.0494446045904624 14.723811489667241 0 14.723811489667241 -25.727931926048768 0 0 0 0 2.7872134207846244 2.7121940599294589 0 2.7121940599294589 -12.68542194217622 0 0 0 0 3.3629683735570666 5.2855371125619968 0 5.2855371125619968 -10.818362317794964 0 0 0 0 271.3551312543641 31.569293909469707 0 31.569293909469707 -107.76130281423684 0 0 0 0 18.400466760285781 5.5222255559274345 0 5.5222255559274345 -14.334245849986473 0 0 0 0 -5.4267664255312411 3.6213006017096632 0 3.6213006017096632 -12.338764761207131 0 0 0 0 -289.89640515291831 609.14055662766987 0 609.14055662766987 -557.75930838664772 0 0 0 0 -148.09289221960353 131.2045760403671 0 131.2045760403671 -47.18498391297544 0 0 0 0 -271.7419160399586 245.02998925750944 0 245.02998925750944 65.193214302111301 0 0 0 0 150.30050501416554 192.23274669694365 0 192.23274669694365 -207.65726644131064 0 0 0 0 252.98581182616908 -66.410885122309992 0 -66.410885122309992 -62.827942481599166 0 0 0 0 276.41941141866846 -93.8475005837754 0 -93.8475005837754 -146.58621319889244 0 0 0 0 -52.124126242197235 85.475582861741714 0 85.475582861741714 5.2226540512929205 0 0 0 0 -268.83904138140497 209.12982259803903 0 209.12982259803903 98.549720814669854 0 0 0 0 50.958541169129603 192.56228864647164 0 192.56228864647164 -267.64601564555778 0 0 0 0 -11.150516251458612 119.77237341228465 0 119.77237341228465 -438.91469195997342 0 0 0 0 -482.50517595537531 247.41026991837134 0 247.41026991837134 -199.27421676519407 0 0 0 0 -450.86882694162205 660.09210268287688 0 660.09210268287688 -440.28688302452065 0 0 0 0 -297.12431675566768 433.90502113752518 0 433.90502113752518 -464.6020326832122 0 0 0 0 5.6086742786245622 5.619604018910934 0 5.619604018910934 2.300404247169979 0 0 0 0 -240.92117134484579 424.10347360436208 0 424.10347360436208 -464.12522203636763 0 0 0 0 -427.03846836737262 181.41256727928317 0 181.41256727928317 30.946225494371902 0 0 0 0 -193.03809084124805 311.77052548960637 0 311.77052548960637 -429.73226563186415 0 0 0 0 -248.16674992021581 326.48996539189829 0 326.48996539189829 197.39712916949065 0 0 0 0 -139.274057382092 337.34801565316957 0 337.34801565316957 98.269323603592056 0 0 0 0 14.818608327725087 155.04658125383867 0 155.04658125383867 41.638055855328275 0 0 0 0 -0.80768895460641943 166.17429975610503 0 166.17429975610503 336.81637110154406 0 0 0 0 293.54798836331611 -37.859529136436322 0 -37.859529136436322 176.7899255858938 0 0 0 0 -237.43508176989417 204.59989151952141 0 204.59989151952141 197.46283895253146 0 0 0 0 -69.520634702275856 212.29559531027917 0 212.29559531027917 233.04943734220433 0 0 0 0 168.98309266411525 304.84752982192367 0 304.84752982192367 191.03943486392382 0 0 0 0 47.992739204040845 198.96518671216108 0 198.96518671216108 165.87820235621257 0 0 0 0 39.141996297999867 154.07102723237404 0 154.07102723237404 38.476629853284976 0 0 0 0 32.517491245493147 266.97281074938201 0 266.97281074938201 258.37430127180414 0 0 0 0 -6.4312622250326967 280.47186239844814 0 280.47186239844814 233.2870150456074 0 0 0 0 -76.556065318914534 349.21338993331312 0 349.21338993331312 185.38263873701362 0 0 0 0 -52.263680746953469 341.08132985384509 0 341.08132985384509 158.47840268633445 0 0 0 0 -54.209760665769863 305.05136735086853 0 305.05136735086853 66.902341821296432 0 0 0 0 36.166864853053994 240.91034570503325 0 240.91034570503325 -11.416883365840476 0 0 0 0 7.8490487090166425 232.74874479504979 0 232.74874479504979 149.37546687266149 0 0 0 0 219.47184280636429 396.54931991181729 0 396.54931991181729 47.376260039047338 0 0 0 0 -85.938917152376234 549.2899443680044 0 549.2899443680044 135.90599238518189 0 0 0 0 -438.91418560665534 516.8490587746353 0 516.8490587746353 142.81679127149255 0 0 0 0 2.1317532640850914 2.7029900265827393 0 2.7029900265827393 1.5309104588395286 0 0 0 0 285.02320086700638 287.06992170183366 0 287.06992170183366 -415.65197616485239 0 0 0 0 -170.68686062372944 302.02895951012397 0 302.02895951012397 -412.2325700767251 0 0 0 0 144.08538728646818 340.06400156000382 0 340.06400156000382 -597.21663347022513 0 0 0 0 81.472003443224821 436.42835595999259 0 436.42835595999259 -401.75865898715711 0 0 0 0 55.175150467795902 392.37365957428483 0 392.37365957428483 -391.15018916262488 0 0 0 0 165.43747323191201 610.47389521223522 0 610.47389521223522 -39.044221807780559 0 0 0 0 -44.238952644587698 493.55678218269895 0 493.55678218269895 -196.60522224021406 0 0 0 0 -20.164357811539958 275.64713444142399 0 275.64713444142399 -619.26437453937251 0 0 0 0 -90.287461708052433 462.38885556450623 0 462.38885556450623 -365.48839829594044 0 0 0 0 112.1706532040771 399.60622090163815 0 399.60622090163815 -631.86554737365441 0 0 0 0 -6.3815293192674289 373.17547178053792 0 373.17547178053792 -245.49804570060951 0 0 0 0 1.0655269356648205 415.69816920963058 0 415.69816920963058 -364.02209495667057 0 0 0 0 -51.210169332334772 257.4861998129636 0 257.4861998129636 -165.97248968518215 0 0 0 0 -55.638515043559892 349.7137830944821 0 349.7137830944821 -255.96656235031696 0 0 0 0 -51.273392189541482 320.43334456482626 0 320.43334456482626 -94.716921130297123 0 0 0 0 -47.790845472340152 340.84336130759402 0 340.84336130759402 -59.367010246111022 0 0 0 0 -73.030878754820151 216.99459736092831 0 216.99459736092831 -83.411504408890323 0 0 0 0 -69.98708532116143 185.97443508747529 0 185.97443508747529 -1.2502313273125765 0 0 0 0 -63.499531262787059 164.19911988948661 0 164.19911988948661 -167.15042572887614 0 0 0 0 -74.902109502458188 190.50757299946963 0 190.50757299946963 -207.53863293669565 0 0 0 0 -8.5849387528505758 442.24108693860035 0 442.24108693860035 -292.9107162347791 0 0 0 0 108.07851557498361 299.48571059194001 0 299.48571059194001 -209.26036474989814 0 0 0 0 -368.0410748782233 244.97224246157202 0 244.97224246157202 368.79348172389291 0 0 0 0 -2.0246229842661023 1.6147410514106042 0 1.6147410514106042 -0.6405450354011748 0 0 0 0 30.291193531928002 -16.77119029131245 0 -16.77119029131245 -129.05776291768416 0 0 0 0 -135.95557748328429 256.9161027082173 0 256.9161027082173 -459.30260821573756 0 0 0 0 0.22241117599364202 2.211600769582418 0 2.211600769582418 -0.13704080084434622 0 0 0 0 -30.026972692852723 273.89184046022274 0 273.89184046022274 528.7384214310614 0 0 0 0 -68.33685223813518 412.25373915448654 0 412.25373915448654 7.9373265619487938 0 0 0 0 55.434439802687848 349.69260332343401 0 349.69260332343401 -26.641777282253315 0 0 0 0 -32.664242693135748 286.83544778061696 0 286.83544778061696 65.931252039457831 0 0 0 0 83.775145162653644 212.15873725398342 0 212.15873725398342 60.074542794180616 0 0 0 0 51.639138292463031 51.139354772847582 0 51.139354772847582 497.69893069643877 0 0 0 0 0.074761382677920193 302.96647425236586 0 302.96647425236586 260.31590591714485 0 0 0 0 -79.610990804649191 154.99379735281764 0 154.99379735281764 247.46557678964018 0 0 0 0 13.590189015930264 303.21680232078756 0 303.21680232078756 397.14469907713647 0 0 0 0 124.77094724044582 -30.145071828505024 0 -30.145071828505024 540.42640272381686 0 0 0 0 0.24657575066521531 276.71818501108646 0 276.71818501108646 735.23433182501321 0 0 0 0 -1.3713828388207503 1.8740454209710293 0 1.8740454209710293 0.13943818791679785 0 0 0 0 -139.597636503182 44.842114331651828 0 44.842114331651828 1270.0561209173247 0 0 0 0 178.8917709286543 15.045094242392224 0 15.045094242392224 -859.84702585373452 0 0 0 0 -2.0414017277389007 8.1102593389916393 0 8.1102593389916393 0.10209034737177852 0 0 0 0 -193.08128498210863 167.66985890356864 0 167.66985890356864 952.73535689396522 0 0 0 0 102.65055641778599 81.686178524296338 0 81.686178524296338 349.8154862411975 0 0 0 0 -2.2041589478969854 13.497264383271386 0 13.497264383271386 -0.11401872351705811 0 0 0 0 235.06810952343949 176.62448145530652 0 176.62448145530652 -840.16555287154915 0 0 0 0 -108.66633034529514 232.32105716222577 0 232.32105716222577 587.55154828890466 0 0 0 0 57.584832833756082 133.43692332205956 0 133.43692332205956 186.63913476514062 0 0 0 0 55.721039991225553 132.24330121640833 0 132.24330121640833 209.72612248772202 0 0 0 0 67.991451524445438 207.88943834744714 0 207.88943834744714 220.84180826752981 0 0 0 0 -19.126293838286074 83.658563638047781 0 83.658563638047781 -216.49052417512576 0 0 0 0 -67.648532685518148 39.48239661730986 0 39.48239661730986 170.36560177595032 0 0 0 0 -12.207520458771427 16.627593350472182 0 16.627593350472182 2.1942645578580438 0 0 0 0 41.908050616868422 91.881368000733346 0 91.881368000733346 -426.04553516651504 0 0 0 0 -6.0561753096403663 17.341878050481554 0 17.341878050481554 -0.40883518979003386 0 0 0 0 88.294260735950957 122.81121322811305 0 122.81121322811305 151.48310775196296 0 0 0 0 68.607524414932413 47.214297679889569 0 47.214297679889569 -135.20391129700147 0 0 0 0 -83.44397509673945 208.73169149064233 0 208.73169149064233 85.156910616482492 0 0 0 0 2.3795466238840959 -0.173789251533087 0 -0.173789251533087 0.43042082680868177 0 0 0 0 7.5741494822759705 272.39689631800684 0 272.39689631800684 458.99191860119754 0 0 0 0 42.155677782473504 313.11965543671249 0 313.11965543671249 7.1803405053797178 0 0 0 0 106.75137734351301 264.14915730877328 0 264.14915730877328 120.2891786202963 0 0 0 0 120.09424031186791 172.19371696051167 0 172.19371696051167 10.62080753302871 0 0 0 0 83.860505745717091 167.33703425665226 0 167.33703425665226 86.644728460960323 0 0 0 0 105.54743117241742 179.67877487128499 0 179.67877487128499 87.440620282925693 0 0 0 0 67.988559731304122 115.60224501039011 0 115.60224501039011 133.24806722117864 0 0 0 0 41.609420940396376 4.4733340725106245 0 4.4733340725106245 -17.497264778138742 0 0 0 0 8.6812138624373176 1.3678143255154112 0 1.3678143255154112 -1.363216813000129 0 0 0 0 -8.5958569789200681 11.242518555062404 0 11.242518555062404 -5.1725003592617043 0 0 0 0 -22.331403123047494 -26.649343072280317 0 -26.649343072280317 -16.784565377114632 0 0 0 0 9.575814889773028 122.73390525336436 0 122.73390525336436 -58.590463630526756 0 0 0 0 -147.38777466630199 -30.134921453476636 0 -30.134921453476636 31.774651138977788 0 0 0 0 -7.8613574105075514 10.456778966036765 0 10.456778966036765 -8.1563463260392268 0 0 0 0 52.280616298055975 400.78203860293797 0 400.78203860293797 383.48903043913378 0 0 0 0 730.88100948172359 532.95494418746966 0 532.95494418746966 127.71178164857702 0 0 0 0 -78.63427837951167 416.37859180962914 0 416.37859180962914 -180.83229679521901 0 0 0 0 -223.28689615838812 444.51688981357438 0 444.51688981357438 192.36288566837175 0 0 0 0 -52.684282786634867 106.85729380450721 0 106.85729380450721 -171.11257983098494 0 0 0 0 -191.19619980115385 159.00810193848156 0 159.00810193848156 -57.549455023759947 0 0 0 0 -432.36135453233146 306.05286134734342 0 306.05286134734342 -128.63356301030581 0 0 0 0 -235.31356165151374 277.69724465282525 0 277.69724465282525 -264.19975780868299 0 0 0 0 1.5480658505187819 1.7507352931018261 0 1.7507352931018261 0.76437834104059732 0 0 0 0 -184.02445894609264 315.6808938959166 0 315.6808938959166 -513.39877752147731 0 0 0 0 -182.31975037098164 543.13515638372701 0 543.13515638372701 -641.696624172675 0 0 0 0 -301.77600866416105 1129.9711445415933 0 1129.9711445415933 -1093.3023531065264 0 0 0 0 10.670575394746265 -0.16620553902976098 0 -0.16620553902976098 -23.207854387197585 0 0 0 0 -12.257519479782786 23.265257174989529 0 23.265257174989529 -17.297182737143885 0 0 0 0 -2.2946638194989646 24.471274162118789 0 24.471274162118789 -32.082133844312921 0 0 0 0 -4.7449809637328144 9.2978253791552561 0 9.2978253791552561 -2.3898221664603625 0 0 0 0 535.56886845121335 -103.98751601396361 0 -103.98751601396361 -376.51757234550314 0 0 0 0 142.97993834603403 411.17745431944422 0 411.17745431944422 -878.91601983070723 0 0 0 0 -3.3729279505786423 4.809780589122937 0 4.809780589122937 -4.503890100162522 0 0 0 0 -1058.8049564197572 397.27507238812905 0 397.27507238812905 -96.304183276342883 0 0 0 0 924.15543460086337 544.37137147131762 0 544.37137147131762 -1002.3332847522106 0 0 0 0 40.189877388547757 663.50199324165806 0 663.50199324165806 -1017.402555565568 0 0 0 0 -946.09833075308416 292.72408235852345 0 292.72408235852345 -814.18702687503082 0 0 0 0 2.3739748771931204 2.7513478656196924 0 2.7513478656196924 -3.7649791350004307 0 0 0 0 -6.5449856081082203 3.3882746281176281 0 3.3882746281176281 -0.90248558921642363 0 0 0 0 347.46091856791463 315.18831465054973 0 315.18831465054973 -1771.5216926203721 0 0 0 0 252.81281056494845 25.793818306538014 0 25.793818306538014 -1231.5234910330182 0 0 0 0 -387.89199344870212 212.38779009974951 0 212.38779009974951 -628.19900303868053 0 0 0 0 201.28443335642442 128.66815841512926 0 128.66815841512926 -868.04721352050547 0 0 0 0 -225.76366500981385 589.14605771585047 0 589.14605771585047 -1121.4423381580491 0 0 0 0 -24.7497773890791 189.1286002728848 0 189.1286002728848 -544.60633277175339 0 0 0 0 -60.594583293299365 55.391605938340945 0 55.391605938340945 -998.86378757352941 0 0 0 0 -95.212220232802792 127.55038733732363 0 127.55038733732363 -232.15420567528781 0 0 0 0 -7.0733194569256739 30.796920718331421 0 30.796920718331421 -536.75782082504884 0 0 0 0 198.83785239103599 210.69249799905447 0 210.69249799905447 -318.52501672473591 0 0 0 0 -146.99799745601194 244.41008362239518 0 244.41008362239518 -261.03103123567416 0 0 0 0 -49.999811088389833 61.864919784220547 0 61.864919784220547 -574.33070507182128 0 0 0 0 -5.8092812492905068 59.060842521863378 0 59.060842521863378 -186.33591531903221 0 0 0 0 0.6102695955809736 -0.68541993201118601 0 -0.68541993201118601 -0.62623175772779405 0 0 0 0 -12.332757058655261 292.55084134165008 0 292.55084134165008 299.24789490826697 0 0 0 0 -113.72799394378308 443.97715964728013 0 443.97715964728013 185.89807992797068 0 0 0 0 -87.905956838711063 126.26660843200261 0 126.26660843200261 160.18027892334794 0 0 0 0 271.87629375436518 383.68689517702296 0 383.68689517702296 285.4669958777813 0 0 0 0 128.72723802847031 352.88310120393362 0 352.88310120393362 357.30908670462668 0 0 0 0 152.78695659653749 234.48788390011032 0 234.48788390011032 254.36904258793948 0 0 0 0 259.47035360013251 304.36702329121545 0 304.36702329121545 271.01963135693222 0 0 0 0 -0.10494620140525512 323.41599353810125 0 323.41599353810125 1.4309666751687473 0 0 0 0 -62.064859482328757 249.76783637652989 0 249.76783637652989 -138.0453358031009 0 0 0 0 0.78134377683315392 -0.78649003338281886 0 -0.78649003338281886 -1.0997961491486876 0 0 0 0 -76.229709447165078 148.06106771732993 0 148.06106771732993 -126.56394265211929 0 0 0 0 0.0059658204709466629 275.04383932955494 0 275.04383932955494 -402.34498805783369 0 0 0 0 -57.738759388448671 49.753574377366022 0 49.753574377366022 -245.37635257732472 0 0 0 0 1.0017110771100022 -1.244189184110013 0 -1.244189184110013 -1.6929286000807622 0 0 0 0 25.373973325862607 129.34971773079633 0 129.34971773079633 -498.8681807980538 0 0 0 0 -68.535312836887897 59.681227776789456 0 59.681227776789456 -208.53997442506989 0 0 0 0 9.8797664844241808 198.07312458059641 0 198.07312458059641 -706.98156892813859 0 0 0 0 -70.784748507750919 156.07185749678683 0 156.07185749678683 -479.01300532440109 0 0 0 0 46.530426353150688 131.91214198676789 0 131.91214198676789 -758.11319414059108 0 0 0 0 -0.0504492421678151 218.99675986083821 0 218.99675986083821 -500.30539589174077 0 0 0 0 -109.69629521940078 61.095231326286012 0 61.095231326286012 -772.43034748968194 0 0 0 0 -61.175835484489653 164.11002374562759 0 164.11002374562759 -732.18922402641329 0 0 0 0 -219.21452828694601 253.79556477554797 0 253.79556477554797 -701.84265254646766 0 0 0 0 149.33753059570154 -179.15396352669086 0 -179.15396352669086 -1252.3211546990096 0 0 0 0 -414.49535303372249 -239.77185166572599 0 -239.77185166572599 -1020.0171007577774 0 0 0 0 148.31868583502364 -54.445218730959823 0 -54.445218730959823 -1409.4057033775043 0 0 0 0 -0.084646492337924428 184.76500938183563 0 184.76500938183563 -1093.3880299473676 0 0 0 0 -162.75471358987852 145.18955392872886 0 145.18955392872886 -90.816496468170953 0 0 0 0 4.1039447960530424 0.94563791651398788 0 0.94563791651398788 -0.3268140409242406 0 0 0 0 160.0582705419074 401.33205293737046 0 401.33205293737046 -874.86336327008758 0 0 0 0 -11.661664421044406 499.99604493637707 0 499.99604493637707 -511.93135623132548 0 0 0 0 364.94336609372112 141.77015503982329 0 141.77015503982329 -1031.1297022338222 0 0 0 0 -463.31601942268662 159.42689122550973 0 159.42689122550973 -366.40935408586665 0 0 0 0 128.43418100484996 51.759800532046938 0 51.759800532046938 -263.82102660579767 0 0 0 0 100.04383549351041 -42.215382051846973 0 -42.215382051846973 -534.89524706419616 0 0 0 0 202.7536030312076 -133.47181980610458 0 -133.47181980610458 -528.97521273506572 0 0 0 0 260.23467626217462 -206.16141302929645 0 -206.16141302929645 -750.8171116834128 0 0 0 0 155.8129150619352 -341.35069649837533 0 -341.35069649837533 -729.89032600350311 0 0 0 0 1.4569594726573847 1.988143782616163 0 1.988143782616163 -9.9887751743733446 0 0 0 0 -267.56126156946266 -422.62701494848989 0 -422.62701494848989 -531.85051870706229 0 0 0 0 211.34312167025928 -348.86184247751953 0 -348.86184247751953 -1101.1439147852311 0 0 0 0 226.54777450551046 191.24264449721522 0 191.24264449721522 63.692778561038722 0 0 0 0 13.692544557088013 -8.0806048522707741 0 -8.0806048522707741 -3.5827451120158003 0 0 0 0 -18.504761561795021 -75.665372035746259 0 -75.665372035746259 -48.643007314196439 0 0 0 0 223.9077164512928 -88.679421482751422 0 -88.679421482751422 -252.17125658257282 0 0 0 0 197.95198349497514 -144.88182823921306 0 -144.88182823921306 -150.56489547468664 0 0 0 0 -3.0568292221588251 0.51168781395242746 0 0.51168781395242746 -0.034422276417586772 0 0 0 0 0.049675119131279644 50.084422485699179 0 50.084422485699179 45.420780530110278 0 0 0 0 -174.63205715997083 208.34856424171244 0 208.34856424171244 -260.25516879330098 0 0 0 0 35.435536900957231 29.848043851743569 0 29.848043851743569 -4.9879965172804077 0 0 0 0 -1.5301656016522145 1.3690041035592273 0 1.3690041035592273 -6.680930899933756 0 0 0 0 42.373892314484692 46.40896239291942 0 46.40896239291942 -2.8864829872218252 0 0 0 0 28.824818435157795 44.69049704760755 0 44.69049704760755 20.584395601566939 0 0 0 0 46.233955313073238 64.88177231076952 0 64.88177231076952 20.902484016327463 0 0 0 0 0.042706820902822074 78.122582801771387 0 78.122582801771387 26.414507723893621 0 0 0 0 76.212634428949968 118.79900660562089 0 118.79900660562089 47.202120945190472 0 0 0 0 80.863719673317974 61.566265301165004 0 61.566265301165004 -8.5723800905543612 0 0 0 0 57.61454238864826 56.9090642585561 0 56.9090642585561 3.7356206702788768 0 0 0 0 -0.21132063275451429 14.739352906873833 0 14.739352906873833 -32.238360381551544 0 0 0 0 96.33065113491466 -4.1411272564837418 0 -4.1411272564837418 -73.489486322330777 0 0 0 0 20.117020354820852 -65.101458213064234 0 -65.101458213064234 -63.442077798128594 0 0 0 0 491.07405546003429 596.93252184403173 0 596.93252184403173 246.95901112840511 0 0 0 0 1.6280686503118318 -2.8204229669545455 0 -2.8204229669545455 3.3469718396716388 0 0 0 0 15.133218923892855 -41.519372788221062 0 -41.519372788221062 -156.99148677118501 0 0 0 0 -41.339673924529052 16.57485909456318 0 16.57485909456318 4.2076065479341196 0 0 0 0 -52.720145503932144 48.438612133242714 0 48.438612133242714 -84.993904294762615 0 0 0 0 -24.065227429317019 164.13769963911 0 164.13769963911 -150.33137830066516 0 0 0 0 -2.686217591068857 14.631093602529461 0 14.631093602529461 -25.450124683629454 0 0 0 0 188.39355824272661 120.96979389741909 0 120.96979389741909 19.390980071562808 0 0 0 0 -195.73825994430081 118.26355882068765 0 118.26355882068765 -4.9815771215580753 0 0 0 0 -368.25192810542285 459.32907689406147 0 459.32907689406147 -139.83486287375126 0 0 0 0 -509.57830090619973 329.70948107033564 0 329.70948107033564 -86.607980327618861 0 0 0 0 -617.64635306308628 275.97894354106757 0 275.97894354106757 -52.663838050413688 0 0 0 0 442.23807590940123 213.41042576390828 0 213.41042576390828 14.763964181060146 0 0 0 0 -2.3208251531131232 12.153010993439395 0 12.153010993439395 -16.656111855224452 0 0 0 0 0.033420973260945175 203.61513514788476 0 203.61513514788476 106.74564462588751 0 0 0 0 121.10382846914581 183.06359904555666 0 183.06359904555666 88.439551355735603 0 0 0 0 0.07605976547155345 127.05391020018168 0 127.05391020018168 67.800561625459522 0 0 0 0 126.96315267103637 119.04692284374687 0 119.04692284374687 40.637135900713474 0 0 0 0 -34.744076078823127 19.151440601375725 0 19.151440601375725 15.234696796105709 0 0 0 0 -7.0979715981475309 16.429286340994949 0 16.429286340994949 -33.986242440051967 0 0 0 0 334.49081304824358 213.76263418273993 0 213.76263418273993 -24.730130985470169 0 0 0 0 -141.8432006464318 193.98185186451701 0 193.98185186451701 71.079126519041893 0 0 0 0 16.217438400836912 25.909886767084572 0 25.909886767084572 42.1017009939182 0 0 0 0 -199.49160392492195 148.0526590626414 0 148.0526590626414 54.957023121640304 0 0 0 0 -69.537697353451222 -133.49176785829241 0 -133.49176785829241 -33.299788434847869 0 0 0 0 5.4061932537965305 26.89093389765759 0 26.89093389765759 -52.542061314466139 0 0 0 0 63.527972432493698 174.69057898805295 0 174.69057898805295 -38.972660918338079 0 0 0 0 15.187424237317259 31.752453324641152 0 31.752453324641152 37.328143814441518 0 0 0 0 -279.42602458196779 165.86714026080153 0 165.86714026080153 -105.52877743515637 0 0 0 0 -349.55657980119577 129.32506483454563 0 129.32506483454563 -1.0717456259940263 0 0 0 0 -535.63013848929404 339.12030085117658 0 339.12030085117658 -84.504178729690466 0 0 0 0 -547.70610886150098 341.78648613605219 0 341.78648613605219 -25.811262018767295 0 0 0 0 -667.26121562406479 326.53719254336465 0 326.53719254336465 -25.646880782849877 0 0 0 0 -693.30038333109042 351.2568291517 0 351.2568291517 -35.275295744308096 0 0 0 0 -928.51086748292437 132.41881401795945 0 132.41881401795945 5.7640354083541752 0 0 0 0 -796.5946002699493 301.55672297962155 0 301.55672297962155 -59.186784017936588 0 0 0 0 -674.22991304082097 538.30665650447554 0 538.30665650447554 -151.58693250014949 0 0 0 0 248.602469259793 415.14390679508597 0 415.14390679508597 -325.22925832676992 0 0 0 0 -856.91061881479982 453.81029209733606 0 453.81029209733606 123.1169092814016 0 0 0 0 602.49713114861515 -86.881422200844327 0 -86.881422200844327 -526.1659585129164 0 0 0 0 -2516.330521479802 259.5054394203944 0 259.5054394203944 61.703753572165624 0 0 0 0 -3.3022810753310381 6.7022881443815692 0 6.7022881443815692 -11.633843851960791 0 0 0 0 -1018.0814359638734 1035.03396570725 0 1035.03396570725 -779.02027691106196 0 0 0 0 584.96657857163518 322.56849848630645 0 322.56849848630645 -921.03805135661969 0 0 0 0 76.924677749208058 -13.362682457136543 0 -13.362682457136543 -143.40230978750333 0 0 0 0 -67.220282506837975 190.43355037950641 0 190.43355037950641 95.889149893544527 0 0 0 0 -152.55308316369337 50.4356806141368 0 50.4356806141368 28.415215930428531 0 0 0 0 -139.7404350364377 420.10439063237936 0 420.10439063237936 -691.49660694193517 0 0 0 0 -97.09444290434476 236.36100203306296 0 236.36100203306296 -408.18862409119174 0 0 0 0 -326.19079864153173 538.69035923420233 0 538.69035923420233 -548.99628482865228 0 0 0 0 -164.81336230474699 524.13698654735344 0 524.13698654735344 -732.36899881401041 0 0 0 0 -415.61855569647742 941.56566870881943 0 941.56566870881943 -960.27167989662166 0 0 0 0 -143.81070421243203 438.5249000603726 0 438.5249000603726 -652.36233198024638 0 0 0 0 -192.50059376236459 595.67764706524758 0 595.67764706524758 -785.2139184889711 0 0 0 0 -115.96866512243287 548.11100369784253 0 548.11100369784253 -837.81513779215311 0 0 0 0 -327.5228929793484 316.10937453731276 0 316.10937453731276 -558.76696399156936 0 0 0 0 -141.15036584372865 613.44996091757639 0 613.44996091757639 -983.94074606518006 0 0 0 0 -729.19715085858479 758.22755880151817 0 758.22755880151817 -946.90052854914393 0 0 0 0 -265.15503913320572 588.35032790552395 0 588.35032790552395 -886.10540268928162 0 0 0 0 -297.75307358964346 628.75681843951497 0 628.75681843951497 -786.81083549784671 0 0 0 0 277.71034180817514 -320.50090143216494 0 -320.50090143216494 -668.27152965545247 0 0 0 0 -312.15180563149625 29.491905460592534 0 29.491905460592534 -1257.1014125182264 0 0 0 0 -292.33496387311607 -115.25193952903646 0 -115.25193952903646 -233.725205488754 0 0 0 0 -121.37746995201451 -151.10592793610704 0 -151.10592793610704 -633.06568834316204 0 0 0 0 -1299.9607580379525 378.51436398767873 0 378.51436398767873 -488.28088801377453 0 0 0 0 -830.34530932453345 -335.75006524038326 0 -335.75006524038326 -632.28171686446149 0 0 0 0 -316.98303702568228 279.05929331729931 0 279.05929331729931 -484.4186502832008 0 0 0 0 -435.19555589107222 -154.77725188097202 0 -154.77725188097202 -481.85035760131723 0 0 0 0 -108.8250124368351 -34.550414354074746 0 -34.550414354074746 -461.31795152715858 0 0 0 0 29.727681772623328 -265.22509339541648 0 -265.22509339541648 -569.85998795008527 0 0 0 0 -128.0319343234296 -190.74741657341656 0 -190.74741657341656 -553.05239424404135 0 0 0 0 -4.418959973481833 -75.085892220529786 0 -75.085892220529786 -447.17708583055355 0 0 0 0 23.249788721441291 41.32748405349048 0 41.32748405349048 -239.15198168360075 0 0 0 0 -191.26643328972568 70.16502420906545 0 70.16502420906545 -247.4774152872269 0 0 0 0 26.381826663831816 41.748250026040751 0 41.748250026040751 -245.25756589128287 0 0 0 0 -1.9508718696057485 11.036995298408911 0 11.036995298408911 -0.50651341124991767 0 0 0 0 -102.66970079830935 -26.718671964748864 0 -26.718671964748864 104.83525891742829 0 0 0 0 17.389029989368282 -127.93878380798924 0 -127.93878380798924 -33.674820682994323 0 0 0 0 9.4008421840084964 7.0242170048294241 0 7.0242170048294241 -1.9996252706294797 0 0 0 0 -47.101123991014902 30.013098598188662 0 30.013098598188662 17.449156598512673 0 0 0 0 46.439903920487268 -11.881029865646269 0 -11.881029865646269 -669.4090231743121 0 0 0 0 -7.3262207249354105 164.25624000363678 0 164.25624000363678 -337.94778206320916 0 0 0 0 -6.147374178370228 -122.85072650823713 0 -122.85072650823713 -830.31669105475157 0 0 0 0 122.79828966915375 182.2985981110196 0 182.2985981110196 -1653.8995392373763 0 0 0 0 -150.65422602137551 516.06269698476899 0 516.06269698476899 -1268.3719991928519 0 0 0 0 -90.514625795709435 580.88679032378423 0 580.88679032378423 -1331.1455693608732 0 0 0 0 34.828334887541132 319.58155460483977 0 319.58155460483977 -873.51568562699504 0 0 0 0 13.8934606219118 125.04617231507291 0 125.04617231507291 -559.32214386528506 0 0 0 0 -24.490974953892874 327.1851696509184 0 327.1851696509184 -825.50023676772253 0 0 0 0 -96.326747254177462 166.98194166324174 0 166.98194166324174 -483.22399177960324 0 0 0 0 96.3820747257123 -76.00885175082658 0 -76.00885175082658 -371.07230130428434 0 0 0 0 87.991448914524881 157.09408357971233 0 157.09408357971233 -323.42853045211814 0 0 0 0 6.2510139246720655 9.9581108698682925 0 9.9581108698682925 -5.2351725486657799 0 0 0 0 -110.70114967174595 -240.10900548511927 0 -240.10900548511927 -87.925881506705991 0 0 0 0 -170.93594051888067 135.37323243916398 0 135.37323243916398 220.16744885023581 0 0 0 0 2.7045303712386826 0.33006624470607449 0 0.33006624470607449 -13.876961353359491 0 0 0 0 251.32846377220994 -211.85721826661756 0 -211.85721826661756 -515.33130920196709 0 0 0 0 -676.29062393245113 793.29514707098679 0 793.29514707098679 -821.4252935785189 0 0 0 0 -478.16080301011971 503.86000323050393 0 503.86000323050393 -524.22434149854234 0 0 0 0 -252.18836275473586 385.02531833469038 0 385.02531833469038 -837.31070264692244 0 0 0 0 310.23678818540066 857.32363728521887 0 857.32363728521887 -1909.9741479698569 0 0 0 0 -157.47952328395331 696.78729935052252 0 696.78729935052252 -1697.1122406104387 0 0 0 0 -172.38952568330569 464.72056681711911 0 464.72056681711911 -1629.2482057402085 0 0 0 0 -219.96263720552088 613.70415984526335 0 613.70415984526335 -1354.6308692749008 0 0 0 0 -201.85856716675335 415.71130612518755 0 415.71130612518755 -1395.379488157545 0 0 0 0 -576.95227456939756 -171.23967124887713 0 -171.23967124887713 -1950.1186258489088 0 0 0 0 -722.0491136026103 1108.4281545224949 0 1108.4281545224949 -1713.8269232706725 0 0 0 0 -1532.3592153882346 474.65701208467362 0 474.65701208467362 -1070.8851442259183 0 0 0 0 3.8501002806817723 2.4001725426607265 0 2.4001725426607265 -2.5508985679927036 0 0 0 0 -360.754631537362 902.73028012225404 0 902.73028012225404 -1512.5843512922256 0 0 0 0 -347.95101011166116 674.89556841101148 0 674.89556841101148 -1293.4141408219002 0 0 0 0 -215.09529195804498 525.09198269057379 0 525.09198269057379 -1396.9028329454559 0 0 0 0 -318.93473692375119 704.91901093180059 0 704.91901093180059 -1359.3225837463178 0 0 0 0 -262.60113371015177 689.32926935054638 0 689.32926935054638 -1394.3874647054618 0 0 0 0 -288.72286071700364 647.11447241480164 0 647.11447241480164 -1373.4942664451955 0 0 0 0 -523.49273776001064 795.09124905487261 0 795.09124905487261 -1184.2661644258333 0 0 0 0 -401.58798913971987 451.46042553324514 0 451.46042553324514 -1266.8258277279965 0 0 0 0 -582.52795897639589 762.13338275284332 0 762.13338275284332 -244.27195565178408 0 0 0 0 -63.604184840718517 74.835651101282565 0 74.835651101282565 171.55943543279864 0 0 0 0 -510.03169778099982 362.40791613348119 0 362.40791613348119 -384.95370881335111 0 0 0 0 1.2400848548316503 0.033724717488183842 0 0.033724717488183842 -4.9967745739435987 0 0 0 0 -513.88749815708434 693.30983759031733 0 693.30983759031733 -613.20571150122851 0 0 0 0 -342.72599041950889 439.37451757519739 0 439.37451757519739 -781.46259054281109 0 0 0 0 -304.03428154590074 121.72544861675124 0 121.72544861675124 -714.33825031934248 0 0 0 0 -265.41768257812873 516.23080168558772 0 516.23080168558772 -707.07748660991638 0 0 0 0 -533.97022968115925 340.98887900138288 0 340.98887900138288 -658.73680776898345 0 0 0 0 6.4766819500866006 5.0179149968845422 0 5.0179149968845422 -0.097424644739774635 0 0 0 0 -486.45656271907501 282.91157292519347 0 282.91157292519347 -527.12828520315816 0 0 0 0 -437.01572695249342 395.76433182438632 0 395.76433182438632 -688.03404669939482 0 0 0 0 -617.83145008853171 434.17704040795797 0 434.17704040795797 -423.45009673776804 0 0 0 0 97.557381366023037 36.71529468528388 0 36.71529468528388 -917.31693286266091 0 0 0 0 -186.80364353020559 546.12443844309928 0 546.12443844309928 -970.80480688990065 0 0 0 0 -395.90316705105579 370.39812001948121 0 370.39812001948121 -1372.4873501034381 0 0 0 0 -1.3850728478832082 -1.7065790774059622 0 -1.7065790774059622 -5.1527802549261281 0 0 0 0 -799.54693781299284 1084.6411120781268 0 1084.6411120781268 -1332.2316003999877 0 0 0 0 -315.54727884593012 795.98305455008813 0 795.98305455008813 -1697.7572030824267 0 0 0 0 69.994281168881571 -223.32189773205391 0 -223.32189773205391 -101.17248598719743 0 0 0 0 120.4055225266784 50.983195946995693 0 50.983195946995693 -183.5133157286964 0 0 0 0 5.9442948945741705 -2.4049654190154968 0 -2.4049654190154968 -19.84894634649703 0 0 0 0 79.692073990183417 33.585073443377041 0 33.585073443377041 -21.865946085530595 0 0 0 0 -53.413008781684766 99.080621053713458 0 99.080621053713458 -53.486580810327723 0 0 0 0 53.296811496838927 69.464706504797505 0 69.464706504797505 -33.486444842439141 0 0 0 0 23.533001116989993 21.417204931592369 0 21.417204931592369 -32.380533164553974 0 0 0 0 155.04036037058177 -20.923527335871768 0 -20.923527335871768 -46.122168896115909 0 0 0 0 -93.50623130943859 -5.4679187521942367 0 -5.4679187521942367 -86.226278392234235 0 0 0 0 -378.00471814259072 329.76316728398524 0 329.76316728398524 55.400645722082118 0 0 0 0 4.9019713528186628 4.1247616618970468 0 4.1247616618970468 0.85291905778559851 0 0 0 0 -101.02586533340218 246.4019970231675 0 246.4019970231675 -286.5032045091175 0 0 0 0 -218.96038427954045 416.20403842563428 0 416.20403842563428 -545.92045676169073 0 0 0 0 -227.83122915276908 303.6081826786758 0 303.6081826786758 -423.19607728664414 0 0 0 0 -412.16287682225811 347.57919730944559 0 347.57919730944559 -223.01960380397941 0 0 0 0 -327.65223787387367 383.9605155308891 0 383.9605155308891 -723.7343086263063 0 0 0 0 -466.31376774300588 438.85798090610479 0 438.85798090610479 -418.46958664167187 0 0 0 0 -540.02389111096272 591.43090103425493 0 591.43090103425493 -597.91175465184278 0 0 0 0 -628.89462342319894 308.70089994329464 0 308.70089994329464 -997.15934175885923 0 0 0 0 -486.5790053462697 548.76000716528142 0 548.76000716528142 -1079.4570970904751 0 0 0 0 -462.57269582204754 533.60604845714988 0 533.60604845714988 -806.93562926907907 0 0 0 0 -283.10497673538339 426.2470643942579 0 426.2470643942579 -1096.2609411300218 0 0 0 0 -326.35840929625556 393.00185872163274 0 393.00185872163274 -1398.7645005202376 0 0 0 0 -328.40592525588727 429.08131496636815 0 429.08131496636815 -1092.7074622340151 0 0 0 0 -259.31119347944332 653.79573052952037 0 653.79573052952037 -1114.8716613299257 0 0 0 0 -372.52480915004708 375.48680766940015 0 375.48680766940015 -761.24413284445473 0 0 0 0 -268.73210079682758 553.53103252736764 0 553.53103252736764 -1219.9231984490252 0 0 0 0 -632.83899215250131 694.22775433529387 0 694.22775433529387 -478.41995991722797 0 0 0 0 -186.4701605826267 164.74285823079845 0 164.74285823079845 -520.30215210503957 0 0 0 0 -273.74227693626017 440.19881421553873 0 440.19881421553873 -453.89140958958887 0 0 0 0 -188.57924287571223 414.66482917610119 0 414.66482917610119 -754.7489532338077 0 0 0 0 307.16157821167872 170.33730070429556 0 170.33730070429556 -34.949130765831796 0 0 0 0 102.89247989765863 93.243930460397678 0 93.243930460397678 19.221338258597825 0 0 0 0 270.26004144590115 -24.338012204170809 0 -24.338012204170809 -519.15585290189483 0 0 0 0 30.517348377459712 577.6621793170234 0 577.6621793170234 -152.38203970064933 0 0 0 0 0.10854634739563096 1.453219446055769 0 1.453219446055769 -4.0376839216834242 0 0 0 0 142.13256260263734 44.336594113789033 0 44.336594113789033 -12.281865369919615 0 0 0 0 -9.473886970361491 213.22309073433644 0 213.22309073433644 -167.19270763351233 0 0 0 0 132.45776706256584 433.79915996441559 0 433.79915996441559 -674.84284796455722 0 0 0 0 134.55429053150147 421.17939250430663 0 421.17939250430663 -599.41441867443791 0 0 0 0 3.8597929616953479 296.53664915933041 0 296.53664915933041 -667.44152824994046 0 0 0 0 -84.490187326358864 491.61963757135891 0 491.61963757135891 -664.55446051587933 0 0 0 0 31.128248761990108 372.92669078757535 0 372.92669078757535 -604.28894055506134 0 0 0 0 -9.2422964860597858 345.21241183836173 0 345.21241183836173 -449.85862052712037 0 0 0 0 -15.409415298461681 148.74177475502802 0 148.74177475502802 -546.14891639873531 0 0 0 0 -6.3951427455831436 -33.126325757431005 0 -33.126325757431005 -300.85041874396848 0 0 0 0 24.906321398884756 93.497243867590441 0 93.497243867590441 -257.16948356039211 0 0 0 0 -28.422312361100921 59.671566768345656 0 59.671566768345656 -6.5191826132795541 0 0 0 0 -11.105994230099896 -9.0628457288557911 0 -9.0628457288557911 -105.33189402759308 0 0 0 0 1.5773364788065294 1.1852077956403946 0 1.1852077956403946 -0.96913666205216487 0 0 0 0 -49.839541319131968 75.116473121404852 0 75.116473121404852 -51.545421034570609 0 0 0 0 17.836026352611952 -31.62814594853262 0 -31.62814594853262 10.742774554495554 0 0 0 0 -56.201492370862979 -69.268681506468056 0 -69.268681506468056 -88.208040207871818 0 0 0 0 165.66649608213629 -49.16932425505729 0 -49.16932425505729 -296.58817177765013 0 0 0 0 382.55760658555664 38.407252961238555 0 38.407252961238555 -211.59331833732722 0 0 0 0 164.9243895154068 6.5016599076006969 0 6.5016599076006969 -9.6628528722430929 0 0 0 0 1.8854595520158455 0.26146745132922433 0 0.26146745132922433 -2.816980464068223 0 0 0 0 190.0701268495759 -19.248159271632176 0 -19.248159271632176 12.615340895848931 0 0 0 0 239.31767431589833 -55.46205175940122 0 -55.46205175940122 -64.64010559639064 0 0 0 0 256.50318116383278 -2.8017036108176399 0 -2.8017036108176399 -104.89263408776606 0 0 0 0 263.23729902624837 16.496763161492709 0 16.496763161492709 -37.259255976874556 0 0 0 0 0.20325376350524493 2.7992053512280961 0 2.7992053512280961 -8.1201976032090215 0 0 0 0 444.56484914097746 210.404086474633 0 210.404086474633 -21.620136897414341 0 0 0 0 239.50013767818018 0.93784737050373224 0 0.93784737050373224 -18.5387082181187 0 0 0 0 117.67453143850435 162.69860400476318 0 162.69860400476318 -187.22210939966681 0 0 0 0 156.70186183811529 107.23701355226331 0 107.23701355226331 78.729762829381798 0 0 0 0 171.09101974328951 112.8516722539307 0 112.8516722539307 -257.27015532017685 0 0 0 0 160.64319955547762 23.26261720120965 0 23.26261720120965 -30.102938124015054 0 0 0 0 200.77420413117216 -52.73474718243051 0 -52.73474718243051 -22.762181420242996 0 0 0 0 263.22572286380455 -62.282402468983491 0 -62.282402468983491 -40.788728089068172 0 0 0 0 2.4858229982535818 1.5135876563965525 0 1.5135876563965525 -18.431053497564818 0 0 0 0 302.60683550420799 1.9797461739181017 0 1.9797461739181017 -42.831523250762984 0 0 0 0 2.7403062043660924 10.423708927499362 0 10.423708927499362 -25.511570752292954 0 0 0 0 525.64717490122712 249.68597285787837 0 249.68597285787837 -402.24448376650253 0 0 0 0 40.019279516665847 16.541965412159698 0 16.541965412159698 -29.38677333279702 0 0 0 0 11.271549209315708 7.5881164552265545 0 7.5881164552265545 -35.315611609963526 0 0 0 0 9.3003510574926622 12.768799949957611 0 12.768799949957611 -8.8796006950797164 0 0 0 0 27.894907353271265 29.65073451347962 0 29.65073451347962 -18.078899700929469 0 0 0 0 21.512022478767904 15.509756303097674 0 15.509756303097674 -18.910631511324027 0 0 0 0 8.8927830950902944 9.6101211124062331 0 9.6101211124062331 7.4243109565473304 0 0 0 0 17.897766801580559 17.21846666844408 0 17.21846666844408 -4.2551938627813968 0 0 0 0 7.829678402384161 29.716256592959326 0 29.716256592959326 -32.449404495237104 0 0 0 0 38.997914468185627 12.257446363208146 0 12.257446363208146 21.92284609176204 0 0 0 0 12.009106345678447 49.526349806970757 0 49.526349806970757 39.224784527516022 0 0 0 0 13.758694944342921 19.683517105345331 0 19.683517105345331 -23.760953015780828 0 0 0 0 19.607628110403311 26.965157166752761 0 26.965157166752761 38.327508185491752 0 0 0 0 -24.574172847525006 74.496301567020737 0 74.496301567020737 31.906376016711874 0 0 0 0 -26.749252235757012 35.502292138908558 0 35.502292138908558 109.9617319031604 0 0 0 0 -56.067704365646932 106.84700441930454 0 106.84700441930454 84.081867475859326 0 0 0 0 -41.800946981828019 96.196341995017065 0 96.196341995017065 47.458887685803347 0 0 0 0 -29.960811094548262 108.66117348000171 0 108.66117348000171 -12.678563053992548 0 0 0 0 -9.922187218660838 196.9708160580085 0 196.9708160580085 -71.603675046616445 0 0 0 0 109.79442373834149 103.58705000380132 0 103.58705000380132 -20.536318058308098 0 0 0 0 7.336734666270786 54.275891086212141 0 54.275891086212141 41.836479899351616 0 0 0 0 43.508818700851407 87.0015527637388 0 87.0015527637388 -23.432584980335378 0 0 0 0 71.229871682695375 55.086017725023339 0 55.086017725023339 -35.199149174794002 0 0 0 0 19.870551934159579 7.6671903906593464 0 7.6671903906593464 -31.632154936218498 0 0 0 0 93.033792157511925 60.432069420246989 0 60.432069420246989 -34.656389644020237 0 0 0 0 108.0475315803983 60.938205736784766 0 60.938205736784766 -42.063943540219043 0 0 0 0 97.854460369053413 52.501763241361914 0 52.501763241361914 -47.615138460329035 0 0 0 0 141.44758569379337 88.942547298040154 0 88.942547298040154 -37.006155471117381 0 0 0 0 89.618737022494315 59.327480616979301 0 59.327480616979301 -34.064573394884064 0 0 0 0 12.764962282809591 1.0626469386169077 0 1.0626469386169077 -66.294096825683425 0 0 0 0 312.31448365746473 226.50312353614572 0 226.50312353614572 37.931687947198952 0 0 0 0 66.729757356435584 14.96041701491913 0 14.96041701491913 -50.274423165243206 0 0 0 0 126.52912154603837 36.059350333873226 0 36.059350333873226 235.04872411565157 0 0 0 0 -0.093667190048506654 1.0291914835336229 0 1.0291914835336229 -2.0474409948494952 0 0 0 0 103.71503246865177 91.732158491993687 0 91.732158491993687 -158.65251931100647 0 0 0 0 -0.11976786627928959 67.792187782511974 0 67.792187782511974 -9.9417599755106494 0 0 0 0 14.871541139884584 24.59486338456378 0 24.59486338456378 40.115341975350574 0 0 0 0 -115.49734453011479 53.900075827501496 0 53.900075827501496 -77.576638936701784 0 0 0 0 -61.177385706774658 178.18361725498653 0 178.18361725498653 -11.185822731553344 0 0 0 0 -266.56136756583146 243.48596708661535 0 243.48596708661535 -42.311930607906106 0 0 0 0 16.659922607604443 27.105977936250241 0 27.105977936250241 32.144161726979164 0 0 0 0 32.196037357283785 99.292826818054891 0 99.292826818054891 -50.980027452609647 0 0 0 0 55.758702834747965 42.936395525561238 0 42.936395525561238 -36.447168997145127 0 0 0 0 21.571808764769969 24.401937941737387 0 24.401937941737387 -33.11659894206278 0 0 0 0 -12.8607140225904 99.768959976097904 0 99.768959976097904 34.172741967820912 0 0 0 0 47.798879641028179 7.6685742051522539 0 7.6685742051522539 -50.385671096351871 0 0 0 0 7.8574924460465354 7.5877941689479798 0 7.5877941689479798 -8.586683939069232 0 0 0 0 231.29151077141432 -19.536503607165287 0 -19.536503607165287 -34.844074325204929 0 0 0 0 36.659370841924101 31.446269594398018 0 31.446269594398018 -37.381028933003108 0 0 0 0 -0.21402920013321136 1.3292794768646701 0 1.3292794768646701 3.5189518006118021 0 0 0 0 -9.6194809626758797 -17.317337367197979 0 -17.317337367197979 246.57499306658428 0 0 0 0 -11.345634614670416 8.1765264277491951 0 8.1765264277491951 49.269914805123335 0 0 0 0 63.283903914169059 164.28607137081781 0 164.28607137081781 179.15045309094603 0 0 0 0 7.4072504403811763 64.807515594296092 0 64.807515594296092 4.7236602664343081 0 0 0 0 273.41323956437554 68.191358141262754 0 68.191358141262754 -31.577948528436536 0 0 0 0 6.3587735596847779 90.577954022411177 0 90.577954022411177 14.148858863860369 0 0 0 0 86.510684062643122 -53.823876962622307 0 -53.823876962622307 256.93779930914025 0 0 0 0 132.09414300902426 186.86553135424447 0 186.86553135424447 60.102373401561636 0 0 0 0 -123.18992778559186 103.36441258872674 0 103.36441258872674 78.363238469006319 0 0 0 0 -77.12063561091054 29.071002268106895 0 29.071002268106895 92.245867131469822 0 0 0 0 50.598572321184292 29.606296621881143 0 29.606296621881143 -39.804511011614522 0 0 0 0 58.827222011152116 104.27943255343177 0 104.27943255343177 -159.93882101013514 0 0 0 0 136.39467115446314 12.981769101771533 0 12.981769101771533 -75.984312609802146 0 0 0 0 72.470770993189944 -19.112764069709556 0 -19.112764069709556 34.210648049225711 0 0 0 0 76.543518114245671 25.658467217515863 0 25.658467217515863 -38.402291120815789 0 0 0 0 64.222416311022243 9.0437601930261735 0 9.0437601930261735 -47.58203404343385 0 0 0 0 91.437947166232334 -19.422558867239786 0 -19.422558867239786 18.626410743610393 0 0 0 0 135.50760021117094 46.356458586882582 0 46.356458586882582 -69.060857219945319 0 0 0 0 84.296066717026406 67.83739673875607 0 67.83739673875607 -28.498969569508517 0 0 0 0 -1.6698303798038978 117.75092716135259 0 117.75092716135259 0.99270230526622072 0 0 0 0 105.85132435511332 70.993592660715876 0 70.993592660715876 -85.472506090809475 0 0 0 0 9.3453992530849064 98.703662559317308 0 98.703662559317308 -69.507379749991742 0 0 0 0 11.653177373381368 145.8961092774623 0 145.8961092774623 -159.89390723505494 0 0 0 0 -59.418806781823037 150.54430643991725 0 150.54430643991725 -60.05403498142914 0 0 0 0 -58.749031463550637 95.449871369333778 0 95.449871369333778 -33.277525046612936 0 0 0 0 45.217712527628464 57.618882382470474 0 57.618882382470474 -59.454736970214071 0 0 0 0 62.886704223354172 90.958156834145484 0 90.958156834145484 -84.730233181979202 0 0 0 0 -13.843922227872213 56.21796029721537 0 56.21796029721537 -15.145923960240907 0 0 0 0 -13.119492295358214 103.49126927181896 0 103.49126927181896 -43.408883393953147 0 0 0 0 79.721832827413891 -58.322552579920739 0 -58.322552579920739 21.033639930501522 0 0 0 0 22.383613721934751 27.72500731044461 0 27.72500731044461 35.755856291518079 0 0 0 0 105.81339145809761 50.0836208433102 0 50.0836208433102 -44.211125680911209 0 0 0 0 32.277610257486231 29.061819552160159 0 29.061819552160159 -21.272579907732506 0 0 0 0 61.789780612103641 27.550306532059039 0 27.550306532059039 -23.467717162080589 0 0 0 0 54.103818949370179 67.388872275772883 0 67.388872275772883 -45.535181478990125 0 0 0 0 -131.09625492164196 -36.057467731325232 0 -36.057467731325232 246.3161398195225 0 0 0 0 148.07611655940127 77.027400485437283 0 77.027400485437283 -157.01961820625729 0 0 0 0 0.17044438012431229 -0.50476908206225346 0 -0.50476908206225346 -0.89971614824247581 0 0 0 0 -1.4491823087615074 3.7987442866144505 0 3.7987442866144505 -8.9138495836032945 0 0 0 0 48.411116783223406 72.367686730380228 0 72.367686730380228 36.249662231017282 0 0 0 0 30.386338253330905 79.041639974264399 0 79.041639974264399 -29.848121655402338 0 0 0 0 50.72282834213911 66.664849110597061 0 66.664849110597061 -45.657689569088689 0 0 0 0 11.202777499737294 7.5002291331029056 0 7.5002291331029056 -4.5731755118888451 0 0 0 0 178.10614859173802 -53.11589494087184 0 -53.11589494087184 -9.1516485240827024 0 0 0 0 38.653434711450245 -12.156025364476591 0 -12.156025364476591 -12.88376646314282 0 0 0 0 27.523606696738256 5.0167956569631258 0 5.0167956569631258 -56.812059041467933 0 0 0 0 174.95592055100133 55.868289140929846 0 55.868289140929846 -89.158016485891494 0 0 0 0 174.61050325331598 60.74401548394053 0 60.74401548394053 -112.01598689229286 0 0 0 0 210.76654027866607 92.215149059744363 0 92.215149059744363 -92.10604421671087 0 0 0 0 131.64992689859355 29.007274796287675 0 29.007274796287675 -97.002091445363476 0 0 0 0 385.59577985793294 41.170381876883766 0 41.170381876883766 -112.38997423637977 0 0 0 0 41.579082919895882 913.05675605621218 0 913.05675605621218 1232.4067437337508 0 0 0 0 43.41981420223874 121.00337271260878 0 121.00337271260878 228.01976759146419 0 0 0 0 41.213706718055747 9.5330879143244402 0 9.5330879143244402 -36.723863936984301 0 0 0 0 -135.93598876152828 -112.64320822354421 0 -112.64320822354421 -17.607011124532079 0 0 0 0 -69.538418002863182 188.80747154672281 0 188.80747154672281 -71.623816275721765 0 0 0 0 211.43138752184404 85.149790030619897 0 85.149790030619897 -18.630499266466359 0 0 0 0 6.4816278717951548 0.68531801218721 0 0.68531801218721 -4.7812083188624399 0 0 0 0 -82.258730952540645 138.75476364385759 0 138.75476364385759 -260.91853163686028 0 0 0 0 7.3583049162610337 6.3667528266574607 0 6.3667528266574607 3.9619082126033902 0 0 0 0 -184.01396992965601 153.10316709307517 0 153.10316709307517 -20.619329219382053 0 0 0 0 -48.978240476586507 47.374705276562963 0 47.374705276562963 -101.93885508880703 0 0 0 0 59.525346725233248 7.0611124371725964 0 7.0611124371725964 125.11408649551777 0 0 0 0 -208.22825050438405 180.60065770972869 0 180.60065770972869 -39.156053328995768 0 0 0 0 29.713658030759916 36.760210535719978 0 36.760210535719978 39.395404844211555 0 0 0 0 -25.464260126667796 -65.2106511207312 0 -65.2106511207312 105.38427445369143 0 0 0 0 59.734179402323207 -12.671363192611352 0 -12.671363192611352 8.2987910652473147 0 0 0 0 -89.043853329852936 32.770279633223709 0 32.770279633223709 199.61170401992968 0 0 0 0 107.154840054749 261.18121875587894 0 261.18121875587894 321.18218241898467 0 0 0 0 1011.8412685758958 -77.958419667153066 0 -77.958419667153066 -981.02269031162723 0 0 0 0 42.909537811332427 5.6098549956193011 0 5.6098549956193011 -45.911281304036436 0 0 0 0 -330.32608472307038 -42.387175037630186 0 -42.387175037630186 211.164012894998 0 0 0 0 40.797651006486348 9.0195082951767915 0 9.0195082951767915 -48.64700000363348 0 0 0 0 47.703561426831584 143.51537766858382 0 143.51537766858382 195.05962828948759 0 0 0 0 194.73277948016766 19.549217938038055 0 19.549217938038055 -93.473775863581977 0 0 0 0 268.02152833128457 412.66081499728011 0 412.66081499728011 327.73346127897457 0 0 0 0 273.52283005068239 6.4452435897942451 0 6.4452435897942451 -242.06826854216342 0 0 0 0 283.14919156985525 350.41628431525487 0 350.41628431525487 -359.85562487724383 0 0 0 0 23.878042832562642 -175.11721406853758 0 -175.11721406853758 -210.39490075211233 0 0 0 0 186.503094987449 -17.321193137569935 0 -17.321193137569935 -65.938204207042872 0 0 0 0 -0.43311174223746052 -2.1780131912411917 0 -2.1780131912411917 -5.8701384886737884 0 0 0 0 -694.63834010563005 220.93007500806561 0 220.93007500806561 -46.156028906951178 0 0 0 0 -22.601447572258621 42.868265524446542 0 42.868265524446542 -468.15510074312806 0 0 0 0 -41.757665755984362 -76.230303010906709 0 -76.230303010906709 -30.980910397707703 0 0 0 0 122.03424464206182 -30.517529006847326 0 -30.517529006847326 -226.38237144957384 0 0 0 0 -190.9133576983586 187.08138776101805 0 187.08138776101805 -65.109659216356704 0 0 0 0 11.059871279954677 -15.535341567015166 0 -15.535341567015166 120.46498264475667 0 0 0 0 -73.370639907094301 215.86977084883802 0 215.86977084883802 33.010536391953792 0 0 0 0 -167.85805694276496 118.04123387907202 0 118.04123387907202 -4.8932705455181349 0 0 0 0 -199.56133294099709 245.43149256216566 0 245.43149256216566 -52.582081324273531 0 0 0 0 -192.04407350704423 158.38385210616252 0 158.38385210616252 35.898806035984308 0 0 0 0 -187.22665690209305 135.26587850361534 0 135.26587850361534 -44.256702044582198 0 0 0 0 -69.337442050280515 106.30187061680044 0 106.30187061680044 -58.966111236598408 0 0 0 0 -203.0964162596797 77.332425464057792 0 77.332425464057792 -81.501288572671911 0 0 0 0 -362.86848340067809 136.68090991883764 0 136.68090991883764 27.167560909980239 0 0 0 0 69.126898817272846 -16.948821783467462 0 -16.948821783467462 -60.388500999346434 0 0 0 0 -0.60114606027853845 -1.4874738998423851 0 -1.4874738998423851 -17.976028737659178 0 0 0 0 66.822373113325739 30.947449383724233 0 30.947449383724233 -43.461168336460105 0 0 0 0 178.29383509868057 20.457205306911419 0 20.457205306911419 -82.818192771796021 0 0 0 0 127.82890740945004 24.24603222562655 0 24.24603222562655 -56.05290636828795 0 0 0 0 -1.0701557928537575 22.522777652183919 0 22.522777652183919 -4.6330237027958106 0 0 0 0 -2.5386170478595886 23.540223551573945 0 23.540223551573945 -6.2605027578902082 0 0 0 0 -9.3059554698411375 33.337555849009732 0 33.337555849009732 12.040229402408386 0 0 0 0 -11.217346031141631 13.181468528290203 0 13.181468528290203 -7.3913170039063658 0 0 0 0 32.688965332468797 6.8126303455737798 0 6.8126303455737798 16.283611042803386 0 0 0 0 -5.4231134297006065 28.947369058629192 0 28.947369058629192 -1.1985166148879216 0 0 0 0 -1.7117634440292022 22.014227149660655 0 22.014227149660655 -7.6191744547249982 0 0 0 0 -6.9034506435782532 24.719405444192489 0 24.719405444192489 3.6473763965241233 0 0 0 0 -5.3291414487914039 24.113250795594283 0 24.113250795594283 -11.977783348850437 0 0 0 0 -13.263077298493471 14.04683274591784 0 14.04683274591784 11.939792821336738 0 0 0 0 -1.3785041999447998 7.0476282699662676 0 7.0476282699662676 -11.375989108510183 0 0 0 0 -22.55434431584581 11.955885194660823 0 11.955885194660823 13.996184907358838 0 0 0 0 38.063141057144094 60.042920661360768 0 60.042920661360768 -64.097042410925496 0 0 0 0 60.438139422571112 30.381034076519427 0 30.381034076519427 12.124551683446043 0 0 0 0 7.8926340976031497 58.767268943793169 0 58.767268943793169 -1.5468896253696585 0 0 0 0 2.6915003244031332 5.7735189933886915 0 5.7735189933886915 -1.4579574184208184 0 0 0 0 15.023143493542136 22.441365612260938 0 22.441365612260938 25.724381294943925 0 0 0 0 70.255685138028639 53.46470245938599 0 53.46470245938599 -2.2346656917034124 0 0 0 0 114.01810470801865 24.518410109711112 0 24.518410109711112 -28.645654688485592 0 0 0 0 105.39353444568223 7.5886182251476839 0 7.5886182251476839 -51.577460448024794 0 0 0 0 234.58266632608866 115.59110177773437 0 115.59110177773437 -154.6514683379246 0 0 0 0 42.81927654928586 55.414313196162766 0 55.414313196162766 -0.18989175835031347 0 0 0 0 108.18385816500449 -105.29507791198648 0 -105.29507791198648 -180.38584282477314 0 0 0 0 93.049880746315466 18.18501851777728 0 18.18501851777728 -45.245393994715414 0 0 0 0 -48.190998104852042 95.352126727883842 0 95.352126727883842 -85.353290243168885 0 0 0 0 2.4065304395969349 0.6326233920656108 0 0.6326233920656108 0.2944901697403175 0 0 0 0 208.86173870103084 -12.491232512580609 0 -12.491232512580609 -118.86871128821804 0 0 0 0 107.57497184340173 158.42166816440749 0 158.42166816440749 158.42658278884483 0 0 0 0 148.01644472432963 110.05879670729701 0 110.05879670729701 -37.194364052535093 0 0 0 0 147.99119004332897 -29.203362212645516 0 -29.203362212645516 -69.240244579894352 0 0 0 0 241.71790167145082 -53.837694807488333 0 -53.837694807488333 -65.076532751729246 0 0 0 0 -102.51540660261526 -93.38420881019556 0 -93.38420881019556 -2.6878874332978739 0 0 0 0 181.4790895494225 97.453636772930622 0 97.453636772930622 19.144731730877538 0 0 0 0 -5.0161467389494163 4.454987780854907 0 4.454987780854907 3.7006916310781861 0 0 0 0 43.917451213972527 -35.076072692849266 0 -35.076072692849266 11.349572833165439 0 0 0 0 169.80896313487392 73.420815586338904 0 73.420815586338904 78.496842317334085 0 0 0 0 -13.368326088245116 27.440747876257774 0 27.440747876257774 -32.71237776102236 0 0 0 0 -3.7263052490816335 31.666048106685594 0 31.666048106685594 -36.0544562447717 0 0 0 0 6.2397538853838341 53.743061876351931 0 53.743061876351931 -11.794640661119047 0 0 0 0 -20.822131007706048 32.701580304299569 0 32.701580304299569 -35.28250214451009 0 0 0 0 56.824769453320187 78.556031602001894 0 78.556031602001894 -130.12177994984268 0 0 0 0 38.71423614735977 57.088425995491889 0 57.088425995491889 11.995996720201219 0 0 0 0 31.980036361572274 97.593852563344626 0 97.593852563344626 -102.34997356836539 0 0 0 0 3.5983627661062201 65.161015557274538 0 65.161015557274538 -41.903015438307193 0 0 0 0 -13.327400923687946 23.35373869437452 0 23.35373869437452 -29.655277984788285 0 0 0 0 7.2039475771799744 8.4169896527564774 0 8.4169896527564774 -9.9591766459274655 0 0 0 0 -12.614430682384409 -24.557357544923434 0 -24.557357544923434 -12.654171364352806 0 0 0 0 -1.6627256158972159 20.933849605306023 0 20.933849605306023 1.3535703750385437 0 0 0 0 21.349183166646981 36.445360065014029 0 36.445360065014029 6.7842974935774691 0 0 0 0 -31.522880615939457 34.965676140553455 0 34.965676140553455 -14.441720403608137 0 0 0 0 -7.0768746034905234 40.718124621179051 0 40.718124621179051 -25.814446120698854 0 0 0 0 16.25295700890365 37.431412388319927 0 37.431412388319927 -40.705894267717859 0 0 0 0 -37.217608654813375 45.865942476118107 0 45.865942476118107 -15.487359705820836 0 0 0 0 -9.8319075838962249 26.481916927939253 0 26.481916927939253 -13.128811049653322 0 0 0 0 -17.856674389145212 25.567599121233616 0 25.567599121233616 -15.218137666030685 0 0 0 0 -2.5333149373327615 21.867087709822954 0 21.867087709822954 -13.472072344859043 0 0 0 0 -38.484173946766532 43.509961163133539 0 43.509961163133539 -51.142616564824948 0 0 0 0 -33.827978156361496 50.179064596471108 0 50.179064596471108 -41.758695123383688 0 0 0 0 -4.6878853595022747 17.133548580279424 0 17.133548580279424 -2.556847973064734 0 0 0 0 -36.206154662693734 97.425542656817413 0 97.425542656817413 -50.995755982574337 0 0 0 0 -47.749589491226288 60.775774196197887 0 60.775774196197887 -7.8447513110404543 0 0 0 0 32.17999093074468 -11.145327291465605 0 -11.145327291465605 -61.858714936907802 0 0 0 0 -102.93122573870642 130.74541442885862 0 130.74541442885862 -89.504830073614755 0 0 0 0 -74.827229393908055 -15.932956325082699 0 -15.932956325082699 90.131227951146059 0 0 0 0 16.836270314699505 39.060449306366536 0 39.060449306366536 -24.023967006429757 0 0 0 0 0.98891054397790867 0.51623988998065329 0 0.51623988998065329 -0.48759073513592011 0 0 0 0 -22.702460873078962 46.321850003191116 0 46.321850003191116 45.741714955797079 0 0 0 0 8.9651657109498046 59.220795152271904 0 59.220795152271904 12.174547943862308 0 0 0 0 -13.074844711722108 31.503326132326265 0 31.503326132326265 -3.3810238022585963 0 0 0 0 -1.3567658949032193 14.806208636262454 0 14.806208636262454 -25.265095971607764 0 0 0 0 -12.642126828236144 17.020143341258407 0 17.020143341258407 -2.1102711186874612 0 0 0 0 -16.572856800026784 22.2524539514975 0 22.2524539514975 -26.866319661483885 0 0 0 0 0.28152285519936981 6.8095393018846124 0 6.8095393018846124 -8.4574164562013046 0 0 0 0 -1.5217820680554723 21.307166355004483 0 21.307166355004483 -4.163212240681105 0 0 0 0 -19.994811413424031 13.222913318211226 0 13.222913318211226 3.6644467620753858 0 0 0 0 -36.912485522552743 39.352697199617978 0 39.352697199617978 -5.9264150817798509 0 0 0 0 -40.164066212986654 28.178579532916046 0 28.178579532916046 6.3721830748756929 0 0 0 0 -0.76735806994292943 50.682428882187196 0 50.682428882187196 16.582017616965459 0 0 0 0 -9.0674859298427464 6.9899855453519848 0 6.9899855453519848 -5.4127447692366104 0 0 0 0 5.7827209984970978 13.609410458890125 0 13.609410458890125 -10.992209923180781 0 0 0 0 -3.9226881309441524 50.458071509056026 0 50.458071509056026 -12.914569085995026 0 0 0 0 -32.116705847387493 50.402237864695962 0 50.402237864695962 -35.680211582489278 0 0 0 0 -43.440032143058488 40.857384015585922 0 40.857384015585922 -5.0930194971342644 0 0 0 0 -15.953281659018188 21.34785607584481 0 21.34785607584481 -5.1562846718206181 0 0 0 0 -24.406966018671483 33.961773658583866 0 33.961773658583866 -21.436598949190738 0 0 0 0 -18.379384612284326 34.79115604453861 0 34.79115604453861 -28.099879811417949 0 0 0 0 -17.61114434642468 19.684632890892885 0 19.684632890892885 4.9986979338615125 0 0 0 0 2.3231107035753666 44.319961483812676 0 44.319961483812676 0.43888363806945563 0 0 0 0 -3.6523229001613799 33.11627011536757 0 33.11627011536757 3.7094539762304635 0 0 0 0 -11.993450001988094 35.501213871094251 0 35.501213871094251 10.996459685817626 0 0 0 0 -15.143149452874894 15.757855675438023 0 15.757855675438023 3.5579344287670498 0 0 0 0 -35.615147194475867 26.912374214874717 0 26.912374214874717 16.608267688462149 0 0 0 0 3.401435950977941 5.2257291049700854 0 5.2257291049700854 -1.6587170729035039 0 0 0 0 19.063722457023687 22.650300281845603 0 22.650300281845603 -29.232990258732457 0 0 0 0 -12.412678698834497 45.36817245744237 0 45.36817245744237 1.1537536497351084 0 0 0 0 -26.738931517269521 7.8018978016839355 0 7.8018978016839355 -34.922877902293294 0 0 0 0 67.05842610970285 -2.9607201874090379 0 -2.9607201874090379 -157.41529681681618 0 0 0 0 -1.3237047733354075 1.7330547931106466 0 1.7330547931106466 -0.34521628163499674 0 0 0 0 -12.323776642369921 29.146768458742372 0 29.146768458742372 163.19392409446209 0 0 0 0 15.361579871845606 132.1900731715607 0 132.1900731715607 -23.275089761078789 0 0 0 0 -24.196826659557701 60.789666670906627 0 60.789666670906627 59.793173559977731 0 0 0 0 5.0014445244305534 78.94408535430648 0 78.94408535430648 -14.132519685886564 0 0 0 0 -0.073912519030272961 189.14142255847992 0 189.14142255847992 499.5870691561654 0 0 0 0 -1.158247222062613 -0.47912163095609372 0 -0.47912163095609372 0.61620588042675228 0 0 0 0 82.835421393399884 -42.583726902583749 0 -42.583726902583749 -228.00506645789642 0 0 0 0 -0.71050208567080941 206.76186204907438 0 206.76186204907438 230.89070445381594 0 0 0 0 1.5336165333719691 174.67897110467129 0 174.67897110467129 -755.83734055793843 0 0 0 0 -0.9387574949789439 -0.38486698946279141 0 -0.38486698946279141 -0.38675412567864176 0 0 0 0 -21.030351130821145 150.46762947946775 0 150.46762947946775 -222.39803427151219 0 0 0 0 -0.21546163442690158 342.78602578682376 0 342.78602578682376 -449.14498149616702 0 0 0 0 50.417747453640914 51.953951444187624 0 51.953951444187624 -82.608354398761662 0 0 0 0 0.78379936749541912 8.0762476284548903 0 8.0762476284548903 -4.8453807245755831 0 0 0 0 -7.3272130747427582 -1.4513674736715529 0 -1.4513674736715529 -83.93511827418115 0 0 0 0 -47.78517507185461 90.540633272518789 0 90.540633272518789 -292.05996694209989 0 0 0 0 -1.5037502473319933 0.03172029478315963 0 0.03172029478315963 0.21925916545818325 0 0 0 0 -155.67206628729764 313.06968564094132 0 313.06968564094132 -307.92711778526018 0 0 0 0 -118.30919016289408 176.2110816260838 0 176.2110816260838 -55.154541592661189 0 0 0 0 -126.27942547558632 180.49588029150891 0 180.49588029150891 -4.5697421867516823 0 0 0 0 -90.968919209975866 230.20068653928683 0 230.20068653928683 -63.627408230056972 0 0 0 0 16.188797292503295 184.18412719498883 0 184.18412719498883 -61.240375387816584 0 0 0 0 -6.5282450530203278 8.640774794725516 0 8.640774794725516 -7.6655520860421511 0 0 0 0 -127.15607322302822 63.805910707735165 0 63.805910707735165 35.815849453408191 0 0 0 0 131.35796108806971 -28.298042297548818 0 -28.298042297548818 -4.7469130953286367 0 0 0 0 -241.46414933601045 335.9648007452688 0 335.9648007452688 -131.93104572410846 0 0 0 0 -85.345844369687256 200.14819426208669 0 200.14819426208669 -122.62669382432068 0 0 0 0 -317.89558144512193 550.75756544838896 0 550.75756544838896 -308.18468965918146 0 0 0 0 -220.17040670694405 323.95808216902515 0 323.95808216902515 -629.91294296581509 0 0 0 0 -491.13071559108357 211.94347473095854 0 211.94347473095854 -171.05828528528582 0 0 0 0 -35.250865614296345 305.91840868052486 0 305.91840868052486 -411.41591028767607 0 0 0 0 -25.147318734874716 407.33737908390958 0 407.33737908390958 -241.69154701681055 0 0 0 0 157.52395648184029 522.9873655776637 0 522.9873655776637 -454.4845777190867 0 0 0 0 132.37342785311921 203.81919914848913 0 203.81919914848913 -216.35970901624205 0 0 0 0 0.12579696823377162 364.18179381496202 0 364.18179381496202 -343.72434264095864 0 0 0 0 0.047641184813983273 287.26578581212652 0 287.26578581212652 -48.805888066758598 0 0 0 0 139.14662937693106 227.50060530018209 0 227.50060530018209 82.627491026803909 0 0 0 0 141.69202351381728 183.4990635470333 0 183.4990635470333 21.890188510844382 0 0 0 0 -1583.4411969132188 664.3423904790194 0 664.3423904790194 -160.95358154820678 0 0 0 0 -1.615747768336707 6.2252306642892279 0 6.2252306642892279 -5.641157942722991 0 0 0 0 783.58463182599371 164.41214231181493 0 164.41214231181493 -252.02867158696699 0 0 0 0 -606.70567426631897 214.81990266171761 0 214.81990266171761 -113.93252620052704 0 0 0 0 -446.29232942265662 447.79751978617833 0 447.79751978617833 -213.50462187782432 0 0 0 0 -179.31830159915989 238.26449471479555 0 238.26449471479555 -121.24391465708686 0 0 0 0 -166.71247960451274 66.092547853758106 0 66.092547853758106 -47.862406759548321 0 0 0 0 32.169694553302392 26.215283738964644 0 26.215283738964644 -23.810281102579438 0 0 0 0 -90.990086900463211 242.00591854132836 0 242.00591854132836 -107.76686540294622 0 0 0 0 -340.61777943755442 82.350436951223401 0 82.350436951223401 2.2635780221571622 0 0 0 0 -0.70722924864212189 1.6529117120458494 0 1.6529117120458494 -3.1328801529227803 0 0 0 0 11.324998732202815 4.0251440882140059 0 4.0251440882140059 0.83945765162201269 0 0 0 0 66.645317222748417 22.636083136644629 0 22.636083136644629 26.508813352043944 0 0 0 0 -66.165879869535274 111.29292257352336 0 111.29292257352336 -132.68661010711367 0 0 0 0 -2.505916988113313 218.08051369725399 0 218.08051369725399 -6.3818021600864085 0 0 0 0 16.853105988599964 9.9492807781462034 0 9.9492807781462034 -259.36124912889136 0 0 0 0 -37.481457423098618 52.696326763811157 0 52.696326763811157 -13.040777129564049 0 0 0 0 -72.988752593195386 17.639870559289193 0 17.639870559289193 -28.568961250912253 0 0 0 0 -35.131918337204752 29.309710299921221 0 29.309710299921221 27.578519376402255 0 0 0 0 -30.779386485926807 -11.110181652271422 0 -11.110181652271422 -9.2620174501207657 0 0 0 0 -4.1716636956193156 2.4524779652525055 0 2.4524779652525055 -0.93850156817924812 0 0 0 0 19.750950767818722 -15.776761079569042 0 -15.776761079569042 -35.533322372562907 0 0 0 0 -153.49593028593517 6.5893505157109757 0 6.5893505157109757 -11.913861400407768 0 0 0 0 -41.378086337630521 198.97033524695689 0 198.97033524695689 76.650848463370494 0 0 0 0 -343.40162492633681 -108.64240168675678 0 -108.64240168675678 69.811566326356115 0 0 0 0 64.050408701325068 87.903030910640155 0 87.903030910640155 -32.270519256906368 0 0 0 0 39.548833288521564 -12.163069466752404 0 -12.163069466752404 -82.49808845024927 0 0 0 0 28.746140849000909 16.178520416799358 0 16.178520416799358 -32.109998200752898 0 0 0 0 -253.93385277564289 -40.082088385621049 0 -40.082088385621049 -21.629578497757393 0 0 0 0 -6.6507198392646387 2.6030228743838961 0 2.6030228743838961 -183.7938163175121 0 0 0 0 -342.00438505643979 290.91728882105599 0 290.91728882105599 -127.69240275581978 0 0 0 0 144.31889220592711 245.36419226284852 0 245.36419226284852 -332.17686220120595 0 0 0 0 34.012359302704141 15.981809115637446 0 15.981809115637446 -28.661009833940994 0 0 0 0 -112.77697299909778 -325.67353059928428 0 -325.67353059928428 -493.67557195662812 0 0 0 0 -411.00757539834012 132.9825013146874 0 132.9825013146874 266.26628890681968 0 0 0 0 -3.4328845459880091 28.891810462123686 0 28.891810462123686 -11.088436664250423 0 0 0 0 11.770750777359353 69.25426007626811 0 69.25426007626811 -2.186664229764574 0 0 0 0 -127.02182210609681 26.767152278618596 0 26.767152278618596 139.91155108333987 0 0 0 0 20.823411820575345 53.131013547455233 0 53.131013547455233 13.257726877156102 0 0 0 0 41.857025531118779 63.458891358695837 0 63.458891358695837 17.900825663520664 0 0 0 0 32.379973853528554 61.564236560756399 0 61.564236560756399 24.710033342140377 0 0 0 0 18.594144176069676 50.749536792689469 0 50.749536792689469 19.433738547624671 0 0 0 0 37.392204197456294 41.534845063965804 0 41.534845063965804 23.930531092686579 0 0 0 0 39.726425243976109 49.732726764130348 0 49.732726764130348 -0.92363278828997863 0 0 0 0 -10.28476894692581 22.394963318167527 0 22.394963318167527 -29.008489530911618 0 0 0 0 6.6688230763157001 2.8654115540067266 0 2.8654115540067266 -12.905614330570444 0 0 0 0 23.241310856476503 35.298415286983072 0 35.298415286983072 -37.476943102607038 0 0 0 0 85.034278087626262 74.607519750641586 0 74.607519750641586 -31.134517215607048 0 0 0 0 65.195300474893884 64.510811918626132 0 64.510811918626132 -25.922265743656681 0 0 0 0 77.000671138740927 66.106445791519945 0 66.106445791519945 -26.672212679055519 0 0 0 0 71.362632889360611 80.648468096776014 0 80.648468096776014 -27.357291458945838 0 0 0 0 -120.55916634288587 37.658337942302751 0 37.658337942302751 -74.558608451399778 0 0 0 0 202.23950909397172 172.60930214529981 0 172.60930214529981 -47.483227768621873 0 0 0 0 -347.99867392282249 304.98032482197596 0 304.98032482197596 -50.589200238988269 0 0 0 0 -419.52724596518965 178.31470075035031 0 178.31470075035031 -1.0695776943466626 0 0 0 0 -150.23936442592094 190.85510144033469 0 190.85510144033469 -53.805264919443289 0 0 0 0 -272.82797121536714 31.804645095086016 0 31.804645095086016 3.2155866533648805 0 0 0 0 -349.32902514075249 297.5397832462404 0 297.5397832462404 -114.09776346397121 0 0 0 0 -339.48069496642347 316.40018033500019 0 316.40018033500019 -102.49468616524246 0 0 0 0 -297.60853551177206 372.85672242644432 0 372.85672242644432 -313.39162460116495 0 0 0 0 -492.22117250806332 368.61504411642818 0 368.61504411642818 -147.52504078783386 0 0 0 0 -494.29841098177985 385.2751112956812 0 385.2751112956812 -223.38340159098152 0 0 0 0 -776.40573074002168 104.10889614925691 0 104.10889614925691 -6.1790493591834093 0 0 0 0 -602.67234849146189 334.33722223536461 0 334.33722223536461 -214.29664841142403 0 0 0 0 -2.6927052712493609 5.8757553435403764 0 5.8757553435403764 -6.0845597326289749 0 0 0 0 344.91413516701027 161.32869895394015 0 161.32869895394015 -201.74231148391846 0 0 0 0 -1115.9526049657579 421.93515726806436 0 421.93515726806436 -26.909953829745064 0 0 0 0 -790.71019739772237 753.68720469468099 0 753.68720469468099 -437.88123454002198 0 0 0 0 -127.13015026168432 569.9980466854322 0 569.9980466854322 -954.35613416667184 0 0 0 0 -160.03560493393888 178.87194705114962 0 178.87194705114962 -430.0743513445741 0 0 0 0 -208.21394632809097 251.56242278606442 0 251.56242278606442 -289.01969453769561 0 0 0 0 -416.43694347484234 499.02334484035964 0 499.02334484035964 -552.83864611561876 0 0 0 0 -150.94501576127368 199.70223026781969 0 199.70223026781969 -396.04991768465698 0 0 0 0 -55.098624103829934 -25.924888007240952 0 -25.924888007240952 127.57427079650006 0 0 0 0 4.5352271181882884 -1.5950815210619993 0 -1.5950815210619993 -0.36977005328185442 0 0 0 0 -36.143765819536313 60.062631035296313 0 60.062631035296313 -51.526516472796771 0 0 0 0 -588.90942896222623 392.67249438611543 0 392.67249438611543 -488.14995082297537 0 0 0 0 -589.83916622881588 489.64764724650013 0 489.64764724650013 -71.589534629405534 0 0 0 0 -64.089086161731757 330.4686036734347 0 330.4686036734347 -425.0099484453749 0 0 0 0 -181.86314723260693 329.43649580302736 0 329.43649580302736 -452.80988831196737 0 0 0 0 -222.21863963725809 521.58834950831078 0 521.58834950831078 -728.51056611123204 0 0 0 0 -296.09095848261131 366.07248803224502 0 366.07248803224502 -403.89126733897137 0 0 0 0 -32.998155951917973 51.983646371042354 0 51.983646371042354 -8.7432424893892176 0 0 0 0 -5.0996381977065823 40.913384385746397 0 40.913384385746397 -28.849869948989806 0 0 0 0 -309.18392692583438 562.89179957743181 0 562.89179957743181 -426.59726790827335 0 0 0 0 -186.53072948606132 428.92860057333019 0 428.92860057333019 -814.0841098594974 0 0 0 0 12.455930853939208 49.398232635823661 0 49.398232635823661 -5.4565183082668227 0 0 0 0 4.4752505450504731 16.073046893567096 0 16.073046893567096 -12.287149784991584 0 0 0 0 -18.41279773093698 56.438111956491255 0 56.438111956491255 9.1959914441816011 0 0 0 0 34.251117189536785 72.955012331600301 0 72.955012331600301 22.623912427712639 0 0 0 0 13.238827953745174 39.466256591759219 0 39.466256591759219 -35.895930144886051 0 0 0 0 10.074005822733852 168.84826341811277 0 168.84826341811277 -65.100401551961113 0 0 0 0 141.53779631824136 -95.120443616091507 0 -95.120443616091507 -261.57688343194604 0 0 0 0 36.72469478511178 190.59513068024808 0 190.59513068024808 -251.51586939657864 0 0 0 0 13.644752864804104 333.15416150733654 0 333.15416150733654 -495.76540899731117 0 0 0 0 -188.51104153761571 352.23119345332088 0 352.23119345332088 -304.35383408157213 0 0 0 0 31.475060415938515 95.251754632838129 0 95.251754632838129 -77.041577276264434 0 0 0 0 -10.923020563097907 290.02670731040416 0 290.02670731040416 -318.81573020915675 0 0 0 0 15.482103507874399 203.41071210164955 0 203.41071210164955 -222.96006077520724 0 0 0 0 -31.743555588980612 157.46031051059617 0 157.46031051059617 -108.31639947488293 0 0 0 0 -45.733306212507131 213.94287256927782 0 213.94287256927782 -175.26375038506376 0 0 0 0 -5.480634256869493 52.597457521442266 0 52.597457521442266 42.740452111334889 0 0 0 0 23.885593425626933 142.76021773799221 0 142.76021773799221 -53.840738876899195 0 0 0 0 -8.8930466465279601 112.643894480585 0 112.643894480585 136.53458338460769 0 0 0 0 85.073245278211857 75.185616181955993 0 75.185616181955993 -153.19082144195272 0 0 0 0 -116.15643321045673 51.966110493020096 0 51.966110493020096 -3.1666396889049793 0 0 0 0 -136.06479255140175 127.77975794022495 0 127.77975794022495 -37.058211944339519 0 0 0 0 -81.882122277382223 68.476679968538519 0 68.476679968538519 -43.679635649794363 0 0 0 0 -15.226703220743275 91.311651850992348 0 91.311651850992348 -38.419453425166921 0 0 0 0 -76.984893578537367 51.651963942331349 0 51.651963942331349 46.177644306721049 0 0 0 0 -51.398913663280837 33.259103353495448 0 33.259103353495448 -3.4155375203990843 0 0 0 0 -28.751438534782775 119.69403126717407 0 119.69403126717407 126.44037582326564 0 0 0 0 -11.880058261885864 47.187311342662554 0 47.187311342662554 -41.751061458601228 0 0 0 0 -3.7598897095945176 74.357676995176007 0 74.357676995176007 34.230066517102387 0 0 0 0 14.217042011662215 100.13583643063248 0 100.13583643063248 -41.525641935702879 0 0 0 0 16.740554258217344 83.139129307441181 0 83.139129307441181 -33.946956508429139 0 0 0 0 -19.773734985530957 52.531202005573647 0 52.531202005573647 -45.561935875282359 0 0 0 0 -48.19436836674322 60.580102000654733 0 60.580102000654733 72.34888695259724 0 0 0 0 30.075974572012001 92.250973894675553 0 92.250973894675553 -48.986006619714317 0 0 0 0 -1.3629009796333849 42.215511353368441 0 42.215511353368441 -39.801531592743132 0 0 0 0 -1.1179644684448249 79.462205480571356 0 79.462205480571356 67.784056279153447 0 0 0 0 11.949260513332888 95.124973742767907 0 95.124973742767907 -22.062967546720756 0 0 0 0 -11.98946987786303 119.316123073364 0 119.316123073364 42.558529762183753 0 0 0 0 -49.677672408407489 54.396335575285775 0 54.396335575285775 57.447167025558883 0 0 0 0 -0.47298782803545691 20.699813799925323 0 20.699813799925323 12.827322664008534 0 0 0 0 -50.057806882498539 142.38452252628485 0 142.38452252628485 -177.58066966563638 0 0 0 0 -110.09969745694684 59.349868283872638 0 59.349868283872638 -0.053149154302445822 0 0 0 0 -39.127957016491109 95.246130703446397 0 95.246130703446397 -21.006920904475919 0 0 0 0 8.2837489651742544 96.182877979455952 0 96.182877979455952 -127.76523977371107 0 0 0 0 -8.9259644117601056 33.557975176245236 0 33.557975176245236 -105.25333785596013 0 0 0 0 -5.5991445075344473 27.114831888105982 0 27.114831888105982 -102.55862941037049 0 0 0 0 -7.2528637271711887 42.482788588022231 0 42.482788588022231 -66.690899059656658 0 0 0 0 -46.178383561558348 41.720457948678813 0 41.720457948678813 -65.968073909387385 0 0 0 0 -62.031126200053677 -42.51837084836734 0 -42.51837084836734 -56.517172719122755 0 0 0 0 23.833830780627068 105.21906607971323 0 105.21906607971323 -13.564935566093482 0 0 0 0 -144.23114209565392 217.10263581199251 0 217.10263581199251 148.20132647451828 0 0 0 0 -189.04483537037231 55.84687818096063 0 55.84687818096063 76.424456475120678 0 0 0 0 -35.227291339958256 59.846429341564246 0 59.846429341564246 -50.490573349928525 0 0 0 0 -173.01862398001231 262.56282202328657 0 262.56282202328657 -224.15408175616176 0 0 0 0 -48.998742272575328 -53.118706439025118 0 -53.118706439025118 -277.43227001234118 0 0 0 0 -343.96020234687057 -0.77673855995453778 0 -0.77673855995453778 -29.14231666874548 0 0 0 0 -26.017109652803811 126.80277623978691 0 126.80277623978691 -20.480279982017237 0 0 0 0 -63.01275552323159 89.84269367086381 0 89.84269367086381 -12.804918504567468 0 0 0 0 55.178362192564236 91.107349756443 0 91.107349756443 -50.988821210077731 0 0 0 0 -6.1959108014464377 22.886277068860231 0 22.886277068860231 -17.487781282556057 0 0 0 0 37.466181578057331 104.48774097000933 0 104.48774097000933 -45.38831713059335 0 0 0 0 0.43893730489025984 93.473966926248977 0 93.473966926248977 -32.457477916541393 0 0 0 0 3.2593470979763879 95.344389843572571 0 95.344389843572571 -42.195818951833644 0 0 0 0 12.367799392306097 75.986738726114709 0 75.986738726114709 -83.081253156640742 0 0 0 0 -13.090896770621384 61.357438713625925 0 61.357438713625925 -66.604249667550903 0 0 0 0 -23.512859066515375 56.849666841895669 0 56.849666841895669 -68.54871523365 0 0 0 0 -13.070004531076393 77.736400032703386 0 77.736400032703386 -60.868108360293263 0 0 0 0 -34.655029273162654 87.536736362017109 0 87.536736362017109 -62.609566252620425 0 0 0 0 18.817459374467489 88.503935290711524 0 88.503935290711524 -62.740821257262724 0 0 0 0 -18.273554954543229 31.837859208465701 0 31.837859208465701 27.461074987965031 0 0 0 0 -20.606545619573808 41.663162582724908 0 41.663162582724908 -27.942491226604034 0 0 0 0 -10.100000798976676 24.097110412338608 0 24.097110412338608 12.670780240085065 0 0 0 0 -14.532596264290987 24.132072444723235 0 24.132072444723235 30.786994984147896 0 0 0 0 -28.206642294400808 145.42824166527134 0 145.42824166527134 380.14274620492733 0 0 0 0 -25.762754190885971 57.011021453974536 0 57.011021453974536 -66.334070207485638 0 0 0 0 -20.669394213089411 38.757261654797588 0 38.757261654797588 -6.6383783495922906 0 0 0 0 -20.381332360296796 34.994526303414887 0 34.994526303414887 -11.596461983412155 0 0 0 0 -22.642744157359644 27.167628271185968 0 27.167628271185968 -4.7374082442566916 0 0 0 0 -8.6443956262955908 119.32196257985925 0 119.32196257985925 376.74639599564762 0 0 0 0 -9.6934672258212231 121.82042771019042 0 121.82042771019042 333.1199621665146 0 0 0 0 -7.1476835896473858 146.4682977656089 0 146.4682977656089 348.61147864464147 0 0 0 0 -45.181037813148578 125.90028766735486 0 125.90028766735486 376.0960655217059 0 0 0 0 -42.032019964066421 108.59381135900549 0 108.59381135900549 341.27042038932268 0 0 0 0 -35.583340235381911 108.63709279584509 0 108.63709279584509 298.21773285944073 0 0 0 0 -68.674129003447888 107.15916382533032 0 107.15916382533032 302.9215103730603 0 0 0 0 -45.070719459698012 88.33837413711808 0 88.33837413711808 269.80656696991355 0 0 0 0 -61.744177629894693 113.42104870085313 0 113.42104870085313 311.45477585199842 0 0 0 0 -12.328618348386954 130.19329244918481 0 130.19329244918481 303.37932545445801 0 0 0 0 2.3023554666724522 108.0776178394517 0 108.0776178394517 336.24277916584106 0 0 0 0 9.671711569877516 177.93093269679957 0 177.93093269679957 353.88184301845831 0 0 0 0 -11.664393756975187 116.45530009486902 0 116.45530009486902 308.7118423679749 0 0 0 0 113.55043102389027 180.58776693252366 0 180.58776693252366 325.30217195825026 0 0 0 0 55.826761623487982 107.60405261618871 0 107.60405261618871 357.7317605746648 0 0 0 0 34.939503761708693 263.22896282201418 0 263.22896282201418 432.55355773847259 0 0 0 0 -17.124268448642891 5.4880093857738608 0 5.4880093857738608 2.7512179763529261 0 0 0 0 -10.396066408820843 21.692471156020474 0 21.692471156020474 29.528158640707261 0 0 0 0 16.206346010159905 119.13793376554531 0 119.13793376554531 419.7300846533642 0 0 0 0 -32.82499194698903 3.5488728319724032 0 3.5488728319724032 187.76660164254918 0 0 0 0 -233.26428479322385 149.93869835722217 0 149.93869835722217 158.12636421727439 0 0 0 0 -77.939451094967808 101.81057161222998 0 101.81057161222998 89.379783932497958 0 0 0 0 -10.567821713819285 205.10367812238474 0 205.10367812238474 139.20517916542758 0 0 0 0 -41.086801290986415 61.132854881562267 0 61.132854881562267 -37.041199491217895 0 0 0 0 -51.303798467888555 48.169160087403725 0 48.169160087403725 42.067375815531705 0 0 0 0 65.202312164537943 144.8848959006682 0 144.8848959006682 -66.167644751236367 0 0 0 0 0.032754178879258689 136.95968570555851 0 136.95968570555851 339.81884720186645 0 0 0 0 -2.4784799037163268 9.9690294249607234 0 9.9690294249607234 -21.577616974104863 0 0 0 0 -19.847427902404888 81.931423858597554 0 81.931423858597554 446.24290921928696 0 0 0 0 -23.746829614450689 155.25338868263134 0 155.25338868263134 380.34343752699351 0 0 0 0 -6.270643564133934 76.05750743009412 0 76.05750743009412 246.12204230909629 0 0 0 0 -54.337873823296832 118.19091815768843 0 118.19091815768843 353.01814096094495 0 0 0 0 -41.05987855406056 125.62355563445999 0 125.62355563445999 327.8271812183666 0 0 0 0 -54.747879137554264 86.609241883099457 0 86.609241883099457 301.7526037866628 0 0 0 0 -81.611709670949494 85.90974698709033 0 85.90974698709033 308.27667679813749 0 0 0 0 -67.144925299278839 78.607737132284456 0 78.607737132284456 268.60968122357735 0 0 0 0 -45.846679368412879 49.741127922832675 0 49.741127922832675 285.5285688888689 0 0 0 0 -134.1004442803096 13.344035144196823 0 13.344035144196823 271.85726486436033 0 0 0 0 0.91160321397932975 0.20731316508833686 0 0.20731316508833686 9.8680627124033435 0 0 0 0 -189.50104443489727 -230.82685884789134 0 -230.82685884789134 234.08740909113112 0 0 0 0 -103.26975645126004 -93.029481038724043 0 -93.029481038724043 247.84130295986324 0 0 0 0 -71.941154106668819 -66.290170447065066 0 -66.290170447065066 155.98080435101292 0 0 0 0 72.893850379086871 123.75894923081978 0 123.75894923081978 149.20135644419497 0 0 0 0 -105.28662126103433 -172.6365758880122 0 -172.6365758880122 -4.2725392341817496 0 0 0 0 -79.028500710735898 116.79490521768912 0 116.79490521768912 -81.6532410123109 0 0 0 0 92.086779219975142 152.03839744205106 0 152.03839744205106 311.31163351299983 0 0 0 0 1005.4792490666159 491.54874254535116 0 491.54874254535116 -288.89099214636735 0 0 0 0 490.15657267019924 -27.188418458572414 0 -27.188418458572414 115.23744037439428 0 0 0 0 -101.9873975452665 93.917278735910259 0 93.917278735910259 65.97213700391876 0 0 0 0 59.991704414764172 13.264397672079212 0 13.264397672079212 21.904673647819436 0 0 0 0 42.908900136659213 182.00434044121357 0 182.00434044121357 140.79123369331319 0 0 0 0 4.8249446372394686 82.588088606657038 0 82.588088606657038 -36.631338788982248 0 0 0 0 152.20197338565868 73.819877079222351 0 73.819877079222351 69.648803509713616 0 0 0 0 453.82815034724899 169.4889590970688 0 169.4889590970688 -3.3135567078861641 0 0 0 0 310.9266639166126 270.93036355086224 0 270.93036355086224 118.07974285967066 0 0 0 0 -8.7967675328353785 9.0888613391945796 0 9.0888613391945796 33.465159256422623 0 0 0 0 -266.83020533139734 91.732430647583897 0 91.732430647583897 150.51700100850576 0 0 0 0 6.9977913838273977 5.492840516587421 0 5.492840516587421 -7.1296305475592021 0 0 0 0 26.416947134945985 20.922046482286532 0 20.922046482286532 62.44711024706703 0 0 0 0 176.51562667461258 153.23981714166439 0 153.23981714166439 18.553900554143183 0 0 0 0 275.74974402191947 26.908772134149331 0 26.908772134149331 -44.040640364910359 0 0 0 0 304.03983000630978 138.17676784350624 0 138.17676784350624 146.58710479105139 0 0 0 0 258.94307165306236 61.201334640289133 0 61.201334640289133 58.072500209789723 0 0 0 0 50.606989297856231 105.05453849221396 0 105.05453849221396 -12.434896872960962 0 0 0 0 174.23953017224358 168.09366821085496 0 168.09366821085496 10.000395626208046 0 0 0 0 51.659813209125787 130.8951024517155 0 130.8951024517155 65.976816786533163 0 0 0 0 156.81073552082671 126.93698139393746 0 126.93698139393746 -1.5469815280594048 0 0 0 0 51.769870592467214 113.15785106980275 0 113.15785106980275 0.42025615212332923 0 0 0 0 62.09614724075584 148.86078120609318 0 148.86078120609318 -7.8393720111489529 0 0 0 0 -76.458552184741166 122.83120135923855 0 122.83120135923855 24.75501970464029 0 0 0 0 154.43060810986026 77.937268976747873 0 77.937268976747873 -318.08502413283895 0 0 0 0 -8.3002220703874343 33.69241886583869 0 33.69241886583869 -53.14210621279409 0 0 0 0 -0.96839362717452238 2.1194917739490933 0 2.1194917739490933 -3.1204051781622866 0 0 0 0 196.68766926749959 98.220026006476473 0 98.220026006476473 -41.384921076038154 0 0 0 0 174.38529912344438 44.670730091340374 0 44.670730091340374 -262.6837798004708 0 0 0 0 173.87133760268625 52.749977576015226 0 52.749977576015226 -31.537874796183132 0 0 0 0 -4.2340608594508922 -62.716143057914451 0 -62.716143057914451 -26.256419485885999 0 0 0 0 -67.755957245470199 227.40088602146352 0 227.40088602146352 -78.817039572051726 0 0 0 0 -229.16197909050152 274.25803003298915 0 274.25803003298915 -53.701989727996988 0 0 0 0 -242.44101042996226 218.95599722485531 0 218.95599722485531 -37.378845139435725 0 0 0 0 -24.174573986372707 135.19417737815638 0 135.19417737815638 -94.467540531572013 0 0 0 0 23.139163247488231 54.985136884192428 0 54.985136884192428 23.586338909627557 0 0 0 0 9.4206565429746423 11.820186251583586 0 11.820186251583586 -15.757314736166137 0 0 0 0 -70.739407378197939 124.29966681695805 0 124.29966681695805 30.643136259765015 0 0 0 0 5.6128976716503365 58.95374863024584 0 58.95374863024584 14.681288390453489 0 0 0 0 237.61905950361324 54.131795247139962 0 54.131795247139962 -47.447882217886217 0 0 0 0 361.59339253910002 36.003716562983755 0 36.003716562983755 37.173676423466532 0 0 0 0 225.58450210032242 95.226998766480392 0 95.226998766480392 15.435001235600794 0 0 0 0 11.275858910419629 100.17331778245716 0 100.17331778245716 87.525399019803444 0 0 0 0 -181.627181180972 100.548133432334 0 100.548133432334 83.202605189057067 0 0 0 0 -13.074638890513256 1.0176290506675656 0 1.0176290506675656 0.97048611233816473 0 0 0 0 118.4438922557456 -4.1775407596796867 0 -4.1775407596796867 27.465609148090152 0 0 0 0 96.124997255137714 81.875469296181109 0 81.875469296181109 -68.722704978950787 0 0 0 0 49.213502267826698 59.063616323739552 0 59.063616323739552 -2.3685358527218341 0 0 0 0 -127.4981717736373 184.87695834245096 0 184.87695834245096 31.073505409789504 0 0 0 0 9.6090272219068993 192.27575616965231 0 192.27575616965231 -60.983440664567752 0 0 0 0 -139.64143508281632 265.40468247187118 0 265.40468247187118 -112.82374729579897 0 0 0 0 -25.993276157321816 140.20191998475275 0 140.20191998475275 -108.55451438331511 0 0 0 0 17.618555420522171 163.18776060162054 0 163.18776060162054 -155.4952049710264 0 0 0 0 124.94119595069787 13.021679738267267 0 13.021679738267267 -59.579718300028617 0 0 0 0 113.83700929859333 31.185914009365661 0 31.185914009365661 -70.376277374882193 0 0 0 0 83.400254058426071 26.055455900957895 0 26.055455900957895 27.356923052881029 0 0 0 0 52.530232270481065 35.081318287891918 0 35.081318287891918 25.553750563836729 0 0 0 0 12.93489350178303 5.8914376849961201 0 5.8914376849961201 -10.436286862247456 0 0 0 0 121.18420984885597 59.51835616086646 0 59.51835616086646 35.676901235172409 0 0 0 0 134.02353457957361 14.562232279313321 0 14.562232279313321 4.7416038010178454 0 0 0 0 -4.2668339098365724 57.317845294411697 0 57.317845294411697 17.865528438130127 0 0 0 0 -257.93371510682846 -6.4695195259628235 0 -6.4695195259628235 111.37750932504605 0 0 0 0 107.05975097619375 31.125823799517093 0 31.125823799517093 12.903383983815729 0 0 0 0 33.468656899964117 54.299453876503321 0 54.299453876503321 21.547868105955786 0 0 0 0 48.384312107905615 11.76590718828 0 11.76590718828 -13.854209465106564 0 0 0 0 232.80824136044612 -287.09333825058638 0 -287.09333825058638 -248.06371319341451 0 0 0 0 34.937447755399262 54.440689638676304 0 54.440689638676304 15.975785739774437 0 0 0 0 17.294890211498398 23.403569964310499 0 23.403569964310499 37.20650817363493 0 0 0 0 -120.59097393902266 373.43500379536272 0 373.43500379536272 236.16763977272785 0 0 0 0 -31.394845632665238 100.2946672047301 0 100.2946672047301 -376.81752593544661 0 0 0 0 3.5824073802992302 1.2494580548348608 0 1.2494580548348608 9.147963627098143 0 0 0 0 61.961337346208893 -108.59672610343841 0 -108.59672610343841 49.300349274504697 0 0 0 0 -248.99638509739088 369.67828125872802 0 369.67828125872802 -344.81710086382373 0 0 0 0 34.613221854542644 190.61292422894257 0 190.61292422894257 -199.18967093061656 0 0 0 0 -41.472369145471021 151.60047577642399 0 151.60047577642399 -184.21935012675021 0 0 0 0 -2128.3249398094158 511.43709561876858 0 511.43709561876858 420.36843974871954 0 0 0 0 -881.02334592723128 -300.26405153430824 0 -300.26405153430824 -230.33380887943531 0 0 0 0 -155.69070116479634 599.24952559497979 0 599.24952559497979 -1156.9307409512403 0 0 0 0 -13.628727536171937 432.74473320486504 0 432.74473320486504 -480.89123651364571 0 0 0 0 199.51669364191912 185.18976335844491 0 185.18976335844491 -337.33321631918625 0 0 0 0 -831.0024271423099 666.41635414602206 0 666.41635414602206 -163.41272377973655 0 0 0 0 103.47313039836445 589.07619886307475 0 589.07619886307475 -778.63672022219907 0 0 0 0 168.54034876498554 275.39273968595444 0 275.39273968595444 -298.42643327093447 0 0 0 0 164.12362647796181 164.50936959859564 0 164.50936959859564 -261.56685456070409 0 0 0 0 147.96112252034072 200.5198164515823 0 200.5198164515823 -190.94606812675556 0 0 0 0 513.22582191626861 153.42986441963512 0 153.42986441963512 -328.64616175022456 0 0 0 0 -2.5853133672052451 6.1377329597311423 0 6.1377329597311423 -11.952390184070651 0 0 0 0 214.52198016351213 6.4374216376982076 0 6.4374216376982076 24.310659816612315 0 0 0 0 127.46767093200469 125.96393156901468 0 125.96393156901468 84.784403431509418 0 0 0 0 99.57341583174366 68.287823724394912 0 68.287823724394912 54.919258043490117 0 0 0 0 112.98120921325244 91.617747782616789 0 91.617747782616789 45.523816250731215 0 0 0 0 138.07593313634425 38.518114838763722 0 38.518114838763722 -21.906989740586141 0 0 0 0 278.40825199021128 119.06605548793232 0 119.06605548793232 13.477030378100608 0 0 0 0 -4.0921010110588441 15.062680001807962 0 15.062680001807962 -37.13837638423793 0 0 0 0 -457.79332834272282 145.72420938005962 0 145.72420938005962 -47.710973232379729 0 0 0 0 -457.34578822449112 355.71739667922157 0 355.71739667922157 -61.0783235799463 0 0 0 0 -311.98941763711991 301.71848687790043 0 301.71848687790043 -21.860672119622905 0 0 0 0 -311.49734913263455 288.28596765760813 0 288.28596765760813 -63.416211712930817 0 0 0 0 -603.08581664982557 396.6670221522545 0 396.6670221522545 -125.67130308404012 0 0 0 0 -247.54602567239272 296.23488457645726 0 296.23488457645726 -162.86909550962446 0 0 0 0 -235.81923004693817 259.24000879792584 0 259.24000879792584 -47.176102225523209 0 0 0 0 -134.84749175974866 298.48366570976214 0 298.48366570976214 -221.51902236458955 0 0 0 0 -360.99558797637656 234.7215173755576 0 234.7215173755576 -106.79586822054262 0 0 0 0 -670.15209443268031 49.082146198707051 0 49.082146198707051 -205.53186574890424 0 0 0 0 -648.83767874487603 254.35573109332245 0 254.35573109332245 -78.182069366666838 0 0 0 0 176.96371075548768 55.363162994169784 0 55.363162994169784 -222.07305109628942 0 0 0 0 149.24369508347445 16.41029670046737 0 16.41029670046737 -72.460972951139411 0 0 0 0 218.82819693828787 -16.04464937911689 0 -16.04464937911689 -365.88446666731761 0 0 0 0 214.66065848995675 258.90191757262829 0 258.90191757262829 -713.82687121016352 0 0 0 0 215.2861075848341 193.0469400395632 0 193.0469400395632 -61.698475125325785 0 0 0 0 83.550461628270568 97.046997034611195 0 97.046997034611195 29.302414290115848 0 0 0 0 3.568965406598565 4.9420454449347773 0 4.9420454449347773 5.6858450607033006 0 0 0 0 -223.84692847881524 131.10101047247736 0 131.10101047247736 600.78161595878828 0 0 0 0 212.09987985392218 139.39582766177591 0 139.39582766177591 -127.21345065634159 0 0 0 0 -800.74227805498231 1365.5468268498153 0 1365.5468268498153 280.5940445445267 0 0 0 0 136.30692509902292 101.59983029325122 0 101.59983029325122 -277.81807618180619 0 0 0 0 -0.28233883326286957 5.0363726977473906 0 5.0363726977473906 -9.9778255907149997 0 0 0 0 618.37843235342734 -40.398209216924442 0 -40.398209216924442 527.02464194638014 0 0 0 0 349.87539367792851 139.09747604321001 0 139.09747604321001 -250.92907092507448 0 0 0 0 3.1367602885433001 16.098511046492259 0 16.098511046492259 -33.29192346960123 0 0 0 0 90.507040969925583 249.24293616870455 0 249.24293616870455 -273.228335380315 0 0 0 0 -48.016468001595058 -88.948297105556776 0 -88.948297105556776 155.36796573228639 0 0 0 0 164.73069356089036 23.620846041261757 0 23.620846041261757 -82.24592118556393 0 0 0 0 -314.69730825404622 253.2086721845244 0 253.2086721845244 -180.63750244878975 0 0 0 0 440.662308166824 -1180.4969488857532 0 -1180.4969488857532 1196.2580853975087 0 0 0 0 -0.97790812859514631 1.658089680442405 0 1.658089680442405 -14.072629788659668 0 0 0 0 118.31190572977357 365.01912008747786 0 365.01912008747786 -449.56184686903725 0 0 0 0 30.00895856252464 257.41236595584269 0 257.41236595584269 -212.54996229181052 0 0 0 0 -107.96675853020679 85.725687906675375 0 85.725687906675375 -304.01430099487334 0 0 0 0 108.34750171138148 222.73218170084147 0 222.73218170084147 229.8862444338265 0 0 0 0 -0.64391299531297364 -0.048491097396173188 0 -0.048491097396173188 0.11170778370926371 0 0 0 0 111.715934175234 226.53843456192953 0 226.53843456192953 17.648132053058362 0 0 0 0 112.2579296840795 108.98466326736707 0 108.98466326736707 102.03786164920893 0 0 0 0 91.923016095941421 69.08878821370854 0 69.08878821370854 76.059510499022508 0 0 0 0 78.715672145779536 42.731645444546302 0 42.731645444546302 55.49117038489203 0 0 0 0 110.3354593438562 97.364908064981137 0 97.364908064981137 151.41010428599111 0 0 0 0 105.76769899685314 140.97995377502593 0 140.97995377502593 49.339243151598566 0 0 0 0 10.77683390854196 4.1082050919423079 0 4.1082050919423079 -5.3283034673310397 0 0 0 0 175.9307156617283 210.46502082395 0 210.46502082395 179.98174129922336 0 0 0 0 147.15670890694309 94.387122228636144 0 94.387122228636144 97.106974929185526 0 0 0 0 310.05882847674548 193.26956521850479 0 193.26956521850479 -25.020539881126751 0 0 0 0 -21.318797275055118 32.85863316066316 0 32.85863316066316 9.5379415330671549 0 0 0 0 251.39151922544988 361.58340133516685 0 361.58340133516685 -100.1071167877526 0 0 0 0 152.91789380239061 114.66424572304095 0 114.66424572304095 46.547313824892626 0 0 0 0 48.210041216669993 12.284859946629892 0 12.284859946629892 -54.86547857598373 0 0 0 0 321.31210116638613 111.38446558795158 0 111.38446558795158 -120.02184939236395 0 0 0 0 217.71909497386878 241.91186425435626 0 241.91186425435626 191.55779811240063 0 0 0 0 92.554498877303558 117.50978655108702 0 117.50978655108702 5.3457176623674059 0 0 0 0 352.71318252302444 43.296193993857742 0 43.296193993857742 -35.679048269885243 0 0 0 0 -11.203436253549064 38.131739073184008 0 38.131739073184008 -9.9956236069829032 0 0 0 0 129.54617613555456 86.656280986730053 0 86.656280986730053 15.989607426035946 0 0 0 0 11.630386983011704 72.786393060369846 0 72.786393060369846 -187.85570168403501 0 0 0 0 228.75077841033635 52.520514189236565 0 52.520514189236565 208.61852831528813 0 0 0 0 30.141956207022304 304.05087480097791 0 304.05087480097791 -40.78001029240113 0 0 0 0 9.3905230004218154 3.0670787618253001 0 3.0670787618253001 -1.7714350472029139 0 0 0 0 7.649800955941906 -0.58768715811159211 0 -0.58768715811159211 -1.0184392197288616 0 0 0 0 -43.310062136159104 109.54672917018979 0 109.54672917018979 5.4369677653639883 0 0 0 0 47.847167410311158 185.74135007005771 0 185.74135007005771 -163.72913486523612 0 0 0 0 101.80522489456416 62.925481463351389 0 62.925481463351389 -191.89840811272006 0 0 0 0 -12.825560318626231 41.950451097658515 0 41.950451097658515 9.3633000303379958 0 0 0 0 78.881596999442991 99.610556105344585 0 99.610556105344585 -12.28868897630673 0 0 0 0 100.86546777283456 55.794091913287048 0 55.794091913287048 -27.490723552000418 0 0 0 0 91.869750280955486 120.10427212953618 0 120.10427212953618 -71.3253320879885 0 0 0 0 94.042029862168874 136.74810228695833 0 136.74810228695833 -181.00894023152796 0 0 0 0 60.739553404902665 30.610873102285197 0 30.610873102285197 0.45517498830373171 0 0 0 0 68.00895451555516 50.994855153088793 0 50.994855153088793 -2.2990838514451752 0 0 0 0 94.982057787216036 33.177096271112532 0 33.177096271112532 -103.63046133189346 0 0 0 0 63.482894668271911 49.86462403600126 0 49.86462403600126 8.3126723441382637 0 0 0 0 71.902355814003386 75.447872843367804 0 75.447872843367804 -91.236040422509177 0 0 0 0 4.8452633430044578 28.56856777740326 0 28.56856777740326 -12.280715203604188 0 0 0 0 69.993565507422318 39.503609979517933 0 39.503609979517933 -6.058718148025946 0 0 0 0 82.242551976800314 49.568308062134747 0 49.568308062134747 -5.4219527125678724 0 0 0 0 43.042581142919516 43.831586302942014 0 43.831586302942014 -11.46201816314715 0 0 0 0 43.46375007092405 42.319749682001913 0 42.319749682001913 2.3980701202559089 0 0 0 0 49.750659428733343 34.225993178046338 0 34.225993178046338 1.4897632718930254 0 0 0 0 52.718216143049602 38.498078798021425 0 38.498078798021425 13.606489503812202 0 0 0 0 36.804335756885848 63.538554403979106 0 63.538554403979106 43.063233017841412 0 0 0 0 101.82829392772692 42.848979713497101 0 42.848979713497101 -1.4632898359632236 0 0 0 0 45.362622971198164 36.644115088382968 0 36.644115088382968 14.040107889984441 0 0 0 0 64.450896444184764 37.106515836676408 0 37.106515836676408 -4.419698093959596 0 0 0 0 65.964316462780545 7.2343099525087702 0 7.2343099525087702 -15.01833163784886 0 0 0 0 126.74172888448811 77.494470738703967 0 77.494470738703967 -86.657604164471195 0 0 0 0 83.831382797962476 33.597858428669625 0 33.597858428669625 -0.35178558054597531 0 0 0 0 200.64283916779095 237.83895017985196 0 237.83895017985196 27.117238716091379 0 0 0 0 17.062102689458698 156.16536630490737 0 156.16536630490737 10.330586509313434 0 0 0 0 99.552944418624975 47.019657147149701 0 47.019657147149701 -88.552933210230549 0 0 0 0 408.12342784783687 30.25622488836234 0 30.25622488836234 -93.265521626162808 0 0 0 0 24.339101746827666 16.705961172672275 0 16.705961172672275 -9.4780587420224265 0 0 0 0 176.90049449849175 91.318848549955874 0 91.318848549955874 3.7122542190336389 0 0 0 0 172.75406326819211 72.682414090762904 0 72.682414090762904 38.897222029785553 0 0 0 0 172.52085914026247 80.715594604465878 0 80.715594604465878 -13.750618174992269 0 0 0 0 121.40328965979279 -117.83528444138074 0 -117.83528444138074 -54.676989808504004 0 0 0 0 329.36108081447674 -164.69712035418524 0 -164.69712035418524 -73.367820423387457 0 0 0 0 81.022378843976185 253.70560641093471 0 253.70560641093471 233.20119670985878 0 0 0 0 138.39642427757809 34.632438101229368 0 34.632438101229368 -18.162495004965809 0 0 0 0 185.56314788616146 83.69630267478351 0 83.69630267478351 -24.289713597920127 0 0 0 0 173.52786709342945 41.714581486198767 0 41.714581486198767 -1.8913681301019096 0 0 0 0 -19.580119167338125 42.46331702270254 0 42.46331702270254 -89.274413273262326 0 0 0 0 -175.81430288630872 142.14330488506903 0 142.14330488506903 -72.984892745967954 0 0 0 0 -158.69090055502238 235.97833009217356 0 235.97833009217356 -164.59777956130711 0 0 0 0 -121.72085752542625 113.67036987703614 0 113.67036987703614 -133.39796661169385 0 0 0 0 -94.557397126991418 188.67186336604209 0 188.67186336604209 -250.43815077440377 0 0 0 0 -351.89436486357283 359.59751620788495 0 359.59751620788495 -151.32490233468707 0 0 0 0 -208.60191515455153 277.25257896067342 0 277.25257896067342 -211.97253003390506 0 0 0 0 -213.94783812788228 261.51073008598905 0 261.51073008598905 -175.25603534347101 0 0 0 0 -281.95022948855149 281.22137696329355 0 281.22137696329355 -77.608768374142528 0 0 0 0 -349.38069813746188 281.38414424347502 0 281.38414424347502 -61.084648058247694 0 0 0 0 -295.88842586759711 317.42892256355844 0 317.42892256355844 -121.00414540115162 0 0 0 0 -259.53911316577432 136.73213245762599 0 136.73213245762599 -48.04291198282499 0 0 0 0 -5.6011827731347612 20.027238161343366 0 20.027238161343366 -63.155644370711101 0 0 0 0 214.23465330850377 65.592613548178633 0 65.592613548178633 -61.634297277123551 0 0 0 0 -133.43296377118349 149.97391868844716 0 149.97391868844716 -101.13967518721256 0 0 0 0 16.151754959857499 145.18154608640725 0 145.18154608640725 -83.999219226110654 0 0 0 0 87.657307707311702 187.06314726631535 0 187.06314726631535 -161.58840180526386 0 0 0 0 92.84873558880463 -13.359649946383797 0 -13.359649946383797 -77.94359840364632 0 0 0 0 72.654198114702012 31.628582169039873 0 31.628582169039873 -152.58870479374309 0 0 0 0 3.9762970561048796 27.9758420733503 0 27.9758420733503 -86.132046251598481 0 0 0 0 176.68413959892132 127.37808778094586 0 127.37808778094586 -143.15653843163454 0 0 0 0 90.440905796087463 53.8995069459761 0 53.8995069459761 -149.85736893763533 0 0 0 0 28.161317111616739 2.276158686347685 0 2.276158686347685 -29.039376551219249 0 0 0 0 37.366801489592035 17.600972661559354 0 17.600972661559354 -41.400739753094967 0 0 0 0 25.611482672076392 38.582408101877718 0 38.582408101877718 -9.8596670915195297 0 0 0 0 25.385094757115439 50.809970070575218 0 50.809970070575218 18.164372936138534 0 0 0 0 12.206613488100157 12.558040389257677 0 12.558040389257677 1.2267539137021686 0 0 0 0 -112.30900515407848 138.71241083109999 0 138.71241083109999 -23.431115538507584 0 0 0 0 50.441411686169886 46.535894571630706 0 46.535894571630706 -29.114748405103455 0 0 0 0 39.070261819564621 35.873703739460325 0 35.873703739460325 -30.519894832308637 0 0 0 0 21.452809950867959 39.334716688488697 0 39.334716688488697 -18.554294016539643 0 0 0 0 0.024064608411951127 22.635021393625678 0 22.635021393625678 -17.743983755436489 0 0 0 0 29.200509323958272 47.014201750096618 0 47.014201750096618 -17.731642409053165 0 0 0 0 2.1905959212108428 14.269497168420894 0 14.269497168420894 -20.889763868757456 0 0 0 0 23.263004394881136 28.454660720060929 0 28.454660720060929 -18.865466016491155 0 0 0 0 13.877304364671474 -0.19700382889381274 0 -0.19700382889381274 -3.6896148349436046 0 0 0 0 -2.3858853251877008 33.564343351721618 0 33.564343351721618 66.347822290255863 0 0 0 0 30.53191892022005 25.715791875471041 0 25.715791875471041 6.6157729926053435 0 0 0 0 -53.531974472884031 32.445298603379342 0 32.445298603379342 -122.87249826452171 0 0 0 0 37.829081845919063 -11.050520304655947 0 -11.050520304655947 -208.70980575215071 0 0 0 0 2.8945263835530355 0.93993754581242683 0 0.93993754581242683 -0.60060884638741641 0 0 0 0 29.473548947898962 97.070641511440044 0 97.070641511440044 -187.99960734635533 0 0 0 0 -76.80765704764417 103.12774180923589 0 103.12774180923589 -185.45186833381013 0 0 0 0 -7.2177152649092022 73.386898683689651 0 73.386898683689651 -156.48256122306339 0 0 0 0 -19.554177172394702 57.66523694724674 0 57.66523694724674 -162.37769820890389 0 0 0 0 -151.43521042407519 260.35988756616644 0 260.35988756616644 -366.84102345167048 0 0 0 0 -45.363359706483607 124.29486898116011 0 124.29486898116011 -210.8416413200539 0 0 0 0 52.691738833425916 54.771649989590514 0 54.771649989590514 -326.7716812673516 0 0 0 0 13.574460508265474 57.561505920217314 0 57.561505920217314 -0.95744026902684709 0 0 0 0 13.559927779740974 24.342656464359607 0 24.342656464359607 -24.727883534094872 0 0 0 0 -31.753741688987247 44.696701184891026 0 44.696701184891026 -33.843149471780634 0 0 0 0 2.3903257403326279 5.6687977558722196 0 5.6687977558722196 -93.5456417693822 0 0 0 0 -0.20391534008740564 30.037369735855464 0 30.037369735855464 -33.283303359716228 0 0 0 0 26.396682719208911 42.719198234459327 0 42.719198234459327 -50.095887930925528 0 0 0 0 5.249405818140076 55.028756963602063 0 55.028756963602063 -11.525874699902488 0 0 0 0 22.433234430805896 45.758012384416361 0 45.758012384416361 -17.12014166719382 0 0 0 0 63.11594377271831 27.303282540444343 0 27.303282540444343 -18.412483462806449 0 0 0 0 33.460945523729606 50.764187059985488 0 50.764187059985488 -16.411504097697616 0 0 0 0 -8.212569282577288 26.861937480430598 0 26.861937480430598 -16.161181547348065 0 0 0 0 50.842007778354855 27.132818505984687 0 27.132818505984687 -21.468602384920814 0 0 0 0 56.224506945874055 41.021932676550023 0 41.021932676550023 -30.82675144271343 0 0 0 0 12.336126010069776 8.5899907235589161 0 8.5899907235589161 -24.911656808245084 0 0 0 0 33.286870790991998 44.530236689254707 0 44.530236689254707 -32.352175254709437 0 0 0 0 20.679563461595535 34.093291594934271 0 34.093291594934271 -53.532351950896555 0 0 0 0 22.570156488392968 26.158518290059874 0 26.158518290059874 -20.478670895445248 0 0 0 0 12.157228420492174 4.7105243784753839 0 4.7105243784753839 -19.000479512724269 0 0 0 0 11.03700808094618 -7.6090093270647685 0 -7.6090093270647685 -49.187748188487603 0 0 0 0 39.718377576718922 28.398270035642781 0 28.398270035642781 -40.208818201965187 0 0 0 0 22.128258963144617 30.614396771390602 0 30.614396771390602 -20.345009434429812 0 0 0 0 -6.119471199048629 24.045080357747736 0 24.045080357747736 -25.822883928853884 0 0 0 0 28.105754142892692 38.278343516751193 0 38.278343516751193 -30.806300230007764 0 0 0 0 2.4883659242696012 34.900878227625071 0 34.900878227625071 -42.446904655036633 0 0 0 0 28.117769889318879 37.991983492840518 0 37.991983492840518 -35.506643322973105 0 0 0 0 4.0991700869883676 11.518442333303042 0 11.518442333303042 -26.951348405553603 0 0 0 0 5.5689748902964169 7.7546399977848921 0 7.7546399977848921 -10.068638884157792 0 0 0 0 -25.670438766443112 14.127266378782224 0 14.127266378782224 -24.690273383390377 0 0 0 0 -25.48631181879222 25.456859765361465 0 25.456859765361465 -11.987034189150137 0 0 0 0 195.70229572528297 170.55708291250266 0 170.55708291250266 30.113184329206888 0 0 0 0 -63.45207404651228 10.189947693310387 0 10.189947693310387 -52.395649107624195 0 0 0 0 -58.565170624759048 -33.663889791667316 0 -33.663889791667316 -65.341415113769472 0 0 0 0 50.769061285885982 81.495327672957501 0 81.495327672957501 30.508552010105632 0 0 0 0 167.32914047698432 35.781078115091077 0 35.781078115091077 -68.080495635651459 0 0 0 0 -68.194672493744292 11.256872927489894 0 11.256872927489894 158.1604146069003 0 0 0 0 159.30934704004903 75.032357332296669 0 75.032357332296669 24.056248809232784 0 0 0 0 -3.2220623881732422 2.8319537141631912 0 2.8319537141631912 -6.236831868083101 0 0 0 0 222.94694063796487 120.87586720430954 0 120.87586720430954 21.44284514842002 0 0 0 0 413.35320538483938 -148.1508673692706 0 -148.1508673692706 35.579094381944742 0 0 0 0 140.8119355421004 39.130766489979578 0 39.130766489979578 49.595738156946027 0 0 0 0 -89.158524931212014 59.129199660375889 0 59.129199660375889 40.704226273145878 0 0 0 0 2.8027907745454286 1.5479330227591959 0 1.5479330227591959 3.6537633786342667 0 0 0 0 483.78700749839481 131.43264865545643 0 131.43264865545643 24.228774929892097 0 0 0 0 117.15765422627737 -22.878848164633382 0 -22.878848164633382 104.03323905503203 0 0 0 0 150.03940680513915 -140.77457346713345 0 -140.77457346713345 118.99422120169038 0 0 0 0 321.92666496950551 4.6862856872903649 0 4.6862856872903649 4.9618489949061768 0 0 0 0 95.676563399290899 31.190048236327129 0 31.190048236327129 40.937263545230962 0 0 0 0 99.80531968086143 15.08783742273954 0 15.08783742273954 -36.655121429854262 0 0 0 0 159.21661236361979 -74.04221675322151 0 -74.04221675322151 -46.701698191187461 0 0 0 0 -86.250403046571591 90.23005093906977 0 90.23005093906977 -35.895823445323913 0 0 0 0 122.20121933129849 -52.324230316626199 0 -52.324230316626199 -3.814400522998767 0 0 0 0 -3.7508675825656042 12.321951080837266 0 12.321951080837266 6.6343992466973702 0 0 0 0 28.339767189920551 33.40551853585437 0 33.40551853585437 -18.106645171511843 0 0 0 0 127.82013893404655 -41.484045916089599 0 -41.484045916089599 -16.842139533342561 0 0 0 0 -85.107171998686681 42.415972235387017 0 42.415972235387017 -26.926608372537885 0 0 0 0 21.923483403938576 35.022421589154192 0 35.022421589154192 -4.1510593507332771 0 0 0 0 72.312681184837857 35.938397601712495 0 35.938397601712495 -8.3356860193744069 0 0 0 0 74.09575984156254 33.067812396209774 0 33.067812396209774 -5.0726755565119674 0 0 0 0 -4.7671618124323274 25.316919441987437 0 25.316919441987437 -15.56722360494399 0 0 0 0 114.37073869497544 23.992856078049954 0 23.992856078049954 -36.672272087940655 0 0 0 0 21.910971754074126 29.094432995869283 0 29.094432995869283 -26.471307431202149 0 0 0 0 59.798378458966909 28.910915355103498 0 28.910915355103498 -24.672428376637981 0 0 0 0 11.283198800601518 23.390402877681566 0 23.390402877681566 -26.822773908501773 0 0 0 0 44.70478095508588 43.92974911537749 0 43.92974911537749 -22.505264787265332 0 0 0 0 46.273657691914408 8.7267241366816393 0 8.7267241366816393 -23.553340465093711 0 0 0 0 31.352906337124296 33.643143496548873 0 33.643143496548873 49.63990233434015 0 0 0 0 22.481595286704021 40.631303712067009 0 40.631303712067009 -28.665043287239087 0 0 0 0 -14.080475004974261 30.992724106433187 0 30.992724106433187 -13.246850607550812 0 0 0 0 -21.929888799938453 39.054761553720709 0 39.054761553720709 -34.974984244981897 0 0 0 0 3.065280272963534 25.339689999922058 0 25.339689999922058 -18.205199987425516 0 0 0 0 29.156023029019707 -37.884505596759936 0 -37.884505596759936 -26.904102594649885 0 0 0 0 55.069142040759971 8.8185755842471849 0 8.8185755842471849 -18.581695735187139 0 0 0 0 107.64528791850171 31.687144605093636 0 31.687144605093636 -66.905904121842468 0 0 0 0 21.956836368715756 32.427218773085116 0 32.427218773085116 -32.230707017272266 0 0 0 0 -17.964923901115981 40.078777680428175 0 40.078777680428175 -36.31829878174176 0 0 0 0 19.680413641927615 -8.3792612233733053 0 -8.3792612233733053 -2.20562410931052 0 0 0 0 62.911475927874562 74.328678381287318 0 74.328678381287318 -75.304008025883377 0 0 0 0 130.13202906988408 58.992302826899049 0 58.992302826899049 -97.521264168681228 0 0 0 0 92.419510663894471 -31.689455584462848 0 -31.689455584462848 -63.900255290151108 0 0 0 0 15.671716169147146 18.418202656650863 0 18.418202656650863 -14.132344118459571 0 0 0 0 72.133861751193763 -43.455741563393531 0 -43.455741563393531 -68.281793142712559 0 0 0 0 19.092447392555187 5.305250255856663 0 5.305250255856663 -10.768599946779432 0 0 0 0 56.352113438697415 120.35030322607781 0 120.35030322607781 -5.4281327227072325 0 0 0 0 40.855480614525732 -33.694413938792422 0 -33.694413938792422 -126.72031514263654 0 0 0 0 11.576095752586468 5.5095641724614239 0 5.5095641724614239 -2.8017893435300465 0 0 0 0 76.739738688673242 64.547262582596886 0 64.547262582596886 -220.97232809040725 0 0 0 0 116.13014804218983 83.34809545394819 0 83.34809545394819 -26.287444265079102 0 0 0 0 90.587645409352263 1.1224567337485496 0 1.1224567337485496 65.074520559737721 0 0 0 0 111.92066443229851 -45.247916726526455 0 -45.247916726526455 -4.7285019552655285 0 0 0 0 83.236070558945357 35.338177427307528 0 35.338177427307528 -88.545448242366547 0 0 0 0 91.365810566356231 -38.282406016776804 0 -38.282406016776804 -138.61736703675706 0 0 0 0 105.79556123839575 155.26920410149614 0 155.26920410149614 -289.29674100208649 0 0 0 0 47.294074898003601 263.85642132902103 0 263.85642132902103 -33.143725112444372 0 0 0 0 145.24599638162181 299.90727979010626 0 299.90727979010626 -130.57757578301607 0 0 0 0 20.05343726414867 210.16032608695605 0 210.16032608695605 -137.04709514846036 0 0 0 0 55.579145141527988 -87.483182745203521 0 -87.483182745203521 -145.85128405479554 0 0 0 0 0.21262720688025638 0.77533727705164779 0 0.77533727705164779 -2.8549074329376651 0 0 0 0 159.93848672910826 141.71885637731611 0 141.71885637731611 -317.92652031926264 0 0 0 0 -83.236975792955491 130.52550537691059 0 130.52550537691059 -84.136273469717707 0 0 0 0 101.78205644918489 202.41034528222372 0 202.41034528222372 -279.40961417523795 0 0 0 0 173.38764723725035 29.929071781058155 0 29.929071781058155 11.745390516560292 0 0 0 0 243.97061601103633 161.90742381034761 0 161.90742381034761 36.896719476346334 0 0 0 0 0.2911418181336245 2.0993990707463439 0 2.0993990707463439 -6.9547870125454097 0 0 0 0 -49.798719220369094 127.02350808318442 0 127.02350808318442 5.0800009887316264 0 0 0 0 68.534128585321014 5.358549918175413 0 5.358549918175413 12.65266898034497 0 0 0 0 -8.5594001609570114 66.472805126009916 0 66.472805126009916 -42.282971442524286 0 0 0 0 -3.7742815946767223 43.541075239343627 0 43.541075239343627 24.67840926189092 0 0 0 0 0.54097605518472847 161.63838103655689 0 161.63838103655689 -121.23659171773761 0 0 0 0 26.209589410413173 99.960299355538154 0 99.960299355538154 -77.425396750852997 0 0 0 0 31.713013511194731 111.37075929109415 0 111.37075929109415 -53.774173717654776 0 0 0 0 130.38102649484063 42.504194748067675 0 42.504194748067675 -85.101151098679111 0 0 0 0 20.860234452047735 99.997091188721242 0 99.997091188721242 -63.886061727789638 0 0 0 0 19.636906220748642 81.185074374148826 0 81.185074374148826 -75.453131164875231 0 0 0 0 18.700695921346778 81.859426571281801 0 81.859426571281801 -35.603037613378547 0 0 0 0 29.976923214995622 65.061679269241722 0 65.061679269241722 -58.513588444046036 0 0 0 0 16.655392055923585 54.560614012178121 0 54.560614012178121 -39.5772948877202 0 0 0 0 8.6190900783985853 41.293751044915552 0 41.293751044915552 -48.95980132891782 0 0 0 0 53.111654482607264 33.005562538404774 0 33.005562538404774 -40.677794411451032 0 0 0 0 86.434077043217258 70.708720160964731 0 70.708720160964731 -166.45621995771944 0 0 0 0 -1.5119983806653181 66.849992224146263 0 66.849992224146263 -53.257585175160784 0 0 0 0 76.082381718519173 114.89895577230209 0 114.89895577230209 -254.73193095807073 0 0 0 0 50.89586996784351 88.281215602803627 0 88.281215602803627 1.5403675876514171 0 0 0 0 131.12881775297137 -2.7946136631653644 0 -2.7946136631653644 -110.81099863677446 0 0 0 0 -2.535326737362503 8.8892013946618995 0 8.8892013946618995 -20.657219058379155 0 0 0 0 -4.014063278997007 8.4478337597054747 0 8.4478337597054747 10.053417167327837 0 0 0 0 191.14078004738258 72.012368113464618 0 72.012368113464618 3.6536196361230395 0 0 0 0 231.83903858684971 62.374897680740105 0 62.374897680740105 -34.118685677181929 0 0 0 0 298.66325743627021 10.002124740829458 0 10.002124740829458 -27.949624418415624 0 0 0 0 47.569959044700227 125.12749753605749 0 125.12749753605749 -24.429618047492113 0 0 0 0 254.74085641205693 116.09349917811596 0 116.09349917811596 -82.84842644984019 0 0 0 0 170.82797911295802 120.87555547613374 0 120.87555547613374 -43.280076440365519 0 0 0 0 177.62615594504496 95.905119289622235 0 95.905119289622235 -15.133069636387518 0 0 0 0 136.16099270860195 81.704779993746342 0 81.704779993746342 51.58291253601783 0 0 0 0 -25.88127841979076 -25.786271120585297 0 -25.786271120585297 -21.296092595817299 0 0 0 0 -16.534091322847249 13.840442089500897 0 13.840442089500897 2.7293151955468318 0 0 0 0 -33.726826174213784 72.141544604026421 0 72.141544604026421 -50.526986030352418 0 0 0 0 -41.724153145572018 48.540269834496939 0 48.540269834496939 -0.988994744620868 0 0 0 0 -0.36381027501450092 -2.5882973764887254 0 -2.5882973764887254 -18.017797935599418 0 0 0 0 8.1589811763916522 28.523587649626982 0 28.523587649626982 -34.405817096765219 0 0 0 0 -18.058012554407469 33.762363408943202 0 33.762363408943202 -30.790750191255938 0 0 0 0 8.9610159920448496 -9.0938841480892734 0 -9.0938841480892734 -27.373143194148724 0 0 0 0 -30.698630831315313 65.387598710619386 0 65.387598710619386 -50.152283193761832 0 0 0 0 -7.9210654854600193 7.1848058889618613 0 7.1848058889618613 -1.6342505921963948 0 0 0 0 -5.1584058224919573 42.173815079018823 0 42.173815079018823 -38.12780222529301 0 0 0 0 -23.952539470654095 9.9314867297961058 0 9.9314867297961058 -2.3869012790757438 0 0 0 0 104.9813912452737 91.316262370448385 0 91.316262370448385 -24.904811252148647 0 0 0 0 -70.884009641529701 23.889591171158827 0 23.889591171158827 -31.823896752030123 0 0 0 0 -117.51861760467 -65.51994865659799 0 -65.51994865659799 164.52751664989046 0 0 0 0 18.847488688526937 -26.21973407168116 0 -26.21973407168116 -100.50100584506436 0 0 0 0 14.922905480339978 -57.108169666673348 0 -57.108169666673348 1.462166339702776 0 0 0 0 -78.834720918509447 87.655009136537501 0 87.655009136537501 69.150375516604981 0 0 0 0 -1.0746721818582472 -0.17868916833191406 0 -0.17868916833191406 2.3483645677694085 0 0 0 0 -389.58335965147489 -163.84044809073748 0 -163.84044809073748 -118.29279238161689 0 0 0 0 -150.75677899269795 142.25413398524688 0 142.25413398524688 -6.973062291261158 0 0 0 0 -162.36722911448305 79.827385316893924 0 79.827385316893924 70.917859538931225 0 0 0 0 -2.218313754999599 -33.333099748100267 0 -33.333099748100267 -57.594418537337333 0 0 0 0 -443.58956505715832 31.525669476341136 0 31.525669476341136 86.347874879529627 0 0 0 0 -11.605247491889891 67.092119092434174 0 67.092119092434174 -60.938889246989618 0 0 0 0 -22.060245309628954 197.60380522440391 0 197.60380522440391 -11.300254882226 0 0 0 0 -82.80760812812332 223.97114643889472 0 223.97114643889472 12.690262202682788 0 0 0 0 323.78789889656764 115.56333120880299 0 115.56333120880299 -600.83752711928537 0 0 0 0 -238.20372487814529 342.18860469796709 0 342.18860469796709 -100.70313125002576 0 0 0 0 0.36335690992631697 1.6894157798860334 0 1.6894157798860334 -8.5148405818824813 0 0 0 0 -3.4213573222114064 -52.412093599574291 0 -52.412093599574291 -251.1332855134242 0 0 0 0 79.16495845704776 145.26777460775338 0 145.26777460775338 -473.89093888776551 0 0 0 0 78.018321199480852 145.4524087060563 0 145.4524087060563 -163.6165263986295 0 0 0 0 88.462937546923058 115.27304229753645 0 115.27304229753645 -163.14571689382137 0 0 0 0 72.401930395353702 135.91826490306266 0 135.91826490306266 -130.21716155884496 0 0 0 0 113.0813987973379 195.19344018172887 0 195.19344018172887 -7.4178699913318269 0 0 0 0 -40.901621770113707 121.67083300716331 0 121.67083300716331 -39.593199764087331 0 0 0 0 59.128561176810763 61.700836388889002 0 61.700836388889002 -33.199177148926537 0 0 0 0 51.53874772357085 18.701057443402533 0 18.701057443402533 -255.84667600330431 0 0 0 0 -17.258562240640458 -6.4637965795554919 0 -6.4637965795554919 17.110362170413282 0 0 0 0 -4.9784611251175193 29.396670507463796 0 29.396670507463796 -26.857987486131606 0 0 0 0 -4.6687424131159787 35.07473501739878 0 35.07473501739878 12.346089059705264 0 0 0 0 -0.74217095893254736 15.054642868228257 0 15.054642868228257 -64.432174433837645 0 0 0 0 5.854410577919225 45.867063878416957 0 45.867063878416957 44.320047564309789 0 0 0 0 -28.166533595001965 3.4013564455017331 0 3.4013564455017331 -0.84260857226036023 0 0 0 0 624.95141495711323 -433.10293838301004 0 -433.10293838301004 52.512527408356618 0 0 0 0 663.24179642367653 -110.22389998169729 0 -110.22389998169729 -418.16152939907624 0 0 0 0 -0.95707502518801135 0.6808657766571713 0 0.6808657766571713 5.7715322330077186 0 0 0 0 -35.517706694162371 19.682498369034874 0 19.682498369034874 133.97855274044559 0 0 0 0 372.10917582221191 -272.06410080707428 0 -272.06410080707428 415.67212157702306 0 0 0 0 -43.166931647348974 145.86995865286735 0 145.86995865286735 231.65332410137489 0 0 0 0 -71.231099006770819 310.12842469719908 0 310.12842469719908 136.32743326514901 0 0 0 0 52.124397682429844 270.93198319523071 0 270.93198319523071 -100.89351369612268 0 0 0 0 55.972082949447213 14.892457263180404 0 14.892457263180404 -5.1989397507859394 0 0 0 0 36.946769142410631 29.939142226758122 0 29.939142226758122 -13.554886859586986 0 0 0 0 9.5788261401597055 10.488843829196661 0 10.488843829196661 -26.316578331004109 0 0 0 0 53.268548490195826 19.848872724949615 0 19.848872724949615 -10.061546994867967 0 0 0 0 94.361685745141585 38.927757680532522 0 38.927757680532522 -46.141547089820961 0 0 0 0 21.82428739752504 53.319952117351932 0 53.319952117351932 -18.202698425680865 0 0 0 0 16.171084331308521 50.274736689330894 0 50.274736689330894 -5.5208405858575134 0 0 0 0 22.465901831026713 55.994860488950508 0 55.994860488950508 -16.763115394627675 0 0 0 0 26.230273580129506 59.872099779560813 0 59.872099779560813 -12.841639826598112 0 0 0 0 24.273969338304596 53.350762607296929 0 53.350762607296929 -20.30237969342852 0 0 0 0 -8.5077688397950624 62.139542576920576 0 62.139542576920576 15.588761966791935 0 0 0 0 -17.095457667252049 95.641167367139133 0 95.641167367139133 -25.10001022729557 0 0 0 0 30.265533776720986 60.751762785861501 0 60.751762785861501 -23.777889798322576 0 0 0 0 29.473981819130131 67.415359015692957 0 67.415359015692957 -8.0937908868945669 0 0 0 0 54.412073264793435 91.0787989859964 0 91.0787989859964 -90.99647694878513 0 0 0 0 218.82137290554238 22.124769080488477 0 22.124769080488477 -67.275923905850505 0 0 0 0 -145.43274064241996 129.51272565868567 0 129.51272565868567 -12.327861359197414 0 0 0 0 33.064948768354952 260.07961880882795 0 260.07961880882795 -305.86754591850331 0 0 0 0 1.2511355470315237 7.9646553013177481 0 7.9646553013177481 4.500212948155621 0 0 0 0 -20.694653572849347 31.273339347404544 0 31.273339347404544 22.048341501827963 0 0 0 0 16.728496509071192 -9.6267696249124128 0 -9.6267696249124128 -7.4698555689828936 0 0 0 0 -73.912534106566454 59.834655107202707 0 59.834655107202707 43.775405180858797 0 0 0 0 12.898914327826446 21.142555497773756 0 21.142555497773756 19.344806370102106 0 0 0 0 42.793144077756551 36.397118913675513 0 36.397118913675513 -5.6382643099350389 0 0 0 0 -2.7549538177645445 7.3533790744259022 0 7.3533790744259022 -9.0831838602607604 0 0 0 0 35.753316290505154 4.1917924738881993 0 4.1917924738881993 -21.938586493750336 0 0 0 0 15.534517383872299 23.656876185923466 0 23.656876185923466 -55.718901406522491 0 0 0 0 6.771111338333867 -0.51743072853423655 0 -0.51743072853423655 -18.342734821606427 0 0 0 0 22.967379536665248 18.165518160676584 0 18.165518160676584 -80.540170637425035 0 0 0 0 14.919679648137844 20.100938966867034 0 20.100938966867034 -68.756576884625247 0 0 0 0 24.723012302614734 -1.269634186559415 0 -1.269634186559415 -63.073633677180624 0 0 0 0 10.715643479186838 13.408371669458575 0 13.408371669458575 -84.884664088836871 0 0 0 0 9.5324377516881214 25.114790365623776 0 25.114790365623776 -62.061655561489715 0 0 0 0 -14.224669092514887 35.044580313719052 0 35.044580313719052 -101.37008688841888 0 0 0 0 21.653047261799657 28.736700944122276 0 28.736700944122276 -107.58844188928197 0 0 0 0 -3.6673366864961281 40.550334880375885 0 40.550334880375885 -103.93892170538311 0 0 0 0 22.790277029620484 29.999386450683232 0 29.999386450683232 -100.63658522060723 0 0 0 0 12.910534635768272 25.475732104096096 0 25.475732104096096 -79.591102085956663 0 0 0 0 20.896317990242096 27.717440140171675 0 27.717440140171675 -101.88957644524635 0 0 0 0 19.871080663622706 25.849590489437105 0 25.849590489437105 -102.43702761178429 0 0 0 0 8.6854008020491165 26.334521852942999 0 26.334521852942999 -148.49266625806922 0 0 0 0 21.16711431461772 35.506748209125362 0 35.506748209125362 -68.415836561180186 0 0 0 0 25.877306245114596 48.105470979324309 0 48.105470979324309 -122.20952042323552 0 0 0 0 8.5142896183642733 35.045502402761485 0 35.045502402761485 -195.51639078131848 0 0 0 0 -97.589777846009383 -31.284228787058964 0 -31.284228787058964 -112.77278421453957 0 0 0 0 -87.040048963521258 234.52012622085749 0 234.52012622085749 -73.155667804428958 0 0 0 0 3.0526859560454902 -0.52930060008672797 0 -0.52930060008672797 -4.4109448271965732 0 0 0 0 107.68901929537788 367.35125998748117 0 367.35125998748117 -241.55618696895544 0 0 0 0 2.3954399404901778 72.577814375676098 0 72.577814375676098 46.165902050764998 0 0 0 0 2.6946082636070372 1.8134225792703376 0 1.8134225792703376 0.85407628960996362 0 0 0 0 -21.27613661948044 21.712806160474429 0 21.712806160474429 11.544053220175556 0 0 0 0 1.3843237137012263 16.320149634528164 0 16.320149634528164 -13.090035927251655 0 0 0 0 -7.0077451823078718 28.159136389615014 0 28.159136389615014 30.509884631072055 0 0 0 0 0.95053891266798018 75.979538896244776 0 75.979538896244776 26.195012588490499 0 0 0 0 -6.1550587480571348 6.3030438019037973 0 6.3030438019037973 2.2880734445147652 0 0 0 0 -0.10351687391266751 26.076945977561991 0 26.076945977561991 12.210109943353018 0 0 0 0 3.1796996057960669 19.737158380303924 0 19.737158380303924 -2.4422749161688415 0 0 0 0 -24.139461082204434 64.510702931933338 0 64.510702931933338 94.08085829205811 0 0 0 0 11.803941614254654 20.858618002988806 0 20.858618002988806 5.8444413050965522 0 0 0 0 -42.89384334747956 -3.1430828869051766 0 -3.1430828869051766 45.182831497753796 0 0 0 0 -12.864483882129207 -30.316729343452607 0 -30.316729343452607 -102.63181982691458 0 0 0 0 8.1886138647223561 -13.731350859408849 0 -13.731350859408849 -90.995687364586047 0 0 0 0 1.1320183688299039 48.337991617336229 0 48.337991617336229 -120.75802335853223 0 0 0 0 -40.389923819238902 76.982685925773694 0 76.982685925773694 -144.26141846156679 0 0 0 0 -33.338803412527341 47.571191946168256 0 47.571191946168256 -102.16539681096037 0 0 0 0 -37.134402922232766 135.59405353658804 0 135.59405353658804 -228.31259306556603 0 0 0 0 -16.149407737342088 119.6636825582807 0 119.6636825582807 -49.05717643557 0 0 0 0 73.247507783864421 57.029702007115702 0 57.029702007115702 -140.45029491114838 0 0 0 0 172.43102824356356 -10.658132972966996 0 -10.658132972966996 -110.95876402095382 0 0 0 0 34.677674662430036 22.854786901792977 0 22.854786901792977 -55.091120296347071 0 0 0 0 90.991376678019833 13.441566505523951 0 13.441566505523951 -55.001147881295765 0 0 0 0 -14.028465644058087 -25.826957530298387 0 -25.826957530298387 45.742563620231522 0 0 0 0 35.653781338035969 -8.0590314175569802 0 -8.0590314175569802 -40.152680368046276 0 0 0 0 55.78698986411564 -46.957891219157318 0 -46.957891219157318 -3.7126897281850688 0 0 0 0 99.623043576861164 -40.361268552529509 0 -40.361268552529509 -9.330619170126738 0 0 0 0 98.284712764786676 -125.97816482947178 0 -125.97816482947178 101.80257765858551 0 0 0 0 -227.18754577067557 135.37495549508822 0 135.37495549508822 -59.424750245758332 0 0 0 0 -0.72696658032899331 -2.2663456109085161 0 -2.2663456109085161 -0.91472961006098785 0 0 0 0 251.65701408449695 -108.77785723694615 0 -108.77785723694615 -48.397036132300855 0 0 0 0 -85.442883450657519 64.79902247190148 0 64.79902247190148 -64.872053063823842 0 0 0 0 -145.05222170334673 100.29182123827923 0 100.29182123827923 -75.544726399268257 0 0 0 0 -105.63951674632654 2.1263545303354476 0 2.1263545303354476 -35.566426631354261 0 0 0 0 -90.205801065349078 53.736789627655526 0 53.736789627655526 -40.981485270822304 0 0 0 0 -87.580400278768138 42.537594858149532 0 42.537594858149532 -57.409900053520687 0 0 0 0 -165.00899400367189 31.124229897775876 0 31.124229897775876 -26.247638666100102 0 0 0 0 -70.897076057012782 32.264208128013706 0 32.264208128013706 2.4591641688894015 0 0 0 0 265.02386660793809 39.232445306013688 0 39.232445306013688 -201.90611168455507 0 0 0 0 199.30883606784346 -45.166579034086681 0 -45.166579034086681 -112.78822825926181 0 0 0 0 -0.30015920830019738 -1.4567329788157863 0 -1.4567329788157863 -2.7266414048634431 0 0 0 0 -57.5295817901997 44.217629766852042 0 44.217629766852042 -16.814083606237546 0 0 0 0 -70.73270246019456 24.523400410835166 0 24.523400410835166 -27.445114310801728 0 0 0 0 -66.611539869271837 21.425321706592513 0 21.425321706592513 -27.709234023786848 0 0 0 0 68.427430520641792 120.0772771948541 0 120.0772771948541 235.83289740089094 0 0 0 0 -0.43279277369770242 2.087583829311086 0 2.087583829311086 -0.42102200486999308 0 0 0 0 45.236470262166222 51.743648698597099 0 51.743648698597099 -120.35409274681388 0 0 0 0 88.902731992875488 -23.648490704850701 0 -23.648490704850701 -46.563080963052926 0 0 0 0 14.622581043047148 2.1749802142221597 0 2.1749802142221597 -196.25750016979873 0 0 0 0 38.960297491856181 83.800934975261043 0 83.800934975261043 -14.946813471615314 0 0 0 0 38.459462787834127 45.08614210072119 0 45.08614210072119 -63.511936267808778 0 0 0 0 -22.398199061502964 46.534051696733513 0 46.534051696733513 -32.561410499823978 0 0 0 0 51.613451080448726 58.061174262695886 0 58.061174262695886 -52.379448605410289 0 0 0 0 14.369042475009337 4.6698493798321579 0 4.6698493798321579 -113.85268155086305 0 0 0 0 10.500376990417863 40.515489012148464 0 40.515489012148464 -57.258121207894874 0 0 0 0 18.754307366709327 16.423563830881903 0 16.423563830881903 -82.649054072157014 0 0 0 0 9.6957208449930476 33.032295115990564 0 33.032295115990564 -91.757356498928857 0 0 0 0 -8.0557429538021097 45.858819223052706 0 45.858819223052706 -114.96593603101792 0 0 0 0 -6.3397588688931137 35.356417106100707 0 35.356417106100707 -90.347307786389138 0 0 0 0 -48.780041543373954 73.454805805813521 0 73.454805805813521 -101.82006634993013 0 0 0 0 -37.951640303199383 52.880458434257889 0 52.880458434257889 -51.206405709428509 0 0 0 0 -60.844289639022463 43.519338732890901 0 43.519338732890901 -50.157304494379787 0 0 0 0 -16.631764854383732 48.555083797115458 0 48.555083797115458 -65.644025696412427 0 0 0 0 -16.785997372051497 51.256109569527325 0 51.256109569527325 -87.55096580152167 0 0 0 0 10.893940754414416 38.677036498191228 0 38.677036498191228 -31.243091959215235 0 0 0 0 9.3443201468362531 46.246923022365081 0 46.246923022365081 -67.91942822872079 0 0 0 0 18.206040843851042 74.911391015425579 0 74.911391015425579 -11.007508454771596 0 0 0 0 23.898560969433674 44.91283337589266 0 44.91283337589266 -36.821007406957506 0 0 0 0 -35.512468105876906 45.11432951871393 0 45.11432951871393 -26.9100249306357 0 0 0 0 -21.400840172665994 14.189092725187948 0 14.189092725187948 -2.6077396840264555 0 0 0 0 116.27400477119954 117.27790075194207 0 117.27790075194207 -9.9104179646601551 0 0 0 0 71.455952088237609 46.85286288469797 0 46.85286288469797 -12.970468841573165 0 0 0 0 76.607953808770617 68.762275009408768 0 68.762275009408768 -17.826354076634743 0 0 0 0 152.31181287560275 79.217186195435715 0 79.217186195435715 2.2278707407531328 0 0 0 0 244.8745946918234 178.216929257429 0 178.216929257429 52.491855088861485 0 0 0 0 27.567259128594742 59.086851295418455 0 59.086851295418455 43.856391276160139 0 0 0 0 59.860871624158563 18.7393164296127 0 18.7393164296127 -19.96271479553252 0 0 0 0 86.744729897152865 108.74730998527957 0 108.74730998527957 22.506616982664127 0 0 0 0 -63.135158488143134 19.790538187109632 0 19.790538187109632 12.174001019498974 0 0 0 0 -14.726712428981386 155.51275333788271 0 155.51275333788271 -191.50602773857827 0 0 0 0 -36.516959513901384 73.232535717455903 0 73.232535717455903 14.53617836596095 0 0 0 0 -33.98901250140716 103.31494582301093 0 103.31494582301093 -117.73120617127279 0 0 0 0 -60.922641156669215 180.50845260000642 0 180.50845260000642 -130.39764025503973 0 0 0 0 -113.05296541915925 271.08509557385332 0 271.08509557385332 -192.51592526948662 0 0 0 0 -0.2495730363173001 -0.66064926698946635 0 -0.66064926698946635 -1.8701394064501073 0 0 0 0 -82.947465058001853 142.42731489946891 0 142.42731489946891 -93.966073516538017 0 0 0 0 -9.3662716671879025 154.27053955067458 0 154.27053955067458 -113.2158769060552 0 0 0 0 -0.58369841769363706 -0.98313324333769003 0 -0.98313324333769003 -0.22983934028144404 0 0 0 0 -468.28061458861885 364.85528604467618 0 364.85528604467618 -132.10031681817782 0 0 0 0 -310.98376561114173 241.88872569310115 0 241.88872569310115 -126.07803598488681 0 0 0 0 -103.59097481228082 313.93912335252116 0 313.93912335252116 -249.17796226800419 0 0 0 0 -99.214794371640892 295.89502893895406 0 295.89502893895406 -239.86370605049888 0 0 0 0 -239.87681868378877 325.60891141210595 0 325.60891141210595 -242.7643921646013 0 0 0 0 -90.246098445629286 341.73202009356828 0 341.73202009356828 -311.56533930820297 0 0 0 0 -83.476209113764185 295.94419002988161 0 295.94419002988161 -260.71792611536512 0 0 0 0 -245.16267506328415 371.98587561767408 0 371.98587561767408 -192.4485495765548 0 0 0 0 -201.9118600999218 427.63621212415455 0 427.63621212415455 -247.26119008487149 0 0 0 0 -39.118843836619128 46.790448427154502 0 46.790448427154502 -42.875349055653487 0 0 0 0 -136.10869627878128 -128.32063934571124 0 -128.32063934571124 -423.95253704093375 0 0 0 0 -39.902490462392052 437.36637394204081 0 437.36637394204081 -131.97914885509817 0 0 0 0 -112.34372526635343 72.911754362274223 0 72.911754362274223 3.7188088899274589 0 0 0 0 -14.84735520808681 -5.9164634543076318 0 -5.9164634543076318 -147.59597270136874 0 0 0 0 -137.54771672587412 -84.315703836427929 0 -84.315703836427929 -103.80656815379189 0 0 0 0 -32.194196765430497 35.831916772094758 0 35.831916772094758 -28.322624830491577 0 0 0 0 197.09317873899818 33.20184191341832 0 33.20184191341832 -19.82698135307146 0 0 0 0 258.04940683476366 123.8181426516494 0 123.8181426516494 89.534276752296137 0 0 0 0 -211.00586200122007 389.88756465832557 0 389.88756465832557 -309.16371832493314 0 0 0 0 -634.19509891455345 140.9988533661417 0 140.9988533661417 -13.206013842929679 0 0 0 0 -189.61817330552628 277.70265357736662 0 277.70265357736662 -214.43927674581937 0 0 0 0 -145.96020657543886 15.987999119410233 0 15.987999119410233 -11.069266699174477 0 0 0 0 -187.4894009418681 272.16525468626241 0 272.16525468626241 -179.5596709344245 0 0 0 0 -281.51392247000331 122.30911652429131 0 122.30911652429131 -21.983033573924331 0 0 0 0 -60.493460151281852 275.92093629020383 0 275.92093629020383 -232.01492548209717 0 0 0 0 14.593413771325231 214.52183726071962 0 214.52183726071962 -240.30638715991518 0 0 0 0 -45.735342542349372 302.75959555188456 0 302.75959555188456 -275.91677084198454 0 0 0 0 -66.495495459608264 282.54482917351197 0 282.54482917351197 -275.11392079229699 0 0 0 0 -65.043866963679193 273.60157123897079 0 273.60157123897079 -220.08671627318108 0 0 0 0 -83.452338769519542 272.81381252341089 0 272.81381252341089 -216.31877206926583 0 0 0 0 -78.133994220731722 294.07077098087393 0 294.07077098087393 -250.40521925832581 0 0 0 0 -71.464342620422258 226.5593344578956 0 226.5593344578956 -239.06300171500698 0 0 0 0 -42.962510882416836 200.15300226364707 0 200.15300226364707 -303.39722073478333 0 0 0 0 -73.095539982937794 224.28207696956997 0 224.28207696956997 -242.17719774300349 0 0 0 0 -56.455130334660794 176.4645776065372 0 176.4645776065372 -326.22805380713544 0 0 0 0 -66.361396550601853 143.47249449563969 0 143.47249449563969 -228.85379087262845 0 0 0 0 -26.935083193311584 116.41428695224022 0 116.41428695224022 -291.80886801393353 0 0 0 0 -61.892887142516742 145.8284478810092 0 145.8284478810092 -450.91215574252419 0 0 0 0 -69.979262658474454 209.17157370203495 0 209.17157370203495 -306.16544449781941 0 0 0 0 -49.78745558767514 212.47454686873607 0 212.47454686873607 -504.36696960132394 0 0 0 0 -166.64369256049304 17.723782811175624 0 17.723782811175624 -810.45114972046576 0 0 0 0 0.27879660345457857 3.2164634408043042 0 3.2164634408043042 1.4067635417986537 0 0 0 0 13.148181315759302 255.73168822720254 0 255.73168822720254 -372.93600449088262 0 0 0 0 -224.06200082361056 459.6932587122501 0 459.6932587122501 -522.84115724852745 0 0 0 0 -810.009832793138 205.66082799576725 0 205.66082799576725 -27.893652803511941 0 0 0 0 -678.73917190593966 469.02223183462047 0 469.02223183462047 -287.09356218481844 0 0 0 0 -419.48613907784693 109.30221890505345 0 109.30221890505345 -431.00968904194087 0 0 0 0 -325.34805458588539 532.71345251270395 0 532.71345251270395 -520.41817104676738 0 0 0 0 -25.253085428292252 -124.51855759847967 0 -124.51855759847967 39.378043136239285 0 0 0 0 -174.54388774933068 74.294396373406926 0 74.294396373406926 214.33795758175256 0 0 0 0 -3.9134381905888702 3.522411943830889 0 3.522411943830889 -1.0692597844890805 0 0 0 0 438.1987114838812 415.41950098511734 0 415.41950098511734 -1373.595619025793 0 0 0 0 59.704670784763948 176.58289987988246 0 176.58289987988246 -6.895045079436386 0 0 0 0 199.39065310273872 215.49560401352937 0 215.49560401352937 -136.30198893154738 0 0 0 0 83.952985499750866 104.41052273086098 0 104.41052273086098 -122.08527584833791 0 0 0 0 -22.746672582838073 60.802067347161938 0 60.802067347161938 7.1660292372107506 0 0 0 0 93.704662654552521 113.47648368758382 0 113.47648368758382 -121.90934523707256 0 0 0 0 -8.3425165831740742 -224.12184345646529 0 -224.12184345646529 -187.29165902553359 0 0 0 0 241.06269578863248 144.48991845648561 0 144.48991845648561 -272.72855511205853 0 0 0 0 256.6067414516383 189.16930119392782 0 189.16930119392782 -226.3095135842741 0 0 0 0 52.274447486474855 41.860321199157625 0 41.860321199157625 -69.555625636305194 0 0 0 0 36.311469669806684 46.215674091770779 0 46.215674091770779 -57.290746055456111 0 0 0 0 -0.39628041666359159 1.194386513201664 0 1.194386513201664 -1.6343188673550628 0 0 0 0 37.823955540505267 65.640596420780639 0 65.640596420780639 5.5655359684897121 0 0 0 0 7.3185897842704435 -101.47898887428164 0 -101.47898887428164 -190.16777366007591 0 0 0 0 39.431612349140778 28.599996755649045 0 28.599996755649045 -70.571687252086122 0 0 0 0 -29.909638928216737 78.360937953053508 0 78.360937953053508 100.94591861218214 0 0 0 0 160.68101013332125 26.284588879265357 0 26.284588879265357 -288.11274765917187 0 0 0 0 -1.2910943625320215 0.77975370484637097 0 0.77975370484637097 -96.083010182024736 0 0 0 0 -0.46560078577749664 -3.8639704424131196 0 -3.8639704424131196 5.2652339842958327 0 0 0 0 -0.25099268861049495 -16.102041069170809 0 -16.102041069170809 -75.411254473219742 0 0 0 0 7.9719495777499105 -1.0716021549233119 0 -1.0716021549233119 -25.294764997386665 0 0 0 0 6.0705382364284333 -15.192625246466378 0 -15.192625246466378 -116.54234807855391 0 0 0 0 -39.251417919474079 49.586922101771052 0 49.586922101771052 -53.580801518488443 0 0 0 0 -1.2130308314572176 11.514767681073863 0 11.514767681073863 -18.858923961321125 0 0 0 0 15.491255105282107 39.435110718230135 0 39.435110718230135 -57.399866140011 0 0 0 0 -21.350567438465077 18.904190291563282 0 18.904190291563282 -193.64811772786197 0 0 0 0 -1.8420662100623479 4.2231257467723822 0 4.2231257467723822 -3.5212861220203582 0 0 0 0 -1.6350757678210357 11.254238523644744 0 11.254238523644744 -30.542365701037852 0 0 0 0 -102.16843591715886 61.727861970039157 0 61.727861970039157 -396.75324177654693 0 0 0 0 30.706417640161817 -63.14840619082679 0 -63.14840619082679 -329.7196034155786 0 0 0 0 -51.684342635457824 94.03492448097677 0 94.03492448097677 -246.41554206819274 0 0 0 0 -70.02517938494114 41.515306045628677 0 41.515306045628677 -390.63854210000136 0 0 0 0 -2.0263918709674842 1.7946149102226734 0 1.7946149102226734 0.06036144531256582 0 0 0 0 -10.129497033037818 8.1156525091485321 0 8.1156525091485321 -2.3117540344463059 0 0 0 0 -30.313444029867242 74.722541492868913 0 74.722541492868913 77.350767936262855 0 0 0 0 11.199540934469951 126.60126762902655 0 126.60126762902655 -596.4208661781613 0 0 0 0 -6.2608912337909715 -1.5108556998311542 0 -1.5108556998311542 40.988395126114483 0 0 0 0 -58.009781294722075 45.133193195557396 0 45.133193195557396 -475.35691450661398 0 0 0 0 -25.93583388386287 28.964733504864853 0 28.964733504864853 19.679629360995023 0 0 0 0 -20.712077839205449 22.570988214894896 0 22.570988214894896 -28.319874007691396 0 0 0 0 -85.212891410581506 -34.302546308099409 0 -34.302546308099409 -28.107981378823752 0 0 0 0 -11.534757624349368 2.7426343478146009 0 2.7426343478146009 -76.202630375424633 0 0 0 0 -3.4741268724928887 31.051512093275051 0 31.051512093275051 -41.554799011268187 0 0 0 0 -35.496309069061681 4.5254020190623123 0 4.5254020190623123 -8.7730459559970768 0 0 0 0 -14.885859860710752 35.030115887580905 0 35.030115887580905 -22.345952011935879 0 0 0 0 -16.476435934775509 -7.5925146304361988 0 -7.5925146304361988 -32.951780394039815 0 0 0 0 -8.4015822944675165 9.2336093344492838 0 9.2336093344492838 -32.723897265619598 0 0 0 0 -42.312866429640849 1.0785663568185555 0 1.0785663568185555 -24.023727195104584 0 0 0 0 -36.154342677240493 -36.758368302340386 0 -36.758368302340386 -58.843701693404 0 0 0 0 -301.39782954209659 -182.28920342377387 0 -182.28920342377387 226.65030634237337 0 0 0 0 -69.159279284229797 5.8863120582973352 0 5.8863120582973352 -28.01488013350172 0 0 0 0 -23.666929702554626 15.046331139441463 0 15.046331139441463 -37.894785711803706 0 0 0 0 4.9818185632016139 5.3534871276206104 0 5.3534871276206104 -12.339428065432003 0 0 0 0 5.1943568770893762 11.153553578376886 0 11.153553578376886 -48.461813033063663 0 0 0 0 23.842557159020089 20.706167428237677 0 20.706167428237677 -29.224636880811886 0 0 0 0 0.88485161506014265 -9.0751646261924179 0 -9.0751646261924179 -1.1406059730215929 0 0 0 0 -1.6820829787272304 3.003742263078923 0 3.003742263078923 -16.771366312245732 0 0 0 0 48.872299888776524 -2.121027905617666 0 -2.121027905617666 -10.879130305052968 0 0 0 0 -10.595030511316509 8.3253960204629038 0 8.3253960204629038 -15.597636127175065 0 0 0 0 15.009202884992192 -17.8885360994027 0 -17.8885360994027 -10.513889710538933 0 0 0 0 -2.2939603799119368 17.372574985964093 0 17.372574985964093 -19.30197338378639 0 0 0 0 -11.0514812103861 13.751617634785362 0 13.751617634785362 -2.4426451451909088 0 0 0 0 -0.99149985344569924 4.9800245685977451 0 4.9800245685977451 -21.330924171314933 0 0 0 0 -15.898791383483967 2.2340352153987624 0 2.2340352153987624 -20.100629719556309 0 0 0 0 20.422279315674132 -15.423982157924911 0 -15.423982157924911 -31.655401748830627 0 0 0 0 34.040738115872045 7.5878082005365286 0 7.5878082005365286 -43.043417221128038 0 0 0 0 1.7566637840915875 13.332056988085725 0 13.332056988085725 -16.221504354581185 0 0 0 0 35.271509236394195 -4.5228645419047098 0 -4.5228645419047098 -41.42950402549468 0 0 0 0 22.874783625246323 14.391720047275157 0 14.391720047275157 -41.875278206265648 0 0 0 0 7.0471279036614618 13.386823793195163 0 13.386823793195163 -2.0474018168170005 0 0 0 0 -3.2172293428285661 10.768997894633539 0 10.768997894633539 -4.9717627088102176 0 0 0 0 16.287333855699728 6.5203951881594548 0 6.5203951881594548 -14.710525007656543 0 0 0 0 5.5399690621912008 3.268949504561391 0 3.268949504561391 -6.3249888385592641 0 0 0 0 0.50251877927249744 5.3711389404646752 0 5.3711389404646752 -1.7536157127701699 0 0 0 0 2.916922152195184 8.5195127493352629 0 8.5195127493352629 4.680310764699243 0 0 0 0 11.99819816990248 -6.7766526377308764 0 -6.7766526377308764 -36.955948586492923 0 0 0 0 1.659916432733759 2.4940534447419793 0 2.4940534447419793 -7.4725405588866067 0 0 0 0 36.950434136401782 30.637715743949229 0 30.637715743949229 -13.66724628758675 0 0 0 0 4.1804309976426808 5.4470745216293182 0 5.4470745216293182 -3.5814075398805585 0 0 0 0 7.0355931569283712 1.4430971423134906 0 1.4430971423134906 -17.492393578635529 0 0 0 0 -7.0917060166470947 24.699179066690704 0 24.699179066690704 -40.926752556144493 0 0 0 0 79.023717446224509 -120.23799394530943 0 -120.23799394530943 -219.87510264213779 0 0 0 0 1.0059769010912891 0.60847308871019123 0 0.60847308871019123 -1.1133499845044526 0 0 0 0 40.249558559217121 50.455915313388687 0 50.455915313388687 40.301557631813921 0 0 0 0 -0.45501015361261876 1.2282724067675517 0 1.2282724067675517 4.2176671375683554 0 0 0 0 -14.704185652132765 7.0567007722420385 0 7.0567007722420385 13.737388644251041 0 0 0 0 23.605161426029554 23.998232268117135 0 23.998232268117135 31.326229734666413 0 0 0 0 10.403711226763335 53.185615509550189 0 53.185615509550189 53.196035988541553 0 0 0 0 7.8019853860059811 39.337343916522514 0 39.337343916522514 -15.335126028847299 0 0 0 0 -0.97553780131147505 3.342980014407658 0 3.342980014407658 2.4656496496754698 0 0 0 0 -0.94430847508792337 0.60885514432936994 0 0.60885514432936994 2.8217314970480061 0 0 0 0 2.8366238484867381 22.146308145020157 0 22.146308145020157 14.080155799048953 0 0 0 0 -13.823034001983686 19.765323069296755 0 19.765323069296755 3.3038642734463792 0 0 0 0 31.718974082230943 13.516099236723676 0 13.516099236723676 -7.035522566504369 0 0 0 0 -3.8190659453639983 8.9433609590869025 0 8.9433609590869025 -6.9973353662554842 0 0 0 0 6.510727520688846 14.16057626828524 0 14.16057626828524 15.296939839201514 0 0 0 0 -2.2943139239528136 11.056168773038735 0 11.056168773038735 10.001279205665924 0 0 0 0 -6.009030073822279 14.127611611684696 0 14.127611611684696 0.54559788369067519 0 0 0 0 3.2781613676933303 9.221701893846685 0 9.221701893846685 -12.928332287055852 0 0 0 0 -41.697380806505407 -47.060636683969278 0 -47.060636683969278 -11.640735197681352 0 0 0 0 -42.597604790932564 -36.860517775287008 0 -36.860517775287008 76.878858032694552 0 0 0 0 -54.053154388336225 -50.842650757876982 0 -50.842650757876982 -12.728208669148444 0 0 0 0 11.757607188612383 0.39442772656184388 0 0.39442772656184388 -25.661105291117565 0 0 0 0 12.714707191857997 9.6262661308519455 0 9.6262661308519455 -38.629048090573633 0 0 0 0 0.63146506605335162 2.4936349973868346 0 2.4936349973868346 14.981556763028493 0 0 0 0 0.65889031034438261 1.1899976544506785 0 1.1899976544506785 0.20289232366079091 0 0 0 0 -5.8433573326583428 13.639595725820982 0 13.639595725820982 -19.726882396484143 0 0 0 0 -18.188570936659289 6.0866044046451862 0 6.0866044046451862 54.541002121928614 0 0 0 0 -28.52899695618089 -22.185457012317784 0 -22.185457012317784 -19.662771285058625 0 0 0 0 -91.287682073377255 38.431647527264431 0 38.431647527264431 94.682881793793058 0 0 0 0 -23.517983548161283 22.689745791562018 0 22.689745791562018 61.021946735545498 0 0 0 0 -16.699908789239998 41.153509995419881 0 41.153509995419881 59.727769161661854 0 0 0 0 8.6680844959328169 47.982325923308963 0 47.982325923308963 61.51778623750215 0 0 0 0 -94.551812601162965 -7.0985556309533422 0 -7.0985556309533422 102.61517288230243 0 0 0 0 -119.67825133986594 -29.341977008043614 0 -29.341977008043614 175.16220662649721 0 0 0 0 -200.60212371761372 40.477951247514284 0 40.477951247514284 233.12861195868754 0 0 0 0 -32.989346894908522 74.567600830378069 0 74.567600830378069 110.42987757892115 0 0 0 0 -147.72410351630333 154.23701091375551 0 154.23701091375551 45.746236842460348 0 0 0 0 -88.75650388194299 83.852072905385285 0 83.852072905385285 108.89931435023027 0 0 0 0 5.9855442264906742 148.9849968933413 0 148.9849968933413 40.110866413771873 0 0 0 0 -129.06500842062451 -10.845629242059658 0 -10.845629242059658 -123.65106151015607 0 0 0 0 33.983905341741774 84.035939203953603 0 84.035939203953603 21.136133666266687 0 0 0 0 -63.596739688481193 143.99438209278378 0 143.99438209278378 -11.239877956511918 0 0 0 0 -106.52482743798919 78.050488478536863 0 78.050488478536863 55.027200508629903 0 0 0 0 42.677268035193265 24.245752877352061 0 24.245752877352061 -73.128467345304671 0 0 0 0 -307.15124508729696 167.48133128155314 0 167.48133128155314 117.99101216573763 0 0 0 0 -124.98670794658756 165.46859856989249 0 165.46859856989249 -165.20921054905921 0 0 0 0 0.74344326783739234 159.52586576604517 0 159.52586576604517 -730.33720972899027 0 0 0 0 -454.83452699907684 180.57172879113568 0 180.57172879113568 1425.5544583887204 0 0 0 0 -4.3196694367813073 4.2263320273754488 0 4.2263320273754488 -0.8565554836914302 0 0 0 0 -100.60622784268958 104.74162876338869 0 104.74162876338869 -118.30759651302651 0 0 0 0 354.51672057736141 260.77138851420023 0 260.77138851420023 -831.16852741601906 0 0 0 0 83.851036397650205 -270.43010602868162 0 -270.43010602868162 -608.51081835857258 0 0 0 0 352.6576441279592 1320.3384973353686 0 1320.3384973353686 -310.26499728257477 0 0 0 0 239.06787120239278 251.76411880071828 0 251.76411880071828 -750.47286176594935 0 0 0 0 -443.00387482555789 -985.56414492682688 0 -985.56414492682688 145.81043673881504 0 0 0 0 18.634465830656445 13.777798052983457 0 13.777798052983457 -4.3464006221156097 0 0 0 0 201.60784141374825 160.41904127754242 0 160.41904127754242 115.29346011087182 0 0 0 0 294.04019437849126 156.94726881144743 0 156.94726881144743 40.827565980958752 0 0 0 0 208.56155879636208 83.123426314632525 0 83.123426314632525 -78.558787871152163 0 0 0 0 227.04909408281299 170.78050504479324 0 170.78050504479324 -83.139826430691755 0 0 0 0 180.9944038388428 124.97643304489611 0 124.97643304489611 38.649100552138407 0 0 0 0 64.14070299447576 -7.2649287231615745 0 -7.2649287231615745 581.00140822632238 0 0 0 0 178.78334575175177 146.37177071892074 0 146.37177071892074 23.19683878669457 0 0 0 0 229.27573062415195 -35.86746859284176 0 -35.86746859284176 -153.61067480393103 0 0 0 0 168.12640955871757 322.91419057312305 0 322.91419057312305 268.78789225649962 0 0 0 0 381.07569346840864 -69.437270963282572 0 -69.437270963282572 116.51875294122146 0 0 0 0 0.89684695544600501 10.42803804658729 0 10.42803804658729 -3.9498829126288086 0 0 0 0 105.37530384446654 -71.919844128933619 0 -71.919844128933619 -296.49039658512265 0 0 0 0 -136.08097765764614 -133.95371469168458 0 -133.95371469168458 36.69431932255975 0 0 0 0 -235.57368468497771 773.74012379955093 0 773.74012379955093 1003.0346118600573 0 0 0 0 113.20032706396523 115.00166106518009 0 115.00166106518009 -89.942497981814086 0 0 0 0 267.11824901954424 75.706775814061984 0 75.706775814061984 -113.35764882477815 0 0 0 0 223.39840010885746 92.979243789421162 0 92.979243789421162 -114.21277063395246 0 0 0 0 0.46680360503623497 -0.52246128329770869 0 -0.52246128329770869 0.46535528658642988 0 0 0 0 284.59223215315342 137.97536840286921 0 137.97536840286921 -251.51612111891154 0 0 0 0 419.71402828522105 352.37929816351971 0 352.37929816351971 20.869540138613957 0 0 0 0 -308.55000989069504 259.25377410598958 0 259.25377410598958 345.98898624774301 0 0 0 0 231.05255675733133 138.53580370025884 0 138.53580370025884 -242.46266349431244 0 0 0 0 227.10950715489298 286.93813686076351 0 286.93813686076351 87.425973581004655 0 0 0 0 231.07007098966369 169.44769894580531 0 169.44769894580531 -250.1865098098715 0 0 0 0 -101.64176719902525 349.31654293368047 0 349.31654293368047 428.52188417618163 0 0 0 0 -32.75954063014342 2.7665035765312496 0 2.7665035765312496 -28.932928122812882 0 0 0 0 -312.08583512347491 -49.177305919043647 0 -49.177305919043647 143.42566811952565 0 0 0 0 72.153853913528565 169.11380585314328 0 169.11380585314328 -120.03769588513023 0 0 0 0 124.13030726555189 -109.9345473467547 0 -109.9345473467547 -34.129067823640071 0 0 0 0 -26.467825922064094 29.844731024888461 0 29.844731024888461 -26.18808163993981 0 0 0 0 328.0345810651695 -14.259386268840899 0 -14.259386268840899 -35.033570153056644 0 0 0 0 27.775600978321563 66.354081741221307 0 66.354081741221307 34.319090116710868 0 0 0 0 78.777731222753573 27.560235101787839 0 27.560235101787839 44.521220604976406 0 0 0 0 131.88777819524148 73.262615028681466 0 73.262615028681466 1.7979002469946863 0 0 0 0 223.63887227660598 15.639607296921895 0 15.639607296921895 -20.809193766093813 0 0 0 0 150.83004527440971 17.044306583629805 0 17.044306583629805 168.56634856280289 0 0 0 0 135.14452725563024 149.44659408832376 0 149.44659408832376 126.37920225423659 0 0 0 0 29.293235979508609 103.35186608273943 0 103.35186608273943 90.068825551017653 0 0 0 0 133.15304588115941 104.53556461827247 0 104.53556461827247 40.445176814828301 0 0 0 0 -0.27294073808239983 0.51182187674487523 0 0.51182187674487523 2.5560014032769516 0 0 0 0 211.97297222264569 154.70238312571746 0 154.70238312571746 33.216448109567864 0 0 0 0 19.301455020158073 111.79848514636979 0 111.79848514636979 67.046565772034228 0 0 0 0 167.38770827545341 69.222058545194159 0 69.222058545194159 42.220355017096153 0 0 0 0 -77.258028805761242 23.20591951719598 0 23.20591951719598 4.0549419117887737 0 0 0 0 -30.197487403891728 -29.84594393950465 0 -29.84594393950465 37.664002840523608 0 0 0 0 0.15557818566443576 -1.4081328293767772 0 -1.4081328293767772 0.68596124541471681 0 0 0 0 -25.11753561944397 7.1954603371850681 0 7.1954603371850681 -1.3598835074153612 0 0 0 0 3.4727066700609157 15.726871678343741 0 15.726871678343741 1.2090669104654808 0 0 0 0 -26.74638102972969 28.907805932671181 0 28.907805932671181 -3.0275897362735122 0 0 0 0 4.1072927338685759 20.015462854222278 0 20.015462854222278 -12.387138426063757 0 0 0 0 3.8675041043497913 19.018621846451424 0 19.018621846451424 13.982780036632903 0 0 0 0 -7.1754641721695496 9.458919067632948 0 9.458919067632948 -2.6062827381339844 0 0 0 0 -0.40634225862891782 12.694469524643594 0 12.694469524643594 -6.799761140178731 0 0 0 0 1.905952960263555 28.044391324199296 0 28.044391324199296 -1.9167633756587747 0 0 0 0 -16.030328526701176 24.368015128879122 0 24.368015128879122 -3.109638039957872 0 0 0 0 5.0557604291207099 18.872194401337765 0 18.872194401337765 3.8329916014554328 0 0 0 0 3.7005182652214899 17.490826601017034 0 17.490826601017034 -2.3123184340749958 0 0 0 0 -34.694212844538924 42.422691776882857 0 42.422691776882857 -2.8534299022503546 0 0 0 0 -16.269089302519102 15.635339007258608 0 15.635339007258608 5.0976624145405367 0 0 0 0 -1.1959445165985017 7.2060618648722254 0 7.2060618648722254 5.3444327580072581 0 0 0 0 -15.374107706331245 31.914794101017605 0 31.914794101017605 -8.5627637026482262 0 0 0 0 -31.515174735885012 27.459176050637325 0 27.459176050637325 5.7345493267034726 0 0 0 0 -31.545653259714413 12.353532686094695 0 12.353532686094695 1.4345922512147808 0 0 0 0 1.8684496203480165 -28.349797853776181 0 -28.349797853776181 -35.323207028253819 0 0 0 0 -0.39985832919712871 1.3732752194338786 0 1.3732752194338786 3.7255342128994187 0 0 0 0 -26.24647499283833 32.525140008039671 0 32.525140008039671 -3.4781095718499273 0 0 0 0 13.694048603712872 38.417747727959068 0 38.417747727959068 62.186172136600362 0 0 0 0 34.856855091315083 54.447162937616667 0 54.447162937616667 30.100939587457106 0 0 0 0 34.026102494530278 59.803769537778862 0 59.803769537778862 76.446151871641632 0 0 0 0 30.107729543386085 48.171036951753194 0 48.171036951753194 64.345308287796797 0 0 0 0 40.6861954354099 3.0841820161149371 0 3.0841820161149371 74.281655317550758 0 0 0 0 81.051172394116293 -18.012151767092291 0 -18.012151767092291 1.2267824357259087 0 0 0 0 50.242707372141012 27.233074577568914 0 27.233074577568914 76.455970577517292 0 0 0 0 51.316400085255736 65.759439157045563 0 65.759439157045563 213.51724022075086 0 0 0 0 178.35971402363066 -215.17776880163001 0 -215.17776880163001 219.69007511806558 0 0 0 0 79.684570027508016 -10.49039334779809 0 -10.49039334779809 -39.669987864675932 0 0 0 0 520.05275692798023 -96.889997345570009 0 -96.889997345570009 -425.61110424816434 0 0 0 0 90.611595893908088 71.514110380077909 0 71.514110380077909 55.685160121880472 0 0 0 0 91.565841582916619 43.391979824860755 0 43.391979824860755 29.692431636503898 0 0 0 0 -0.72479543817480163 2.1541143919485251 0 2.1541143919485251 1.6617656029309842 0 0 0 0 -0.36100630247210574 38.028440986968235 0 38.028440986968235 9.5802111104130745 0 0 0 0 16.731979257630883 97.521234248808469 0 97.521234248808469 -166.67908310927305 0 0 0 0 -3.647165301052155 -85.827466283430113 0 -85.827466283430113 175.86685135803418 0 0 0 0 -367.50196578504983 274.76236156621599 0 274.76236156621599 367.70481187253608 0 0 0 0 -5.7509048548236024 36.449107608088525 0 36.449107608088525 9.3766411482938565 0 0 0 0 7.7328804132703155 17.77337274653641 0 17.77337274653641 3.0276697738780172 0 0 0 0 -6.4891772339833551 39.063852012579446 0 39.063852012579446 11.37565925825038 0 0 0 0 6.7784575786572532 18.097486968807061 0 18.097486968807061 2.8366209305531811 0 0 0 0 -3.7872147180169122 40.022148464995553 0 40.022148464995553 11.453610262702568 0 0 0 0 -4.444232277738017 16.89125502777128 0 16.89125502777128 -7.3818938700071612 0 0 0 0 -4.5812818287035739 13.319390997343092 0 13.319390997343092 -3.1715159849029817 0 0 0 0 21.844544545378085 -5.3322151774300437 0 -5.3322151774300437 -202.98387166539032 0 0 0 0 17.32829947699009 17.521602272890419 0 17.521602272890419 2.4235567826544582 0 0 0 0 17.474257632937224 13.497146039095242 0 13.497146039095242 -280.59672413906083 0 0 0 0 35.722279339322995 -35.087256439594057 0 -35.087256439594057 27.167680451631895 0 0 0 0 -1.2380762404759267 11.508670673423552 0 11.508670673423552 -0.30609298950548691 0 0 0 0 40.905976819754869 47.636373590066796 0 47.636373590066796 29.372402984137807 0 0 0 0 2.5904236377021519 3.3374148034999109 0 3.3374148034999109 -1.9037460338895755 0 0 0 0 -27.928085060670128 37.021319790197595 0 37.021319790197595 -54.377722470686422 0 0 0 0 -38.744879999012483 58.114799721450254 0 58.114799721450254 -24.025517978137941 0 0 0 0 0.88841577308954101 0.92405373890279918 0 0.92405373890279918 0.011786854669978197 0 0 0 0 -71.923372791743532 98.830770623484568 0 98.830770623484568 -66.666351498555741 0 0 0 0 -9.6134259893333365 77.422012369555887 0 77.422012369555887 36.581609836637654 0 0 0 0 30.349432604471076 79.278184230905026 0 79.278184230905026 -292.69293432559061 0 0 0 0 -113.18438428606896 125.00964953772927 0 125.00964953772927 -137.36168766677292 0 0 0 0 -13.802953644089939 58.031477575172175 0 58.031477575172175 -193.23598333766859 0 0 0 0 78.339817793828843 26.876177790152724 0 26.876177790152724 -235.26684584912891 0 0 0 0 7.5726847372425254 67.368305012227211 0 67.368305012227211 -238.1800287510996 0 0 0 0 -102.35133137260709 101.20461357966997 0 101.20461357966997 -214.19304134970298 0 0 0 0 -49.855263421151903 117.81232794368407 0 117.81232794368407 -293.34008883999923 0 0 0 0 -1025.4528747962031 275.22373077175143 0 275.22373077175143 706.57131647503411 0 0 0 0 45.253465195113677 71.883788312836259 0 71.883788312836259 -271.19399720108777 0 0 0 0 -599.09330114198383 -176.54877410772315 0 -176.54877410772315 30.382915748399682 0 0 0 0 325.114918586969 -224.32216648825124 0 -224.32216648825124 -225.94288331137068 0 0 0 0 243.93949794949367 142.58194360692141 0 142.58194360692141 -141.81706982705509 0 0 0 0 -66.670244865801578 30.755302784797095 0 30.755302784797095 -66.628481223320705 0 0 0 0 17.574686632130167 5.3514650716280698 0 5.3514650716280698 1.5997217719912307 0 0 0 0 358.87674141740354 86.177764610671147 0 86.177764610671147 -120.94526602854603 0 0 0 0 -69.666038462860115 55.637906336618471 0 55.637906336618471 85.579111380866379 0 0 0 0 66.037790468996036 78.424379682095605 0 78.424379682095605 -81.286898748818203 0 0 0 0 63.36357387115072 72.584038703236729 0 72.584038703236729 -90.929376470201532 0 0 0 0 -24.591607740061704 -6.5626113531325245 0 -6.5626113531325245 162.81957112287637 0 0 0 0 -10.254814395220137 -8.8650826772354776 0 -8.8650826772354776 45.801279202889418 0 0 0 0 -20.645135316929327 27.458917054185804 0 27.458917054185804 -2.4929737279599067 0 0 0 0 -138.47171687795344 138.06045103352153 0 138.06045103352153 -235.94133348231844 0 0 0 0 23.616963947649403 22.1952537392051 0 22.1952537392051 8.6513491125038513 0 0 0 0 -103.32224614925644 70.314534264587564 0 70.314534264587564 -9.7085058457887499 0 0 0 0 -54.006815993045507 87.905228207006076 0 87.905228207006076 -4.8317924484144896 0 0 0 0 325.22597445568863 855.02950417883403 0 855.02950417883403 161.81363424166921 0 0 0 0 1506.8367196338077 704.81830953794997 0 704.81830953794997 161.10159017148544 0 0 0 0 4.5016465948871343 3.118267244625855 0 3.118267244625855 0.57326509494624389 0 0 0 0 -2.9231784565932557 12.474151970114505 0 12.474151970114505 0.29126102667171949 0 0 0 0 522.71892172348817 186.59474192523339 0 186.59474192523339 -1025.3710560968466 0 0 0 0 -726.95436751060333 460.29507904520869 0 460.29507904520869 4.3506678775447654 0 0 0 0 -348.58963720848806 188.94234289825545 0 188.94234289825545 -144.98116358194966 0 0 0 0 -395.63192446327048 287.61103649517463 0 287.61103649517463 -141.22925316495821 0 0 0 0 203.91831938660471 107.93843996914802 0 107.93843996914802 92.7754060683219 0 0 0 0 168.49673092214471 36.970376544049941 0 36.970376544049941 -259.88307250776506 0 0 0 0 -36.959235594632219 -17.417991987487767 0 -17.417991987487767 -122.60145715287217 0 0 0 0 -354.1416842331098 370.71821470436043 0 370.71821470436043 -236.02187408015016 0 0 0 0 -15.401998014373021 57.796114616081468 0 57.796114616081468 -53.457261004659813 0 0 0 0 -204.44223185666397 336.17223308527173 0 336.17223308527173 -376.13039822456631 0 0 0 0 274.35118736721506 24.371458674380847 0 24.371458674380847 -47.253571328852559 0 0 0 0 -4.1413887767803672 43.988868646785662 0 43.988868646785662 4.4422818914937707 0 0 0 0 -0.82810549037037617 1.6054151989339118 0 1.6054151989339118 4.7558759333668377 0 0 0 0 -302.48145545184161 431.66860767576145 0 431.66860767576145 -185.73793741787085 0 0 0 0 -271.45937918965865 318.46778275669203 0 318.46778275669203 -252.40936960367253 0 0 0 0 -62.41505515116296 217.63893107304466 0 217.63893107304466 -277.70347489293272 0 0 0 0 -188.6094948431346 114.49662230549802 0 114.49662230549802 -123.14873875360354 0 0 0 0 20.923271757463226 83.315167370441486 0 83.315167370441486 -259.12791817671678 0 0 0 0 7.6824084931235639 9.7006726684232731 0 9.7006726684232731 -3.870559667771488 0 0 0 0 447.15056937076588 177.45805668687899 0 177.45805668687899 58.180713815745548 0 0 0 0 23.161400566969476 38.979041971388398 0 38.979041971388398 -34.037236168968491 0 0 0 0 34.260941755976091 59.373119195231993 0 59.373119195231993 -36.337807683084975 0 0 0 0 -24.717451844873722 58.528648233819695 0 58.528648233819695 -48.449334281263873 0 0 0 0 -25.44727261897242 65.507149907418352 0 65.507149907418352 -68.585199542954797 0 0 0 0 13.711208133357765 6.248879080697975 0 6.248879080697975 -10.385165202758884 0 0 0 0 -26.710054180890438 48.824812095001107 0 48.824812095001107 -44.479967145598494 0 0 0 0 -16.858109006941959 44.728305810509482 0 44.728305810509482 -53.290217840229161 0 0 0 0 7.8063046584175027 63.047734965832205 0 63.047734965832205 -67.706905814440688 0 0 0 0 -89.276346133508923 81.076528212739504 0 81.076528212739504 6.6900479916948825 0 0 0 0 1.8523007995081571 70.953983238046931 0 70.953983238046931 -34.944538652867777 0 0 0 0 4.6837392913039366 53.965618518326664 0 53.965618518326664 -42.594782867468894 0 0 0 0 0.35646454016386997 50.422045788087416 0 50.422045788087416 -51.1097786047103 0 0 0 0 -1.5677982597162554 51.794597131553019 0 51.794597131553019 -53.004549305536784 0 0 0 0 -0.68747344041003089 57.455265364234947 0 57.455265364234947 -41.758856400265358 0 0 0 0 3.3550284725497477 54.735379912133794 0 54.735379912133794 -47.678098426607903 0 0 0 0 10.805016596954374 57.6517917017336 0 57.6517917017336 -43.283405252819648 0 0 0 0 3.3785798276562105 55.925164025570666 0 55.925164025570666 -37.909556891827378 0 0 0 0 1.6265811805151316 49.391874162378372 0 49.391874162378372 -37.815056386811193 0 0 0 0 12.064660677911888 43.866243919139379 0 43.866243919139379 -47.65241254871944 0 0 0 0 -3.9872696084275958 51.868377415215946 0 51.868377415215946 -46.889642571564764 0 0 0 0 0.92343390132737113 47.047872429364361 0 47.047872429364361 -45.394866467438987 0 0 0 0 -29.967868827478014 56.560070416955568 0 56.560070416955568 -41.904323923343327 0 0 0 0 -16.475121391042194 58.096534626674838 0 58.096534626674838 -49.99531372817728 0 0 0 0 -18.09545965390862 58.801930425979663 0 58.801930425979663 -44.847404263506178 0 0 0 0 16.969389177557673 10.778370135886661 0 10.778370135886661 2.1604227950598442 0 0 0 0 -34.529854899334168 254.692204645522 0 254.692204645522 -525.65047385957587 0 0 0 0 -130.47938988233182 129.27228227031082 0 129.27228227031082 611.34002276189858 0 0 0 0 294.70909061316343 34.76883818989154 0 34.76883818989154 -126.32513684043079 0 0 0 0 42.711347810941845 20.665785868316163 0 20.665785868316163 -3.5820605094061015 0 0 0 0 -157.42582975420373 80.053315935860155 0 80.053315935860155 195.95751389857469 0 0 0 0 185.29646080914245 81.391818743664771 0 81.391818743664771 113.87497799439006 0 0 0 0 -6.1249344767384173 84.989420936122769 0 84.989420936122769 -77.871860736922827 0 0 0 0 54.653446745356632 87.519204565563996 0 87.519204565563996 -128.30469796826219 0 0 0 0 -5.8257247800834193 69.023139972430442 0 69.023139972430442 -326.57769655690936 0 0 0 0 -174.72120040453228 232.86953459966753 0 232.86953459966753 -64.38909511800739 0 0 0 0 -261.05395291308378 135.70834413242846 0 135.70834413242846 108.78143877467664 0 0 0 0 -90.771158169623959 130.91957043160437 0 130.91957043160437 -14.795212620811071 0 0 0 0 -69.037557937150268 175.66206740516645 0 175.66206740516645 119.06959567726881 0 0 0 0 -84.286696712715639 101.05275221301963 0 101.05275221301963 100.55543684477743 0 0 0 0 58.659628901572432 113.53188507798768 0 113.53188507798768 -81.299519351401614 0 0 0 0 -37.765543068740406 25.964705164343201 0 25.964705164343201 -18.279366338256267 0 0 0 0 -21.912986765013557 63.464862291526515 0 63.464862291526515 -13.726536037735059 0 0 0 0 -52.716008429046269 40.80954662025988 0 40.80954662025988 140.43504100388964 0 0 0 0 45.374996277198079 51.575491793744732 0 51.575491793744732 -24.712518015730893 0 0 0 0 -7.9686797663762334 11.713755445382631 0 11.713755445382631 13.678433895419062 0 0 0 0 -55.77361743772326 66.893359457993938 0 66.893359457993938 -2.8755560842109844 0 0 0 0 23.028416813152944 69.671416670193139 0 69.671416670193139 -39.247633083781693 0 0 0 0 -8.1396169391628064 42.246191698402981 0 42.246191698402981 -7.4882491204261896 0 0 0 0 46.247667507876031 151.44372420656146 0 151.44372420656146 2.3141976604965748 0 0 0 0 -55.811524776334409 63.600938277508249 0 63.600938277508249 14.339701786506339 0 0 0 0 -43.518414135546763 38.997594329630601 0 38.997594329630601 -24.842581707221285 0 0 0 0 -44.430970118975893 40.387287648038182 0 40.387287648038182 -19.730896344030043 0 0 0 0 -43.958543987717349 35.599453006623662 0 35.599453006623662 5.4287368106652139 0 0 0 0 1.4848896127817559 2.7556112324778397 0 2.7556112324778397 10.435951494344351 0 0 0 0 -104.18362308979931 73.914620757306693 0 73.914620757306693 -35.023664085958444 0 0 0 0 182.82507926576091 35.545979096008523 0 35.545979096008523 -23.063530211690932 0 0 0 0 13.137441636202993 80.729948413842067 0 80.729948413842067 -10.510484298545634 0 0 0 0 14.479774408178855 81.749038795023807 0 81.749038795023807 -19.235858690881287 0 0 0 0 26.47333575578682 81.843766449170289 0 81.843766449170289 -24.433342859832919 0 0 0 0 13.400586914536689 77.759738834414748 0 77.759738834414748 -16.736668626668688 0 0 0 0 17.744611990801786 69.866805599835061 0 69.866805599835061 14.870709459282807 0 0 0 0 28.529110981251506 95.815133549491293 0 95.815133549491293 -45.278199901411426 0 0 0 0 -135.31826659197213 94.375911448034458 0 94.375911448034458 19.775993825678597 0 0 0 0 382.32825175117046 310.02692467077213 0 310.02692467077213 116.61288035270263 0 0 0 0 -2.4792569565917222 4.730951826978945 0 4.730951826978945 14.863438675335317 0 0 0 0 199.86992225260656 247.384430264603 0 247.384430264603 115.40429343892356 0 0 0 0 2.4802799373518383 62.818350135540641 0 62.818350135540641 12.353205559586058 0 0 0 0 4.7980490441900159 11.214627510096641 0 11.214627510096641 19.126986533652712 0 0 0 0 80.095580010858157 116.60144624698296 0 116.60144624698296 194.03439946034996 0 0 0 0 24.335046252780447 8.3292651830020645 0 8.3292651830020645 -0.28376306019284669 0 0 0 0 142.10554402409161 124.29534780199538 0 124.29534780199538 139.9259207512805 0 0 0 0 -67.89028758168206 252.73187324598621 0 252.73187324598621 -286.8658742788175 0 0 0 0 -397.39428850169816 437.05840722712946 0 437.05840722712946 -374.96894830824749 0 0 0 0 9.1687466608259864 8.2424245671505787 0 8.2424245671505787 -15.010214984734716 0 0 0 0 -253.41525128432158 -256.07245796828647 0 -256.07245796828647 -325.36327385246113 0 0 0 0 161.77942476553233 33.964313762451638 0 33.964313762451638 -222.60473317452124 0 0 0 0 -7.2035270342894364 -129.66036756525136 0 -129.66036756525136 -279.33111489341536 0 0 0 0 42.036240813435597 -106.84853648749413 0 -106.84853648749413 -356.46141566459846 0 0 0 0 39.282601519741327 144.09333791045088 0 144.09333791045088 -267.82012888026657 0 0 0 0 204.35756402050038 37.257566533284262 0 37.257566533284262 -228.89948197537888 0 0 0 0 258.79557296935127 144.92492256818514 0 144.92492256818514 -185.32745141512714 0 0 0 0 225.30627658670994 17.77368224793463 0 17.77368224793463 -210.34817501004727 0 0 0 0 18.555594389277282 36.038873802836449 0 36.038873802836449 4.3542738361022657 0 0 0 0 340.59402325067094 -11.473054922564188 0 -11.473054922564188 -717.70349123064807 0 0 0 0 281.20591703226421 52.25239993618743 0 52.25239993618743 -387.4680130155175 0 0 0 0 2.3210249122017785 -546.61780608546542 0 -546.61780608546542 -7.730273748311447 0 0 0 0 228.10232870802656 158.71447231452476 0 158.71447231452476 -555.23310228902847 0 0 0 0 14.624087518905071 55.480245634113089 0 55.480245634113089 -6.2160518975979357 0 0 0 0 10.609066030316171 61.941734491745592 0 61.941734491745592 -18.20602082208643 0 0 0 0 12.129437757066626 42.68726443311607 0 42.68726443311607 -26.897638509632088 0 0 0 0 15.285917284161087 70.954512129782415 0 70.954512129782415 -28.022121569578303 0 0 0 0 16.006544058837562 65.995403287027329 0 65.995403287027329 -1.2516390615637647 0 0 0 0 21.188809054909143 41.807541487731214 0 41.807541487731214 31.968585157324924 0 0 0 0 33.98793539880478 38.195944562798573 0 38.195944562798573 1.8232192734893431 0 0 0 0 25.533711857628077 57.572735706744425 0 57.572735706744425 -13.217887499682547 0 0 0 0 -67.355139028601116 133.51966769656792 0 133.51966769656792 -283.13424550147647 0 0 0 0 -51.643866770071327 116.26516572213677 0 116.26516572213677 -269.09625496708759 0 0 0 0 -43.939669513154513 105.34456387777755 0 105.34456387777755 -468.990967298756 0 0 0 0 -80.506386745590135 144.4229235955172 0 144.4229235955172 -430.33959705421512 0 0 0 0 -53.082856681852718 -1.2552851072905469 0 -1.2552851072905469 -302.86976278867223 0 0 0 0 -56.96007609537628 33.942035506079264 0 33.942035506079264 -577.14802084920484 0 0 0 0 -99.407963716592349 187.04601135080338 0 187.04601135080338 -508.17642904298555 0 0 0 0 3.5511429417165346 249.29905381107164 0 249.29905381107164 -532.60425509136257 0 0 0 0 -109.96980421963235 379.02337001767955 0 379.02337001767955 -374.37793516418242 0 0 0 0 2.5522893768065842 349.83837223162118 0 349.83837223162118 -343.18925594075426 0 0 0 0 -25.027338632848114 245.78650259321148 0 245.78650259321148 -360.03649739283719 0 0 0 0 -46.028116250585299 255.25026005704785 0 255.25026005704785 -314.10095953317614 0 0 0 0 -13.431703591893893 337.13358200301082 0 337.13358200301082 -347.61122567985149 0 0 0 0 -12.948328059697815 349.53469068357299 0 349.53469068357299 -330.42518007875333 0 0 0 0 19.690886618307559 201.19780364983671 0 201.19780364983671 -230.11929657162545 0 0 0 0 161.86409592875134 261.25570392949248 0 261.25570392949248 -337.50198711028497 0 0 0 0 33.035169950744603 156.72978380721543 0 156.72978380721543 -148.22322849081047 0 0 0 0 -72.34431629935716 248.74795127618745 0 248.74795127618745 -226.35095451661618 0 0 0 0 -95.356154426481226 308.80969375594032 0 308.80969375594032 -263.18605143149762 0 0 0 0 15.020982041522075 245.90606436835014 0 245.90606436835014 -249.3874938848312 0 0 0 0 -76.868128422774362 73.809352850519701 0 73.809352850519701 -23.638775773666566 0 0 0 0 176.91192173715353 -2.4400869625660562 0 -2.4400869625660562 -91.075007591221947 0 0 0 0 -18.658155091250507 64.759379011130818 0 64.759379011130818 -45.199302849387124 0 0 0 0 64.909383895836072 73.217543551023482 0 73.217543551023482 -94.264263654866227 0 0 0 0 337.94022097717243 264.97002892284945 0 264.97002892284945 -385.90143514629744 0 0 0 0 514.31011347104504 -480.82426232519356 0 -480.82426232519356 581.20277320430614 0 0 0 0 -30.235818022809809 65.204054808702239 0 65.204054808702239 -29.322225781393485 0 0 0 0 16.270413606027432 290.12402212274901 0 290.12402212274901 -192.02024281513877 0 0 0 0 -86.113248735608067 229.2791873078786 0 229.2791873078786 -149.3101277883361 0 0 0 0 -129.42611406748256 158.20301720294628 0 158.20301720294628 -53.846078539390874 0 0 0 0 -36.787528527303948 100.62605799407174 0 100.62605799407174 -70.852292435389245 0 0 0 0 -30.525368464004714 101.65350599045632 0 101.65350599045632 -74.163056459881773 0 0 0 0 -429.64619067443709 164.33774774368067 0 164.33774774368067 150.20170649254578 0 0 0 0 -106.23588177822239 401.32718887134615 0 401.32718887134615 -633.26606559875654 0 0 0 0 -9.9268823467358231 50.093642255482685 0 50.093642255482685 -10.497418504061244 0 0 0 0 -416.76570758633898 312.54521592637502 0 312.54521592637502 -599.18878570361267 0 0 0 0 -166.83814553504635 73.254779228420375 0 73.254779228420375 -651.99137979494299 0 0 0 0 -989.89812725532101 1081.5214469358034 0 1081.5214469358034 -42.33360872988851 0 0 0 0 50.106694403355945 -2.6261285971106574 0 -2.6261285971106574 -33.205780744564663 0 0 0 0 -258.1369850648698 112.18478623167175 0 112.18478623167175 -328.51342321346601 0 0 0 0 -117.64466725164675 388.18433695379645 0 388.18433695379645 -1718.767335757002 0 0 0 0 -258.25566747404446 80.446365611060173 0 80.446365611060173 -1294.0881588918564 0 0 0 0 -78.177981775967055 190.42963469898677 0 190.42963469898677 -1228.0316481315531 0 0 0 0 -83.299527021994436 517.9903680806201 0 517.9903680806201 -1244.9596228533483 0 0 0 0 -37.520377593579504 101.5805627880132 0 101.5805627880132 -69.641620078379958 0 0 0 0 -287.09949613022764 0.25113186906673945 0 0.25113186906673945 -1477.1080967443995 0 0 0 0 -21.656312319813878 411.42205512452711 0 411.42205512452711 -1688.9717248662728 0 0 0 0 -196.48677679755565 555.88450326320162 0 555.88450326320162 -2307.3610374064883 0 0 0 0 -154.40623519611836 -26.4088767567373 0 -26.4088767567373 -1113.7078977721976 0 0 0 0 -144.06054613072047 102.0737659677543 0 102.0737659677543 -934.07926825435425 0 0 0 0 -148.52353780377234 306.82552821570425 0 306.82552821570425 -672.13340312169748 0 0 0 0 -88.711158717909711 343.54315090315504 0 343.54315090315504 -799.83532823272981 0 0 0 0 -16.800460524470779 27.25568255072433 0 27.25568255072433 -4.6206869104481854 0 0 0 0 284.40477051143898 374.47179024462093 0 374.47179024462093 -645.52371697314061 0 0 0 0 294.23768325945275 232.62502573402162 0 232.62502573402162 -1002.3083173329724 0 0 0 0 143.89472840829694 809.52999905723118 0 809.52999905723118 286.11448906583973 0 0 0 0 -172.41092723551992 236.98338072156912 0 236.98338072156912 -650.93164672556213 0 0 0 0 28.041592186091584 -5.6832552399490339 0 -5.6832552399490339 -56.586317248680018 0 0 0 0 0.73469019046387984 36.618296647560783 0 36.618296647560783 -137.99006725987419 0 0 0 0 10.065735084550397 72.404753927889033 0 72.404753927889033 -304.81301858335792 0 0 0 0 11.931275312585484 -0.12438475133644289 0 -0.12438475133644289 -13.520326535756169 0 0 0 0 -28.970505026518367 142.23314381320961 0 142.23314381320961 -1270.6758381331092 0 0 0 0 -47.016005847370252 26.00492322446371 0 26.00492322446371 -37.970902256791305 0 0 0 0 -44.275812553627858 38.406205272355962 0 38.406205272355962 -6.3684488651251634 0 0 0 0 -86.129332244403486 116.75477493930521 0 116.75477493930521 -3.0347226223166217 0 0 0 0 19.578620078391396 120.4387166001834 0 120.4387166001834 -210.01409833930666 0 0 0 0 -53.684193168981437 -99.690113810929688 0 -99.690113810929688 -226.58999387305812 0 0 0 0 -30.10191476145701 120.41280675986491 0 120.41280675986491 -81.771265052360832 0 0 0 0 10.634133957093582 109.98153032119444 0 109.98153032119444 -80.632297435280634 0 0 0 0 180.38161704267259 -74.261629563383394 0 -74.261629563383394 -70.029203682555817 0 0 0 0 -66.863425227063999 -143.14051031794952 0 -143.14051031794952 328.40068205802163 0 0 0 0 32.957982320003794 119.54094072814041 0 119.54094072814041 -103.2355942994036 0 0 0 0 -2.0958647568385089 9.0879518350915447 0 9.0879518350915447 0.17829985238188328 0 0 0 0 50.439692204105086 91.307732709217817 0 91.307732709217817 -74.005661441769917 0 0 0 0 -8.1792787374470208 8.0910864765564838 0 8.0910864765564838 36.326958769714111 0 0 0 0 335.76349270540959 71.114961781575403 0 71.114961781575403 -282.89103263182915 0 0 0 0 -503.82456728820398 17.458832869517209 0 17.458832869517209 417.1958375592003 0 0 0 0 -133.26866973941287 -190.50566245722075 0 -190.50566245722075 -388.93386073000147 0 0 0 0 185.83332079574757 231.39261309542053 0 231.39261309542053 34.508316922139784 0 0 0 0 -177.8879584593451 145.80736875594448 0 145.80736875594448 178.95564845060289 0 0 0 0 -23.573556075374654 114.6796411687792 0 114.6796411687792 23.611789537077129 0 0 0 0 -817.28274074494766 296.3086623322597 0 296.3086623322597 -7.8612137705640635 0 0 0 0 -11.228051209827413 34.643244526006143 0 34.643244526006143 -56.032328306466383 0 0 0 0 62.618244401268385 162.25979614641437 0 162.25979614641437 179.29455429950031 0 0 0 0 38.641754097709054 64.12636804462818 0 64.12636804462818 -89.793839604196364 0 0 0 0 39.630890620468335 51.380474947606672 0 51.380474947606672 -60.322126977291191 0 0 0 0 47.036115644055826 81.283218009244592 0 81.283218009244592 -105.59257800453634 0 0 0 0 -3.5788364481522379 21.640745353149001 0 21.640745353149001 -40.432964969869658 0 0 0 0 247.19347139002639 157.80109346565587 0 157.80109346565587 -158.11662790354967 0 0 0 0 172.99246337632576 279.02738017785305 0 279.02738017785305 -105.26173543333789 0 0 0 0 2.5564078995921591 88.191263473345316 0 88.191263473345316 -2.5322823649039492 0 0 0 0 15.312176084538805 68.985722932906356 0 68.985722932906356 7.2668826418084791 0 0 0 0 21.260027607142547 46.917810305560124 0 46.917810305560124 34.245202228412381 0 0 0 0 27.537769667156681 33.710666740633314 0 33.710666740633314 3.7496405463389237 0 0 0 0 9.6287462688342202 71.280312133938423 0 71.280312133938423 16.971384827105794 0 0 0 0 1.7618777012758073 68.471564663152094 0 68.471564663152094 16.041416471955017 0 0 0 0 -13.076213580829062 124.16017284899135 0 124.16017284899135 -51.207822221942479 0 0 0 0 46.451087626363005 79.491695884920773 0 79.491695884920773 -96.984485218163172 0 0 0 0 50.262719511110845 0.23095826577628031 0 0.23095826577628031 -101.28286235621636 0 0 0 0 33.39530641055353 143.26542883756701 0 143.26542883756701 -232.00688652682584 0 0 0 0 66.951139654836879 -36.819145352201303 0 -36.819145352201303 -273.51883172001726 0 0 0 0 39.050932664427819 27.295003867569903 0 27.295003867569903 -141.92556001470439 0 0 0 0 40.189850669539737 44.319526569881418 0 44.319526569881418 -87.309363197581661 0 0 0 0 -184.36751580147256 778.23358829669769 0 778.23358829669769 -405.61965492730087 0 0 0 0 -1.9125855836800696 -2.6975308891684904 0 -2.6975308891684904 -13.958770778160726 0 0 0 0 -332.84475178674984 -58.621101887241821 0 -58.621101887241821 -338.1146276629006 0 0 0 0 33.567614713554804 9.0299227888180553 0 9.0299227888180553 -11.66104846867853 0 0 0 0 31.655610472964327 -57.653156695290818 0 -57.653156695290818 -115.57058030945245 0 0 0 0 -33.142138017545221 -15.549613071205385 0 -15.549613071205385 43.406466400949284 0 0 0 0 -498.32645217099343 1045.8579594453913 0 1045.8579594453913 -253.56665669410722 0 0 0 0 -360.62697611154726 105.24067511850444 0 105.24067511850444 -478.67762406656402 0 0 0 0 -236.98959117207414 351.24913873009791 0 351.24913873009791 -289.46206306405657 0 0 0 0 1227.2962393578055 -676.67945633093041 0 -676.67945633093041 -922.07846014654206 0 0 0 0 -486.12219298788114 -34.505302759458573 0 -34.505302759458573 1283.3658370189296 0 0 0 0 377.36520310460401 290.00849340575951 0 290.00849340575951 -1562.7229220111622 0 0 0 0 2.5794387282704321 2.7901744411873324 0 2.7901744411873324 0.037716424966991013 0 0 0 0 296.74337952094538 794.92630100434326 0 794.92630100434326 -927.38157081839745 0 0 0 0 -249.09930942209394 590.18141945989191 0 590.18141945989191 365.28485428074782 0 0 0 0 -317.0795660153417 260.45476240319113 0 260.45476240319113 160.14444945425203 0 0 0 0 -165.02593018709376 423.24606945639243 0 423.24606945639243 -411.89136699413939 0 0 0 0 -167.79093256317719 243.5575448231175 0 243.5575448231175 -273.39218532675841 0 0 0 0 -254.31117586254186 178.61158275460912 0 178.61158275460912 103.07521243271549 0 0 0 0 -260.70677826956671 96.537113721300557 0 96.537113721300557 273.36742501598201 0 0 0 0 -243.08538376707656 -101.68799863327513 0 -101.68799863327513 33.771146699727979 0 0 0 0 -321.53688460690319 -39.869774276136013 0 -39.869774276136013 196.74290935629324 0 0 0 0 -276.46384435900109 93.842058952606749 0 93.842058952606749 264.48164647782687 0 0 0 0 99.548895096264459 47.313852960964141 0 47.313852960964141 208.91345956332225 0 0 0 0 -266.39947341484731 21.968998485514021 0 21.968998485514021 540.28407580082239 0 0 0 0 -246.28304649070196 365.84043990864302 0 365.84043990864302 1504.7379623840825 0 0 0 0 61.865579744822298 564.68620491633305 0 564.68620491633305 865.18174644769169 0 0 0 0 -593.55650867426084 286.62856532380101 0 286.62856532380101 296.27986488829629 0 0 0 0 -5.7949981909368944 232.37531044685602 0 232.37531044685602 293.80711761621933 0 0 0 0 3.4874262286248268 389.53149947836937 0 389.53149947836937 154.70838770980481 0 0 0 0 -3.6129463507095352 545.29805934452452 0 545.29805934452452 431.62443983718549 0 0 0 0 -111.07593000966335 581.85358361112412 0 581.85358361112412 597.19480799042503 0 0 0 0 65.144590304647863 213.83699969469308 0 213.83699969469308 879.36578094686411 0 0 0 0 59.295025260752027 373.82902143721435 0 373.82902143721435 414.95771876520303 0 0 0 0 9.5197278487412405 78.582372500926795 0 78.582372500926795 -175.6043297645374 0 0 0 0 -41.580750810706377 239.49652306904318 0 239.49652306904318 -662.79241267066152 0 0 0 0 8.4947360588957537 -0.56206452627515091 0 -0.56206452627515091 2.4339536633784693 0 0 0 0 -106.83369766139367 393.58119913251358 0 393.58119913251358 -430.01280779507942 0 0 0 0 -166.37944337830049 331.89511838331237 0 331.89511838331237 -333.99629223112424 0 0 0 0 -105.98031829704269 208.24082770144742 0 208.24082770144742 -421.00644684942381 0 0 0 0 -217.48761825703332 256.68701500949828 0 256.68701500949828 -265.89319881958363 0 0 0 0 -159.62425384814924 269.26289358515351 0 269.26289358515351 -271.29030287801288 0 0 0 0 10.490234985250936 299.76478083027541 0 299.76478083027541 -251.0936916120263 0 0 0 0 -33.547369097558757 53.875912840664213 0 53.875912840664213 -29.87589688337232 0 0 0 0 -133.70172738577457 58.48507538454578 0 58.48507538454578 -6.9602105364901945 0 0 0 0 -220.02817333578423 479.96701618096995 0 479.96701618096995 -483.21769533834595 0 0 0 0 39.114373355834687 106.03639080645371 0 106.03639080645371 -21.976251682368456 0 0 0 0 -84.667161125456914 24.54153392268563 0 24.54153392268563 -638.15311920021804 0 0 0 0 -23.521060426787159 55.807036634087886 0 55.807036634087886 -58.989915975429909 0 0 0 0 -112.24572247503784 -103.38937991249804 0 -103.38937991249804 -254.63649699527014 0 0 0 0 -38.891588246056926 42.33200611551365 0 42.33200611551365 -21.642994544795783 0 0 0 0 6.0724377887927403 89.407559554638283 0 89.407559554638283 -57.340168491209624 0 0 0 0 -15.34834598744672 48.898172179490302 0 48.898172179490302 -29.121504106921154 0 0 0 0 -14.631084260189246 53.361474405148499 0 53.361474405148499 -59.033053199110782 0 0 0 0 -33.403632479010412 81.328196922877396 0 81.328196922877396 -133.35133048960881 0 0 0 0 27.54371672189658 11.69455518399235 0 11.69455518399235 -14.670741434628777 0 0 0 0 168.13306747166871 22.050753032636749 0 22.050753032636749 -149.67409654057701 0 0 0 0 185.68116935166472 338.35106719261967 0 338.35106719261967 407.23916003487773 0 0 0 0 -1.6320966891344995 6.5322610084047597 0 6.5322610084047597 -4.2420637106852297 0 0 0 0 572.44603087268479 349.1871822307512 0 349.1871822307512 410.26871031272458 0 0 0 0 210.19359851461923 610.50118323017887 0 610.50118323017887 500.30287650579703 0 0 0 0 604.82832821478951 751.24178225254582 0 751.24178225254582 393.40259881058591 0 0 0 0 178.10362813015308 456.24891433311132 0 456.24891433311132 465.8160076988861 0 0 0 0 -4.2254519611449286 3.3860274350590664 0 3.3860274350590664 10.340356710628839 0 0 0 0 849.46612818438007 618.52405162423383 0 618.52405162423383 255.18434034437814 0 0 0 0 -404.19244085735409 148.15793546208806 0 148.15793546208806 105.76372638295288 0 0 0 0 -264.74471456953324 312.8585080199482 0 312.8585080199482 73.616728606488323 0 0 0 0 -52.164241090534716 53.224233872059187 0 53.224233872059187 -3.0983511922528422 0 0 0 0 -20.255369079056436 67.035658944182615 0 67.035658944182615 -75.898036011349177 0 0 0 0 -165.30845633614081 101.27925119857173 0 101.27925119857173 -118.42859649113234 0 0 0 0 12.615845982276369 29.988477873441298 0 29.988477873441298 -59.250908890389837 0 0 0 0 -1.6969663249042277 33.272334388943463 0 33.272334388943463 -48.162398784076714 0 0 0 0 -43.671211656153901 65.729064488332369 0 65.729064488332369 -71.527605407598458 0 0 0 0 -90.296706088654901 99.995368494201102 0 99.995368494201102 -13.751858693955 0 0 0 0 -72.978772142171323 64.650349045778441 0 64.650349045778441 -20.436902617224447 0 0 0 0 -22.762093108292902 200.80750347522553 0 200.80750347522553 -64.6271441814024 0 0 0 0 152.42211468609457 156.2732255901501 0 156.2732255901501 -80.289052352713043 0 0 0 0 122.63953008181124 -37.596740924200276 0 -37.596740924200276 73.284516910134698 0 0 0 0 69.166222082829336 170.76408277585142 0 170.76408277585142 456.74416203383589 0 0 0 0 -32.393326933096432 -96.251632222889384 0 -96.251632222889384 15.423882377130212 0 0 0 0 138.41798106642818 138.94018305951613 0 138.94018305951613 -144.10086705123831 0 0 0 0 347.74649787470844 52.863406706623209 0 52.863406706623209 -107.68225823709508 0 0 0 0 -29.182912838880618 24.495480620974334 0 24.495480620974334 -20.130428561666889 0 0 0 0 -99.072836328080484 54.449795285336066 0 54.449795285336066 -2.8274268757936341 0 0 0 0 -261.99136468186043 48.752186266123317 0 48.752186266123317 -143.65479669803608 0 0 0 0 -169.0634521318334 -270.67872061626258 0 -270.67872061626258 264.34598201723566 0 0 0 0 -141.14913543869625 117.98285096635118 0 117.98285096635118 -164.37825859580335 0 0 0 0 -226.09447697096039 101.2386926956824 0 101.2386926956824 -114.71499399615823 0 0 0 0 -183.54810472761164 68.630648125428706 0 68.630648125428706 -122.29488165778457 0 0 0 0 -47.929364072369324 47.826511485917464 0 47.826511485917464 -37.458394602878727 0 0 0 0 -72.67080844915472 74.724858791680163 0 74.724858791680163 -106.42659728135186 0 0 0 0 -0.62253646252605677 23.767275381797319 0 23.767275381797319 -19.516118360689287 0 0 0 0 106.9123871588381 232.12130259000332 0 232.12130259000332 -371.30264624835399 0 0 0 0 -173.52607373744831 -42.679995090002194 0 -42.679995090002194 -11.556374163395731 0 0 0 0 -176.08821601542877 17.686473288646084 0 17.686473288646084 -70.589559435338742 0 0 0 0 -243.06567895509943 67.307440608059551 0 67.307440608059551 -94.995018955654814 0 0 0 0 -137.38094873914815 0.74921381593958358 0 0.74921381593958358 -184.54561370436568 0 0 0 0 -166.34201887779636 19.752487824123818 0 19.752487824123818 -56.870255178095249 0 0 0 0 -110.94963297295908 36.68766908500038 0 36.68766908500038 -238.49818181138107 0 0 0 0 -122.74188729373418 68.397300721173451 0 68.397300721173451 -178.38783185162174 0 0 0 0 -113.29743138985941 41.80800868976803 0 41.80800868976803 -230.12976435633755 0 0 0 0 -119.71983576299681 94.558887401915854 0 94.558887401915854 -147.4120125562913 0 0 0 0 -186.27428450862499 496.14342004483842 0 496.14342004483842 -63.46088753445656 0 0 0 0 -29.698535476931283 310.4163506371724 0 310.4163506371724 -219.90673971825163 0 0 0 0 -96.839671045362593 524.76764564742825 0 524.76764564742825 -247.8841069459595 0 0 0 0 81.522138475378597 603.44007688263082 0 603.44007688263082 -400.10775730242312 0 0 0 0 180.11265301980166 125.31217304096936 0 125.31217304096936 -534.70239184171078 0 0 0 0 345.12651754882245 509.82069859673356 0 509.82069859673356 350.90761825841037 0 0 0 0 492.8332389142879 -146.07828210386833 0 -146.07828210386833 -328.55097897868109 0 0 0 0 1334.3199482018717 333.95331139672271 0 333.95331139672271 -127.48671652048142 0 0 0 0 0.55120476912968286 1.5446706227443912 0 1.5446706227443912 1.0964684282627672 0 0 0 0 86.078821713890648 388.06346545506676 0 388.06346545506676 -52.898911638229038 0 0 0 0 140.35030689111591 389.02449369469105 0 389.02449369469105 -194.7727844795827 0 0 0 0 12.973852031296701 320.60311873261526 0 320.60311873261526 -417.28225243456473 0 0 0 0 3.5467790720997883 4.8433253786518549 0 4.8433253786518549 -1.1590400708253128 0 0 0 0 -818.06113172740515 1274.3633409475515 0 1274.3633409475515 611.51084516137416 0 0 0 0 -137.77572651638548 -36.760668202912711 0 -36.760668202912711 -200.02459907472075 0 0 0 0 58.921311162281199 501.29087872629316 0 501.29087872629316 603.17356136297894 0 0 0 0 139.94638493612911 222.09746665282 0 222.09746665282 -51.632403105773847 0 0 0 0 204.71000015587651 165.61341348714996 0 165.61341348714996 -489.40004677331308 0 0 0 0 236.25203461388446 285.01377743737248 0 285.01377743737248 -485.23273298849381 0 0 0 0 53.867856776747431 196.07223616720876 0 196.07223616720876 -172.63786355253978 0 0 0 0 181.35274266770102 335.76575046891594 0 335.76575046891594 -232.58767795385211 0 0 0 0 -445.28064078797797 461.59763465207288 0 461.59763465207288 -141.27635866516357 0 0 0 0 308.85487279936933 -41.558743319426867 0 -41.558743319426867 -225.54898996034171 0 0 0 0 2.3069663795247166 3.1512579834739682 0 3.1512579834739682 -2.0901111530695289 0 0 0 0 -86.844745195814767 0.82731329346324856 0 0.82731329346324856 58.835413337081263 0 0 0 0 -68.355420482701447 241.69410553786656 0 241.69410553786656 -35.34689453322062 0 0 0 0 -268.79140472986182 93.094574237133202 0 93.094574237133202 -140.24573078561298 0 0 0 0 -921.85059817694128 119.64393821232807 0 119.64393821232807 -140.60822812480183 0 0 0 0 37.220377429872315 83.624972153869749 0 83.624972153869749 -374.42493076573737 0 0 0 0 76.18033487802677 417.12044966330723 0 417.12044966330723 -256.32963983627269 0 0 0 0 23.928408883076372 269.89825278122134 0 269.89825278122134 -255.07735364495602 0 0 0 0 -136.23512681789725 600.4641717628765 0 600.4641717628765 -102.90511360745586 0 0 0 0 -165.68800603183627 645.02980191047754 0 645.02980191047754 -761.9455600904621 0 0 0 0 20.367321648617917 -57.896423352347483 0 -57.896423352347483 -870.17369063349906 0 0 0 0 -31.065087841841887 130.37989270572871 0 130.37989270572871 -927.33630639660259 0 0 0 0 -437.46744593414405 644.31084596888832 0 644.31084596888832 -705.00644651702896 0 0 0 0 -7.6841733750802064 5.7591086289917968 0 5.7591086289917968 -5.3672044958874494 0 0 0 0 -201.92471287882381 -62.086478590741535 0 -62.086478590741535 -45.350538684157073 0 0 0 0 -1288.6567870014114 -116.97552303113298 0 -116.97552303113298 -47.940322765563906 0 0 0 0 -23.206440261071663 16.738176823087841 0 16.738176823087841 -12.338828190218919 0 0 0 0 -94.054652343857015 329.59476106183502 0 329.59476106183502 -466.5944733652068 0 0 0 0 19.874625846208801 -85.122129794731336 0 -85.122129794731336 -278.74377168700448 0 0 0 0 -233.90702152642916 315.9635743139188 0 315.9635743139188 -219.54254446075356 0 0 0 0 -448.26193314805641 364.19009540487241 0 364.19009540487241 22.926391315246292 0 0 0 0 -180.5465190363775 380.99497720280124 0 380.99497720280124 -249.52644921459614 0 0 0 0 -206.6561522831289 305.93738568650951 0 305.93738568650951 25.978905147982005 0 0 0 0 -204.28908563412188 301.21499829271488 0 301.21499829271488 34.059010339113229 0 0 0 0 -236.24865237265476 272.40027460836427 0 272.40027460836427 31.420407022611471 0 0 0 0 -169.76629537800773 277.10755808457998 0 277.10755808457998 6.0846165118127828 0 0 0 0 -157.84983867110714 332.81372441654457 0 332.81372441654457 36.479224570870429 0 0 0 0 -148.59299875604484 329.48062712110186 0 329.48062712110186 32.408123471759609 0 0 0 0 -96.064032929063615 301.40600770941819 0 301.40600770941819 11.599587631368195 0 0 0 0 -114.23396165458007 342.76663047391594 0 342.76663047391594 32.7454128255049 0 0 0 0 -124.45182702894999 320.68982254096954 0 320.68982254096954 0.030040504134376533 0 0 0 0 -98.507551243024864 318.75366226656115 0 318.75366226656115 -69.961231505345495 0 0 0 0 -100.86543548482223 350.90235316532926 0 350.90235316532926 -0.20760877451539272 0 0 0 0 -74.98906915211046 318.37903191907753 0 318.37903191907753 -84.2853964939859 0 0 0 0 78.642436418664147 244.71142878157116 0 244.71142878157116 -115.04869966787373 0 0 0 0 -138.43810826366462 117.77576422935635 0 117.77576422935635 32.016351811456843 0 0 0 0 571.45729986412334 -105.42712054209551 0 -105.42712054209551 -58.498930757763446 0 0 0 0 -0.11574031554772546 0.32285530601926382 0 0.32285530601926382 -0.29848156234447742 0 0 0 0 -523.84903726385528 339.49885057783104 0 339.49885057783104 -165.37450227682348 0 0 0 0 -1.3774549496275199 0.84016068425444246 0 0.84016068425444246 2.4867440754268273 0 0 0 0 -345.44940041574591 344.87773878169537 0 344.87773878169537 -245.26526469332202 0 0 0 0 -781.97724262382326 466.848700725659 0 466.848700725659 -183.7836726690075 0 0 0 0 -141.57951191394477 211.99666799678198 0 211.99666799678198 -169.31380301419995 0 0 0 0 35.577074317223378 322.40865225325251 0 322.40865225325251 -137.3241492351226 0 0 0 0 -1.7633889751178771 0.029681037978164682 0 0.029681037978164682 2.1829635666296952 0 0 0 0 -498.52364682478583 251.95098371238055 0 251.95098371238055 -0.2267155185181764 0 0 0 0 -327.92809615311489 184.7363959766335 0 184.7363959766335 -115.148666424363 0 0 0 0 -422.88874768271126 362.06471669824168 0 362.06471669824168 -76.904197759926319 0 0 0 0 -280.05760595533047 308.21119465603897 0 308.21119465603897 0.11500620116567006 0 0 0 0 -20.104997292528424 232.29784846656185 0 232.29784846656185 -122.87460974682472 0 0 0 0 -111.26157156822956 393.75836936596897 0 393.75836936596897 -16.306647919976967 0 0 0 0 -249.95317213321687 221.65189465644653 0 221.65189465644653 -169.48964896604593 0 0 0 0 -1.3126356306374518 0.19639448192259579 0 0.19639448192259579 1.4509051403967419 0 0 0 0 -19.811373899268801 393.79693607102308 0 393.79693607102308 -88.296089505107375 0 0 0 0 -66.802077998698223 417.25149183694157 0 417.25149183694157 -78.94481830029963 0 0 0 0 0.35484964544867825 0.2714062704662723 0 0.2714062704662723 4.082054825731916 0 0 0 0 143.47613123146562 230.60063019946119 0 230.60063019946119 137.38486911659129 0 0 0 0 142.93487998186811 224.87696140672779 0 224.87696140672779 356.4468049298066 0 0 0 0 217.70931896715138 351.83169443607403 0 351.83169443607403 117.7575212456577 0 0 0 0 514.4053954932333 244.45729613352523 0 244.45729613352523 190.3112944049135 0 0 0 0 371.61261666905057 535.75301398714146 0 535.75301398714146 318.88548946984247 0 0 0 0 303.25361947579711 350.88006385478002 0 350.88006385478002 221.54249746891583 0 0 0 0 1262.5095433492129 666.16657925548498 0 666.16657925548498 339.61415273287275 0 0 0 0 242.00430477855525 350.6135939399901 0 350.6135939399901 574.632777192106 0 0 0 0 446.57235336347514 343.02612308645257 0 343.02612308645257 257.68762115800928 0 0 0 0 422.45644647654638 258.31876441670374 0 258.31876441670374 115.81685303454287 0 0 0 0 476.69886164655134 275.30582993273856 0 275.30582993273856 125.59164444802445 0 0 0 0 263.64925170948914 407.18361229614311 0 407.18361229614311 212.84604824152484 0 0 0 0 865.60011821434841 456.56505869465764 0 456.56505869465764 124.36488232455304 0 0 0 0 -1.0844362303737938 3.8490643772014366 0 3.8490643772014366 11.267260827471262 0 0 0 0 -571.50596264339856 88.30666008242406 0 88.30666008242406 180.37695297584287 0 0 0 0 65.620465236610471 353.05965478728103 0 353.05965478728103 98.568433079883107 0 0 0 0 -631.85633496632067 -159.6360388984931 0 -159.6360388984931 301.24734669637837 0 0 0 0 -0.092171836919110461 0.3059753104828431 0 0.3059753104828431 3.9853215386916645 0 0 0 0 36.953596102741585 128.24489987371271 0 128.24489987371271 2.6633293883060105 0 0 0 0 609.77432709691493 -4.1720108161098324 0 -4.1720108161098324 -59.206371634601965 0 0 0 0 -36.125068405290222 50.517288601789915 0 50.517288601789915 -45.455845011420024 0 0 0 0 -33.076046041227528 109.81280474016967 0 109.81280474016967 -16.753884068217303 0 0 0 0 -15.793520584414409 82.31816542471006 0 82.31816542471006 3.3785749496310018 0 0 0 0 -18.308394481131472 239.75846406273195 0 239.75846406273195 182.0546815132584 0 0 0 0 -218.48976859287222 96.54352783674949 0 96.54352783674949 114.02873282806831 0 0 0 0 -25.38276200904329 69.313195456306858 0 69.313195456306858 -83.95036550777877 0 0 0 0 -28.337792305683251 10.058730486529385 0 10.058730486529385 -41.931160937572713 0 0 0 0 -18.886033037731977 178.37779341925489 0 178.37779341925489 -62.86253231480805 0 0 0 0 -10.708915276272364 70.713675536194842 0 70.713675536194842 -134.18484418318258 0 0 0 0 -3.9922424418364244 180.92097626384202 0 180.92097626384202 -222.97023629704199 0 0 0 0 -24.262472115009587 193.23100620313926 0 193.23100620313926 -85.973909731786989 0 0 0 0 -78.659893184017619 344.46735700254885 0 344.46735700254885 6.1085237459919881 0 0 0 0 -87.204906920840585 307.67148259216265 0 307.67148259216265 -40.543093145708553 0 0 0 0 -180.30907301381745 403.43366358646449 0 403.43366358646449 -138.94426783261588 0 0 0 0 19.539589840680492 302.82809901485598 0 302.82809901485598 246.87370033680781 0 0 0 0 -18.80583348586697 228.51792795577785 0 228.51792795577785 90.653758626511262 0 0 0 0 17.263624681518195 245.4404537133305 0 245.4404537133305 41.085800929562538 0 0 0 0 -8.4114465807606393 313.55074314205558 0 313.55074314205558 5.8793093504064018 0 0 0 0 16.685235253882638 375.42561474280228 0 375.42561474280228 96.968763123491954 0 0 0 0 186.881533743006 420.43789869359171 0 420.43789869359171 133.26843176319016 0 0 0 0 55.690503213667398 343.91465380742375 0 343.91465380742375 97.151836281118449 0 0 0 0 151.42376135244922 419.86661495782755 0 419.86661495782755 52.412355724503868 0 0 0 0 34.757553052617368 403.18669861501985 0 403.18669861501985 71.815587955148658 0 0 0 0 37.686632688451027 391.98380686531527 0 391.98380686531527 2.9979213327824255 0 0 0 0 -201.49394437367391 379.10484620958141 0 379.10484620958141 36.171576211621868 0 0 0 0 -83.613823532870811 390.46204932819819 0 390.46204932819819 -47.809730389233209 0 0 0 0 -80.972225915003946 374.29466128130298 0 374.29466128130298 50.932303787114506 0 0 0 0 -90.064418822476 379.39282199997979 0 379.39282199997979 22.587393289191823 0 0 0 0 -79.818761955486025 363.05868757857388 0 363.05868757857388 38.697074566953233 0 0 0 0 -25.042912372651699 398.72540947901325 0 398.72540947901325 25.871685206817347 0 0 0 0 -85.303161551396443 339.13737116403354 0 339.13737116403354 0.047264788787288126 0 0 0 0 184.26257785639427 394.40798736258876 0 394.40798736258876 -7.4168622837387375 0 0 0 0 47.5876194075272 355.6860068167025 0 355.6860068167025 0.0029880874935770407 0 0 0 0 94.488759780101191 408.33028877243669 0 408.33028877243669 3.5274439204367809 0 0 0 0 172.25708121917432 357.78793573323492 0 357.78793573323492 -0.0018796448084497479 0 0 0 0 250.74743829478149 348.33257324706665 0 348.33257324706665 -0.057982854988949839 0 0 0 0 179.77874602556585 376.4642880635256 0 376.4642880635256 -3.2030881510436302 0 0 0 0 225.44674200721965 386.89001697302228 0 386.89001697302228 -16.998320370788861 0 0 0 0 335.58028360757226 436.82082485989667 0 436.82082485989667 16.390223623773636 0 0 0 0 291.8833890660527 338.88308734364728 0 338.88308734364728 47.916222314990591 0 0 0 0 155.55317271173408 400.79750323440385 0 400.79750323440385 140.47081239884574 0 0 0 0 176.03178889504636 271.17217130841163 0 271.17217130841163 222.92067701296037 0 0 0 0 369.4923551894272 320.972171869269 0 320.972171869269 21.261436668988608 0 0 0 0 319.56566733105728 401.20464821782662 0 401.20464821782662 113.50488595522984 0 0 0 0 310.71569357412432 352.43296022869981 0 352.43296022869981 -35.210473744329647 0 0 0 0 232.89892197216238 290.77773719877587 0 290.77773719877587 17.472552509306297 0 0 0 0 220.91622044367386 320.01684364328685 0 320.01684364328685 -53.807483990000037 0 0 0 0 197.95625396487981 290.7190677155304 0 290.7190677155304 -54.104642606975176 0 0 0 0 183.30874474447057 325.22377349562112 0 325.22377349562112 -0.11628055884648347 0 0 0 0 -321.86434853582205 227.12333342520651 0 227.12333342520651 -0.22161950471027958 0 0 0 0 -5.8985500612859028 122.55745207577638 0 122.55745207577638 -155.69905498728622 0 0 0 0 10.675319065447184 218.06089006595357 0 218.06089006595357 -44.280867503483023 0 0 0 0 -862.84610589804106 49.078751248543995 0 49.078751248543995 0.24450530803733272 0 0 0 0 -445.13483983075162 -67.638358885171328 0 -67.638358885171328 -335.20619404913305 0 0 0 0 -498.53963963329352 357.23795502344001 0 357.23795502344001 -299.49134900206263 0 0 0 0 -560.71672610105543 111.78853273741697 0 111.78853273741697 61.243599548921338 0 0 0 0 -873.40909405342882 323.47166286896027 0 323.47166286896027 -52.138387328152021 0 0 0 0 -237.17555803029791 215.73985054943842 0 215.73985054943842 -243.03492117216956 0 0 0 0 -247.51798222103702 259.42135682110575 0 259.42135682110575 30.856520237881341 0 0 0 0 -440.8521468871968 223.62599196560768 0 223.62599196560768 102.71164042253076 0 0 0 0 53.486408337181956 222.72881568425146 0 222.72881568425146 3.18787977208558 0 0 0 0 23.967615616086277 292.17555767365411 0 292.17555767365411 -158.98220012308843 0 0 0 0 34.730776939050202 198.79955701740982 0 198.79955701740982 30.930138188341516 0 0 0 0 139.31611094558889 365.13391364970448 0 365.13391364970448 37.673134930822926 0 0 0 0 74.627838165208232 329.63010201351062 0 329.63010201351062 448.02162923393189 0 0 0 0 73.49496617297973 445.95421976072976 0 445.95421976072976 519.23538157720031 0 0 0 0 -178.04837600046767 333.58318039315054 0 333.58318039315054 231.87539240778278 0 0 0 0 129.57637273380101 222.64498336596898 0 222.64498336596898 271.87674801867979 0 0 0 0 -143.59485669306423 107.2710724913959 0 107.2710724913959 138.30060959852563 0 0 0 0 -445.04673018910853 65.143563037890999 0 65.143563037890999 306.45546368852229 0 0 0 0 -195.34723367900278 166.46580803700999 0 166.46580803700999 316.08536448280211 0 0 0 0 -191.79468104689317 137.19509601918435 0 137.19509601918435 457.8578817848902 0 0 0 0 355.36106174285305 300.81078138977318 0 300.81078138977318 280.59244696050519 0 0 0 0 -237.77248375567342 204.99093956680372 0 204.99093956680372 401.19226511286251 0 0 0 0 -222.50174689542337 91.165200232484494 0 91.165200232484494 252.45194953242026 0 0 0 0 -72.704462697206509 213.75429710586468 0 213.75429710586468 297.20370172258845 0 0 0 0 -24.799197706247696 105.59545545886067 0 105.59545545886067 227.99231530464021 0 0 0 0 41.504542063240024 178.34668494614743 0 178.34668494614743 237.5127451565495 0 0 0 0 197.14787594068707 203.68363368750579 0 203.68363368750579 4.5874813453665411 0 0 0 0 -19.89576618062938 388.6217640777395 0 388.6217640777395 446.71005346884579 0 0 0 0 -464.16538692396114 14.274998033492011 0 14.274998033492011 306.29051387522486 0 0 0 0 629.59987016960304 593.86822497275352 0 593.86822497275352 324.16741534163521 0 0 0 0 -0.062977965043946149 0.65246082968022989 0 0.65246082968022989 2.1776191725961667 0 0 0 0 -162.8107862771194 124.22901677511982 0 124.22901677511982 130.29046531747736 0 0 0 0 -22.273408165176079 231.57184122731269 0 231.57184122731269 209.27003680667985 0 0 0 0 -7.2866930521888662 104.68945193153149 0 104.68945193153149 30.047079564377782 0 0 0 0 223.80905906999578 259.66332102261731 0 259.66332102261731 132.47210716747941 0 0 0 0 422.46141298069051 680.52238689979276 0 680.52238689979276 606.74368454488285 0 0 0 0 33.723067774079027 278.86228383421258 0 278.86228383421258 191.7824803283147 0 0 0 0 -101.81197469553626 395.90331479317319 0 395.90331479317319 515.3574659122969 0 0 0 0 -214.74646572890288 236.75187152616854 0 236.75187152616854 306.63087244432973 0 0 0 0 -179.94747688377174 241.91454683380289 0 241.91454683380289 306.16328432671435 0 0 0 0 -352.72573985588951 173.70510931417812 0 173.70510931417812 327.44847093816861 0 0 0 0 -272.33222953869881 174.70529010098835 0 174.70529010098835 326.11723784301284 0 0 0 0 -257.46133624801314 188.9524390420047 0 188.9524390420047 310.73238657702314 0 0 0 0 -312.73346766211671 136.41760445076943 0 136.41760445076943 360.47384976600006 0 0 0 0 -313.68559628607954 143.58227876365527 0 143.58227876365527 307.38393555238144 0 0 0 0 -252.98503176068152 140.36619385980157 0 140.36619385980157 284.32191291062918 0 0 0 0 -256.28231698324544 172.5998520869216 0 172.5998520869216 282.23324429422792 0 0 0 0 -224.99055194396533 169.09334697070881 0 169.09334697070881 281.80415852781516 0 0 0 0 -292.6076260145619 55.675825594968046 0 55.675825594968046 243.76303298614221 0 0 0 0 -194.29279694335673 37.257309787033591 0 37.257309787033591 164.63710232511221 0 0 0 0 -283.19650840523718 55.191123654742114 0 55.191123654742114 215.09128637156391 0 0 0 0 -313.4578911644503 97.533091115692514 0 97.533091115692514 354.47357170916257 0 0 0 0 -302.23021362646978 31.253240025958803 0 31.253240025958803 169.02066541100066 0 0 0 0 -350.60859194272143 12.348244493827224 0 12.348244493827224 237.48774748072174 0 0 0 0 -288.48497894780485 -68.802186989669281 0 -68.802186989669281 55.1083033129471 0 0 0 0 -120.05645500685068 -6.7264192910843121 0 -6.7264192910843121 17.723760078195482 0 0 0 0 -128.18117920095392 82.832301832313533 0 82.832301832313533 148.92611866079824 0 0 0 0 -199.41778868707456 10.099318871394644 0 10.099318871394644 76.648012377743726 0 0 0 0 -6.290380523467066 11.763682267590532 0 11.763682267590532 3.2124228428770607 0 0 0 0 -58.471342908730549 60.907139468388777 0 60.907139468388777 69.565301699469273 0 0 0 0 -92.551867388541723 20.031869806645773 0 20.031869806645773 21.492806451424258 0 0 0 0 -123.09477959909691 -9.9601398490958672 0 -9.9601398490958672 20.205290962017898 0 0 0 0 -12.433906542806653 23.408655760704278 0 23.408655760704278 17.563967137786676 0 0 0 0 -11.270513456095561 12.874408179085556 0 12.874408179085556 4.4315233762515902 0 0 0 0 14.983789492085634 20.91509905125713 0 20.91509905125713 1.8845666652632644 0 0 0 0 -3.4778986995792138 11.213716649243111 0 11.213716649243111 -10.057602882806265 0 0 0 0 -173.93721476554583 -68.225346685769182 0 -68.225346685769182 -34.251465951419959 0 0 0 0 -19.223108483530432 13.862901281640035 0 13.862901281640035 -5.8107308665161099 0 0 0 0 -50.819010625265946 -3.6369648036306899 0 -3.6369648036306899 35.910472424278851 0 0 0 0 -27.255671676579368 33.939606179021212 0 33.939606179021212 94.452878511088784 0 0 0 0 25.611678513405423 34.845372910731385 0 34.845372910731385 13.737374792719493 0 0 0 0 -2.4614274791282291 -0.90956957138568839 0 -0.90956957138568839 0.62887922895856718 0 0 0 0 -321.06118888466699 -83.180080101050407 0 -83.180080101050407 -34.354961829070817 0 0 0 0 -594.71838670348893 -100.22185957029888 0 -100.22185957029888 140.67958644566534 0 0 0 0 -171.00349723984846 -49.929919118526868 0 -49.929919118526868 13.304793274961412 0 0 0 0 -353.03749553953548 -200.36712996268398 0 -200.36712996268398 -104.2512474836476 0 0 0 0 -14.172487638220037 7.5230560014766183 0 7.5230560014766183 -4.5350136167917583 0 0 0 0 -1074.8209142975747 -477.16671214134476 0 -477.16671214134476 -238.04973650998727 0 0 0 0 57.113020306675025 186.00391493194911 0 186.00391493194911 -176.41775016889733 0 0 0 0 -4.4235352968194732 2.999556254844876 0 2.999556254844876 -2.7453234487318525 0 0 0 0 -167.20610314924761 -8.0071114379461505 0 -8.0071114379461505 82.173155734344618 0 0 0 0 -159.76457832764027 26.214882045700506 0 26.214882045700506 -0.21699915581120877 0 0 0 0 -660.62590097291104 310.58143283544632 0 310.58143283544632 -35.63998563748828 0 0 0 0 0.16390387568935694 19.08589635953831 0 19.08589635953831 43.825127290510864 0 0 0 0 -3.7800634589584661 -10.974483956688346 0 -10.974483956688346 17.337384624814149 0 0 0 0 -30.066975450532482 75.992703426541993 0 75.992703426541993 -78.946223756684049 0 0 0 0 2.601275725164669 -3.4698889421051717 0 -3.4698889421051717 -0.011044067498005461 0 0 0 0 0.2124734490425908 -6.9932021815184271 0 -6.9932021815184271 3.7665949128204375 0 0 0 0 -3.7817156402052206 11.54739111282106 0 11.54739111282106 3.4860009522579958 0 0 0 0 -8.3040274388349644 -0.90085825763162575 0 -0.90085825763162575 -0.036887080335873179 0 0 0 0 0.13451225817698287 11.960248478044377 0 11.960248478044377 13.805703700141748 0 0 0 0 16.480250319076731 7.6408317169079965 0 7.6408317169079965 0.23287482528394321 0 0 0 0 81.557117605672829 37.623532654386509 0 37.623532654386509 8.2530975268127804 0 0 0 0 -22.305201347728143 15.427167355323036 0 15.427167355323036 32.371476526139304 0 0 0 0 55.38910877278613 -20.120779633485654 0 -20.120779633485654 -107.89455375709804 0 0 0 0 -7.0440512121131178 22.550248621613719 0 22.550248621613719 -52.189208839998173 0 0 0 0 -22.478662967067066 -19.354741056064086 0 -19.354741056064086 -4.1535305165343743 0 0 0 0 -44.244463240622281 41.989058627033955 0 41.989058627033955 -0.87480342511844356 0 0 0 0 18.727959062823388 20.166461040744544 0 20.166461040744544 15.100918440593659 0 0 0 0 4.8975444193915649 3.1063378747048631 0 3.1063378747048631 0.28394439863046728 0 0 0 0 26.946580697064746 42.694874438971055 0 42.694874438971055 -108.65752711553068 0 0 0 0 2.7450397108099551 21.521420133346595 0 21.521420133346595 7.8889117802399085 0 0 0 0 -35.733553909329203 3.6373506770505628 0 3.6373506770505628 40.698399167073148 0 0 0 0 -21.754182501728792 24.02050805415638 0 24.02050805415638 10.831803482578835 0 0 0 0 -11.755537739514693 31.387355861421383 0 31.387355861421383 4.8601943430548999 0 0 0 0 -5.1284944584414518 10.954353388044751 0 10.954353388044751 20.295604735596442 0 0 0 0 -13.604799516168896 26.590588514611227 0 26.590588514611227 5.6724940702697495 0 0 0 0 -23.401674767759687 31.219488267346605 0 31.219488267346605 4.428111097717192 0 0 0 0 1.978194739571336 23.039763143744494 0 23.039763143744494 3.5802023202559212 0 0 0 0 -10.998128949711827 31.397534475785505 0 31.397534475785505 4.1594448076011759 0 0 0 0 -2.6034151602070779 20.765594710661389 0 20.765594710661389 2.3912744880972241 0 0 0 0 2.1086945276574625 23.547220832273524 0 23.547220832273524 4.8181874856090872 0 0 0 0 -2.3312588461731139 8.0423521152979447 0 8.0423521152979447 10.078453883543261 0 0 0 0 0.66181386163589195 27.296401797222643 0 27.296401797222643 14.910198099561967 0 0 0 0 -3.9922069156245925 9.9390451513809239 0 9.9390451513809239 -0.10445923742372543 0 0 0 0 -7.0172459813729802 28.497436847690551 0 28.497436847690551 -10.073716619306651 0 0 0 0 -859.15807375411532 701.63460353373739 0 701.63460353373739 73.55440286580415 0 0 0 0 -0.55736088534507644 0.80487915409204902 0 0.80487915409204902 -8.4463754551874217 0 0 0 0 309.37829163502101 146.89922476801985 0 146.89922476801985 -177.61774257567595 0 0 0 0 -205.86583351435183 552.37806898445706 0 552.37806898445706 -479.42948437390442 0 0 0 0 -875.59530216166968 164.59358728670122 0 164.59358728670122 180.53053242894384 0 0 0 0 209.16306588013686 293.79502692398455 0 293.79502692398455 0.263327781620319 0 0 0 0 1331.9081188715791 -348.25234258230921 0 -348.25234258230921 137.01211877728929 0 0 0 0 866.65026771979137 802.61124644076699 0 802.61124644076699 363.56901887581625 0 0 0 0 755.88986663869582 457.37909540592227 0 457.37909540592227 -712.46931008643878 0 0 0 0 9.3336828076805318 6.6332031576867792 0 6.6332031576867792 5.8819216992229713 0 0 0 0 1729.5118562162224 -36.653094624110963 0 -36.653094624110963 -111.27199436360388 0 0 0 0 79.379196663725452 282.18043748650962 0 282.18043748650962 65.091945225534801 0 0 0 0 1432.4460244465299 95.918033879352151 0 95.918033879352151 6.3204431658887188 0 0 0 0 1438.0947951362905 614.89250229366007 0 614.89250229366007 -371.02948862606536 0 0 0 0 1988.6473472777579 416.75631526182406 0 416.75631526182406 -402.92429912300213 0 0 0 0 2098.8709752909654 716.42908412071483 0 716.42908412071483 94.720701093538082 0 0 0 0 590.02493696077727 149.43174721500691 0 149.43174721500691 -0.02341795193933649 0 0 0 0 195.84665082569336 278.21077182354929 0 278.21077182354929 243.54614265107739 0 0 0 0 -97.270694879865914 9.1298465101281181 0 9.1298465101281181 89.388218672287621 0 0 0 0 -69.357926427668076 -138.88178467727425 0 -138.88178467727425 155.47336338557943 0 0 0 0 -59.552842266533844 100.73550613859334 0 100.73550613859334 9.5887377436738461 0 0 0 0 137.45290994571769 -4.4874758726800792 0 -4.4874758726800792 -120.87051926012509 0 0 0 0 783.25725246078446 639.1777353487887 0 639.1777353487887 -116.79532637822558 0 0 0 0 3.8295136328034545 1.7607378083665921 0 1.7607378083665921 0.5509167694776238 0 0 0 0 821.29197822364949 408.80019080854254 0 408.80019080854254 -80.569939695472385 0 0 0 0 635.94325428993398 413.2450490786473 0 413.2450490786473 -223.08955593200517 0 0 0 0 761.27599543218912 538.76363382373893 0 538.76363382373893 -204.5997606322926 0 0 0 0 654.36533514559414 553.33374893729342 0 553.33374893729342 -49.190851862789714 0 0 0 0 752.74994014163531 485.73640365783285 0 485.73640365783285 52.077182074965094 0 0 0 0 730.70697576314706 606.04556986837997 0 606.04556986837997 -117.61260191121255 0 0 0 0 786.95230817635456 541.79060879533063 0 541.79060879533063 -138.43840005273159 0 0 0 0 3.6037275496160497 12.414546906873909 0 12.414546906873909 -22.195366512696012 0 0 0 0 214.93983516604203 -111.86744440239272 0 -111.86744440239272 24.742184388068381 0 0 0 0 759.94712988137326 577.59054959544301 0 577.59054959544301 -142.24425144050474 0 0 0 0 1594.6929559425989 1323.6981831935518 0 1323.6981831935518 379.48178466661193 0 0 0 0 737.62264947976291 1090.8438523862951 0 1090.8438523862951 832.96599900303409 0 0 0 0 1010.4259475448853 813.04501689196695 0 813.04501689196695 -82.713569202431245 0 0 0 0 57.531040733287227 524.04956377501367 0 524.04956377501367 431.92194603173994 0 0 0 0 -29.901435865758685 897.22209343130817 0 897.22209343130817 185.22629793209489 0 0 0 0 679.3580219521973 548.1602402083663 0 548.1602402083663 269.3585478196328 0 0 0 0 1567.3512667987379 516.03327483460453 0 516.03327483460453 363.09216984939121 0 0 0 0 1069.0204035310562 1132.4856653812567 0 1132.4856653812567 495.16474623545946 0 0 0 0 45.710667697356257 206.36949377935525 0 206.36949377935525 892.50092289767053 0 0 0 0 3.8833466215182 8.2098018150040133 0 8.2098018150040133 4.9058967428771894 0 0 0 0 1584.1704711930361 8.752116385512636 0 8.752116385512636 33.343121917238022 0 0 0 0 638.11482122231246 128.23835992765817 0 128.23835992765817 1495.9262386559276 0 0 0 0 656.69557093374351 280.74861577555748 0 280.74861577555748 -94.109443420791649 0 0 0 0 1689.1040525248436 921.49928718001547 0 921.49928718001547 243.87707489728928 0 0 0 0 307.59481871077878 -383.96318955367315 0 -383.96318955367315 451.94757031182235 0 0 0 0 -150.479260593449 198.60625867742056 0 198.60625867742056 138.39839224534808 0 0 0 0 -1.1877948971995238 0.78690584098882255 0 0.78690584098882255 -1.2240888368033893 0 0 0 0 -286.73455613890837 653.15825329848303 0 653.15825329848303 494.4119654493843 0 0 0 0 137.59365928564068 71.720514230776871 0 71.720514230776871 -28.071568786370335 0 0 0 0 115.70447813638384 100.09551308957089 0 100.09551308957089 -13.790979741490446 0 0 0 0 136.20294849288985 -24.647776014589908 0 -24.647776014589908 -32.080183298239717 0 0 0 0 308.37101252568391 588.94429872818 0 588.94429872818 587.84034012078337 0 0 0 0 -165.29136376671295 158.5300646503747 0 158.5300646503747 -52.937720829679165 0 0 0 0 -173.4025792905486 127.32108540510308 0 127.32108540510308 212.86396270962723 0 0 0 0 -138.59133619137901 -12.989126182328619 0 -12.989126182328619 8.7033447541980422 0 0 0 0 -84.056273719201272 -116.73561974894983 0 -116.73561974894983 165.45682248209687 0 0 0 0 -195.12168111208302 -123.62368987258742 0 -123.62368987258742 -51.328044376321486 0 0 0 0 5.7864317479832437 6.7053441867072934 0 6.7053441867072934 0.97648293259288721 0 0 0 0 -147.61771772381599 87.184600186500575 0 87.184600186500575 -43.881782668438973 0 0 0 0 -46.685344350568599 7.8003157257097797 0 7.8003157257097797 7.2978780530300478 0 0 0 0 -260.6509782799767 8.3629239484507707 0 8.3629239484507707 81.183466543538088 0 0 0 0 -59.395703242596937 34.531499930286373 0 34.531499930286373 -5.3998407991445561 0 0 0 0 -16.365996413298831 43.341496687157132 0 43.341496687157132 -17.161404553349712 0 0 0 0 59.533269770239713 48.476924422866432 0 48.476924422866432 -109.59289494442055 0 0 0 0 73.464086338824927 -27.496125689928704 0 -27.496125689928704 -51.643846565624699 0 0 0 0 49.111908598766604 40.637977557515114 0 40.637977557515114 -71.703305241055205 0 0 0 0 -18.012889626763354 -15.92910974744882 0 -15.92910974744882 -25.971850675327005 0 0 0 0 61.052064937459363 25.50360731985711 0 25.50360731985711 -52.645561193290632 0 0 0 0 2.41389799935342 2.4966148340725454 0 2.4966148340725454 -0.92305955013347329 0 0 0 0 -41.568882350355125 22.136812358003226 0 22.136812358003226 3.0362715025257785 0 0 0 0 40.46005001649246 -237.65582224995524 0 -237.65582224995524 28.252673010428225 0 0 0 0 40.789759665109159 75.222004583716625 0 75.222004583716625 1.8858470599589054 0 0 0 0 -3.9686761718803609 -0.92999448025511811 0 -0.92999448025511811 -27.392399832977731 0 0 0 0 11.483874457961065 -4.3565007112338208 0 -4.3565007112338208 14.171691689807631 0 0 0 0 -20.208303807359329 6.6154576370448126 0 6.6154576370448126 0.2296008685102503 0 0 0 0 30.829001270681815 9.2676242167029841 0 9.2676242167029841 -4.5911737972812254 0 0 0 0 69.801501156300901 58.257542052160943 0 58.257542052160943 -15.378444355876127 0 0 0 0 40.996200442845293 27.109513268504088 0 27.109513268504088 -4.7021761774158222 0 0 0 0 -1.1655697658094368 8.4696065092965966 0 8.4696065092965966 -5.9275203517544526 0 0 0 0 575.48335888626752 248.61658741686551 0 248.61658741686551 94.472832983199623 0 0 0 0 602.41861785340006 946.66934130751906 0 946.66934130751906 -34.754098547200556 0 0 0 0 -15.025174613111176 20.260152518553696 0 20.260152518553696 18.720311193726957 0 0 0 0 -17.75741953887956 7.6036230444744319 0 7.6036230444744319 6.3754722150516159 0 0 0 0 -16.116849269441445 20.588272035318369 0 20.588272035318369 51.743332668789662 0 0 0 0 -5.6931438996268113 2.8444381055762307 0 2.8444381055762307 0.71607126089813278 0 0 0 0 0.17285299458308145 27.100538590850192 0 27.100538590850192 17.295152975537349 0 0 0 0 -35.296526537458703 3.3326033994962927 0 3.3326033994962927 15.621545021240308 0 0 0 0 -10.848594375740504 6.2414306350656261 0 6.2414306350656261 16.221039862168254 0 0 0 0 -23.795518880679083 17.060636118680122 0 17.060636118680122 8.2475548184447689 0 0 0 0 -18.22274483457295 6.549271627314738 0 6.549271627314738 3.0955101772124181 0 0 0 0 14.696486914748675 40.116035952843959 0 40.116035952843959 14.481388380023418 0 0 0 0 -9.8251456129582948 25.244048036183813 0 25.244048036183813 34.455360391031718 0 0 0 0 -0.16548301715010894 33.217229180285358 0 33.217229180285358 13.319639838518924 0 0 0 0 -13.244341672118026 26.107670920617238 0 26.107670920617238 6.600350424178032 0 0 0 0 -10.794939371268697 14.41868215248374 0 14.41868215248374 -8.2526468128661463 0 0 0 0 4.2131139282137156 27.636023201426724 0 27.636023201426724 4.835923062179063 0 0 0 0 -15.561326124618063 30.323053960513789 0 30.323053960513789 6.0704517073754687 0 0 0 0 -4.1114711864180791 12.507082544607513 0 12.507082544607513 17.322742311321605 0 0 0 0 -19.551458365731378 20.939655880822102 0 20.939655880822102 17.597586177795165 0 0 0 0 -19.826393116625695 22.222274317387928 0 22.222274317387928 15.661119296120887 0 0 0 0 -1.2941800419774978 6.0942465294426285 0 6.0942465294426285 5.9590876263114581 0 0 0 0 -16.092362120456528 20.784112920946313 0 20.784112920946313 2.6813894332731962 0 0 0 0 -13.177364264951393 23.77791819340564 0 23.77791819340564 14.233151060623641 0 0 0 0 -177.4831981179741 -22.325584693626297 0 -22.325584693626297 92.937552194354794 0 0 0 0 -6.0464247089089866 15.752001384012431 0 15.752001384012431 9.8897389928892494 0 0 0 0 -8.5088110732435212 15.158152971646473 0 15.158152971646473 17.236776352576896 0 0 0 0 -43.768056444230751 50.329101018141955 0 50.329101018141955 12.671019394445466 0 0 0 0 -36.53103091236153 38.759977963014535 0 38.759977963014535 29.090851487824693 0 0 0 0 48.887583688992891 15.631593976810109 0 15.631593976810109 13.135878801491344 0 0 0 0 -19.012820832690345 21.513238677261327 0 21.513238677261327 16.899440474812877 0 0 0 0 1.5921026185787923 29.710140834642516 0 29.710140834642516 -4.9253647015284514 0 0 0 0 -3.0807511042085594 6.847793978439455 0 6.847793978439455 5.2699166692013337 0 0 0 0 46.075757911909022 -62.329022471356438 0 -62.329022471356438 -187.52398003089064 0 0 0 0 -13.485360808384939 44.642098300515499 0 44.642098300515499 -19.564174135884969 0 0 0 0 28.750549299600607 74.897950599675823 0 74.897950599675823 -142.3534233755563 0 0 0 0 -20.021313388919225 11.82652468962624 0 11.82652468962624 8.4714984454549267 0 0 0 0 -16.088110428712753 22.640564755682135 0 22.640564755682135 19.202569030904669 0 0 0 0 -8.5510004835438167 7.8368676810624436 0 7.8368676810624436 17.606006361438943 0 0 0 0 -60.915003184694797 -24.93909231109501 0 -24.93909231109501 -34.439908205647953 0 0 0 0 -14.282718820495575 7.8730692801982514 0 7.8730692801982514 -5.2120932302641449 0 0 0 0 -30.365780685020582 5.4079857758188155 0 5.4079857758188155 0.76267964130238397 0 0 0 0 107.55570944788315 63.214459435959725 0 63.214459435959725 94.321222408048925 0 0 0 0 32.237126935897322 235.54784003578243 0 235.54784003578243 218.38577005091065 0 0 0 0 -6.5723099592540706 12.80447716854097 0 12.80447716854097 2.5797896145083428 0 0 0 0 -12.906535232961787 -2.2320183437602452 0 -2.2320183437602452 11.902298100769514 0 0 0 0 906.16510747934626 268.3326171298977 0 268.3326171298977 -70.908548873601831 0 0 0 0 -301.91765761883835 417.73306066048099 0 417.73306066048099 885.39344237351906 0 0 0 0 -168.49896681011523 -301.73125107550004 0 -301.73125107550004 609.0828554105974 0 0 0 0 -4.6991358167528112 5.1301437696122179 0 5.1301437696122179 5.2375152615537388 0 0 0 0 704.11656469108129 647.94800064562878 0 647.94800064562878 333.8023570046862 0 0 0 0 23.286737491203894 29.907771751350083 0 29.907771751350083 -30.694304316639318 0 0 0 0 13.793317078381158 7.8118039036880305 0 7.8118039036880305 1.587265268852974 0 0 0 0 -45.038167813542714 -51.4191112807639 0 -51.4191112807639 -162.18523604102666 0 0 0 0 326.3271904017065 472.72694235578092 0 472.72694235578092 -631.05242664732941 0 0 0 0 10.253853521831843 10.934436697887577 0 10.934436697887577 -1.9841883647895884 0 0 0 0 379.40832759171462 -95.329637042559625 0 -95.329637042559625 12.548590923790471 0 0 0 0 4.954039282609898 4.1274724480935419 0 4.1274724480935419 2.6342393561585027 0 0 0 0 87.445977078707074 -63.139375253391336 0 -63.139375253391336 26.162431536147778 0 0 0 0 -246.20572680461282 414.92159296114551 0 414.92159296114551 599.30793732352322 0 0 0 0 252.49806480694861 404.00550553150606 0 404.00550553150606 182.51086130228214 0 0 0 0 -148.86687756506581 359.95050755563352 0 359.95050755563352 614.03595331855468 0 0 0 0 98.314635158220881 -254.90988851606835 0 -254.90988851606835 227.10470344347414 0 0 0 0 -39.454978393852798 262.91034743467753 0 262.91034743467753 711.25954366871156 0 0 0 0 -7.9457006633877301 -5.0448799211565216 0 -5.0448799211565216 22.635345777046325 0 0 0 0 -210.32224934200894 -128.71616894823092 0 -128.71616894823092 195.08685307539417 0 0 0 0 2.9075029955929494 126.29089507476601 0 126.29089507476601 -21.29820101842779 0 0 0 0 1.3347686853518557 -4.0040278025375358 0 -4.0040278025375358 7.6284272247769422 0 0 0 0 152.86373373529204 335.74115230478492 0 335.74115230478492 271.20013778387511 0 0 0 0 -74.035851672218996 138.02529173524454 0 138.02529173524454 306.35742667150043 0 0 0 0 -22.34210597935089 198.31381713904557 0 198.31381713904557 303.12031972037221 0 0 0 0 -143.31560296234659 211.85983784830546 0 211.85983784830546 346.14473455186817 0 0 0 0 -150.99373838539179 425.28833580418359 0 425.28833580418359 517.46671249775682 0 0 0 0 549.19897411325564 330.36972886676631 0 330.36972886676631 136.65994440074428 0 0 0 0 125.11600270136842 97.364582993337535 0 97.364582993337535 41.755212193784246 0 0 0 0 257.28636912501315 136.78070072086848 0 136.78070072086848 -68.496198975786683 0 0 0 0 119.81230391708777 74.350041175268416 0 74.350041175268416 -38.544941136424313 0 0 0 0 75.811610307297087 158.40719449958124 0 158.40719449958124 -99.755277616379317 0 0 0 0 120.04044062382309 123.02844896265742 0 123.02844896265742 -131.19328972423682 0 0 0 0 157.19457654727012 70.128821240508842 0 70.128821240508842 -108.41768229770241 0 0 0 0 -616.74246906162807 93.192344835115364 0 93.192344835115364 680.50582235591719 0 0 0 0 199.67952064106794 -408.23442319550668 0 -408.23442319550668 -1803.7684600877401 0 0 0 0 -210.69564085219827 -142.31185234461009 0 -142.31185234461009 -300.80356321172439 0 0 0 0 33.286875892663375 107.94322337268386 0 107.94322337268386 -156.20042144224863 0 0 0 0 -29.995120083614893 244.73376532630209 0 244.73376532630209 -429.87953185857623 0 0 0 0 -461.59381382849097 280.20182316724095 0 280.20182316724095 113.74567900653346 0 0 0 0 -2.9914392880409366 13.732971430648604 0 13.732971430648604 10.513460508908828 0 0 0 0 -128.99082419114438 155.10034869668925 0 155.10034869668925 -71.252852264879039 0 0 0 0 26.563840178097749 39.424765437274928 0 39.424765437274928 50.284258433323203 0 0 0 0 39.577354942608508 135.47035953749582 0 135.47035953749582 33.154625311552081 0 0 0 0 -104.6292835728309 243.05612657599704 0 243.05612657599704 -125.35941794724386 0 0 0 0 -8.0329309668231872 17.471257276287361 0 17.471257276287361 50.230615329841385 0 0 0 0 54.881869397489936 182.34568746630976 0 182.34568746630976 83.288532103950274 0 0 0 0 58.73173510932611 103.10353773196402 0 103.10353773196402 -45.184094335199916 0 0 0 0 -14.1092303699279 140.83532275642938 0 140.83532275642938 -64.654064541769912 0 0 0 0 56.847755783467619 96.204362332868186 0 96.204362332868186 -68.858380288700573 0 0 0 0 77.043794287048513 75.693638094322523 0 75.693638094322523 -52.717115347084473 0 0 0 0 78.637301113241847 42.685150846620672 0 42.685150846620672 -34.261069865111494 0 0 0 0 126.60381220361887 28.105175105905801 0 28.105175105905801 -69.926920426980359 0 0 0 0 167.83967607845989 83.442933787962829 0 83.442933787962829 -114.60514918965055 0 0 0 0 108.94749446999049 35.886936502989556 0 35.886936502989556 -69.537072963983519 0 0 0 0 108.97424001881518 37.352921530859021 0 37.352921530859021 -46.929240320940153 0 0 0 0 35.723663688494526 56.662981417333867 0 56.662981417333867 -29.313612500176532 0 0 0 0 19.693803840365945 15.365023448382999 0 15.365023448382999 -24.699461612675805 0 0 0 0 39.367984476015408 27.413029600698792 0 27.413029600698792 -25.971326543658506 0 0 0 0 53.975536397316318 17.483508840814466 0 17.483508840814466 -37.083234052726766 0 0 0 0 51.24369594611926 15.448845161074132 0 15.448845161074132 -36.630863807075002 0 0 0 0 112.3067843398203 -32.853935123348492 0 -32.853935123348492 -11.177870386018185 0 0 0 0 43.331623726213365 6.2913095980147773 0 6.2913095980147773 -24.086927616677713 0 0 0 0 286.11929982906076 -54.762643027985177 0 -54.762643027985177 -58.695126054924913 0 0 0 0 125.7968820085207 16.422155363297861 0 16.422155363297861 -80.848628603984253 0 0 0 0 -6.6597012625675909 12.589185302363532 0 12.589185302363532 27.164476775913869 0 0 0 0 59.503385506417544 40.866549959646363 0 40.866549959646363 10.689734510015114 0 0 0 0 4.7672706318280689 35.245896368111062 0 35.245896368111062 43.570890496965148 0 0 0 0 38.675436915938917 20.569654708953749 0 20.569654708953749 4.1457021681708284 0 0 0 0 46.609942735140066 24.172281764700529 0 24.172281764700529 -3.6120033027109457 0 0 0 0 -49.618383597325192 -4.1893702102970565 0 -4.1893702102970565 32.908564077923074 0 0 0 0 -3.0478609055155417 12.790776930610832 0 12.790776930610832 8.7491887591326361 0 0 0 0 -23.367501010019623 10.86358528121491 0 10.86358528121491 17.549614701492828 0 0 0 0 -22.634732577513205 43.654418126450764 0 43.654418126450764 61.25680247546552 0 0 0 0 4.4774747698611463 97.297057510033483 0 97.297057510033483 108.61779913553983 0 0 0 0 -32.313212700326403 7.6350841098173987 0 7.6350841098173987 145.38362137107833 0 0 0 0 21.944530820983346 -39.143695862490858 0 -39.143695862490858 36.81723803388013 0 0 0 0 -18.981423590783379 -7.3226427548361244 0 -7.3226427548361244 20.540721771278186 0 0 0 0 45.280592467558563 6.5275301375731942 0 6.5275301375731942 -2.9445337112701964 0 0 0 0 -26.93218213228829 89.420978586342244 0 89.420978586342244 -2.4740344422934868 0 0 0 0 -131.66025302282287 38.26357521148293 0 38.26357521148293 30.61422159022186 0 0 0 0 3.8001925709036897 1.3129844067949605 0 1.3129844067949605 -0.83438105046946021 0 0 0 0 -297.22117601588252 28.781076908708201 0 28.781076908708201 84.363374965389085 0 0 0 0 -199.05879712750175 374.26269519353809 0 374.26269519353809 645.76675258981413 0 0 0 0 -24.019677978052641 39.256355302415614 0 39.256355302415614 -14.897983909097093 0 0 0 0 144.1804538124743 36.971397934004926 0 36.971397934004926 -42.126418140818714 0 0 0 0 33.364918228408641 37.252877425902497 0 37.252877425902497 9.4800169177163394 0 0 0 0 46.481579230000534 66.807553424205707 0 66.807553424205707 -68.378013357752934 0 0 0 0 46.727725727960205 -18.055184904475027 0 -18.055184904475027 -252.69179395574611 0 0 0 0 78.576047591764109 121.32066602152827 0 121.32066602152827 -41.680584781162906 0 0 0 0 3.0161881904455754 1.6478574876979479 0 1.6478574876979479 -1.8203186467984551 0 0 0 0 -14.764532003726345 7.3550447465095203 0 7.3550447465095203 -61.603370188811823 0 0 0 0 55.847646735426679 23.394888843176886 0 23.394888843176886 -78.27462171469233 0 0 0 0 16.44646271629162 37.170443888923572 0 37.170443888923572 3.6933250030306048 0 0 0 0 -11.244611638740025 61.551920727022662 0 61.551920727022662 28.534476720415114 0 0 0 0 11.515305621924199 43.634063096271348 0 43.634063096271348 -23.221709259312775 0 0 0 0 -1.1741714993974028 16.904148933140846 0 16.904148933140846 -21.7862072047607 0 0 0 0 102.60018025293539 -3.5774292405712913 0 -3.5774292405712913 -13.484908797443495 0 0 0 0 29.24360223268377 42.831013622366299 0 42.831013622366299 -44.131020907278071 0 0 0 0 64.561585237744225 152.43822157447073 0 152.43822157447073 27.245203469210537 0 0 0 0 12.173692695970601 1.1440745551366263 0 1.1440745551366263 -5.9934089587221138 0 0 0 0 -38.242345717131684 -32.607228781100275 0 -32.607228781100275 -63.08547205189825 0 0 0 0 -3.8196687650842627 10.760963394533974 0 10.760963394533974 -17.914342083510064 0 0 0 0 7.7632719954417553 7.2683392023682245 0 7.2683392023682245 -21.000589486859099 0 0 0 0 37.596185767099087 10.041776616992138 0 10.041776616992138 -43.973576170625165 0 0 0 0 21.875016719688574 -1.0199295188831456 0 -1.0199295188831456 -105.92251053485234 0 0 0 0 81.490513900684164 167.44272655405075 0 167.44272655405075 177.47002155071823 0 0 0 0 6.3024848013765222 1.4562036136066183 0 1.4562036136066183 -2.072427250220727 0 0 0 0 73.048200960285158 -24.537205949955478 0 -24.537205949955478 -85.393181439838372 0 0 0 0 89.170435713473125 114.98607877891482 0 114.98607877891482 -138.40170701890383 0 0 0 0 81.716760257928399 119.13218233407679 0 119.13218233407679 -74.933212212508806 0 0 0 0 134.36990909030828 61.700250309593685 0 61.700250309593685 -25.07496952166548 0 0 0 0 161.16799119647476 170.29463523237064 0 170.29463523237064 39.759486134513281 0 0 0 0 -132.9359159621381 177.67230262478552 0 177.67230262478552 71.574621127016144 0 0 0 0 27.178231778292684 244.44254384537635 0 244.44254384537635 400.55021036132894 0 0 0 0 108.81050618453992 39.865795011648515 0 39.865795011648515 -201.62598149119003 0 0 0 0 -62.821767811179598 83.812377626858506 0 83.812377626858506 -106.84842382655916 0 0 0 0 51.602051626829052 206.62038387691791 0 206.62038387691791 -150.09382220220141 0 0 0 0 8.7819590289927874 187.15383554614345 0 187.15383554614345 -101.72025101085455 0 0 0 0 40.075937661262287 252.93348984640761 0 252.93348984640761 -334.29273351934535 0 0 0 0 52.284409979387419 205.27082202771999 0 205.27082202771999 -269.33509964556106 0 0 0 0 155.22059723511848 103.82171659378218 0 103.82171659378218 -274.37201051270677 0 0 0 0 151.72905220443135 96.202459995485697 0 96.202459995485697 -526.04420577472774 0 0 0 0 57.652224346378944 268.64838147908836 0 268.64838147908836 -395.92507612729969 0 0 0 0 -10.255499270664586 306.366019806861 0 306.366019806861 -400.20221631687309 0 0 0 0 -37.196685009711473 569.74436549574739 0 569.74436549574739 -945.88946318544913 0 0 0 0 130.62734476992046 11.554331248429662 0 11.554331248429662 -22.197069283472956 0 0 0 0 68.51597205093276 92.232819382035814 0 92.232819382035814 60.801956332586997 0 0 0 0 66.879400304678711 74.176103436911944 0 74.176103436911944 -4.1239133998678881 0 0 0 0 37.054564196849242 52.164041201082 0 52.164041201082 27.266861414536834 0 0 0 0 72.395518339748378 91.187411624574452 0 91.187411624574452 35.390667741943616 0 0 0 0 46.057308776520586 12.043527938234547 0 12.043527938234547 -66.444984882356948 0 0 0 0 13.34581526166221 44.490349755780699 0 44.490349755780699 28.836414938909002 0 0 0 0 5.1272818541560099 -2.9623657705168398 0 -2.9623657705168398 -19.95833703162242 0 0 0 0 35.455765183157318 27.728889265475686 0 27.728889265475686 -21.19056929664545 0 0 0 0 104.08133283093775 5.3970797891088296 0 5.3970797891088296 -100.484554459028 0 0 0 0 39.767000865738737 -22.705422347735293 0 -22.705422347735293 -35.095759778283536 0 0 0 0 39.042857957003434 47.286466808327532 0 47.286466808327532 -34.761913738358999 0 0 0 0 35.168852469967533 82.269887155809556 0 82.269887155809556 -5.9601613650811487 0 0 0 0 40.602307712089384 28.389061948178778 0 28.389061948178778 -13.069949781755753 0 0 0 0 50.947697860789049 64.582211593879038 0 64.582211593879038 -16.677787273743888 0 0 0 0 37.91836391796096 80.711147977810469 0 80.711147977810469 -35.100127462501405 0 0 0 0 45.332287642551819 99.725274583615828 0 99.725274583615828 -45.660273721447084 0 0 0 0 27.229610650632395 38.358948450038149 0 38.358948450038149 47.401509756432631 0 0 0 0 9.2805255640560063 106.70465136529674 0 106.70465136529674 -24.965428882074775 0 0 0 0 -62.657649686385412 6.0205564375210088 0 6.0205564375210088 36.292357680726127 0 0 0 0 -46.947030453411571 49.241890372119087 0 49.241890372119087 62.756357829057379 0 0 0 0 -1.1926171829873056 116.75927526721716 0 116.75927526721716 -180.63434436424723 0 0 0 0 2.4446253865703653 7.6595237550343995 0 7.6595237550343995 4.523684815077516 0 0 0 0 -26.413311928852636 108.10411020416541 0 108.10411020416541 -14.348006171305315 0 0 0 0 4.3219008635403782 0.81727451467871504 0 0.81727451467871504 -3.1251548069382409 0 0 0 0 52.780403678680159 140.56166338241746 0 140.56166338241746 -42.832617507618124 0 0 0 0 -43.735495960307162 211.90211059537251 0 211.90211059537251 -95.051867194830265 0 0 0 0 -42.71650685264467 226.81683067796621 0 226.81683067796621 118.90686372868367 0 0 0 0 203.93485102222257 151.04989684505927 0 151.04989684505927 113.63438009417951 0 0 0 0 43.895921714823089 153.98110724340313 0 153.98110724340313 153.14346281423059 0 0 0 0 48.752072674469673 243.70659080188307 0 243.70659080188307 235.89986366865196 0 0 0 0 145.85126182611566 134.1404363360416 0 134.1404363360416 41.315069851018052 0 0 0 0 257.80422811758035 392.8300687197916 0 392.8300687197916 251.15633511141232 0 0 0 0 -40.568261991375493 196.48271921201331 0 196.48271921201331 474.08050693330006 0 0 0 0 -34.723490056045193 187.95729345759173 0 187.95729345759173 205.04936274147622 0 0 0 0 5.7452615058409719 107.50325876537681 0 107.50325876537681 222.57113191412645 0 0 0 0 -20.340915352295269 -0.77831669377337676 0 -0.77831669377337676 86.638420012168353 0 0 0 0 -3.6209637617257613 64.308206148044519 0 64.308206148044519 320.96670657073992 0 0 0 0 -11.383909821903217 57.39678699401702 0 57.39678699401702 327.77909673414251 0 0 0 0 9.4432176987247374 8.4325928190512371 0 8.4325928190512371 6.2258078957797238 0 0 0 0 31.506395799506208 9.9869541654079512 0 9.9869541654079512 -43.487063407603273 0 0 0 0 13.549059260545619 17.445724831188272 0 17.445724831188272 -46.50038814607251 0 0 0 0 19.405726424601795 11.197831137199842 0 11.197831137199842 -6.6402199169068865 0 0 0 0 71.625859840889461 77.360851678353356 0 77.360851678353356 10.385447381922859 0 0 0 0 10.338142351042194 25.61380441977721 0 25.61380441977721 -15.547042341065676 0 0 0 0 13.144714443391422 25.949151451968646 0 25.949151451968646 -57.43735111152273 0 0 0 0 41.434865126853765 13.685609001317061 0 13.685609001317061 -97.171263737736354 0 0 0 0 2.5287937421234119 3.5269327461469686 0 3.5269327461469686 2.769742886942268 0 0 0 0 -52.324731542392328 7.6825883913406869 0 7.6825883913406869 929.27390880037274 0 0 0 0 70.387555847302792 -53.177104745220277 0 -53.177104745220277 -18.182849571472616 0 0 0 0 108.60369571486081 244.62652226294813 0 244.62652226294813 597.42203032610269 0 0 0 0 -52.96905810147291 333.89874210636117 0 333.89874210636117 365.20467440546781 0 0 0 0 -164.84537694495702 148.6790822132316 0 148.6790822132316 566.82112744217739 0 0 0 0 86.103380798795115 129.02633632007928 0 129.02633632007928 190.6255875328643 0 0 0 0 -40.578856925701984 250.22030720500334 0 250.22030720500334 586.00544592386177 0 0 0 0 -1.6293551502712944 133.74635891399885 0 133.74635891399885 583.71397544632055 0 0 0 0 439.06058559100643 294.42233611594656 0 294.42233611594656 171.00558287644526 0 0 0 0 382.58761561529991 577.92700422099733 0 577.92700422099733 988.02615051470639 0 0 0 0 -122.02229824038113 -60.931645661421499 0 -60.931645661421499 1361.9396932135533 0 0 0 0 69.73947433638341 -56.601709566705722 0 -56.601709566705722 715.44097827082442 0 0 0 0 -64.542936201147313 -166.0902294304833 0 -166.0902294304833 324.36538606819158 0 0 0 0 -151.79718192940709 -5.6325890710504609 0 -5.6325890710504609 291.43693885032189 0 0 0 0 980.65466223240583 200.925888277794 0 200.925888277794 315.84170169714344 0 0 0 0 271.58673379276843 -93.014408938433917 0 -93.014408938433917 205.8871370131892 0 0 0 0 335.39576384164593 -441.32268446746093 0 -441.32268446746093 569.06902903453738 0 0 0 0 -222.73908011424783 -7.1673493770176719 0 -7.1673493770176719 368.37321868487925 0 0 0 0 -413.37534293933186 560.01248928865243 0 560.01248928865243 -55.421762977435719 0 0 0 0 -410.29233029254283 104.30268315408466 0 104.30268315408466 992.57826504534023 0 0 0 0 691.61691379760759 721.63871955680588 0 721.63871955680588 -68.343820634287113 0 0 0 0 200.65297276337515 357.69572993850306 0 357.69572993850306 -334.12693359499099 0 0 0 0 571.60134352174873 241.04455668881928 0 241.04455668881928 -338.64784264756599 0 0 0 0 168.97741985503194 0.56644626374327345 0 0.56644626374327345 -213.80985332874116 0 0 0 0 157.39104794504783 325.42811271874598 0 325.42811271874598 24.265611354909197 0 0 0 0 -113.29737868337179 -204.36094073299319 0 -204.36094073299319 596.21540984816966 0 0 0 0 84.930268813365558 377.90961119585484 0 377.90961119585484 203.33484778795537 0 0 0 0 636.67184131282806 306.31189072802408 0 306.31189072802408 -618.10961312385916 0 0 0 0 7.69365297275891 7.9319223834982324 0 7.9319223834982324 7.8264185955212326 0 0 0 0 617.52339940129423 511.29190199398727 0 511.29190199398727 -100.50120653107297 0 0 0 0 39.306815590622136 90.233122068311786 0 90.233122068311786 -384.13051338438527 0 0 0 0 -241.94534429652367 699.93492616674121 0 699.93492616674121 -290.17113082617288 0 0 0 0 18.361186201118503 19.937210354328755 0 19.937210354328755 19.647104447114685 0 0 0 0 -363.79361273160885 383.01825873563939 0 383.01825873563939 -189.04017722403478 0 0 0 0 -263.94640999820331 362.62148546594108 0 362.62148546594108 -285.13419313901977 0 0 0 0 780.82271752190059 587.0042045768605 0 587.0042045768605 -239.86361698135443 0 0 0 0 -0.62628288074051275 2.0245193886807868 0 2.0245193886807868 3.703780342503876 0 0 0 0 -327.27301010218798 271.64691623582621 0 271.64691623582621 -81.595929651521146 0 0 0 0 -182.20308420540005 37.541574511837098 0 37.541574511837098 142.17161565709102 0 0 0 0 956.24307380133587 1000.1570158602408 0 1000.1570158602408 654.6774566276581 0 0 0 0 -39.118771420680787 -105.93123529141303 0 -105.93123529141303 50.313963920874812 0 0 0 0 -49.759196459752275 28.17652229340456 0 28.17652229340456 -36.350745484265644 0 0 0 0 -296.968070692315 38.163452240998595 0 38.163452240998595 -192.08217955695 0 0 0 0 -337.50103140610236 291.44404496056086 0 291.44404496056086 -157.65808495145757 0 0 0 0 -267.7844772164317 242.63558579128585 0 242.63558579128585 -111.99459023133386 0 0 0 0 -284.39325879092348 215.60640641671853 0 215.60640641671853 -150.44557023397647 0 0 0 0 -136.71915474952402 125.06917236001755 0 125.06917236001755 -378.20209621682443 0 0 0 0 319.81964004008751 189.36904920858069 0 189.36904920858069 -402.14601568134822 0 0 0 0 510.99144505914319 46.373616446864617 0 46.373616446864617 -775.75357155450911 0 0 0 0 308.9928591008732 82.248117038884175 0 82.248117038884175 -430.08194312179694 0 0 0 0 1037.5461264047608 410.43974733482901 0 410.43974733482901 -541.51233566133669 0 0 0 0 1759.2335092427443 422.51596622605575 0 422.51596622605575 -150.94331503786088 0 0 0 0 246.90527469978724 561.47019775019726 0 561.47019775019726 1084.7786342101053 0 0 0 0 9.4172171944194041 1.8930041059672362 0 1.8930041059672362 0.48442682917864488 0 0 0 0 36.18223362308845 145.2850203044145 0 145.2850203044145 352.44954524203786 0 0 0 0 269.67055642287391 414.15949276941319 0 414.15949276941319 355.37258986422364 0 0 0 0 546.46029692430693 308.66248838825049 0 308.66248838825049 59.451343630193151 0 0 0 0 403.35372758202766 333.48446950603829 0 333.48446950603829 272.20410177601661 0 0 0 0 95.254579206552734 245.16984736285212 0 245.16984736285212 126.01561349032272 0 0 0 0 -0.80259751616253139 2.0974553084824592 0 2.0974553084824592 5.4321598403377038 0 0 0 0 311.4098277862081 211.04169179752716 0 211.04169179752716 127.74980756498553 0 0 0 0 -10.896728097191044 48.215103410220763 0 48.215103410220763 1.6453519051992771 0 0 0 0 -265.03456959279174 123.81752278177373 0 123.81752278177373 33.388788797194138 0 0 0 0 -0.72264505415065905 2.1865715470203497 0 2.1865715470203497 6.2370760594042167 0 0 0 0 238.55698520858846 51.247742924375416 0 51.247742924375416 -42.893587043232401 0 0 0 0 -8.074761017959645 67.992231311785872 0 67.992231311785872 100.92807754738897 0 0 0 0 135.03185679121725 37.877618426064146 0 37.877618426064146 86.282737848407123 0 0 0 0 -48.39815654666927 161.2131847652854 0 161.2131847652854 226.31901793704264 0 0 0 0 -279.18960870627734 79.976939265641704 0 79.976939265641704 169.78924444531731 0 0 0 0 -84.935676795625113 110.75085899512851 0 110.75085899512851 169.74501746094029 0 0 0 0 -290.59607869956153 134.2818344950756 0 134.2818344950756 222.33875476379762 0 0 0 0 -367.81337738564616 166.78816401022777 0 166.78816401022777 215.15148970679729 0 0 0 0 -247.45009552538681 134.99642940280683 0 134.99642940280683 41.283676291452139 0 0 0 0 -343.86633138386696 279.30591872430523 0 279.30591872430523 -148.07820549490862 0 0 0 0 -428.68895650474906 241.27250598331739 0 241.27250598331739 -90.462863631808432 0 0 0 0 -446.84762206165396 134.7826295788982 0 134.7826295788982 55.242389117403945 0 0 0 0 -252.10249532772832 244.35468589085212 0 244.35468589085212 -254.42162935863598 0 0 0 0 -243.03338602403255 258.2185835674245 0 258.2185835674245 -375.1299653359456 0 0 0 0 -340.52401301481495 254.7156945662573 0 254.7156945662573 -60.666936277000787 0 0 0 0 -304.02236116375116 144.91806250595982 0 144.91806250595982 -16.462773941726482 0 0 0 0 -217.7168753621736 100.70776853259304 0 100.70776853259304 -164.62038408067019 0 0 0 0 -326.64418370304202 188.85302879524897 0 188.85302879524897 62.523402777005685 0 0 0 0 -315.63911037998696 87.817055615261779 0 87.817055615261779 210.98195628631584 0 0 0 0 -297.72861655453562 184.66753212733602 0 184.66753212733602 239.14084857079433 0 0 0 0 -276.56438890364552 83.497839118164848 0 83.497839118164848 281.95886956816685 0 0 0 0 -312.52240622440172 231.67182850565223 0 231.67182850565223 402.19375792489154 0 0 0 0 -164.59889352863865 -95.254431950452272 0 -95.254431950452272 203.31326809118764 0 0 0 0 -244.33390573793349 199.22068437669077 0 199.22068437669077 379.20043718846864 0 0 0 0 -308.79954668492064 166.1190777429656 0 166.1190777429656 166.25891719479114 0 0 0 0 -98.379567535024762 346.62647751083568 0 346.62647751083568 1089.4107267408181 0 0 0 0 -141.88026756302133 139.91245690098731 0 139.91245690098731 394.18002503245589 0 0 0 0 -4.0280580852177081 200.40621161190938 0 200.40621161190938 -10.536043098923983 0 0 0 0 378.72725150109727 -274.66586499749974 0 -274.66586499749974 431.90176770696416 0 0 0 0 -246.94995965166527 -8.5607261704426492 0 -8.5607261704426492 -123.70856980837561 0 0 0 0 -22.630713438462408 -41.437397039408097 0 -41.437397039408097 -579.18313255059184 0 0 0 0 -214.35124274263035 2.3285284365701955 0 2.3285284365701955 34.949327543989057 0 0 0 0 -240.7757048648873 155.02659931714879 0 155.02659931714879 -158.31847371198819 0 0 0 0 -185.17478459177801 88.689437324050232 0 88.689437324050232 -148.36492186956457 0 0 0 0 -180.17888954420414 41.190248430619249 0 41.190248430619249 -160.72203760967022 0 0 0 0 -38.789821028884035 232.1832447132474 0 232.1832447132474 -722.85725091483619 0 0 0 0 -138.97806077895257 163.01009669883933 0 163.01009669883933 -527.93785450665746 0 0 0 0 -177.77798304026874 176.34768729646748 0 176.34768729646748 -399.71022179875763 0 0 0 0 -127.97140232568381 67.954408390818571 0 67.954408390818571 -390.00190731781186 0 0 0 0 2.9994503532338967 -33.011252047323069 0 -33.011252047323069 7.1101124798296951 0 0 0 0 -1.5926124783299258 5.7442619993727249 0 5.7442619993727249 2.6756829539858131 0 0 0 0 -40.385500045900699 46.050815646027331 0 46.050815646027331 2.9853049758821726 0 0 0 0 1.046345220234798 20.111718453132198 0 20.111718453132198 -25.853549691548324 0 0 0 0 14.978950753776029 7.105423675157553 0 7.105423675157553 -5.7932797172188941 0 0 0 0 11.916057733775233 11.726970169125707 0 11.726970169125707 -14.636143265481223 0 0 0 0 2.8811171513334557 28.014442567480728 0 28.014442567480728 -26.71357688678836 0 0 0 0 0.18453420567675494 24.945281282620272 0 24.945281282620272 -18.767219790286617 0 0 0 0 14.02295739438858 5.0766236560480138 0 5.0766236560480138 0.097119881134148045 0 0 0 0 5.2856900937858882 22.528239514234883 0 22.528239514234883 -25.361253733426565 0 0 0 0 17.287876971353398 18.956218046288996 0 18.956218046288996 -25.978531757456949 0 0 0 0 11.493425830904016 15.276833922864171 0 15.276833922864171 -20.606715695003004 0 0 0 0 24.571318993937894 15.147532919625519 0 15.147532919625519 -34.546224148885813 0 0 0 0 27.304513569550181 15.241464131206158 0 15.241464131206158 -27.619000993541704 0 0 0 0 11.29146685309388 23.284502122158301 0 23.284502122158301 -29.492057616473176 0 0 0 0 2.3143563615649327 17.702132995022112 0 17.702132995022112 -25.146199557362706 0 0 0 0 11.147710584482986 26.720295591392841 0 26.720295591392841 -12.513857168337026 0 0 0 0 -0.75735075127204254 23.179699096637705 0 23.179699096637705 -29.181719846907072 0 0 0 0 26.0717796376357 42.251648641369684 0 42.251648641369684 -24.733704468260839 0 0 0 0 1.8766721487372706 19.423456302698469 0 19.423456302698469 -30.571934376610443 0 0 0 0 21.254745112875753 62.558668322264566 0 62.558668322264566 -94.146686524893084 0 0 0 0 0.17808189015027232 8.1789144603784507 0 8.1789144603784507 3.2018006046556309 0 0 0 0 -528.80153306968805 154.67357768489455 0 154.67357768489455 -1.5926275421006721 0 0 0 0 24.753426000751976 28.629136464192058 0 28.629136464192058 19.728588692637317 0 0 0 0 -410.30610228192677 458.45359455139624 0 458.45359455139624 -304.80803509731777 0 0 0 0 -395.88363210151965 137.60940236203896 0 137.60940236203896 -559.36173605365184 0 0 0 0 -691.73143095616069 128.19610882415145 0 128.19610882415145 -96.987281180365244 0 0 0 0 -675.98535644900949 436.74583136905267 0 436.74583136905267 -181.28662869447726 0 0 0 0 -215.13571922344818 390.49028663770878 0 390.49028663770878 -358.12115500975233 0 0 0 0 -2.3115378973125189 178.90378745528869 0 178.90378745528869 -753.2204870068017 0 0 0 0 -14.836334879449169 94.949711906745506 0 94.949711906745506 17.339312180658453 0 0 0 0 -138.95632553282849 371.21916338680603 0 371.21916338680603 -656.22437079187512 0 0 0 0 0.018575167886101696 1.4376174173616647 0 1.4376174173616647 0.46806918859449809 0 0 0 0 -359.44433882785597 562.18699976881908 0 562.18699976881908 -440.08044465817511 0 0 0 0 743.33415749389678 1479.509783773341 0 1479.509783773341 866.17925904987351 0 0 0 0 705.81620079705317 908.52949211101441 0 908.52949211101441 278.92959976763814 0 0 0 0 1022.4226984279085 890.63487893853744 0 890.63487893853744 -268.34870455061173 0 0 0 0 916.0820659613164 1351.8278873858508 0 1351.8278873858508 886.54911208229896 0 0 0 0 -2.2407907002052525 -119.30999727599556 0 -119.30999727599556 -299.93552703247406 0 0 0 0 0.79537248691732998 4.7047844753888484 0 4.7047844753888484 4.5486158410496955 0 0 0 0 906.30223607437802 1119.2504985504711 0 1119.2504985504711 41.877656114593265 0 0 0 0 779.98292064252018 1301.0130673773601 0 1301.0130673773601 1108.8606895883277 0 0 0 0 804.37652482575504 1420.263198026616 0 1420.263198026616 1104.827333542268 0 0 0 0 764.53589185442252 1410.2126495204939 0 1410.2126495204939 1682.0848567602225 0 0 0 0 -291.134212839268 1097.8446283161466 0 1097.8446283161466 1462.5117431580438 0 0 0 0 626.82033705602225 1330.9347446852771 0 1330.9347446852771 1877.065212393296 0 0 0 0 767.98684449606208 1139.5620757595307 0 1139.5620757595307 1507.4367616495147 0 0 0 0 1376.9777576002962 1180.5484724112866 0 1180.5484724112866 899.01954108179052 0 0 0 0 750.18518323378521 1259.2283683960923 0 1259.2283683960923 1596.8226202945225 0 0 0 0 -4.2850497389544273 4.7271174814795529 0 4.7271174814795529 4.2775638099334117 0 0 0 0 306.52251321779113 1343.3673145072098 0 1343.3673145072098 837.85969705923344 0 0 0 0 -537.98628409192315 663.59393686378826 0 663.59393686378826 968.93595296429703 0 0 0 0 -85.914303901670792 1721.3888785521995 0 1721.3888785521995 1257.9779564259188 0 0 0 0 1394.4645668445269 2335.8334279375858 0 2335.8334279375858 1405.7023952486634 0 0 0 0 54.448974535538582 1371.6458487164964 0 1371.6458487164964 935.48013389329572 0 0 0 0 373.8316172597406 1228.2061099457642 0 1228.2061099457642 801.20982527385058 0 0 0 0 91.433994104021622 1465.3855167968277 0 1465.3855167968277 880.9955959930594 0 0 0 0 -231.484908869229 1437.2391789238909 0 1437.2391789238909 897.68736926653219 0 0 0 0 -321.94781921287358 963.52683879758843 0 963.52683879758843 701.10370716718899 0 0 0 0 112.45102796809442 569.0007241434796 0 569.0007241434796 225.79478764782834 0 0 0 0 -0.41739033965299654 3.7028731393214827 0 3.7028731393214827 4.7321832584770789 0 0 0 0 -161.8322004779875 721.97438501789838 0 721.97438501789838 631.35729832151264 0 0 0 0 -1155.374611263549 -84.744202394056629 0 -84.744202394056629 263.65476942276109 0 0 0 0 1.0174039158446249 -114.55256354614539 0 -114.55256354614539 -292.99053083467879 0 0 0 0 -182.02830342785273 1101.7141089206616 0 1101.7141089206616 90.456296812066284 0 0 0 0 0.6281064314644027 1303.7904331598156 0 1303.7904331598156 -557.20189766359908 0 0 0 0 -214.39799061604208 1047.3434754753016 0 1047.3434754753016 818.98076851538644 0 0 0 0 1340.0651961180483 2640.7818493684099 0 2640.7818493684099 -7.1956629009218886 0 0 0 0 571.68952246286426 416.98260356904029 0 416.98260356904029 -1163.9570203110634 0 0 0 0 -555.39742931906221 1318.5896488056969 0 1318.5896488056969 -598.88110147045518 0 0 0 0 6.6247672391779133 7.4194011480725379 0 7.4194011480725379 2.5585556639722995 0 0 0 0 -1382.345483316727 1183.9989469654574 0 1183.9989469654574 -1.7289828618449974 0 0 0 0 194.7721750162309 1726.4917006865726 0 1726.4917006865726 0.61821731996237206 0 0 0 0 2256.4073770799332 164.07037025775026 0 164.07037025775026 -1098.6751654614054 0 0 0 0 -904.28825312010304 716.53039893772075 0 716.53039893772075 -874.38231824405375 0 0 0 0 -498.15016566825216 1381.1026606627056 0 1381.1026606627056 -1232.5240111366438 0 0 0 0 14.352841737569292 14.514710402412753 0 14.514710402412753 6.0603187924187409 0 0 0 0 -539.58449654639116 1866.0850777556916 0 1866.0850777556916 -930.74459065370502 0 0 0 0 152.77653881027254 278.49168200180884 0 278.49168200180884 -1232.1089414389862 0 0 0 0 7.9119889744742977 7.4342509753066892 0 7.4342509753066892 2.683684901562799 0 0 0 0 -1037.4408568048984 1561.5961801965268 0 1561.5961801965268 267.61817683959816 0 0 0 0 1125.0464955380885 366.42151284850843 0 366.42151284850843 -1239.558514673743 0 0 0 0 -504.852553329074 610.89202476056016 0 610.89202476056016 -578.66975521185736 0 0 0 0 -434.57250701657904 681.9797122567179 0 681.9797122567179 -970.86672744540374 0 0 0 0 324.50493056832784 1356.0240040892277 0 1356.0240040892277 270.07412565844243 0 0 0 0 -743.67457315472711 506.60213026214478 0 506.60213026214478 396.02929819553901 0 0 0 0 -1353.9857177250378 2237.854853733963 0 2237.854853733963 1211.7902037628446 0 0 0 0 1107.7488705266296 1537.0005473717792 0 1537.0005473717792 -1081.3977240871172 0 0 0 0 584.62863504715642 669.48933210052928 0 669.48933210052928 -928.46612417808501 0 0 0 0 -429.08070858631254 600.39641887089419 0 600.39641887089419 -476.11750518604094 0 0 0 0 -379.77854747853416 1408.9153104123616 0 1408.9153104123616 -1051.2684123250183 0 0 0 0 -717.78849400657782 1231.0906044454896 0 1231.0906044454896 -352.68361567311513 0 0 0 0 14.123750165071456 17.004594798721833 0 17.004594798721833 10.078206407752134 0 0 0 0 6.9406915416493717 7.3047397174418336 0 7.3047397174418336 3.2002912595640964 0 0 0 0 -1357.6772570111425 1037.8232988524232 0 1037.8232988524232 -0.340899723880284 0 0 0 0 774.11153058512355 1208.7939856336525 0 1208.7939856336525 -187.02421193707414 0 0 0 0 550.69033988959563 1405.5354610408976 0 1405.5354610408976 -0.72020032748254792 0 0 0 0 1333.3382674069217 1530.9473950321008 0 1530.9473950321008 -441.39066535861639 0 0 0 0 1223.4412144663365 1795.8329465056959 0 1795.8329465056959 125.00743050285382 0 0 0 0 1524.1487728740212 1946.5808711796162 0 1946.5808711796162 -52.670400556809909 0 0 0 0 1057.6062557516925 739.83254129336274 0 739.83254129336274 -839.54767201641516 0 0 0 0 2711.6357719563675 1590.9775506725491 0 1590.9775506725491 -651.38920951419823 0 0 0 0 7.3104387267951267 9.7744742669429883 0 9.7744742669429883 6.7270107818187057 0 0 0 0 1418.879160122764 2320.9547482753624 0 2320.9547482753624 1067.6852651661393 0 0 0 0 1142.6396413203838 1646.2974637914012 0 1646.2974637914012 757.78532500403526 0 0 0 0 1404.3232880445312 1432.73875409834 0 1432.73875409834 931.70767090173467 0 0 0 0 1397.2430567489864 1552.670594251671 0 1552.670594251671 709.69984732266494 0 0 0 0 1286.8845292626429 1492.7826376334524 0 1492.7826376334524 946.67497511966212 0 0 0 0 1590.7338591036187 2061.7365850208244 0 2061.7365850208244 829.84897265632753 0 0 0 0 319.18552324139455 1269.3323857455143 0 1269.3323857455143 927.6105129586831 0 0 0 0 486.91367107579572 1315.7048948631164 0 1315.7048948631164 749.30827779884203 0 0 0 0 682.44019570681849 1850.2605706640934 0 1850.2605706640934 907.29708028951427 0 0 0 0 842.47512840129639 1333.7123390357465 0 1333.7123390357465 1250.4365799080297 0 0 0 0 733.69865998574824 1834.4909882524298 0 1834.4909882524298 1424.4974363683777 0 0 0 0 375.77901688830752 1591.4622899655878 0 1591.4622899655878 1189.410171474512 0 0 0 0 1129.3847691119627 1745.2575049720363 0 1745.2575049720363 1877.2886173058869 0 0 0 0 3765.0058001134603 2557.7766649139885 0 2557.7766649139885 1222.078217222861 0 0 0 0 1402.3460316053315 1700.2140475003798 0 1700.2140475003798 982.21943980075594 0 0 0 0 -299.91984056344154 924.45758888299315 0 924.45758888299315 977.47407704732905 0 0 0 0 1234.5477495261293 1306.0852568339396 0 1306.0852568339396 915.3571785688996 0 0 0 0 279.59432328912226 1769.8289465946309 0 1769.8289465946309 1596.8588796149488 0 0 0 0 -2626.6617350304805 325.34087390415516 0 325.34087390415516 881.37562456392334 0 0 0 0 58.31926410903543 593.51450064815435 0 593.51450064815435 279.37719659143477 0 0 0 0 -307.17156587616773 568.53697357142664 0 568.53697357142664 338.94702985087133 0 0 0 0 -164.76684630560339 212.93245002536787 0 212.93245002536787 174.87689160227455 0 0 0 0 -402.90130360524927 361.66061023149086 0 361.66061023149086 316.47609753020151 0 0 0 0 102.90367741592672 535.71588117288593 0 535.71588117288593 -32.825499886530451 0 0 0 0 3.438739711407834 630.11079379165676 0 630.11079379165676 524.68175849366526 0 0 0 0 525.92392680401827 1038.7823399998633 0 1038.7823399998633 357.82582830967476 0 0 0 0 596.57019970498368 526.50051225203242 0 526.50051225203242 121.89812034466013 0 0 0 0 350.05734555029449 965.47926844637914 0 965.47926844637914 456.40909034649667 0 0 0 0 913.6295785680486 1098.3701736082039 0 1098.3701736082039 333.02334633315695 0 0 0 0 915.56703815971559 1515.4096624852318 0 1515.4096624852318 546.45641718181832 0 0 0 0 375.41065932452329 1274.5969919473027 0 1274.5969919473027 671.60256060722168 0 0 0 0 741.46401771315141 1537.3279499153105 0 1537.3279499153105 795.91183254962016 0 0 0 0 1095.9021300529093 1702.5956809198724 0 1702.5956809198724 889.50627009640448 0 0 0 0 787.40593308716052 1469.7598674521432 0 1469.7598674521432 750.7934948664988 0 0 0 0 894.27529172539653 1527.9200670021528 0 1527.9200670021528 594.37280858262238 0 0 0 0 1138.0310093571752 1682.9517880038766 0 1682.9517880038766 646.97918595128249 0 0 0 0 986.22320436564769 1531.8431185001918 0 1531.8431185001918 334.31012032726721 0 0 0 0 1093.0622048983641 1736.8950394584972 0 1736.8950394584972 604.98577706655828 0 0 0 0 1279.642329182323 1677.3974574043968 0 1677.3974574043968 101.50598882253325 0 0 0 0 1319.407020710104 1568.4914572865182 0 1568.4914572865182 198.59182428375789 0 0 0 0 1213.2304606753605 1866.4561281567367 0 1866.4561281567367 300.23485670813534 0 0 0 0 1291.5440956736493 1707.706478077831 0 1707.706478077831 67.490071481079212 0 0 0 0 1457.6199268079208 1603.6735151292578 0 1603.6735151292578 0.17352619639132172 0 0 0 0 1406.4867764452792 1485.4157403650679 0 1485.4157403650679 -113.40912454279896 0 0 0 0 1201.6509201585795 1532.4395566126477 0 1532.4395566126477 -0.085791789560585308 0 0 0 0 1723.3999507367776 1178.4270450170377 0 1178.4270450170377 117.52423831584747 0 0 0 0 1714.1309404955828 1469.0344166948598 0 1469.0344166948598 13.982040826653247 0 0 0 0 1722.4320286474758 1223.3925365089854 0 1223.3925365089854 68.199330323586764 0 0 0 0 1366.9943120692642 1147.1027381574168 0 1147.1027381574168 185.48221229136107 0 0 0 0 1198.2001200161467 1503.0391034546847 0 1503.0391034546847 263.76139012440399 0 0 0 0 779.89716297417181 1412.5912545477295 0 1412.5912545477295 499.19683008478751 0 0 0 0 965.50286622446947 1095.1799668410604 0 1095.1799668410604 260.8399631045686 0 0 0 0 1227.0733925889654 592.58235644239903 0 592.58235644239903 134.76330560258793 0 0 0 0 1325.0639332041537 589.72652864495831 0 589.72652864495831 11.325445738017152 0 0 0 0 172.19536904976667 132.85119184464384 0 132.85119184464384 -35.953419119548926 0 0 0 0 0.59552407124865425 5.3879809005382953 0 5.3879809005382953 -32.297982491130995 0 0 0 0 2010.6177546945182 582.43914901478638 0 582.43914901478638 -50.696141270796943 0 0 0 0 6.319353563438689 12.277919179932638 0 12.277919179932638 -42.767719701629431 0 0 0 0 1505.6082164929976 253.94305945546876 0 253.94305945546876 -138.67292660770909 0 0 0 0 7.7693168162154507 7.2274298500998029 0 7.2274298500998029 0.78800095522765901 0 0 0 0 20.439433272789756 43.643260450277012 0 43.643260450277012 -0.061701272112259176 0 0 0 0 6.3749864967079048 4.1723409025866118 0 4.1723409025866118 1.1516626103277758 0 0 0 0 3628.2607302027682 -26.232592035426933 0 -26.232592035426933 -115.05060342905199 0 0 0 0 2520.6916008556145 1534.3524382758587 0 1534.3524382758587 0.40598621143726632 0 0 0 0 -107.98628266365267 214.37563405375477 0 214.37563405375477 -36.892515215877211 0 0 0 0 -153.10243529526997 213.78430365433451 0 213.78430365433451 -0.32976190521003446 0 0 0 0 -266.17547340697638 151.48610898701008 0 151.48610898701008 -21.867792973745964 0 0 0 0 11.972202008367731 30.48174155123592 0 30.48174155123592 45.471075697929621 0 0 0 0 -89.003058572787268 110.69145889418724 0 110.69145889418724 -12.921042032057812 0 0 0 0 47.743938584901116 137.68921991421212 0 137.68921991421212 -26.750477185974887 0 0 0 0 -95.933236586741259 167.45506831027524 0 167.45506831027524 -146.83748071568698 0 0 0 0 13.38320068721805 27.442511928093154 0 27.442511928093154 24.836212200367299 0 0 0 0 27.163533942019967 122.17202053715755 0 122.17202053715755 23.311453158268705 0 0 0 0 -2.9579878333024681 40.410903664520447 0 40.410903664520447 -7.333456765106348 0 0 0 0 9.286292948612882 28.889535789152639 0 28.889535789152639 47.373218027181906 0 0 0 0 -55.354131364863861 167.770995239287 0 167.770995239287 0.50543403177289292 0 0 0 0 -8.9653317426636931 146.26211332054663 0 146.26211332054663 -52.429194824093429 0 0 0 0 3.5506535750309887 7.6826079297716205 0 7.6826079297716205 10.906612178715989 0 0 0 0 -262.85935391904786 120.38861415486463 0 120.38861415486463 29.379701465446487 0 0 0 0 -895.0793116919358 32.839119361055054 0 32.839119361055054 264.50784682793892 0 0 0 0 0.8271008944745013 -1.174271155597836 0 -1.174271155597836 3.5340444984250325 0 0 0 0 -4.7100956664944533 650.80948037819689 0 650.80948037819689 598.34553617388156 0 0 0 0 308.06458619598561 112.50394917355879 0 112.50394917355879 29.33777075577882 0 0 0 0 16.059707451910072 207.24009045559069 0 207.24009045559069 41.571985902832239 0 0 0 0 214.39544494407164 48.256446276431234 0 48.256446276431234 -36.553910564324923 0 0 0 0 236.21385716182158 80.316428365255888 0 80.316428365255888 9.9326869179130881 0 0 0 0 0.1017441705361648 4.5550045817519305 0 4.5550045817519305 -17.763286578087843 0 0 0 0 613.57932939242892 574.61585638523684 0 574.61585638523684 209.72260975728932 0 0 0 0 324.72936155783827 95.223312063928461 0 95.223312063928461 3.0860255415773281 0 0 0 0 228.15754393921088 147.17740518909704 0 147.17740518909704 334.7894297155508 0 0 0 0 481.68087498165914 429.00055166842139 0 429.00055166842139 267.13715808043344 0 0 0 0 0.16483004137850799 0.94627780846469989 0 0.94627780846469989 -5.7383106089087903 0 0 0 0 252.16279248649516 117.47476620676753 0 117.47476620676753 179.52220452740585 0 0 0 0 283.67466062162566 464.2397376781737 0 464.2397376781737 -33.135683664044336 0 0 0 0 -276.74053404741062 419.62559625798167 0 419.62559625798167 494.88498768649879 0 0 0 0 283.76874189361661 394.90269652956704 0 394.90269652956704 652.73023586270574 0 0 0 0 480.95588844316808 533.12762174863747 0 533.12762174863747 336.06703550265956 0 0 0 0 659.99661941521481 184.88413104824576 0 184.88413104824576 599.71565903930696 0 0 0 0 564.88823385228898 714.73225142352021 0 714.73225142352021 708.61023150650908 0 0 0 0 899.16483368432819 308.85176929580484 0 308.85176929580484 80.911419152496251 0 0 0 0 4.3613971411566297 3.6918224408897657 0 3.6918224408897657 -3.7709462438073791 0 0 0 0 418.92557855725317 881.55485752484674 0 881.55485752484674 1180.953002618357 0 0 0 0 172.32398106337496 483.73513882200859 0 483.73513882200859 691.56733471894404 0 0 0 0 713.70933056222566 563.37454727941804 0 563.37454727941804 481.11919306584605 0 0 0 0 628.29039000436751 712.31373411842833 0 712.31373411842833 457.59751540713478 0 0 0 0 844.61902776337229 907.55857310522333 0 907.55857310522333 580.10580836726876 0 0 0 0 3.3391012990232412 6.4024733095957345 0 6.4024733095957345 44.418118668392708 0 0 0 0 155.29379455903836 16.383395182281674 0 16.383395182281674 9.3415178090899644 0 0 0 0 43.047259242601285 9.9876380803907523 0 9.9876380803907523 10.109539164465332 0 0 0 0 31.052089678320044 24.875575737263716 0 24.875575737263716 2.0921495514121489 0 0 0 0 34.510242361748169 2.2500453631237178 0 2.2500453631237178 -10.208090589345375 0 0 0 0 8.9707453822632459 7.1937784011047086 0 7.1937784011047086 -12.28153230379877 0 0 0 0 26.861651333456393 27.240361624440993 0 27.240361624440993 -8.278299994453846 0 0 0 0 425.57559534353641 797.11170023593877 0 797.11170023593877 639.94553397226264 0 0 0 0 447.47594509857004 470.31446863372219 0 470.31446863372219 373.63676360421232 0 0 0 0 -71.78500999181415 286.6524477592684 0 286.6524477592684 644.40212053156574 0 0 0 0 2.1146723632450062 6.0972295751857359 0 6.0972295751857359 -11.074805411581224 0 0 0 0 14.551692942229693 -28.923828848474841 0 -28.923828848474841 -117.3312599916535 0 0 0 0 -68.679010070263757 39.065012374077924 0 39.065012374077924 37.511260342447713 0 0 0 0 29.731881627550592 107.13414977365369 0 107.13414977365369 -677.1010075319864 0 0 0 0 -113.62293638046685 851.20376898385803 0 851.20376898385803 714.09874134902202 0 0 0 0 0.49578762443425717 3.4711015117536022 0 3.4711015117536022 -5.0054188074836645 0 0 0 0 -218.66480687211515 567.65950070239705 0 567.65950070239705 -605.37705529054074 0 0 0 0 -100.09968125927844 293.15707802771067 0 293.15707802771067 -356.46705060218665 0 0 0 0 -78.252395682793576 350.52629995932875 0 350.52629995932875 -269.62003222452768 0 0 0 0 -39.010818905526321 112.29021701301644 0 112.29021701301644 -72.09720719147299 0 0 0 0 -135.17532055109768 272.69333007367823 0 272.69333007367823 -190.90337864078538 0 0 0 0 6.7325980907698977 -41.201174655485374 0 -41.201174655485374 74.301587021123851 0 0 0 0 18.644002881759661 144.91799287838512 0 144.91799287838512 -58.587317828369123 0 0 0 0 117.10153849721974 -34.702003227881505 0 -34.702003227881505 -30.746460361944628 0 0 0 0 93.001645408272452 -32.314322839643864 0 -32.314322839643864 41.297123032047239 0 0 0 0 45.250495456166391 70.319768470322742 0 70.319768470322742 69.791079580056248 0 0 0 0 0.51752686091697342 7.6719837541646712 0 7.6719837541646712 2.418763173884118 0 0 0 0 -101.1069996829101 48.996085680664692 0 48.996085680664692 -8.8089321562074474 0 0 0 0 123.03906328769517 3.3704195214231731 0 3.3704195214231731 -77.814741830807179 0 0 0 0 71.629735731614346 106.19353494571988 0 106.19353494571988 -133.6273753043497 0 0 0 0 -205.61472867957491 295.95514726257534 0 295.95514726257534 -120.20824305484712 0 0 0 0 -232.75685059521493 437.84375114069553 0 437.84375114069553 -612.93113438669388 0 0 0 0 -511.76018098606255 579.27307267315507 0 579.27307267315507 -301.09667684417218 0 0 0 0 -764.84198621533142 667.47349192092952 0 667.47349192092952 -580.86435733508188 0 0 0 0 -493.8135433513562 24.348148025554792 0 24.348148025554792 155.6057005313196 0 0 0 0 1.6754756445397092 0.71404593740511757 0 0.71404593740511757 -6.5378657565762808 0 0 0 0 1.1150348880677257 3.5008855824498823 0 3.5008855824498823 -4.697654422883943 0 0 0 0 122.63773951372423 -123.10943603415217 0 -123.10943603415217 -604.50346158788307 0 0 0 0 -552.27784321351646 642.13978286516067 0 642.13978286516067 -932.14884830865776 0 0 0 0 -192.06788385537948 304.25439468320837 0 304.25439468320837 -689.6255353416127 0 0 0 0 -434.12946018659568 362.0396458880532 0 362.0396458880532 -521.21849680591549 0 0 0 0 -433.69020702137641 237.43508109279355 0 237.43508109279355 -357.85132574643649 0 0 0 0 -231.17714076118864 261.27437605756859 0 261.27437605756859 -357.16973977737143 0 0 0 0 -411.44048053649021 173.84428252054204 0 173.84428252054204 -765.12884312878123 0 0 0 0 -701.63210763034294 394.15012032688537 0 394.15012032688537 -306.00217531283852 0 0 0 0 -118.77733807570257 164.63787857026182 0 164.63787857026182 -228.26978173584212 0 0 0 0 -91.721822758005146 248.67528652738474 0 248.67528652738474 -386.38200142960704 0 0 0 0 -200.59805365260308 254.30948266803352 0 254.30948266803352 -358.6390530540084 0 0 0 0 -159.85765840823296 363.67280191129612 0 363.67280191129612 -486.97707052800615 0 0 0 0 -174.02763183740171 311.60847692750758 0 311.60847692750758 -264.6436295954918 0 0 0 0 -230.82420054203976 467.39088783693296 0 467.39088783693296 -353.09638348948647 0 0 0 0 -250.48553180392992 491.10739051510564 0 491.10739051510564 -315.19206770484016 0 0 0 0 -250.07040915461403 465.60977852542783 0 465.60977852542783 -349.55509091103158 0 0 0 0 -255.54169293098585 419.41267836161569 0 419.41267836161569 -235.41262249533611 0 0 0 0 -249.75645927558071 467.9194515532181 0 467.9194515532181 -289.62830534629757 0 0 0 0 -282.65691240671731 408.04936417958379 0 408.04936417958379 -163.39095181304219 0 0 0 0 -201.61438232108048 399.03537999697437 0 399.03537999697437 -184.48609099084206 0 0 0 0 -228.96599240022351 310.10903393932222 0 310.10903393932222 -100.6055273486636 0 0 0 0 -209.33184147093561 358.7856278136569 0 358.7856278136569 -308.88549335862626 0 0 0 0 -132.47828364316956 239.17153513576704 0 239.17153513576704 -352.69680534648796 0 0 0 0 -146.71950165314411 205.364082995231 0 205.364082995231 -210.32329642151672 0 0 0 0 -154.64269486005651 223.77977309256312 0 223.77977309256312 -228.77310636426046 0 0 0 0 -0.080036838094969198 2.4773664281664054 0 2.4773664281664054 2.7374279590093806 0 0 0 0 -123.18860209362538 226.6675386786992 0 226.6675386786992 -110.47338357238914 0 0 0 0 -97.132018488053291 -1.5955788400206075 0 -1.5955788400206075 142.18713396992825 0 0 0 0 273.96836410812102 -34.485641383193069 0 -34.485641383193069 -58.344436255822075 0 0 0 0 -67.522973204984737 14.611248412951682 0 14.611248412951682 283.40168584095954 0 0 0 0 0.34442532444144547 0.79301515049573368 0 0.79301515049573368 1.7488685619498483 0 0 0 0 96.925100588538044 159.18351163910847 0 159.18351163910847 163.29662457888116 0 0 0 0 74.799024474283215 51.89598206188748 0 51.89598206188748 -254.09897268591158 0 0 0 0 49.586380242355517 332.43857230125286 0 332.43857230125286 -314.81974606757376 0 0 0 0 -0.14465712567937317 1.5175198152615508 0 1.5175198152615508 1.5197238416486698 0 0 0 0 -24.276740517299913 115.6873963297985 0 115.6873963297985 -77.02441880555125 0 0 0 0 11.456218364481174 166.06451682180341 0 166.06451682180341 -17.51469408198318 0 0 0 0 -98.462822475445478 42.764822805652152 0 42.764822805652152 31.726652650599135 0 0 0 0 -98.566910970653794 210.49006116183693 0 210.49006116183693 21.771033015742432 0 0 0 0 15.054738272345276 87.497575054410845 0 87.497575054410845 -88.238050795756862 0 0 0 0 -189.8335649142391 134.56308183183137 0 134.56308183183137 -57.086970913020195 0 0 0 0 -160.06929257766751 137.39370451329887 0 137.39370451329887 -2.766465070322738 0 0 0 0 -189.92647645172838 133.5468828757439 0 133.5468828757439 22.806210985523649 0 0 0 0 -179.2392041054336 212.30457904464856 0 212.30457904464856 65.573051485975157 0 0 0 0 19.758365383598289 329.39235585275304 0 329.39235585275304 -78.908531844426761 0 0 0 0 -165.23572021150903 328.23819604375603 0 328.23819604375603 -75.337422106144004 0 0 0 0 -182.31615002294711 306.73300526925323 0 306.73300526925323 -101.84225739185058 0 0 0 0 -255.53535718854255 415.2855068029603 0 415.2855068029603 -120.03606134378606 0 0 0 0 -239.04646461333323 172.78018654823245 0 172.78018654823245 38.013792035773804 0 0 0 0 -216.51556522070314 147.62410144208116 0 147.62410144208116 41.393442485365085 0 0 0 0 -181.14554005506034 144.47853875917099 0 144.47853875917099 7.6976038790598977 0 0 0 0 -206.58653340947058 225.64307912503136 0 225.64307912503136 -40.984020009520464 0 0 0 0 -124.47220455848583 183.58311311985199 0 183.58311311985199 -23.220996655873023 0 0 0 0 -327.15622456061828 277.40895447909134 0 277.40895447909134 -7.6426869367714971 0 0 0 0 -215.13398402952589 153.40346849054913 0 153.40346849054913 33.161322912230389 0 0 0 0 -321.04388696214301 209.34197226932883 0 209.34197226932883 27.695351740840124 0 0 0 0 -466.00638437684938 293.35615001402221 0 293.35615001402221 -1.5081237896811217 0 0 0 0 -274.39527028425073 236.5647973446321 0 236.5647973446321 6.3734801777900429 0 0 0 0 -380.14702726862015 212.49003582705336 0 212.49003582705336 50.958927830739412 0 0 0 0 -359.90324895392405 586.26820197282177 0 586.26820197282177 -43.792344331610366 0 0 0 0 -500.68528654654074 450.67020384447642 0 450.67020384447642 -49.356746641453356 0 0 0 0 -242.74503127262869 380.36687753959268 0 380.36687753959268 -34.514775220304728 0 0 0 0 -201.98764022365503 550.25402643793495 0 550.25402643793495 -193.95578652475706 0 0 0 0 -217.21438032153674 430.45849722781895 0 430.45849722781895 -239.14082501982921 0 0 0 0 -435.40609300968208 512.20971450802608 0 512.20971450802608 -249.14939183365277 0 0 0 0 -220.88519225548225 489.1058773109653 0 489.1058773109653 -389.81400823548756 0 0 0 0 -115.20227184366377 780.09313253976143 0 780.09313253976143 -151.35460534424419 0 0 0 0 -341.50096103041142 496.3369738688416 0 496.3369738688416 403.82162888894527 0 0 0 0 -139.98913074558186 485.02979152920216 0 485.02979152920216 264.11035845297738 0 0 0 0 -189.36240703136718 303.52378726746247 0 303.52378726746247 425.08874148590985 0 0 0 0 -639.0103294956898 366.04379310175591 0 366.04379310175591 -163.33972037616331 0 0 0 0 -661.83250936499826 379.05078574120762 0 379.05078574120762 351.9320683132828 0 0 0 0 -1200.6154204226441 222.9363430981939 0 222.9363430981939 133.42508701304178 0 0 0 0 -341.10356674192008 511.55261446431905 0 511.55261446431905 -76.563257456306019 0 0 0 0 1419.1015786420467 1278.8547420524992 0 1278.8547420524992 800.67641382330294 0 0 0 0 -7.9792342707188411 16.539748770386325 0 16.539748770386325 38.985322524379598 0 0 0 0 -1.9879282543025099 7.253744704001889 0 7.253744704001889 14.633373680961171 0 0 0 0 1509.9599453446699 1710.5458413786869 0 1710.5458413786869 1111.7087792470411 0 0 0 0 1507.5926109058753 1159.0208645148687 0 1159.0208645148687 856.03586571836786 0 0 0 0 550.30070853798316 1648.0081758974502 0 1648.0081758974502 1331.860657531699 0 0 0 0 441.42998239355802 1498.9210205706986 0 1498.9210205706986 1259.7333834594756 0 0 0 0 722.10362804725446 1455.1878427950396 0 1455.1878427950396 1031.5810520836094 0 0 0 0 750.42646427379805 1528.9250056738329 0 1528.9250056738329 1218.3170556788464 0 0 0 0 575.37743736313132 1158.5562484041329 0 1158.5562484041329 1084.2245937024645 0 0 0 0 570.54495744728411 1274.8391823856273 0 1274.8391823856273 1456.3306847722779 0 0 0 0 40.604537651372084 660.25433286258885 0 660.25433286258885 1255.8266873797802 0 0 0 0 790.31913594304933 901.05844259759942 0 901.05844259759942 723.1725433030806 0 0 0 0 116.54279050604237 497.73376594577348 0 497.73376594577348 929.90710081495854 0 0 0 0 -40.093392367401975 297.8331758703971 0 297.8331758703971 811.80541556655589 0 0 0 0 475.65578181597084 484.03329238634979 0 484.03329238634979 255.86210234531609 0 0 0 0 1335.8279133194083 1142.2884274413555 0 1142.2884274413555 578.09095905061986 0 0 0 0 -10.717341183153735 17.687615414804426 0 17.687615414804426 52.220176816765473 0 0 0 0 -420.67698535972886 167.76440689373158 0 167.76440689373158 25.119906112078752 0 0 0 0 -285.88672970188782 124.09997510943504 0 124.09997510943504 55.927114757650997 0 0 0 0 -228.1616613145452 155.17241580774134 0 155.17241580774134 47.473686829383951 0 0 0 0 -163.85518125462113 58.569837717950577 0 58.569837717950577 84.197398361648084 0 0 0 0 -198.97066504965187 56.786225217030733 0 56.786225217030733 59.572874693723861 0 0 0 0 14.080481697805226 -5.5890124222205486 0 -5.5890124222205486 67.858419456184492 0 0 0 0 -134.14009732584236 80.241091928342939 0 80.241091928342939 52.640321559156291 0 0 0 0 -109.92812963854522 39.240308204905887 0 39.240308204905887 72.382538471370935 0 0 0 0 64.292712349852081 44.845166084705852 0 44.845166084705852 50.647617638678639 0 0 0 0 95.063681259285659 35.032782507012598 0 35.032782507012598 14.0290956425888 0 0 0 0 -50.338543253485113 43.662299712275853 0 43.662299712275853 47.887455815915018 0 0 0 0 -49.952219376864377 46.934309872638551 0 46.934309872638551 68.328138843469787 0 0 0 0 -103.53883243433665 85.091862021610723 0 85.091862021610723 35.688138035387965 0 0 0 0 -153.82881214356166 80.08682020114793 0 80.08682020114793 71.127771837287582 0 0 0 0 -183.78068546276336 126.32780242274566 0 126.32780242274566 44.363376278924989 0 0 0 0 -154.87656737861107 122.62380505290639 0 122.62380505290639 34.456141199130798 0 0 0 0 -221.57778737403714 141.84715525384672 0 141.84715525384672 63.943200519424863 0 0 0 0 -222.35647133094244 98.880754263260314 0 98.880754263260314 73.888412618194707 0 0 0 0 -130.79336108325515 57.293551512149861 0 57.293551512149861 80.4268190410221 0 0 0 0 -126.47674354343326 76.382470054493751 0 76.382470054493751 54.990390537132043 0 0 0 0 -4.4820534454993037 0.29794543168237908 0 0.29794543168237908 8.4910470715969666 0 0 0 0 55.992809086586931 -151.0150563660136 0 -151.0150563660136 213.16904341820918 0 0 0 0 90.378369550317075 87.946752929763534 0 87.946752929763534 45.964644458028488 0 0 0 0 -15.912987171337107 12.473325754918108 0 12.473325754918108 54.827601440746776 0 0 0 0 -12.573429133961326 12.616502565015253 0 12.616502565015253 40.429165633337107 0 0 0 0 -9.5207078036983717 2.9671319538975069 0 2.9671319538975069 31.460225882406405 0 0 0 0 27.179518713135622 54.354905482585309 0 54.354905482585309 113.13177985673246 0 0 0 0 -3.376207714773571 15.539282377234485 0 15.539282377234485 40.384949634855502 0 0 0 0 -0.43265353232152393 1.9016232565612654 0 1.9016232565612654 3.0609415858609452 0 0 0 0 -43.775054506157176 78.99417289228586 0 78.99417289228586 -38.412474504199054 0 0 0 0 -96.477793377707712 107.65608344708744 0 107.65608344708744 10.400861458358122 0 0 0 0 -79.878072272789723 55.701742200955778 0 55.701742200955778 40.215754874749109 0 0 0 0 -52.514072444173507 66.62588440370746 0 66.62588440370746 23.530920218705432 0 0 0 0 32.336348603930674 -22.734637907378783 0 -22.734637907378783 57.333772740988934 0 0 0 0 10.278625584265683 18.975058202893706 0 18.975058202893706 39.45602516674262 0 0 0 0 37.862189062536345 5.3747875416956958 0 5.3747875416956958 5.1550955530547071 0 0 0 0 77.881140371973743 20.202896815699205 0 20.202896815699205 1.8151242467502016 0 0 0 0 1.2003985893362881 1.6888614013727548 0 1.6888614013727548 5.2614509582838878 0 0 0 0 -25.169581509158888 55.27087960519566 0 55.27087960519566 -0.45090410778357182 0 0 0 0 -13.0613544562637 1.8203153386077133 0 1.8203153386077133 24.208164798078457 0 0 0 0 24.754875923317741 56.641321752580552 0 56.641321752580552 -44.592729779222282 0 0 0 0 11.714691015688004 -13.9510725630862 0 -13.9510725630862 -100.90327529926435 0 0 0 0 -62.459940720305895 17.003228639019653 0 17.003228639019653 120.20404288660939 0 0 0 0 50.249797506097821 -22.788140523647598 0 -22.788140523647598 132.21494633973634 0 0 0 0 63.734290146705462 128.95170675372356 0 128.95170675372356 273.58910305955942 0 0 0 0 -8.4715827817999525 -3.9079158647218719 0 -3.9079158647218719 165.75126472146076 0 0 0 0 26.321304852812318 29.206889516222873 0 29.206889516222873 -4.2747824728176056 0 0 0 0 14.67231130295113 31.831372750323226 0 31.831372750323226 78.84570383328537 0 0 0 0 15.885471838220838 28.471764681380591 0 28.471764681380591 73.757861684389354 0 0 0 0 23.797225037342287 28.93195025359455 0 28.93195025359455 68.760164552390052 0 0 0 0 16.810186001559487 24.485063199623255 0 24.485063199623255 66.459531044856703 0 0 0 0 -54.693985882739071 -356.68151123080679 0 -356.68151123080679 -159.36229891773837 0 0 0 0 -22.80625268193161 4.6302783521893218 0 4.6302783521893218 60.07328365213877 0 0 0 0 25.333386366064587 32.90765001824002 0 32.90765001824002 72.545595204232086 0 0 0 0 21.686042403700412 -224.69848760521927 0 -224.69848760521927 -223.77986776996477 0 0 0 0 21.892839143809397 32.356689704887685 0 32.356689704887685 76.234838741831481 0 0 0 0 8.6860090561552852 5.9139673914751825 0 5.9139673914751825 9.7653164726711026 0 0 0 0 -38.383052894275352 98.036917751006968 0 98.036917751006968 121.44813741982944 0 0 0 0 227.19601145830529 56.071659126524537 0 56.071659126524537 126.87495193347422 0 0 0 0 3.5347576830754406 -102.42822191915548 0 -102.42822191915548 491.41689870596019 0 0 0 0 -221.31946748286282 -243.39597324259375 0 -243.39597324259375 132.05441540333413 0 0 0 0 95.916350087005412 69.336263435809087 0 69.336263435809087 16.043524780736334 0 0 0 0 277.56328438949276 329.0885988783848 0 329.0885988783848 81.512327937009104 0 0 0 0 206.14893089582347 724.03339395586477 0 724.03339395586477 1006.066180250753 0 0 0 0 362.59749383798044 1355.498247000327 0 1355.498247000327 2098.8675136288193 0 0 0 0 60.697215675441839 -311.61952799277969 0 -311.61952799277969 241.63340309538762 0 0 0 0 0.89780344203940388 1.3624084269264358 0 1.3624084269264358 19.522555746420949 0 0 0 0 -122.22326537831395 117.60830678532147 0 117.60830678532147 1672.5768776292125 0 0 0 0 220.50071973988815 -80.634395089062309 0 -80.634395089062309 -290.58444553479785 0 0 0 0 0.88678150775558606 236.08871770970563 0 236.08871770970563 246.43590409053286 0 0 0 0 0.29524918694727376 7.7301771381301876 0 7.7301771381301876 10.400424412626023 0 0 0 0 -93.758669067414303 83.725075171965727 0 83.725075171965727 29.736673584920936 0 0 0 0 11.707125429122243 22.185303411937639 0 22.185303411937639 81.900678544210678 0 0 0 0 11.994711763647501 26.005984098235785 0 26.005984098235785 76.136943759534915 0 0 0 0 4.300193589655521 1.5047666160405697 0 1.5047666160405697 -4.2506255108058966 0 0 0 0 -0.49436934441473568 299.8952600212051 0 299.8952600212051 638.38804368811952 0 0 0 0 258.68592033790264 231.90661842740155 0 231.90661842740155 265.55784574155405 0 0 0 0 -0.94082155947556956 1.5743782071650969 0 1.5743782071650969 50.858509350790769 0 0 0 0 464.26592494785291 454.32378764988471 0 454.32378764988471 497.74921275897941 0 0 0 0 110.93831914592738 431.21682381864412 0 431.21682381864412 778.70212207646 0 0 0 0 1.6916930616353056 301.01167409218397 0 301.01167409218397 638.46527762830556 0 0 0 0 1062.3310530426315 1336.2584753745723 0 1336.2584753745723 1377.8888092661655 0 0 0 0 1467.6617205240173 1977.3915228554188 0 1977.3915228554188 2387.6957448927933 0 0 0 0 -0.015024309330328833 1019.9848134894419 0 1019.9848134894419 2590.0285067725163 0 0 0 0 0.87095531865116982 1.9761785434020851 0 1.9761785434020851 5.3978229509091307 0 0 0 0 661.86961888139194 1129.1220328507588 0 1129.1220328507588 2358.5932574887483 0 0 0 0 1617.088235274663 1900.0791174088627 0 1900.0791174088627 2026.0253224255575 0 0 0 0 12.522493599901109 1585.6364382330944 0 1585.6364382330944 1983.8632990794795 0 0 0 0 845.56691027383931 776.15374373347731 0 776.15374373347731 2532.0219900960819 0 0 0 0 1281.0413172843255 1165.2608023123794 0 1165.2608023123794 1534.9041552247218 0 0 0 0 1167.0622985830014 1352.7979202896531 0 1352.7979202896531 1612.5011895641292 0 0 0 0 529.99670299000718 1321.7469602473029 0 1321.7469602473029 1417.5808543940075 0 0 0 0 681.11063379525876 1547.3799965745748 0 1547.3799965745748 1599.6306677716473 0 0 0 0 0.84058285917529929 1.4519807457309071 0 1.4519807457309071 3.9919951753958571 0 0 0 0 883.73878776282072 1192.7388483207687 0 1192.7388483207687 1733.3340083759576 0 0 0 0 992.50274774017453 1396.4748104994505 0 1396.4748104994505 1451.0657138537063 0 0 0 0 347.57756719548343 1552.0709333360101 0 1552.0709333360101 1552.901493349611 0 0 0 0 890.92631956154946 1257.7865019682795 0 1257.7865019682795 1169.6423233792502 0 0 0 0 530.12121728331476 1197.2391241465193 0 1197.2391241465193 1379.9413221365612 0 0 0 0 849.23777905242605 1200.1289734807651 0 1200.1289734807651 1505.3850091452468 0 0 0 0 -8.660285352450785 7.3814517395704229 0 7.3814517395704229 7.9562383451551284 0 0 0 0 894.39054381275582 1286.0150785732835 0 1286.0150785732835 1322.5788431397013 0 0 0 0 874.14670575872879 1047.294147454053 0 1047.294147454053 1198.8763221964255 0 0 0 0 375.8754638373648 742.29288596321021 0 742.29288596321021 1329.661997589661 0 0 0 0 799.34587127386476 876.73215645059827 0 876.73215645059827 824.49470927666698 0 0 0 0 0.56943366712948773 1406.4177310121013 0 1406.4177310121013 1746.6850651754285 0 0 0 0 497.03939374376205 992.89122689661599 0 992.89122689661599 1845.3169891179805 0 0 0 0 -3.8577553344334774 4.5606819092052149 0 4.5606819092052149 6.2834268711412165 0 0 0 0 1.4172293041852699 426.65034715839283 0 426.65034715839283 664.92452340429736 0 0 0 0 1169.9101210409135 1156.4110346195175 0 1156.4110346195175 1361.9163534395702 0 0 0 0 -21.958270527204149 89.60316489181605 0 89.60316489181605 133.66556781263716 0 0 0 0 0.050106381444493309 86.725989678989208 0 86.725989678989208 76.173173232869885 0 0 0 0 -7.4810211342264665 208.6907876557998 0 208.6907876557998 -132.52858913304226 0 0 0 0 -3.1627742569146449 -0.18323885812120011 0 -0.18323885812120011 0.34642577129116958 0 0 0 0 -1.6752657028555404 124.16822317954575 0 124.16822317954575 224.54048872281146 0 0 0 0 42.536046840690688 69.346315362376572 0 69.346315362376572 178.32237728723703 0 0 0 0 -15.37483051266463 164.10166559146455 0 164.10166559146455 152.23671500127057 0 0 0 0 40.131259350077016 83.33855233021859 0 83.33855233021859 98.395556392904837 0 0 0 0 8.2908182382234372 85.919667522981399 0 85.919667522981399 -95.804424100127108 0 0 0 0 -10.026179543445835 0.86071538194301667 0 0.86071538194301667 -2.2604207261803069 0 0 0 0 27.422291211834818 41.268104971941739 0 41.268104971941739 115.68008044201451 0 0 0 0 -2.9115626712373341 28.47263884318636 0 28.47263884318636 119.1488739753886 0 0 0 0 27.387662904366152 39.598125937978693 0 39.598125937978693 126.40833953041147 0 0 0 0 62.535361891612411 65.299991777514151 0 65.299991777514151 120.10778684262641 0 0 0 0 30.254208782702335 63.077534767128782 0 63.077534767128782 147.71449928809307 0 0 0 0 31.095739814063563 66.06684280197419 0 66.06684280197419 89.988167834297201 0 0 0 0 68.249871143692872 76.051405928012173 0 76.051405928012173 111.39905762297712 0 0 0 0 55.70682697986922 114.6227946201343 0 114.6227946201343 125.39875996008686 0 0 0 0 259.02016755289515 173.22076145824758 0 173.22076145824758 105.7031966864397 0 0 0 0 70.667847374482335 124.86979491152829 0 124.86979491152829 212.52218713857656 0 0 0 0 -0.55676020789316993 2.8025344605089799 0 2.8025344605089799 1.6919439180213232 0 0 0 0 45.300231405068189 63.130969385004391 0 63.130969385004391 166.96922928646018 0 0 0 0 71.93785442643275 104.97361074221772 0 104.97361074221772 134.9747787693841 0 0 0 0 -0.10613962425850332 113.81435923074059 0 113.81435923074059 172.77597155220792 0 0 0 0 -121.98549214051309 -6.8710864049480733 0 -6.8710864049480733 63.871549296203739 0 0 0 0 -0.0016442677224404179 47.257804836795913 0 47.257804836795913 1.3482353262133984 0 0 0 0 -0.79237900992181665 2.3985889151301478 0 2.3985889151301478 3.1479428681483057 0 0 0 0 78.660695884243978 65.837019489339809 0 65.837019489339809 43.727511356541072 0 0 0 0 -45.739749738282626 27.524025635181488 0 27.524025635181488 6.0279975880366692 0 0 0 0 -1.5777683413471095 25.456066048169305 0 25.456066048169305 6.1211555887134637 0 0 0 0 -3.3790889891170082 22.916589190721425 0 22.916589190721425 12.650628191931901 0 0 0 0 -0.0099680896601057611 23.463706047914457 0 23.463706047914457 8.5723623953672359 0 0 0 0 -5.6471142777591012 25.277516266904058 0 25.277516266904058 10.499224508901534 0 0 0 0 2.1705155088891921 8.1237632921145178 0 8.1237632921145178 5.4072112834564905 0 0 0 0 -0.68139996022455307 15.928057803397678 0 15.928057803397678 128.47539491383213 0 0 0 0 -2.1949013329126501 7.2657049934736904 0 7.2657049934736904 60.263104906815073 0 0 0 0 -3.4845597262028605 152.70844750668039 0 152.70844750668039 215.95593139051925 0 0 0 0 -0.8416683888831642 1.2005682504952802 0 1.2005682504952802 11.075600368911203 0 0 0 0 1.1967341523308903 -1.3596829036880074 0 -1.3596829036880074 5.7977336755292654 0 0 0 0 9.0086813958259881 22.423577011565612 0 22.423577011565612 71.905036214811844 0 0 0 0 9.4393869515843107 24.642535627302095 0 24.642535627302095 83.300841622927692 0 0 0 0 6.0173633905214956 13.277802621960291 0 13.277802621960291 76.013564150787715 0 0 0 0 15.050802672281861 18.142387489642715 0 18.142387489642715 74.866303844508366 0 0 0 0 9.3734220942496904 19.936619863310625 0 19.936619863310625 87.345167897849024 0 0 0 0 18.147487716631076 24.202425541690445 0 24.202425541690445 81.600708526733797 0 0 0 0 17.551375038352603 29.618931224588167 0 29.618931224588167 18.742618174465683 0 0 0 0 28.708163724949372 38.330412237756263 0 38.330412237756263 20.961753129864519 0 0 0 0 15.624422646913445 8.1941896887474286 0 8.1941896887474286 59.898209509032313 0 0 0 0 5.3544356783095282 9.1181319162933505 0 9.1181319162933505 71.792373154577945 0 0 0 0 23.508270480742794 71.779992338186275 0 71.779992338186275 81.339289629089762 0 0 0 0 59.583183940383606 37.544220848476471 0 37.544220848476471 15.635587728320388 0 0 0 0 115.949151741268 70.853322926976034 0 70.853322926976034 36.032078770978842 0 0 0 0 42.121191371559689 88.155311230544612 0 88.155311230544612 79.964835763534211 0 0 0 0 9.0960714089305839 69.335571004683516 0 69.335571004683516 87.15049691594686 0 0 0 0 -130.38120097311912 127.00560512152151 0 127.00560512152151 42.430659996054601 0 0 0 0 -93.518526973610278 124.56206033793569 0 124.56206033793569 -2.69019200198818 0 0 0 0 -73.803630282229278 81.820030124232289 0 81.820030124232289 36.0999147441471 0 0 0 0 -70.697433219087543 77.321220618658117 0 77.321220618658117 17.960616063850466 0 0 0 0 -80.848197240906302 95.955347892901045 0 95.955347892901045 -9.51897569821449 0 0 0 0 -104.87414035061374 115.77397397375898 0 115.77397397375898 26.154042430738627 0 0 0 0 -104.87414035073016 115.77397397378809 0 115.77397397378809 26.154042430920526 0 0 0 0 -91.108418458752567 86.000615894641669 0 86.000615894641669 50.316279843857046 0 0 0 0 -104.87414035073016 115.77397397358436 0 115.77397397358436 26.15404243057128 0 0 0 0 -80.270366909360746 46.510024445437011 0 46.510024445437011 86.249663986818632 0 0 0 0 -81.246169473650298 37.690315596965775 0 37.690315596965775 126.63945165305631 0 0 0 0 -77.493578049703501 63.966846828931011 0 63.966846828931011 24.279928457806818 0 0 0 0 -74.33578458478587 47.065702509127732 0 47.065702509127732 67.73002751916647 0 0 0 0 -91.37732880195108 58.033297802718153 0 58.033297802718153 167.14257202150475 0 0 0 0 0.67199591806286207 11.353362424219995 0 11.353362424219995 25.141774663970487 0 0 0 0 44.419361655600369 74.868212144092467 0 74.868212144092467 86.41921230756634 0 0 0 0 17.817007188166023 56.778973731260066 0 56.778973731260066 104.62951424482542 0 0 0 0 -62.884268585425161 76.63216333465607 0 76.63216333465607 147.66615876377909 0 0 0 0 27.612827098109847 79.754119006203837 0 79.754119006203837 96.6377709539629 0 0 0 0 72.851132092648186 60.065913263242692 0 60.065913263242692 64.589914464075264 0 0 0 0 8.8344163028159528 76.968045441059076 0 76.968045441059076 94.956561088267335 0 0 0 0 29.15439167011624 38.514766152505587 0 38.514766152505587 29.204947628124067 0 0 0 0 -144.18110584965325 104.67695689867469 0 104.67695689867469 -192.38678988225729 0 0 0 0 -138.3300367553602 187.1525464297265 0 187.1525464297265 -311.42169247016136 0 0 0 0 12.587038976362173 35.01186526797413 0 35.01186526797413 57.044694747475376 0 0 0 0 -177.88677124465175 157.03535324224504 0 157.03535324224504 -272.76261928996246 0 0 0 0 -282.13427133753794 750.84215624389799 0 750.84215624389799 752.64056993729901 0 0 0 0 768.81182373518823 159.51451613704558 0 159.51451613704558 -272.51772851643182 0 0 0 0 392.1039473299461 1035.8267823519636 0 1035.8267823519636 1060.9190009106824 0 0 0 0 126.68304532019829 91.889022466326423 0 91.889022466326423 226.4765407883242 0 0 0 0 1313.4611248661968 -2.3342771136194642 0 -2.3342771136194642 -921.90604355125106 0 0 0 0 -1793.3108461794909 -1084.5861916265712 0 -1084.5861916265712 -726.88672890511225 0 0 0 0 -14.308529898577603 11.973750081838915 0 11.973750081838915 67.223485341601304 0 0 0 0 20.458945212390972 14.96147529148584 0 14.96147529148584 56.498779489629669 0 0 0 0 20.764587347592169 13.436408405890688 0 13.436408405890688 64.0338151616088 0 0 0 0 10.402896974570467 39.132266987173352 0 39.132266987173352 51.038506423676154 0 0 0 0 7.34947696599788 10.079296012865484 0 10.079296012865484 8.6626120899217653 0 0 0 0 15.076584041060414 17.646394322466222 0 17.646394322466222 60.988380797964055 0 0 0 0 18.908422001099098 26.78065200110359 0 26.78065200110359 62.025398691621376 0 0 0 0 -56.288161998119904 4.7160536479168513 0 4.7160536479168513 353.19191765454889 0 0 0 0 -35.948606419318821 -47.20347532584492 0 -47.20347532584492 470.29301567476068 0 0 0 0 -60.752433760353597 -166.25512739067926 0 -166.25512739067926 1282.7402065793995 0 0 0 0 9.1197545252730094 6.2514588848569588 0 6.2514588848569588 4.7222336349642546 0 0 0 0 185.48950186073489 305.79484335071174 0 305.79484335071174 548.54998528698343 0 0 0 0 89.033067703188863 -258.11139720758365 0 -258.11139720758365 680.96590367996032 0 0 0 0 99.334722664061701 -93.913683722290443 0 -93.913683722290443 313.8090522284765 0 0 0 0 -68.818017852303456 134.5598258729442 0 134.5598258729442 -323.84782404603175 0 0 0 0 -146.52547598241654 251.69728379220396 0 251.69728379220396 -375.60177569184452 0 0 0 0 -28.115711633581668 340.42065053095575 0 340.42065053095575 -422.65151609742315 0 0 0 0 24.114016626174248 19.998080233579699 0 19.998080233579699 15.630693043142202 0 0 0 0 -9.657735491040512 8.7082915843711817 0 8.7082915843711817 248.07894013424993 0 0 0 0 45.269805317584542 -33.051058293553069 0 -33.051058293553069 247.07537008589134 0 0 0 0 6.8572678252676269 -35.076916271475056 0 -35.076916271475056 282.26269595342455 0 0 0 0 -18.335571144983987 -38.127367520864937 0 -38.127367520864937 350.57363059009367 0 0 0 0 -55.993725378539239 -56.544528944410558 0 -56.544528944410558 275.5250715422444 0 0 0 0 -258.53701392759103 11.143140569110983 0 11.143140569110983 74.862156024813885 0 0 0 0 149.58605523689766 366.31139041103597 0 366.31139041103597 -419.08042324893177 0 0 0 0 140.21529573177395 112.07396833759049 0 112.07396833759049 15.204441811438301 0 0 0 0 61.098283737184829 185.67435536712583 0 185.67435536712583 235.63246937778604 0 0 0 0 -92.479247972332814 153.30135968863124 0 153.30135968863124 -130.16757650161162 0 0 0 0 -92.296356475912035 43.191649654196226 0 43.191649654196226 -70.814395936147776 0 0 0 0 -79.651064389676321 -69.940575692628045 0 -69.940575692628045 -14.892496435524663 0 0 0 0 -373.47692942706635 206.11649290800051 0 206.11649290800051 0.41866927895171102 0 0 0 0 -46.824111092581006 252.45303103032347 0 252.45303103032347 -380.26019843340327 0 0 0 0 -53.840840220844257 4.8549469701756607 0 4.8549469701756607 477.76574808201985 0 0 0 0 4.8376902566572824 -4.4464853587645337 0 -4.4464853587645337 -2.1838613886946661 0 0 0 0 15.169053249439457 30.569054734573001 0 30.569054734573001 161.57575124785217 0 0 0 0 -2.1562267661793157 20.692571922176285 0 20.692571922176285 183.19854524868424 0 0 0 0 3.6369063287129393 -10.150934219127521 0 -10.150934219127521 206.12886480076122 0 0 0 0 -38.33175918168854 34.139171763672493 0 34.139171763672493 220.55497429743627 0 0 0 0 -44.375850238429848 73.9635114637058 0 73.9635114637058 162.17235148331383 0 0 0 0 -65.830920332024107 69.757325878221309 0 69.757325878221309 108.47146858702763 0 0 0 0 -34.908233163587283 68.109177807360538 0 68.109177807360538 63.697382352343993 0 0 0 0 25.353187479428016 67.572051433642628 0 67.572051433642628 111.63116515451111 0 0 0 0 -30.533900360984262 33.990038219228154 0 33.990038219228154 74.96082472265698 0 0 0 0 -31.826509662729222 43.308622976008337 0 43.308622976008337 102.86235404836771 0 0 0 0 7.9842903690951061 40.304966883439192 0 40.304966883439192 59.682948622968979 0 0 0 0 29.254178783477983 14.798226571364467 0 14.798226571364467 95.394542390218703 0 0 0 0 -1.8571974915394094 1.1361605234851595 0 1.1361605234851595 44.149482029577484 0 0 0 0 37.390566172864055 39.918209477342316 0 39.918209477342316 79.029438940735417 0 0 0 0 -7.1566758751323505 -0.9859907503141585 0 -0.9859907503141585 47.081297619151883 0 0 0 0 -35.243754673807416 -8.6357428917399375 0 -8.6357428917399375 51.625311116542434 0 0 0 0 -42.112254522686271 28.577310551994742 0 28.577310551994742 48.204458095104201 0 0 0 0 -31.036599307262804 21.609605446676142 0 21.609605446676142 52.450498757214518 0 0 0 0 -44.243284923482861 59.982460511240788 0 59.982460511240788 59.00568679155549 0 0 0 0 -91.321441225940362 64.711009128353908 0 64.711009128353908 51.941718572983518 0 0 0 0 -71.951468965242384 23.53598207703908 0 23.53598207703908 58.574046267545782 0 0 0 0 -73.009044919512235 56.726008049139637 0 56.726008049139637 49.399809818831272 0 0 0 0 -117.04555057635298 98.469449104566593 0 98.469449104566593 44.695353947405238 0 0 0 0 -80.686659424798563 72.402808589715278 0 72.402808589715278 53.415797311800816 0 0 0 0 -54.696294265100732 51.249232101079542 0 51.249232101079542 52.330542332558252 0 0 0 0 -58.787782350729685 55.227973600951373 0 55.227973600951373 57.556926649005618 0 0 0 0 -75.019600419676863 84.559339627856389 0 84.559339627856389 39.454726882278919 0 0 0 0 -48.814581728329358 -14.168340502835235 0 -14.168340502835235 -1.0737957571109291 0 0 0 0 -42.368966130161425 -68.524724092741963 0 -68.524724092741963 -38.114928760081966 0 0 0 0 -51.017919140198501 2.3666284650644229 0 2.3666284650644229 -54.225775664206594 0 0 0 0 -39.790455168869812 -17.578923637280241 0 -17.578923637280241 -117.59483079687925 0 0 0 0 20.363966140022967 -51.921079717911198 0 -51.921079717911198 -10.11196161195403 0 0 0 0 71.118175657713437 35.899903962614189 0 35.899903962614189 59.458117447778932 0 0 0 0 28.952733315927617 -18.750266461779574 0 -18.750266461779574 8.7377481917792466 0 0 0 0 -11.239224217531955 -58.109968503112214 0 -58.109968503112214 36.088178413861897 0 0 0 0 -13.59589919494465 -44.605422455613734 0 -44.605422455613734 28.185281379635853 0 0 0 0 -9.5161749912067535 -36.779161095476866 0 -36.779161095476866 37.808192292810418 0 0 0 0 -32.4791465565213 -44.182474357177853 0 -44.182474357177853 46.678424072902999 0 0 0 0 -32.029457744007232 -63.337390179134673 0 -63.337390179134673 35.930590762386146 0 0 0 0 -51.749078630939039 -71.286282197299442 0 -71.286282197299442 37.870067977375584 0 0 0 0 -45.562304641294759 -79.331315041854396 0 -79.331315041854396 25.820286482732627 0 0 0 0 -65.142066901244107 -70.73467855938361 0 -70.73467855938361 37.913880363106728 0 0 0 0 -54.478715372042643 -77.979334488936729 0 -77.979334488936729 76.338561327982461 0 0 0 0 -63.941058538621292 -41.22831451780803 0 -41.22831451780803 103.890107344836 0 0 0 0 -42.8535351419996 -35.329794332079473 0 -35.329794332079473 68.570162240735954 0 0 0 0 -69.890447249134013 -25.056608713886817 0 -25.056608713886817 64.992497225961415 0 0 0 0 -84.362769939494228 5.1187769427872354 0 5.1187769427872354 64.526640515890904 0 0 0 0 -84.50203307364427 1.283414956946217 0 1.283414956946217 136.00604999055213 0 0 0 0 -54.417525559460046 -25.884477610889007 0 -25.884477610889007 89.516496628464665 0 0 0 0 -65.669397440200555 -21.581535098728637 0 -21.581535098728637 165.37128843180835 0 0 0 0 -28.935781924163166 16.610901634103357 0 16.610901634103357 76.289985760507989 0 0 0 0 0.1349726794869639 78.072092508504284 0 78.072092508504284 163.70497760156286 0 0 0 0 -77.535692631285201 48.18508255958659 0 48.18508255958659 45.428131904773181 0 0 0 0 -78.27366199826065 47.723820766965218 0 47.723820766965218 118.79025341040688 0 0 0 0 -161.26061866909731 71.794695171149215 0 71.794695171149215 109.85082950590731 0 0 0 0 51.925965058537258 12.64242073438254 0 12.64242073438254 50.905683236691402 0 0 0 0 31.940446899010567 53.260480416880455 0 53.260480416880455 64.933350147286546 0 0 0 0 -147.80282469243684 106.75176765213837 0 106.75176765213837 -31.55841821373906 0 0 0 0 -157.94259485871589 99.590707395582285 0 99.590707395582285 50.589204884905485 0 0 0 0 -144.43318477852154 67.791757558785321 0 67.791757558785321 97.756201734562637 0 0 0 0 -151.49352725886274 55.709699385988642 0 55.709699385988642 112.39894015929531 0 0 0 0 -116.92336340859765 38.305646197928581 0 38.305646197928581 -5.4359949648205657 0 0 0 0 -115.29404456817429 52.071831534107332 0 52.071831534107332 76.962849719362566 0 0 0 0 -116.78836490274989 -2.728449097063276 0 -2.728449097063276 78.957908074270108 0 0 0 0 -123.81079431346734 19.580416085475008 0 19.580416085475008 45.841217180015519 0 0 0 0 -151.09009462816175 25.001553380148835 0 25.001553380148835 54.677264135767473 0 0 0 0 -201.11908607099031 7.0700248544162605 0 7.0700248544162605 58.231213547449443 0 0 0 0 -155.34994496357831 5.7644648180139484 0 5.7644648180139484 -23.821116522827651 0 0 0 0 -200.69055634584493 45.43340108708162 0 45.43340108708162 85.8840127371368 0 0 0 0 -166.09849432576993 37.468006080705891 0 37.468006080705891 78.809592656878522 0 0 0 0 -157.22708505034097 32.069868060425506 0 32.069868060425506 78.431482522602892 0 0 0 0 -143.76371060981182 39.864669832822983 0 39.864669832822983 72.602125740144402 0 0 0 0 -181.45128248669789 47.132840012694942 0 47.132840012694942 86.528343098063488 0 0 0 0 -162.47602391885448 6.9355254584606882 0 6.9355254584606882 71.854254426492844 0 0 0 0 -143.35347579937661 20.318495402956614 0 20.318495402956614 76.195230790413916 0 0 0 0 -110.20351930565084 11.376947956974618 0 11.376947956974618 69.623135627611191 0 0 0 0 -115.84817849897081 4.5273511329141911 0 4.5273511329141911 87.537979523360264 0 0 0 0 -74.582392682495993 -21.063578469154891 0 -21.063578469154891 82.840604779776186 0 0 0 0 -102.58217241111561 7.6185006531595718 0 7.6185006531595718 64.561577869637404 0 0 0 0 -102.25712733159889 10.32344687760633 0 10.32344687760633 73.003344922704855 0 0 0 0 -70.682553605030989 -3.6490387898265908 0 -3.6490387898265908 67.116920357657364 0 0 0 0 -87.400116567019722 29.987674050942587 0 29.987674050942587 55.885447197651956 0 0 0 0 -56.384268119873013 -4.8091312438482419 0 -4.8091312438482419 51.41820982687932 0 0 0 0 -177.40723786831222 75.477239694944728 0 75.477239694944728 83.741643991437741 0 0 0 0 -135.47138511773665 54.88053327210946 0 54.88053327210946 73.37164024465892 0 0 0 0 -138.54148816905217 31.291704424569616 0 31.291704424569616 76.315791792119853 0 0 0 0 -146.35526143625611 57.817998137266841 0 57.817998137266841 72.594362421019468 0 0 0 0 -128.928925644228 35.450843020400498 0 35.450843020400498 67.269205503398553 0 0 0 0 -120.29812204153859 57.864378150930861 0 57.864378150930861 61.123960825672839 0 0 0 0 -104.12351263692835 28.320072697097203 0 28.320072697097203 68.997681586661201 0 0 0 0 -97.888072507805191 51.833586681808811 0 51.833586681808811 62.640376558323624 0 0 0 0 -117.78561623039423 82.069083660200704 0 82.069083660200704 53.075701475288952 0 0 0 0 -145.37928928766632 83.521884570545808 0 83.521884570545808 67.676813895232044 0 0 0 0 -132.51410017747548 81.610295820326428 0 81.610295820326428 67.960674388043117 0 0 0 0 -141.63469182269182 103.90153840038693 0 103.90153840038693 62.600285233929753 0 0 0 0 -185.58247699635103 88.620414351447835 0 88.620414351447835 79.549363151425496 0 0 0 0 -19.041190069416189 80.384935334050169 0 80.384935334050169 92.495824771609477 0 0 0 0 14.158610432249237 32.220677523883111 0 32.220677523883111 48.123383942170207 0 0 0 0 -69.552760212056455 57.789085852953576 0 57.789085852953576 37.460265477304347 0 0 0 0 4.0383497665097821 23.258623132237318 0 23.258623132237318 57.278440275353063 0 0 0 0 25.51348747069278 97.460606750263651 0 97.460606750263651 100.18424080112527 0 0 0 0 6.3724600631248904 58.990225186345924 0 58.990225186345924 106.13621407230426 0 0 0 0 7.4827068008689821 62.857379592926918 0 62.857379592926918 48.111804963915347 0 0 0 0 -30.234059955808334 11.458798919698893 0 11.458798919698893 75.84323301256245 0 0 0 0 -56.950856632043724 26.840502094285512 0 26.840502094285512 93.440497846400831 0 0 0 0 -2.7555865206377348 26.032982898394948 0 26.032982898394948 75.548787380788781 0 0 0 0 -28.729595873941435 34.590509432249746 0 34.590509432249746 91.693069567027123 0 0 0 0 -16.384248872026149 8.7406582828191688 0 8.7406582828191688 15.135333771908432 0 0 0 0 -14.532480247027706 56.488810877546712 0 56.488810877546712 62.751108600451516 0 0 0 0 -2.3806196214154554 0.52131416391878815 0 0.52131416391878815 5.9060425667328502 0 0 0 0 -8.3851639733220509 48.151533134125884 0 48.151533134125884 74.018937082269986 0 0 0 0 -175.26937712116342 31.485840680616093 0 31.485840680616093 116.4304319631683 0 0 0 0 -0.84378847331299056 37.091837253196871 0 37.091837253196871 94.416651461586895 0 0 0 0 -27.345297899497211 13.912253043175141 0 13.912253043175141 58.841492471174803 0 0 0 0 -0.71651972693214816 2.60217565112697 0 2.60217565112697 11.517347408035043 0 0 0 0 120.77072009366384 235.95875213250838 0 235.95875213250838 132.58937379197596 0 0 0 0 78.829061598124099 148.44662149828218 0 148.44662149828218 -226.25878543216095 0 0 0 0 72.390402279483169 217.18750084643898 0 217.18750084643898 452.23735637508798 0 0 0 0 -360.3832594694104 49.617272428295109 0 49.617272428295109 60.679358792927815 0 0 0 0 -329.87223505338625 163.31696551747791 0 163.31696551747791 94.95892159678624 0 0 0 0 -298.60288654996839 -57.008856301232299 0 -57.008856301232299 231.49884257619851 0 0 0 0 55.542649092847569 -41.986223262447311 0 -41.986223262447311 62.472503594064619 0 0 0 0 80.156101734108233 48.547477157386311 0 48.547477157386311 62.417471551889321 0 0 0 0 -115.2142185596349 57.485949548906319 0 57.485949548906319 94.585524426191114 0 0 0 0 -121.93875900370767 14.119130385479366 0 14.119130385479366 91.228841977819684 0 0 0 0 -212.47340639287722 40.150074191813474 0 40.150074191813474 146.85911404243961 0 0 0 0 3.2876175092756981 26.66213097335951 0 26.66213097335951 55.407537534345764 0 0 0 0 -36.116299183348019 19.779994557939062 0 19.779994557939062 54.402038944752348 0 0 0 0 -159.82616088177565 89.182416433117396 0 89.182416433117396 78.068649804976303 0 0 0 0 -194.93633521790525 127.86308985647429 0 127.86308985647429 33.187164761766326 0 0 0 0 -221.80481322310516 109.42961743360502 0 109.42961743360502 119.78100893723604 0 0 0 0 -36.624336417194399 42.112078454370874 0 42.112078454370874 52.131907493545441 0 0 0 0 8.3575502103565427 26.963226433344232 0 26.963226433344232 44.489627477244795 0 0 0 0 -194.82337724675017 123.29249252899535 0 123.29249252899535 63.228452317911433 0 0 0 0 -208.57800498873985 188.94090451212833 0 188.94090451212833 -210.29652414565862 0 0 0 0 29.869788037423859 109.9247825188213 0 109.9247825188213 154.67611569922519 0 0 0 0 -20.133243488438893 20.193876201392413 0 20.193876201392413 61.167369531016448 0 0 0 0 157.83969975775108 114.76648340750398 0 114.76648340750398 -5.7864151730464073 0 0 0 0 164.78723920183256 165.89497850112821 0 165.89497850112821 50.313600495079299 0 0 0 0 427.45584375271574 -66.650007344906044 0 -66.650007344906044 -20.873366321000503 0 0 0 0 373.28169848496327 301.61555229333317 0 301.61555229333317 138.3321565635415 0 0 0 0 -13.060653089880361 58.625555532194994 0 58.625555532194994 355.94871583288113 0 0 0 0 467.33346098746551 240.35625554665603 0 240.35625554665603 17.859644428208412 0 0 0 0 27.682197351605282 122.56293755651859 0 122.56293755651859 -13.321299663426544 0 0 0 0 5.0985119527171889 2.6715987155072156 0 2.6715987155072156 -1.8676003578506766 0 0 0 0 19.835721435563755 1.0338209991205076 0 1.0338209991205076 38.501068536774255 0 0 0 0 -18.549003492720658 -8.2110581005472341 0 -8.2110581005472341 130.25047577509577 0 0 0 0 -28.766913927029236 24.419771787437639 0 24.419771787437639 38.82215759302926 0 0 0 0 -11.351623227441451 143.76616698774524 0 143.76616698774524 45.724439952871762 0 0 0 0 -61.718722779391101 35.51833730074577 0 35.51833730074577 51.639065902825678 0 0 0 0 -33.147441654084503 28.576053052392041 0 28.576053052392041 22.386322207702506 0 0 0 0 -54.907729511207435 7.6692487879990949 0 7.6692487879990949 84.003758605205803 0 0 0 0 -29.346988738532673 34.74423272959757 0 34.74423272959757 -36.262728850968415 0 0 0 0 10.657415381779572 45.047172639460861 0 45.047172639460861 74.31926282423251 0 0 0 0 -41.937440134119242 24.489230373372266 0 24.489230373372266 6.4932500782306306 0 0 0 0 -40.491012879276241 150.70539582278434 0 150.70539582278434 127.83949714482878 0 0 0 0 -38.314248697650328 141.71215009331354 0 141.71215009331354 82.807754766035941 0 0 0 0 -32.052659086461063 199.30255060718628 0 199.30255060718628 134.74411437739036 0 0 0 0 -290.90533355034268 225.90820972492565 0 225.90820972492565 111.72872773115523 0 0 0 0 20.236775738412689 323.00052401880384 0 323.00052401880384 7.2374679962813389 0 0 0 0 -77.988979386034771 186.9320536837331 0 186.9320536837331 -8.7438234580185963 0 0 0 0 -178.61519913026132 315.23624830937479 0 315.23624830937479 44.69260607130127 0 0 0 0 -178.44972339787637 368.21657577223959 0 368.21657577223959 -319.98933953052619 0 0 0 0 -537.96874302311335 81.906493758986471 0 81.906493758986471 65.417518880916759 0 0 0 0 3.8263862078323996 6.7538107937571397 0 6.7538107937571397 8.1878853992033953 0 0 0 0 -63.282539637380978 -30.241088067239616 0 -30.241088067239616 -73.836897822853643 0 0 0 0 -66.101890848563926 129.86423529784224 0 129.86423529784224 49.899385931843426 0 0 0 0 -19.652693976741503 -12.727961459685417 0 -12.727961459685417 13.440685999861529 0 0 0 0 -16.979606775807696 44.032081504125813 0 44.032081504125813 81.837984030677973 0 0 0 0 -291.20231606194284 214.85323700224399 0 214.85323700224399 -282.94448874596856 0 0 0 0 -383.3363826481218 188.31126909937302 0 188.31126909937302 202.97363187358133 0 0 0 0 -29.531819289572013 69.205324664930231 0 69.205324664930231 119.61939252169395 0 0 0 0 -227.04535100643261 -23.422484148773947 0 -23.422484148773947 -23.341121783421841 0 0 0 0 -197.18593557310669 50.732268555315386 0 50.732268555315386 158.77289820328588 0 0 0 0 -7.460729228507347 13.67407298960174 0 13.67407298960174 26.578713518931863 0 0 0 0 -46.158834326415672 -10.811644561414141 0 -10.811644561414141 6.9540341460669879 0 0 0 0 -144.71741529110295 85.732963196955097 0 85.732963196955097 79.242628609528765 0 0 0 0 -102.58890600621817 53.957413132877264 0 53.957413132877264 101.57422904617852 0 0 0 0 -84.052877258945955 76.164751519347192 0 76.164751519347192 47.263582365496404 0 0 0 0 -130.05984461441403 2.6643093824168318 0 2.6643093824168318 63.573970985751657 0 0 0 0 291.76021110590955 -165.06609989468052 0 -165.06609989468052 -83.09054348841164 0 0 0 0 -366.56928120004886 -34.894810978970781 0 -34.894810978970781 239.96751822574879 0 0 0 0 18.953378399491228 46.836904895065871 0 46.836904895065871 61.147319514535639 0 0 0 0 -146.99257960065734 -5.1202713705060887 0 -5.1202713705060887 429.32956766922143 0 0 0 0 -259.36893808891182 256.01564243684697 0 256.01564243684697 133.56536438851617 0 0 0 0 -66.029971890457091 127.39136322613922 0 127.39136322613922 107.18673106378992 0 0 0 0 -252.12739915380371 101.45699199219234 0 101.45699199219234 214.58178312552991 0 0 0 0 107.91120868407597 49.095354417106137 0 49.095354417106137 -9.2854551610253111 0 0 0 0 -177.11002274800558 242.85800188269059 0 242.85800188269059 58.125341835257132 0 0 0 0 153.34492371002852 -158.91981913153722 0 -158.91981913153722 117.95104628102854 0 0 0 0 -261.13473502655688 38.299496532759804 0 38.299496532759804 87.775463324971497 0 0 0 0 -4.1225862559090274 8.6582230325430416 0 8.6582230325430416 14.206198087379164 0 0 0 0 -146.00064271502197 -8.8021677405740775 0 -8.8021677405740775 149.73094223840235 0 0 0 0 -149.04444471663737 126.96857699708198 0 126.96857699708198 4.439566052344162 0 0 0 0 34.095144638800278 47.890834975063953 0 47.890834975063953 52.276620229558176 0 0 0 0 -539.8449152434041 211.79113874496397 0 211.79113874496397 623.87613410800259 0 0 0 0 630.93479676739935 346.55207573306234 0 346.55207573306234 -542.49490160433925 0 0 0 0 565.37359824705345 -205.62976022592193 0 -205.62976022592193 76.999037606219645 0 0 0 0 16.241590164107038 -72.576300794324197 0 -72.576300794324197 760.81675360532245 0 0 0 0 217.64103896043525 367.34641646319142 0 367.34641646319142 410.7152903942042 0 0 0 0 7.3631166231827478 5.2971603213538145 0 5.2971603213538145 2.9763236186192898 0 0 0 0 283.66184715760755 202.95058048439751 0 202.95058048439751 14.112133060698397 0 0 0 0 226.25948604508449 170.99228732412666 0 170.99228732412666 21.644838166103 0 0 0 0 131.43028711951047 26.145294742189435 0 26.145294742189435 -87.65223906688334 0 0 0 0 191.22406222060818 133.5398743207079 0 133.5398743207079 79.710338528995635 0 0 0 0 167.97361028954037 171.4115582764789 0 171.4115582764789 45.589451315026963 0 0 0 0 177.61570480197406 196.1487331466451 0 196.1487331466451 97.97060225578025 0 0 0 0 138.22129809067701 197.38118818092335 0 197.38118818092335 97.933480441101437 0 0 0 0 20.899685647906153 80.334916422943934 0 80.334916422943934 91.893985029561009 0 0 0 0 -64.418958202266367 -5.2430075831653085 0 -5.2430075831653085 316.63007768428179 0 0 0 0 115.50357354729204 204.39298710739968 0 204.39298710739968 254.34117938717827 0 0 0 0 12.175982662163733 8.1533678034502373 0 8.1533678034502373 213.5813371904369 0 0 0 0 -75.190986571629765 -92.716501310715103 0 -92.716501310715103 261.53533530738423 0 0 0 0 -91.782630075496854 -86.644840306180413 0 -86.644840306180413 169.88702731103695 0 0 0 0 -33.342928901154664 -6.0591344300482888 0 -6.0591344300482888 148.04866720561404 0 0 0 0 -36.187405326287262 -100.53348527095659 0 -100.53348527095659 11.478051330137532 0 0 0 0 -48.12937312971917 -70.610362827814242 0 -70.610362827814242 -96.417319388361648 0 0 0 0 -91.503661890659714 -35.036837751613348 0 -35.036837751613348 -15.123611593116948 0 0 0 0 96.567249942505441 -134.25325328571307 0 -134.25325328571307 -74.594482143205823 0 0 0 0 -126.84302432308323 59.035076220883639 0 59.035076220883639 -180.61688553623389 0 0 0 0 -240.73095346766058 -32.180426654907933 0 -32.180426654907933 -236.86598545347806 0 0 0 0 -26.079548471876478 -101.44896634473116 0 -101.44896634473116 -172.28469314074027 0 0 0 0 -96.151886172854574 -39.197210279322462 0 -39.197210279322462 -406.6453243077267 0 0 0 0 -101.06601637706626 -8.2196400443062885 0 -8.2196400443062885 -290.90569999202853 0 0 0 0 -48.603032900311518 -21.180967469001189 0 -21.180967469001189 -196.2622886570789 0 0 0 0 -60.218951979302801 146.02202027192106 0 146.02202027192106 -352.09664915987378 0 0 0 0 -142.4748529958888 143.7424692173372 0 143.7424692173372 -225.04612739486765 0 0 0 0 -89.071725436311681 -6.265270548639819 0 -6.265270548639819 -64.664666321215918 0 0 0 0 -98.373752636747668 45.582271277045947 0 45.582271277045947 -223.26899846829474 0 0 0 0 38.065888985061093 40.972781348099339 0 40.972781348099339 35.149053799833169 0 0 0 0 158.57832072886231 581.25610396502452 0 581.25610396502452 -463.24671568657504 0 0 0 0 215.50307309615891 111.85029622148431 0 111.85029622148431 -192.65390628497516 0 0 0 0 137.72256965130873 183.51398419704674 0 183.51398419704674 -277.09774572754395 0 0 0 0 -297.37868628746583 241.38205613617083 0 241.38205613617083 -181.43547300607315 0 0 0 0 -37.548922334157396 58.876908274869493 0 58.876908274869493 -61.993965473695425 0 0 0 0 66.235942161838466 -174.22326289129705 0 -174.22326289129705 345.91297481690708 0 0 0 0 -2.994649942509966 0.64195120045287979 0 0.64195120045287979 4.0780864700764994 0 0 0 0 212.82760448695626 14.180974886468903 0 14.180974886468903 2.3415879814565415 0 0 0 0 -0.14841579770273938 4.5388513587978707 0 4.5388513587978707 2.6682261217187282 0 0 0 0 231.8860950229282 31.954779471561778 0 31.954779471561778 17.837632668040897 0 0 0 0 170.74857707426418 -244.55586601614777 0 -244.55586601614777 -69.98233711442299 0 0 0 0 174.91912443713954 160.63518431759439 0 160.63518431759439 139.72942212739872 0 0 0 0 16.118458119366551 217.32306390171289 0 217.32306390171289 15.91412284191756 0 0 0 0 39.201002437589295 30.52022385071426 0 30.52022385071426 22.561480050922796 0 0 0 0 -147.57340703040245 299.85765152765089 0 299.85765152765089 -342.20927476395445 0 0 0 0 -160.7549749726677 21.692288905793248 0 21.692288905793248 100.17776825881447 0 0 0 0 -44.865662012016401 75.344958044690429 0 75.344958044690429 -439.35152047935117 0 0 0 0 30.870333080310957 -18.030263024258602 0 -18.030263024258602 -3.5171251479805505 0 0 0 0 -0.50300155178410932 -46.543604112659523 0 -46.543604112659523 264.48559632556862 0 0 0 0 -7.1328652795273229 70.726743980572792 0 70.726743980572792 402.04678186417732 0 0 0 0 158.60720470111119 -165.61591395373398 0 -165.61591395373398 338.80334573475375 0 0 0 0 -21.681119911409041 -3.8491045632472378 0 -3.8491045632472378 410.33740845472494 0 0 0 0 258.02562678044342 -49.826622722835964 0 -49.826622722835964 174.89328884996939 0 0 0 0 0.5121968125422427 67.284940759640449 0 67.284940759640449 166.54401357074676 0 0 0 0 149.88675149870687 -101.66110257559922 0 -101.66110257559922 271.82574019201638 0 0 0 0 4.6762853733962402 43.094528811227065 0 43.094528811227065 282.73168987056033 0 0 0 0 193.91802823110629 -37.441455232852604 0 -37.441455232852604 260.59844269795576 0 0 0 0 -186.61189561827268 134.02786822244343 0 134.02786822244343 113.08952787805174 0 0 0 0 -127.02176803139082 13.28001789341215 0 13.28001789341215 165.4227388510626 0 0 0 0 -53.315804267884232 -6.9516002039017621 0 -6.9516002039017621 157.47153225672628 0 0 0 0 -32.025135081610642 44.243288616867176 0 44.243288616867176 270.88822114252253 0 0 0 0 -119.60972501499054 53.256921048854565 0 53.256921048854565 195.06637713163218 0 0 0 0 -13.356263305904577 -46.857920215468766 0 -46.857920215468766 218.42917574520379 0 0 0 0 54.655026049427761 -133.60616167487206 0 -133.60616167487206 256.04354317576508 0 0 0 0 -15.627589539701148 -60.057163194531313 0 -60.057163194531313 179.8309147734908 0 0 0 0 -17.466499959138616 2.231035900677071 0 2.231035900677071 1.6787211294755124 0 0 0 0 20.867231886830268 20.074991734494688 0 20.074991734494688 4.9416438417538302 0 0 0 0 -110.35000940227474 37.943233205689467 0 37.943233205689467 90.84379654841905 0 0 0 0 17.441362035439525 17.850169985610847 0 17.850169985610847 1.7169936567354682 0 0 0 0 -49.504498785994656 21.373894153630317 0 21.373894153630317 57.403930825879797 0 0 0 0 -111.79758698442674 -78.144359785339475 0 -78.144359785339475 123.99212697718758 0 0 0 0 118.38208256956568 -111.55441840517597 0 -111.55441840517597 -43.277355431164324 0 0 0 0 -10.70911073315736 2.0550524508909831 0 2.0550524508909831 0.60320200716470751 0 0 0 0 186.71892205797485 405.75831503918744 0 405.75831503918744 454.74618697077676 0 0 0 0 16.864553260638786 -325.37805082140403 0 -325.37805082140403 306.74525086404901 0 0 0 0 27.909595560071466 55.969451538665453 0 55.969451538665453 62.302813172573224 0 0 0 0 -133.7732062220748 44.688523328077281 0 44.688523328077281 78.159329129248363 0 0 0 0 -47.727188618708169 -36.931769178787363 0 -36.931769178787363 235.60324983370174 0 0 0 0 -41.1606186012541 27.429277246375932 0 27.429277246375932 138.16968456108589 0 0 0 0 -91.300265265257622 50.313679115490231 0 50.313679115490231 164.31183403134855 0 0 0 0 -64.363575019531709 60.735916303987324 0 60.735916303987324 119.47196683380753 0 0 0 0 -247.75348743984068 65.281108806309931 0 65.281108806309931 13.787450240406542 0 0 0 0 -68.031430099347745 132.36757990139267 0 132.36757990139267 20.459463251492707 0 0 0 0 -255.4235320784428 235.45396807828365 0 235.45396807828365 -41.213092572026653 0 0 0 0 -0.95232684247315547 1.3181554389499226 0 1.3181554389499226 1.9794640606281746 0 0 0 0 -253.33406457049568 414.15622100088876 0 414.15622100088876 -305.32563443921117 0 0 0 0 -430.2777646825416 223.22853097275947 0 223.22853097275947 -85.404219276446383 0 0 0 0 -183.89325229511996 261.55237810640028 0 261.55237810640028 -91.584497114650731 0 0 0 0 -177.85698592115659 182.57897857346688 0 182.57897857346688 -16.08258436898177 0 0 0 0 -248.0360093902782 308.64468930863222 0 308.64468930863222 -71.006177349059726 0 0 0 0 -75.588551893021986 183.87223138830095 0 183.87223138830095 -100.25560428683821 0 0 0 0 -76.849364960879029 55.872140770712576 0 55.872140770712576 58.284300219202123 0 0 0 0 -142.25338731544616 187.03410890651139 0 187.03410890651139 -21.9978085137991 0 0 0 0 -6.2930469578310806 3.9468652407806246 0 3.9468652407806246 1.0891831139843049 0 0 0 0 -42.316266694229853 150.35739709348854 0 150.35739709348854 186.34470252678148 0 0 0 0 -134.29308617538118 78.109727170158294 0 78.109727170158294 149.58440001749841 0 0 0 0 -75.270119845568843 -40.587129275336338 0 -40.587129275336338 403.15745358701679 0 0 0 0 -35.448699676480828 54.543472116798512 0 54.543472116798512 346.48910935585445 0 0 0 0 -23.218204389148013 47.642858805502328 0 47.642858805502328 96.214227756980108 0 0 0 0 -96.040478383707523 80.966162658405665 0 80.966162658405665 264.16817360548885 0 0 0 0 -152.3941261714026 0.65938331327197375 0 0.65938331327197375 -50.477739366513561 0 0 0 0 -147.67484620457981 -23.515574311182718 0 -23.515574311182718 64.430694328275422 0 0 0 0 -230.13608830984595 -69.80496423344448 0 -69.80496423344448 267.75081048740367 0 0 0 0 -211.43203713584444 108.4558449127162 0 108.4558449127162 469.44151659253112 0 0 0 0 0.17518650003539138 1.281611046099286 0 1.281611046099286 6.7019921119081687 0 0 0 0 -428.51736092012288 -92.646482332209416 0 -92.646482332209416 287.5075635139001 0 0 0 0 491.08601628539327 534.69187038751261 0 534.69187038751261 219.72752147535357 0 0 0 0 -91.565276618774078 -73.254604216690495 0 -73.254604216690495 -45.334540642477805 0 0 0 0 43.802258619965869 42.773164851780166 0 42.773164851780166 53.454524270528054 0 0 0 0 32.635089266856085 171.53291721353162 0 171.53291721353162 659.77398333864403 0 0 0 0 150.70909168515209 410.96926255939979 0 410.96926255939979 240.41807629965479 0 0 0 0 2.5816964141574203 1.6122182774661269 0 1.6122182774661269 1.1249248468119788 0 0 0 0 167.82018242767663 401.34327413223218 0 401.34327413223218 -147.44783061713133 0 0 0 0 1.4459797722192889 -226.00690431410476 0 -226.00690431410476 572.92834180695354 0 0 0 0 31.519278710213257 229.24113670995575 0 229.24113670995575 636.41297944221515 0 0 0 0 698.38392451179243 352.94501061264964 0 352.94501061264964 34.751624597090995 0 0 0 0 536.36206302807841 -115.43049897787569 0 -115.43049897787569 55.3942537647672 0 0 0 0 419.38395793867676 142.9730840987686 0 142.9730840987686 63.038551848483621 0 0 0 0 -368.84470066433585 104.23807818812156 0 104.23807818812156 83.275084186781896 0 0 0 0 275.17359803157342 51.50171463141487 0 51.50171463141487 -21.506276019135839 0 0 0 0 -0.30586727732156205 0.4927775451632499 0 0.4927775451632499 16.928939150069311 0 0 0 0 120.37908221896942 10.854894244326715 0 10.854894244326715 107.77913903678564 0 0 0 0 -49.702364729368128 84.170132554179872 0 84.170132554179872 479.2146185523161 0 0 0 0 272.95119781447283 148.21013476188091 0 148.21013476188091 56.556961015216075 0 0 0 0 435.44107736412843 380.35237510989828 0 380.35237510989828 323.70989902189467 0 0 0 0 152.78295024237013 227.52009850912873 0 227.52009850912873 59.075242491853714 0 0 0 0 119.13934656672791 184.12550743520114 0 184.12550743520114 4.8185949885082664 0 0 0 0 1.0566019619145663 211.18882998927438 0 211.18882998927438 32.514878172369208 0 0 0 0 132.00890486924618 135.30693631916802 0 135.30693631916802 25.565416000812547 0 0 0 0 -18.848359493509633 67.768780505859468 0 67.768780505859468 -4.2820222610898782 0 0 0 0 78.336012493804446 42.10144611191572 0 42.10144611191572 -17.277026554278564 0 0 0 0 40.289136727813457 53.382441956175171 0 53.382441956175171 -14.120816806418588 0 0 0 0 -44.680181817493576 164.42670575920783 0 164.42670575920783 53.828161338315113 0 0 0 0 -150.42590240882419 40.230301068266272 0 40.230301068266272 -1.2918486146663781 0 0 0 0 -73.892409988366126 137.08974414189288 0 137.08974414189288 25.781641806650441 0 0 0 0 12.706148569734069 152.05485509226855 0 152.05485509226855 27.089234323051642 0 0 0 0 -35.402244207489275 103.42173275600362 0 103.42173275600362 11.286318703409052 0 0 0 0 -4.9653174478407891 167.30969041559729 0 167.30969041559729 145.38892240512359 0 0 0 0 -184.50893367279787 107.20682842945826 0 107.20682842945826 106.74187365689068 0 0 0 0 -26.406691410949861 169.70880911141285 0 169.70880911141285 46.934834656931343 0 0 0 0 -185.63140847434988 127.11618176002958 0 127.11618176002958 -40.010532953074289 0 0 0 0 27.199928085996362 64.659930405785417 0 64.659930405785417 -2.2149180380438338 0 0 0 0 -4.1567786941841796 44.611408328586535 0 44.611408328586535 -1.961621780779808 0 0 0 0 18.959447430679575 63.34150554943335 0 63.34150554943335 7.2905431749531999 0 0 0 0 22.565024357558286 57.167824663911233 0 57.167824663911233 -29.188602684953366 0 0 0 0 -23.852887327780081 37.987093343069319 0 37.987093343069319 17.8479733873246 0 0 0 0 51.503336422814755 115.68192981426546 0 115.68192981426546 -198.93694451420379 0 0 0 0 -0.93712376355492211 -0.0059966552486372393 0 -0.0059966552486372393 -10.064811445758941 0 0 0 0 -25.628936076554965 44.515318923906307 0 44.515318923906307 39.063448819906625 0 0 0 0 -143.78565739950136 96.550888136538561 0 96.550888136538561 40.112953596384614 0 0 0 0 -63.601387928967597 78.58270244213054 0 78.58270244213054 -5.1776572893286357 0 0 0 0 -37.386446289837295 26.933745808577896 0 26.933745808577896 -154.98382683382806 0 0 0 0 31.100706671648368 99.85097071553173 0 99.85097071553173 -15.946000914816977 0 0 0 0 -14.478909114511026 48.441869055129644 0 48.441869055129644 -12.986937094703052 0 0 0 0 -6.1823600098579039 14.104062505844396 0 14.104062505844396 3.3668298448686755 0 0 0 0 124.26058679343987 129.80422330952024 0 129.80422330952024 -11.878291042230558 0 0 0 0 -9.1823720926392127 41.055863801915535 0 41.055863801915535 9.9907718441967717 0 0 0 0 -2.6681781966835842 30.375828373033983 0 30.375828373033983 -5.860204559401609 0 0 0 0 29.856522891826188 32.104916813069494 0 32.104916813069494 -28.293178559301545 0 0 0 0 -6.872261240898581 88.741296025092637 0 88.741296025092637 -23.367267212638353 0 0 0 0 -2.0203386305183813 65.827581551113326 0 65.827581551113326 14.907317951641744 0 0 0 0 1.3839421054657635 47.095596752923072 0 47.095596752923072 16.383471278075916 0 0 0 0 -1.3154327501833905 67.749432038086525 0 67.749432038086525 7.5183137880467257 0 0 0 0 1.7525803938161877 14.294075831677645 0 14.294075831677645 22.612985713407397 0 0 0 0 -150.31883867869328 94.569666866933403 0 94.569666866933403 82.559811619212269 0 0 0 0 49.184803293952427 52.33880816871897 0 52.33880816871897 -30.017362342798151 0 0 0 0 13.383757758796435 35.634096093246796 0 35.634096093246796 25.0638628337854 0 0 0 0 -8.1550337273365585 47.375847858049383 0 47.375847858049383 25.141147843638464 0 0 0 0 32.470250161119623 31.16894159781878 0 31.16894159781878 -1.4551536112489316 0 0 0 0 -0.17760852315404918 60.087432713335147 0 60.087432713335147 20.3851122782944 0 0 0 0 -5.3273677262961883 27.138411075521645 0 27.138411075521645 5.0172040727799097 0 0 0 0 -18.348024927370716 62.077150161596364 0 62.077150161596364 27.351887855185851 0 0 0 0 -2.5218902124252054 46.707151818311104 0 46.707151818311104 55.428108644846361 0 0 0 0 11.503344275056879 44.944821502306596 0 44.944821502306596 8.4889817165310433 0 0 0 0 24.57394097182987 90.281624523759092 0 90.281624523759092 -23.836612826096825 0 0 0 0 18.763339095690753 64.260602129446852 0 64.260602129446852 -3.2743469099805225 0 0 0 0 13.134317858389736 29.02909815547638 0 29.02909815547638 31.84874907521845 0 0 0 0 9.4573271571061923 46.508683090352861 0 46.508683090352861 39.101259382912758 0 0 0 0 0.7019455370327421 4.6012321180357958 0 4.6012321180357958 12.217486536943035 0 0 0 0 -26.848388132755645 141.34843465209997 0 141.34843465209997 -55.942188864341006 0 0 0 0 4.3127807002674672 49.10341871361743 0 49.10341871361743 -9.5015923923419905 0 0 0 0 7.3174706419522408 55.574455201731325 0 55.574455201731325 -5.1780797502760834 0 0 0 0 8.939507366525504 58.846238653564797 0 58.846238653564797 -0.78102629815839464 0 0 0 0 1.7536015669757035 61.290284440350661 0 61.290284440350661 1.1848876639487571 0 0 0 0 20.830907712428598 29.450296200087905 0 29.450296200087905 37.858870086896786 0 0 0 0 22.406489735613377 57.094864447159011 0 57.094864447159011 -2.0544905884744367 0 0 0 0 91.131721086319885 -7.3746296324279683 0 -7.3746296324279683 57.758248186088167 0 0 0 0 -6.9572005689988146 34.367905938721378 0 34.367905938721378 76.147823046572739 0 0 0 0 -132.99037559445424 105.65485318295759 0 105.65485318295759 57.303117908028071 0 0 0 0 92.16752126969368 103.31680928953392 0 103.31680928953392 2.5791139919383568 0 0 0 0 8.79379242087834 8.0301629333714999 0 8.0301629333714999 -0.94452880682577245 0 0 0 0 -20.227431499428349 41.317538160885306 0 41.317538160885306 4.0105576468758954 0 0 0 0 95.178577077009095 204.12823629751927 0 204.12823629751927 13.320196058950387 0 0 0 0 3.5077821675394301 42.251771508684349 0 42.251771508684349 10.091866294548907 0 0 0 0 21.463248434875027 36.559151752097719 0 36.559151752097719 20.719715580833494 0 0 0 0 -0.79500222863134695 38.548536133506786 0 38.548536133506786 20.569591375053278 0 0 0 0 -4.6080337977555246 62.697006966843674 0 62.697006966843674 14.46311619442713 0 0 0 0 18.915586621642433 59.835004169563035 0 59.835004169563035 12.751199065569381 0 0 0 0 -12.264809332649747 53.111697415708477 0 53.111697415708477 5.4714487372912117 0 0 0 0 -12.087414189369156 55.736038709675313 0 55.736038709675313 19.082455780764576 0 0 0 0 -14.155782146601268 65.280536520893293 0 65.280536520893293 15.809819499674632 0 0 0 0 -26.805366522334225 67.324515172067549 0 67.324515172067549 16.931979121065524 0 0 0 0 25.850111198297967 33.249034184157395 0 33.249034184157395 11.437249669538588 0 0 0 0 -26.169589711600565 14.822096904617865 0 14.822096904617865 65.712461978873762 0 0 0 0 11.72404783582255 32.574061934066819 0 32.574061934066819 2.8869180183718584 0 0 0 0 11.900209048319994 46.232160003218041 0 46.232160003218041 -10.289768674476363 0 0 0 0 -28.879238644658471 44.326602139368333 0 44.326602139368333 15.255778894541436 0 0 0 0 -3.1237066389903703 34.283984522627861 0 34.283984522627861 -17.630903656259761 0 0 0 0 39.773636256204554 61.585401231062406 0 61.585401231062406 -38.514681770866446 0 0 0 0 8.2147289757055795 27.976497962722135 0 27.976497962722135 -16.947633641599651 0 0 0 0 33.94891219238994 24.432172307702899 0 24.432172307702899 -1.9002223366044149 0 0 0 0 19.913123543361138 20.413693969121113 0 20.413693969121113 2.8466303757633966 0 0 0 0 -3.4706176125619095 49.650287262340498 0 49.650287262340498 -10.557053806177009 0 0 0 0 4.3435292863796349 57.487701746787934 0 57.487701746787934 -24.801739366157562 0 0 0 0 -85.774963977906737 -68.449787984090108 0 -68.449787984090108 112.17653108789318 0 0 0 0 5.7904105706890903 24.004097878487634 0 24.004097878487634 12.204247713629449 0 0 0 0 119.19706717520603 -54.063945188040407 0 -54.063945188040407 -190.25467431080233 0 0 0 0 -54.956011282338295 -59.105440277978232 0 -59.105440277978232 108.72115501038297 0 0 0 0 9.2262701807685517 166.17265181737707 0 166.17265181737707 91.882165429271481 0 0 0 0 65.960395291922396 85.428669980389031 0 85.428669980389031 281.18443011056843 0 0 0 0 41.770405922636201 -93.363934208710816 0 -93.363934208710816 254.4719286764448 0 0 0 0 -2.8851864369486719 13.321166173526876 0 13.321166173526876 2.9180968147586412 0 0 0 0 -48.461168565772823 -55.065467736488699 0 -55.065467736488699 45.867906176837096 0 0 0 0 -41.049242823679378 -82.569526703180941 0 -82.569526703180941 95.225459531178785 0 0 0 0 44.032543572937783 45.333245183902463 0 45.333245183902463 47.553984043165869 0 0 0 0 -278.87326813395339 270.38893910387128 0 270.38893910387128 -75.151645168753006 0 0 0 0 -447.66887797915115 20.928538882751809 0 20.928538882751809 105.65807001158782 0 0 0 0 -316.10388688709645 -229.08063687795834 0 -229.08063687795834 241.01020191855196 0 0 0 0 95.323423020276095 -371.24719846238486 0 -371.24719846238486 -104.75006862705777 0 0 0 0 69.435873210561113 122.12173740298022 0 122.12173740298022 -123.82647254840595 0 0 0 0 55.206756995787146 112.11994033657493 0 112.11994033657493 -39.722380852126662 0 0 0 0 -79.621211045982818 265.6357320575288 0 265.6357320575288 -122.41227047224129 0 0 0 0 -99.95880752937228 154.13691256733182 0 154.13691256733182 -53.961424908271511 0 0 0 0 -77.420184214835899 81.479919438571415 0 81.479919438571415 103.52945369371309 0 0 0 0 -25.440522458928172 76.725344459961889 0 76.725344459961889 -65.180074703633238 0 0 0 0 -6.3019840187043883 105.05515859595471 0 105.05515859595471 -18.66659831535253 0 0 0 0 17.204973964107921 180.89257853836534 0 180.89257853836534 -105.79544594181561 0 0 0 0 44.103895612673568 51.091169031913125 0 51.091169031913125 39.849537710062059 0 0 0 0 22.40895759279374 38.083417643021676 0 38.083417643021676 -30.330856649714406 0 0 0 0 -8.2874714149930639 43.480533117767905 0 43.480533117767905 50.195304134460258 0 0 0 0 43.629617515121936 26.441021094422467 0 26.441021094422467 -123.70572415928473 0 0 0 0 9.4667399505124195 95.806558022050922 0 95.806558022050922 -35.67567533422698 0 0 0 0 24.371874362830596 29.815041550979863 0 29.815041550979863 15.107804276261344 0 0 0 0 35.872104453803132 16.563907319057435 0 16.563907319057435 -37.474294105121693 0 0 0 0 -0.89366679454980158 0.49777680140493885 0 0.49777680140493885 16.194961844899503 0 0 0 0 -2.0118201740197037 29.131769659106936 0 29.131769659106936 13.055792183961001 0 0 0 0 -68.778132892657595 69.181676064150679 0 69.181676064150679 83.706640204026371 0 0 0 0 -16.697240715555381 53.794997419463471 0 53.794997419463471 92.596350121921205 0 0 0 0 79.733797001434141 27.286682543099232 0 27.286682543099232 -150.99649240153667 0 0 0 0 -36.203057549428195 25.521043721577371 0 25.521043721577371 -25.875048888112815 0 0 0 0 -1.7439229104628566 4.570489635717724 0 4.570489635717724 -2.06290383590337 0 0 0 0 -52.678671432826377 2.3139656790372101 0 2.3139656790372101 123.13227992219618 0 0 0 0 80.049331610061927 63.923398344049929 0 63.923398344049929 -120.63205517360257 0 0 0 0 90.712435448298493 109.66883329788652 0 109.66883329788652 -7.4797477500251262 0 0 0 0 -79.87351226300234 70.197665353392949 0 70.197665353392949 151.05848591008908 0 0 0 0 7.3341421541554155 79.256323559311568 0 79.256323559311568 23.162699652884839 0 0 0 0 -2.6557735673268326 91.387832371414333 0 91.387832371414333 33.7701706532971 0 0 0 0 9.0333322044025408 62.524561956668549 0 62.524561956668549 32.121605368702149 0 0 0 0 10.605820596087142 102.23560870622532 0 102.23560870622532 233.37390522744681 0 0 0 0 -0.4282899545141845 71.401334882330048 0 71.401334882330048 64.812124044095981 0 0 0 0 3.2915132383495802 63.123358611537697 0 63.123358611537697 16.666066272155149 0 0 0 0 1.7496264203437022 61.029785364404233 0 61.029785364404233 45.904719642370765 0 0 0 0 5.4408741234365152 50.393885515659349 0 50.393885515659349 8.489651953417706 0 0 0 0 1.4822078431170667 58.000690667027811 0 58.000690667027811 27.853734866788727 0 0 0 0 27.252057561767288 7.81622398755826 0 7.81622398755826 -3.097141268543055 0 0 0 0 39.558958318632506 35.212117088280287 0 35.212117088280287 22.618622339227116 0 0 0 0 8.3730181729479227 82.5227641305828 0 82.5227641305828 1.6858576406921202 0 0 0 0 7.3463550153503832 23.562789285723468 0 23.562789285723468 -0.35201569312959435 0 0 0 0 28.055237221836364 34.201146388298355 0 34.201146388298355 27.016049657187764 0 0 0 0 27.6674414655281 55.542744118587507 0 55.542744118587507 -42.410954729360128 0 0 0 0 22.120303731528111 43.737843514554697 0 43.737843514554697 7.9143901012375864 0 0 0 0 22.524978845694278 32.956025012915418 0 32.956025012915418 7.1382104785056715 0 0 0 0 26.551582169704488 40.891985555964311 0 40.891985555964311 7.118621912196204 0 0 0 0 22.866906379029388 52.389223649713813 0 52.389223649713813 55.220700878388016 0 0 0 0 64.480272085958859 63.271792752801048 0 63.271792752801048 -31.08722356772887 0 0 0 0 23.001386152609484 40.316852417523478 0 40.316852417523478 -7.755812586528009 0 0 0 0 75.646055043238448 53.787551011622782 0 53.787551011622782 -83.424880148956163 0 0 0 0 37.158914916470621 38.731338412291272 0 38.731338412291272 -3.1472062481807637 0 0 0 0 -2.8076513696426559 5.3662278895227615 0 5.3662278895227615 6.6359608350669887 0 0 0 0 -5.2365824817388784 123.50442341689632 0 123.50442341689632 75.191173447765323 0 0 0 0 7.1000385780598663 97.003825446983001 0 97.003825446983001 -92.489506959187565 0 0 0 0 145.68279664379952 135.08476009587503 0 135.08476009587503 -94.214854265606846 0 0 0 0 149.7702989300742 55.146391817523181 0 55.146391817523181 -130.15148564065163 0 0 0 0 18.373105225682849 14.898786658397896 0 14.898786658397896 -17.968244589697953 0 0 0 0 68.384785016387468 7.1908087141200667 0 7.1908087141200667 -131.06742884113919 0 0 0 0 35.841327502348577 58.351448941553826 0 58.351448941553826 -81.938073277739022 0 0 0 0 24.046784681821009 54.432348189364347 0 54.432348189364347 -34.633764336194872 0 0 0 0 38.8825319049065 33.565827006316795 0 33.565827006316795 -69.96862000611145 0 0 0 0 80.549890160313225 -7.7537525001289396 0 -7.7537525001289396 -180.53907921209975 0 0 0 0 37.628256690586568 29.179665659103193 0 29.179665659103193 -85.109628603974443 0 0 0 0 22.243009073165013 -107.62350031059759 0 -107.62350031059759 -208.29697129987767 0 0 0 0 1.476396533569357 -0.23980898956124008 0 -0.23980898956124008 -0.51258325219044565 0 0 0 0 -33.220232657185989 -64.975806687261866 0 -64.975806687261866 -81.777793865862805 0 0 0 0 24.444110954835196 -13.992869043942846 0 -13.992869043942846 -136.95051768652957 0 0 0 0 247.39585134457593 102.68638066051972 0 102.68638066051972 -104.67592047913786 0 0 0 0 11.209104742956697 18.434736673654243 0 18.434736673654243 -23.041008377497747 0 0 0 0 22.638292853534949 10.627287517912691 0 10.627287517912691 -50.301231097117125 0 0 0 0 1.8013444057036168 8.6367835897744101 0 8.6367835897744101 -21.782412221732205 0 0 0 0 21.57333674383699 -0.63712638817469269 0 -0.63712638817469269 -45.430856075057818 0 0 0 0 48.311563667579321 -16.204253037001763 0 -16.204253037001763 -90.796982967036456 0 0 0 0 -17.280260188184911 -13.77351259513307 0 -13.77351259513307 -69.510598687832498 0 0 0 0 15.882301435514819 9.6846187515639031 0 9.6846187515639031 -44.188822553183854 0 0 0 0 31.916242457577027 7.3458510292875872 0 7.3458510292875872 -77.689568736896035 0 0 0 0 27.145179598388495 -13.849059482787197 0 -13.849059482787197 -26.830022029855172 0 0 0 0 75.12959601712646 54.75131827173027 0 54.75131827173027 7.1482994911057176 0 0 0 0 95.078313915175386 20.016004719027478 0 20.016004719027478 -44.143324314507481 0 0 0 0 5.7633120626574623 0.021412252493405504 0 0.021412252493405504 -11.030875970020197 0 0 0 0 38.812563467829023 37.97093672709525 0 37.97093672709525 -6.239462368632303 0 0 0 0 24.047715326174512 10.476696235491545 0 10.476696235491545 -52.582562958934432 0 0 0 0 21.393842662335373 29.367153589809277 0 29.367153589809277 -49.354651267974987 0 0 0 0 48.3257923067722 38.038945103678998 0 38.038945103678998 -56.044889383096915 0 0 0 0 45.177535944440024 28.07997492436516 0 28.07997492436516 -45.441019453566696 0 0 0 0 12.217709248341606 16.91115427227021 0 16.91115427227021 -24.092514038924378 0 0 0 0 15.8815565546752 10.336706464965062 0 10.336706464965062 -15.429778278916888 0 0 0 0 11.643363000795944 13.543103475680596 0 13.543103475680596 -17.044656940243385 0 0 0 0 12.402840111210764 14.067530848160217 0 14.067530848160217 -9.2910848865056419 0 0 0 0 18.332439486024668 17.301398783843524 0 17.301398783843524 -23.769494956345625 0 0 0 0 31.777926954051509 39.543462659522902 0 39.543462659522902 -4.6297013886633067 0 0 0 0 29.273037965089316 29.761700956625646 0 29.761700956625646 -21.396841292629233 0 0 0 0 20.56744651623012 30.931347286397795 0 30.931347286397795 1.0231441256491962 0 0 0 0 24.017021969266352 31.757878297683931 0 31.757878297683931 -8.4344530187818236 0 0 0 0 21.84237002776257 25.052074914934067 0 25.052074914934067 -12.089249195712574 0 0 0 0 11.940447855020466 32.455083289370123 0 32.455083289370123 0.3307997553529276 0 0 0 0 1.8651525023386171 21.080187872908112 0 21.080187872908112 -7.1042289059786654 0 0 0 0 10.832601283469558 22.328233140656721 0 22.328233140656721 12.750229951265212 0 0 0 0 18.752647136359883 37.101201347321876 0 37.101201347321876 10.594352115613674 0 0 0 0 23.062769833864877 23.72431415057963 0 23.72431415057963 6.192309889952412 0 0 0 0 31.771965037110931 40.402878732192221 0 40.402878732192221 -4.3303308072136133 0 0 0 0 -2.3609910336961093 10.118183596042343 0 10.118183596042343 -4.5473003958559346 0 0 0 0 31.176453200638207 40.96726808540916 0 40.96726808540916 9.4470960317194113 0 0 0 0 29.481079783210589 22.807452465342067 0 22.807452465342067 0.68502388429988059 0 0 0 0 28.249162485437409 22.344535121804256 0 22.344535121804256 12.726367421120813 0 0 0 0 25.095584728376707 36.540289103297255 0 36.540289103297255 69.078987689885253 0 0 0 0 -0.31598153843629007 8.5409323499844305 0 8.5409323499844305 3.6556015270252189 0 0 0 0 2.5743667455420791 5.6366233751476926 0 5.6366233751476926 8.3676095160170973 0 0 0 0 29.144552866666345 42.37835988412553 0 42.37835988412553 43.350036703279329 0 0 0 0 33.859110246707132 52.293714221924802 0 52.293714221924802 53.354271805917961 0 0 0 0 4.8124363386203868 30.637663064770933 0 30.637663064770933 23.139620941911033 0 0 0 0 37.798929167212918 45.890743619194836 0 45.890743619194836 40.311593476799317 0 0 0 0 18.408358919645252 36.123690401630483 0 36.123690401630483 23.979762466864486 0 0 0 0 -0.61713487484587404 16.46175413256411 0 16.46175413256411 10.404193814837072 0 0 0 0 21.224383585766191 42.503848246811685 0 42.503848246811685 26.181942030372738 0 0 0 0 -1.4104755819429329 16.554579675401115 0 16.554579675401115 3.8539229908087833 0 0 0 0 27.304248370484856 35.991875229745347 0 35.991875229745347 29.957553986489074 0 0 0 0 11.163067303622739 17.58705802957175 0 17.58705802957175 5.9104926525392614 0 0 0 0 17.189625519822584 38.526929631228995 0 38.526929631228995 29.552402584577067 0 0 0 0 -1.6623299340135418 21.410332494273462 0 21.410332494273462 0.52506542520131916 0 0 0 0 8.0411257300161196 17.508609892880223 0 17.508609892880223 10.122507313027285 0 0 0 0 1.372873203639756 24.755705626224881 0 24.755705626224881 7.3015999111812562 0 0 0 0 4.5446223269464099 30.972680326125555 0 30.972680326125555 13.053905867531284 0 0 0 0 13.624791139962355 27.959012944453846 0 27.959012944453846 11.451666037116709 0 0 0 0 -5.1383078327155687 19.47773161571925 0 19.47773161571925 13.59154881396897 0 0 0 0 7.7480593301370391 27.56458693417153 0 27.56458693417153 10.42284945134088 0 0 0 0 11.934847081454848 19.669311852912614 0 19.669311852912614 12.40425825763085 0 0 0 0 -2.1437766119197477 34.55643805388172 0 34.55643805388172 58.551979360097903 0 0 0 0 4.3581400180410128 36.941051770780177 0 36.941051770780177 39.273177725393907 0 0 0 0 -6.8549057763693781 33.643657614183667 0 33.643657614183667 49.11143254210765 0 0 0 0 11.57946111127967 47.314780228109157 0 47.314780228109157 27.796036686218031 0 0 0 0 12.791790892501012 31.146733099409175 0 31.146733099409175 42.8361861766316 0 0 0 0 -3.2306496453971079 0.4240549783141887 0 0.4240549783141887 1.4527000811019235 0 0 0 0 2.6800150633789599 27.56405407886632 0 27.56405407886632 52.750867922986799 0 0 0 0 -17.594231593684526 42.731124634970911 0 42.731124634970911 61.945458540707477 0 0 0 0 -63.998226202951628 38.604893240870297 0 38.604893240870297 12.773590491377036 0 0 0 0 31.438342105393531 43.612318682800833 0 43.612318682800833 10.114512013780768 0 0 0 0 15.428005715170002 26.714944356957858 0 26.714944356957858 -75.799019791695173 0 0 0 0 1.371662997561927 3.3412708437504079 0 3.3412708437504079 2.6622022339480509 0 0 0 0 -3.5778643769372138 81.371925543822726 0 81.371925543822726 -36.219443005385983 0 0 0 0 9.3283674235863145 29.090493787982268 0 29.090493787982268 10.173064261390664 0 0 0 0 15.46671106897702 28.680415521390387 0 28.680415521390387 -16.893491078604711 0 0 0 0 12.615800790830804 20.055507023973426 0 20.055507023973426 5.2478077286910292 0 0 0 0 5.4835641079989728 26.648328068255069 0 26.648328068255069 4.7644770458427956 0 0 0 0 23.669665615743725 40.242320036937599 0 40.242320036937599 18.499392498524685 0 0 0 0 23.322144994162954 42.442816931579728 0 42.442816931579728 22.299729111691704 0 0 0 0 9.329529158118703 34.553174274744173 0 34.553174274744173 1.5000088020896243 0 0 0 0 12.014457291734971 37.733456901386425 0 37.733456901386425 43.342915880072624 0 0 0 0 5.548941369917884 56.096575499308528 0 56.096575499308528 -12.291001678386237 0 0 0 0 -2.9397809361586553 34.139305162302421 0 34.139305162302421 4.848291505118226 0 0 0 0 40.079125236094114 37.929069512079877 0 37.929069512079877 68.499764952621263 0 0 0 0 -3.0996635339007952 5.8617800601910375 0 5.8617800601910375 10.878321885736824 0 0 0 0 9.343696573360603 21.90816071785197 0 21.90816071785197 1.5130599561246214 0 0 0 0 33.196596989393583 61.08752353509044 0 61.08752353509044 39.097478215306182 0 0 0 0 0.78876602516655225 11.769357880749084 0 11.769357880749084 11.248135510847845 0 0 0 0 -0.94210247791488655 11.12446522492246 0 11.12446522492246 -41.177092887045774 0 0 0 0 -36.712363486629329 91.722603024980344 0 91.722603024980344 5.0384792788026971 0 0 0 0 -25.411837082196143 62.932655819860884 0 62.932655819860884 50.861158426603652 0 0 0 0 -11.448189576562498 25.78334756921501 0 25.78334756921501 -6.6437095564138495 0 0 0 0 -43.74694567694678 12.244917470176006 0 12.244917470176006 64.967746477803303 0 0 0 0 -12.181849658296414 41.862195254223479 0 41.862195254223479 42.779049888937152 0 0 0 0 -26.350927563747973 114.2665414801595 0 114.2665414801595 -51.21351140155457 0 0 0 0 -71.582552014209796 105.49062790225435 0 105.49062790225435 104.41448894540372 0 0 0 0 -96.124686000490328 164.30706837753314 0 164.30706837753314 149.61238145484458 0 0 0 0 -0.65532253493543635 1.1134472915671267 0 1.1134472915671267 -0.53790727444807374 0 0 0 0 -166.27037269954599 -148.02729159726732 0 -148.02729159726732 189.80846599045617 0 0 0 0 -367.11951044743182 20.983114548042067 0 20.983114548042067 621.87604071083479 0 0 0 0 -203.26886623504106 372.25980340741808 0 372.25980340741808 439.56951818786183 0 0 0 0 -6.2665233317080151 14.15543545202874 0 14.15543545202874 24.260523720397181 0 0 0 0 2.5787218597368451 5.190371167603729 0 5.190371167603729 4.5594327950757787 0 0 0 0 44.368587802076945 27.222664043625628 0 27.222664043625628 63.273168217026978 0 0 0 0 41.352947197898175 38.52593203507422 0 38.52593203507422 33.176057883014437 0 0 0 0 56.043368921964429 45.240619009877264 0 45.240619009877264 23.376990984039367 0 0 0 0 23.434393855466624 100.78134567293455 0 100.78134567293455 -28.412969804485328 0 0 0 0 -20.748367758016684 21.415520538641431 0 21.415520538641431 28.567534417503339 0 0 0 0 -18.518612583822687 -9.6511274172189587 0 -9.6511274172189587 21.037226801825454 0 0 0 0 -29.042203940837624 14.788209662516721 0 14.788209662516721 16.309914316937082 0 0 0 0 50.009052682247784 62.455141392669248 0 62.455141392669248 43.431048967046081 0 0 0 0 21.846565539948642 54.474529118233477 0 54.474529118233477 54.034295488869247 0 0 0 0 0.53166663458139851 27.937692184945845 0 27.937692184945845 27.106429558119373 0 0 0 0 -0.45371116035244086 6.1791591650554736 0 6.1791591650554736 5.1165335094646309 0 0 0 0 1.7173428626265377 64.943252908909926 0 64.943252908909926 82.055926852422999 0 0 0 0 10.590797986544203 50.86935296892625 0 50.86935296892625 26.262765286810463 0 0 0 0 -0.64354485063813627 8.5362272822894738 0 8.5362272822894738 15.83307155055536 0 0 0 0 -7.7083845023007598 15.340506201864628 0 15.340506201864628 60.624338106885261 0 0 0 0 -4.901331076893257 25.811229489772813 0 25.811229489772813 29.881560308735061 0 0 0 0 -9.5077629161777111 9.9954197559506497 0 9.9954197559506497 13.231372176386827 0 0 0 0 3.2344557212927612 19.504218424711325 0 19.504218424711325 20.103098683233839 0 0 0 0 2.4933793301048155 4.4086029813855134 0 4.4086029813855134 -4.6774816636560104 0 0 0 0 4.6784077269104216 1.9630668021356925 0 1.9630668021356925 -11.221017604587772 0 0 0 0 -0.14104302226041909 7.9334075790065981 0 7.9334075790065981 -11.892124669684563 0 0 0 0 1.061558325470628 17.919518879287381 0 17.919518879287381 14.923745021551156 0 0 0 0 11.391513134542038 21.104814726775658 0 21.104814726775658 30.768712788674748 0 0 0 0 7.3212679889194874 13.839165061826421 0 13.839165061826421 4.4694026980199624 0 0 0 0 11.809651261566614 21.609866205137223 0 21.609866205137223 10.908571610038052 0 0 0 0 -2.4106347601874631 6.1745776321338894 0 6.1745776321338894 17.142521361504127 0 0 0 0 -2.3784130130079575 9.1253294504858786 0 9.1253294504858786 11.767911358503625 0 0 0 0 -3.5422654747128774 23.188963358785642 0 23.188963358785642 9.070198093501304 0 0 0 0 12.320574395679984 17.151461976524892 0 17.151461976524892 3.2828377990427953 0 0 0 0 -3.1057973021524958 17.628110527293757 0 17.628110527293757 -13.967987672658637 0 0 0 0 8.097646232330959 14.063016535312101 0 14.063016535312101 -3.8842908231187607 0 0 0 0 21.157976851172862 41.71963194287855 0 41.71963194287855 40.118924197711749 0 0 0 0 3.347225614630446 17.773889826002176 0 17.773889826002176 13.243473461189254 0 0 0 0 13.767817516110995 17.58923873586312 0 17.58923873586312 0.23989491114092942 0 0 0 0 1.2458784519112669 28.8760934951124 0 28.8760934951124 30.131005160903442 0 0 0 0 10.770721420354676 27.253381003523828 0 27.253381003523828 18.146623936539982 0 0 0 0 0.90424435899635114 20.476771196800399 0 20.476771196800399 18.320842451007778 0 0 0 0 6.5801235694361537 27.500697770287008 0 27.500697770287008 14.612237264413423 0 0 0 0 9.1813213978894055 22.04132297335309 0 22.04132297335309 1.738944502603772 0 0 0 0 2.1121926741034258 25.867148091703712 0 25.867148091703712 31.067802090772602 0 0 0 0 -212.36724809501902 190.13130613207431 0 190.13130613207431 88.618108325477806 0 0 0 0 -51.096900702432322 39.57049339141463 0 39.57049339141463 94.001305644316744 0 0 0 0 9.7641883954282136 40.84378527068624 0 40.84378527068624 84.835596240066494 0 0 0 0 2.9719958567395111 15.172606507937537 0 15.172606507937537 18.433196620777949 0 0 0 0 15.849510211095293 20.30659764377576 0 20.30659764377576 7.9148022305203121 0 0 0 0 97.652812669824925 25.671225348378357 0 25.671225348378357 -55.168640646459608 0 0 0 0 8.8846633335342631 5.2521475143585121 0 5.2521475143585121 -58.769304155044665 0 0 0 0 359.9442509652763 -94.059982992927871 0 -94.059982992927871 -41.175931055258843 0 0 0 0 -3.1692812897017575 12.301418270168142 0 12.301418270168142 18.812253697702545 0 0 0 0 -86.801505939452909 -25.034443575976184 0 -25.034443575976184 308.16930751937252 0 0 0 0 81.784541112403531 237.90284010742289 0 237.90284010742289 230.35580394566932 0 0 0 0 -60.98373230418656 -225.72930819682915 0 -225.72930819682915 216.6346782171895 0 0 0 0 315.19727287859314 457.35109329721149 0 457.35109329721149 132.07007161418733 0 0 0 0 -24.955450457884581 57.337461264276499 0 57.337461264276499 92.623816435878325 0 0 0 0 -27.606016929799807 65.499463758023921 0 65.499463758023921 74.080871773519902 0 0 0 0 -9.8623015911816765 75.0358750719721 0 75.0358750719721 58.430436157254007 0 0 0 0 -10.403248659233213 83.077512371108241 0 83.077512371108241 54.580612995910087 0 0 0 0 -0.066243843913525779 107.52317285511873 0 107.52317285511873 87.759733972819959 0 0 0 0 -75.719985301941051 77.975426455607703 0 77.975426455607703 84.241768411322482 0 0 0 0 -29.745309414131043 111.19717232148378 0 111.19717232148378 62.884594900442607 0 0 0 0 -58.737545696487359 37.804913415527608 0 37.804913415527608 60.518485997890821 0 0 0 0 -19.316038404736901 86.127016088328674 0 86.127016088328674 116.62946898129303 0 0 0 0 -40.210298125690315 4.6168087509486213 0 4.6168087509486213 156.40186776444534 0 0 0 0 -100.69815328670666 78.268059063209876 0 78.268059063209876 113.7681736022314 0 0 0 0 -66.918875734045287 47.673614755439303 0 47.673614755439303 98.687057658178674 0 0 0 0 -57.834405922301812 53.154941937687909 0 53.154941937687909 84.461874444787099 0 0 0 0 -1.9656445631699171 40.632552650824437 0 40.632552650824437 138.95150247498805 0 0 0 0 12.13990349220694 85.87970319379383 0 85.87970319379383 200.08375483184318 0 0 0 0 17.424545588350156 86.540157737429581 0 86.540157737429581 -68.553554403015823 0 0 0 0 8.5937425948850432 -66.529102820854177 0 -66.529102820854177 289.42113435474312 0 0 0 0 1.260929344501676 0.41127270223309864 0 0.41127270223309864 0.042475436716294723 0 0 0 0 19.921086050526355 -14.044293815695937 0 -14.044293815695937 99.036546238956362 0 0 0 0 -28.265074135546456 5.6763950729055068 0 5.6763950729055068 105.07204601915487 0 0 0 0 -8.2528960219424334 12.073021278931265 0 12.073021278931265 84.321349720616126 0 0 0 0 -30.537329229357965 38.877005738277376 0 38.877005738277376 37.436188815030619 0 0 0 0 -45.319501140678767 33.669131580125395 0 33.669131580125395 53.824597422922125 0 0 0 0 -46.175208827391543 55.073305580369265 0 55.073305580369265 5.8371120270603569 0 0 0 0 -124.31376781844301 2.2566781217901735 0 2.2566781217901735 11.861629177288705 0 0 0 0 8.4852187620021482 5.0498392033988466 0 5.0498392033988466 0.67481398151648619 0 0 0 0 -63.589853000536095 50.374273351497322 0 50.374273351497322 44.388309343850779 0 0 0 0 -64.867152972728945 50.281647371528379 0 50.281647371528379 97.933998281358072 0 0 0 0 -50.917553427392704 66.16112911780283 0 66.16112911780283 63.320904796772084 0 0 0 0 14.083755180596199 30.728969015416624 0 30.728969015416624 42.632386848279566 0 0 0 0 8.7984234310811189 25.973248295590608 0 25.973248295590608 34.34925533318544 0 0 0 0 -66.009556078279275 99.831258322299618 0 99.831258322299618 -10.613141104468014 0 0 0 0 31.209907055337681 51.020423199539437 0 51.020423199539437 47.42101325889962 0 0 0 0 4.3723663954588119 25.879694045546785 0 25.879694045546785 42.322250041344432 0 0 0 0 1.0188766251822585 6.8442296320930467 0 6.8442296320930467 12.208911585465898 0 0 0 0 20.84114734645118 48.129083546340553 0 48.129083546340553 53.701396002914407 0 0 0 0 38.146397328178864 63.364596124451054 0 63.364596124451054 -6.0327381237730151 0 0 0 0 18.823059848844423 28.619177874728848 0 28.619177874728848 33.236402886977885 0 0 0 0 23.062836457931553 26.423466270560311 0 26.423466270560311 24.312834112722157 0 0 0 0 1.931568149914483 9.5432369637862706 0 9.5432369637862706 -0.092465265888584725 0 0 0 0 19.534252728291904 33.661846943385171 0 33.661846943385171 16.890684785128542 0 0 0 0 28.621634392540727 26.02301050819915 0 26.02301050819915 17.125532181749804 0 0 0 0 31.477955422160449 31.350458469898513 0 31.350458469898513 17.226615863530697 0 0 0 0 -32.869039405290096 9.0645255098897906 0 9.0645255098897906 34.090099401292719 0 0 0 0 11.120848440212001 22.105630996209797 0 22.105630996209797 10.615493334702975 0 0 0 0 -15.851856961329759 36.062459362810841 0 36.062459362810841 9.4647057924239562 0 0 0 0 -40.473684202421282 3.470985099957943 0 3.470985099957943 33.457006806596837 0 0 0 0 25.84168233780656 -1.1481480559359625 0 -1.1481480559359625 13.441869002843305 0 0 0 0 -18.029732352733845 -12.488982644146745 0 -12.488982644146745 35.425915392362185 0 0 0 0 -10.9697610359799 5.291239794682042 0 5.291239794682042 -15.802959489163186 0 0 0 0 -64.137542973519885 38.991418193832942 0 38.991418193832942 7.5624169460061239 0 0 0 0 -0.51292521188761953 4.1404652285392771 0 4.1404652285392771 3.1343471805888576 0 0 0 0 -40.502116187584761 60.564120409903808 0 60.564120409903808 -33.151924338211757 0 0 0 0 -48.339237797539681 38.995358592273988 0 38.995358592273988 -10.359781130238844 0 0 0 0 31.77510779396107 25.954747529515771 0 25.954747529515771 6.6796907223942981 0 0 0 0 -2.0879826389690095 10.06181989340088 0 10.06181989340088 -6.6568714186892279 0 0 0 0 6.7161357406237912 3.038955645691459 0 3.038955645691459 -1.1269732400187351 0 0 0 0 20.375649952050651 24.607480046896512 0 24.607480046896512 -2.9326150779225593 0 0 0 0 71.084722247556783 27.049948577618125 0 27.049948577618125 -8.3193745721382584 0 0 0 0 18.752175478905031 16.761786213699573 0 16.761786213699573 -9.2487989255717764 0 0 0 0 6.8474689958820818 26.873905007681969 0 26.873905007681969 -17.780194151136129 0 0 0 0 13.150691119444673 17.292715568607036 0 17.292715568607036 -12.738545090579009 0 0 0 0 10.165152547876289 17.189334589990665 0 17.189334589990665 -7.87735377341673 0 0 0 0 15.530992058414995 24.080414523488571 0 24.080414523488571 -20.675610312682693 0 0 0 0 1.8571626852813949 23.614474897767337 0 23.614474897767337 -7.0591895835494114 0 0 0 0 3.837129003717564 56.159190415281046 0 56.159190415281046 -5.9120843791606603 0 0 0 0 20.031995349680074 39.721824232074141 0 39.721824232074141 -19.878340878567542 0 0 0 0 -3.9196718617654369 15.339576732476587 0 15.339576732476587 -10.50497844628703 0 0 0 0 -28.839454241380736 28.190670399969349 0 28.190670399969349 12.825657896475605 0 0 0 0 -2.1841804305759069 13.584493838324725 0 13.584493838324725 -9.1089449642938103 0 0 0 0 4.0972887310563237 19.581105178126904 0 19.581105178126904 -10.097894622328567 0 0 0 0 3.1084175887226593 22.842011628171804 0 22.842011628171804 -15.125309492173074 0 0 0 0 4.8632594124501338 24.368796472704162 0 24.368796472704162 -16.535820115236675 0 0 0 0 3.0349205073181338 16.180702402780312 0 16.180702402780312 -14.652836038241997 0 0 0 0 3.0027690631115433 16.953167718258669 0 16.953167718258669 -18.735427907676744 0 0 0 0 2.88091178011382 14.166141212382627 0 14.166141212382627 -12.075700539721765 0 0 0 0 -13.550568420410855 21.585927844642356 0 21.585927844642356 -11.826525675831363 0 0 0 0 14.841476522633457 37.883346660970346 0 37.883346660970346 -39.502544235896494 0 0 0 0 5.4866143136215726 14.054743982246308 0 14.054743982246308 -0.94845733748302052 0 0 0 0 11.537126754876226 19.920992445818229 0 19.920992445818229 -24.587810986367913 0 0 0 0 4.0304550305882003 20.723273228690232 0 20.723273228690232 -21.382517399937569 0 0 0 0 8.1565915022729314 6.9439625066787585 0 6.9439625066787585 -55.265125608828953 0 0 0 0 15.355697862483794 24.853041963308669 0 24.853041963308669 -39.052213675811345 0 0 0 0 20.385302023903932 24.298567216289598 0 24.298567216289598 -46.569847561241886 0 0 0 0 10.457894306111768 5.1118373015928285 0 5.1118373015928285 -4.5710523546340056 0 0 0 0 1.2499499729601666 19.82100818997651 0 19.82100818997651 -29.802600470434406 0 0 0 0 4.3777045255282161 16.55749993387451 0 16.55749993387451 -21.717058881674831 0 0 0 0 5.9561770699913694 11.934931172541084 0 11.934931172541084 -11.588234111399281 0 0 0 0 2.6424666694074403 18.860907874887289 0 18.860907874887289 -9.3812561035854287 0 0 0 0 3.0624195496238826 14.333226753609779 0 14.333226753609779 -12.75897026046232 0 0 0 0 3.8096781787905911 11.153125060404314 0 11.153125060404314 1.3169077127822968 0 0 0 0 14.161689286484034 10.936468299471926 0 10.936468299471926 -12.31859934595127 0 0 0 0 -2.0796096828341888 5.652319666130289 0 5.652319666130289 -3.2715505746455165 0 0 0 0 34.367432647573878 20.497548084909795 0 20.497548084909795 -8.4372887053123122 0 0 0 0 -1.8915688761771889 21.415551938644967 0 21.415551938644967 26.637809983947591 0 0 0 0 0.93565554219455294 3.7302152755141407 0 3.7302152755141407 -1.7584888007567301 0 0 0 0 -1.2268972617312102 0.7520831515782902 0 0.7520831515782902 -4.1868351112334494 0 0 0 0 -10.400010705430759 27.799174096282513 0 27.799174096282513 -5.446677345673379 0 0 0 0 -46.821848953662993 5.5899641964365401 0 5.5899641964365401 18.286557133418682 0 0 0 0 8.1809192497021286 -43.212736384040909 0 -43.212736384040909 82.276502696580621 0 0 0 0 -2.1100364900630666 99.509936615330844 0 99.509936615330844 -76.555968850251702 0 0 0 0 2.548276366883897 1.3841398480567975 0 1.3841398480567975 0.81105834308414515 0 0 0 0 4.6558559205805068 -13.976223782749912 0 -13.976223782749912 -41.246374946034848 0 0 0 0 -25.534060735573803 -9.4698330650876414 0 -9.4698330650876414 -3.1546747419379244 0 0 0 0 16.444594053682522 25.174628803010819 0 25.174628803010819 14.81396135468276 0 0 0 0 17.891723894324969 8.4906190621477435 0 8.4906190621477435 -13.367003774115801 0 0 0 0 14.999645056125701 29.58636962186597 0 29.58636962186597 0.88477348625383456 0 0 0 0 11.961502807829675 12.511058874325045 0 12.511058874325045 -1.5102698350656283 0 0 0 0 7.6409854038574849 21.560812336676918 0 21.560812336676918 -8.9525190104268404 0 0 0 0 2.7312249091191916 17.331917017062551 0 17.331917017062551 -3.1298969618778756 0 0 0 0 7.6101012464132509 11.000038088725432 0 11.000038088725432 -1.9550831669039326 0 0 0 0 -2.0405059473705478 27.39470034945748 0 27.39470034945748 28.4816647773564 0 0 0 0 13.921081046851782 23.443438366786303 0 23.443438366786303 -13.948357329227292 0 0 0 0 0.58714488860903202 -0.49208184737823402 0 -0.49208184737823402 3.7140903635107803 0 0 0 0 9.6476140107673416 11.051881240287642 0 11.051881240287642 3.8671508587483014 0 0 0 0 26.39389739089529 37.906503146245086 0 37.906503146245086 -17.835951057369584 0 0 0 0 -8.7731638555706013 27.071839840261646 0 27.071839840261646 79.966579748289291 0 0 0 0 5.4105936629435405 9.95501429228446 0 9.95501429228446 6.4298382274246979 0 0 0 0 9.4829144453688059 -20.026043476006862 0 -20.026043476006862 18.45498505419414 0 0 0 0 13.55412809446716 2.946908832626832 0 2.946908832626832 -118.40366547630174 0 0 0 0 -0.41657268134383685 -2.0566384670479962 0 -2.0566384670479962 0.37755139348560718 0 0 0 0 -3.5796235538218752 -2.6906263362508298 0 -2.6906263362508298 -61.964959313414511 0 0 0 0 6.3507153263199143 15.238474121276582 0 15.238474121276582 -43.962946164282016 0 0 0 0 10.92247189063346 15.341482330018607 0 15.341482330018607 -60.606025092464506 0 0 0 0 13.834086962073343 7.977971042924537 0 7.977971042924537 -69.855609276862822 0 0 0 0 -0.067802940196997952 26.454283590643968 0 26.454283590643968 -141.83534371171345 0 0 0 0 -9.4692125122892321 17.873464097446913 0 17.873464097446913 -21.137424580425431 0 0 0 0 -2.4996219088352518 -20.363797187221735 0 -20.363797187221735 -49.954155028110108 0 0 0 0 -0.55759106366183886 1.6484086811014009 0 1.6484086811014009 0.16887153023089851 0 0 0 0 17.321149689450976 29.061573502286706 0 29.061573502286706 -120.32629794347508 0 0 0 0 11.704858901968691 29.65185690699775 0 29.65185690699775 -33.940766009729224 0 0 0 0 21.691484109389421 30.237291275885781 0 30.237291275885781 -71.676208268820915 0 0 0 0 9.9090205332322512 41.97267562232696 0 41.97267562232696 30.733333994950954 0 0 0 0 5.3615784021530999 -11.937844408671026 0 -11.937844408671026 -41.90568280314659 0 0 0 0 18.836132161908608 7.4650217102785064 0 7.4650217102785064 -14.18808505060133 0 0 0 0 -0.52986370470971877 4.5358315675336058 0 4.5358315675336058 0.49926015926541467 0 0 0 0 5.8899457957595587 11.082965412592785 0 11.082965412592785 -4.165250064551401 0 0 0 0 0.00043514653953025118 -0.8400891933802086 0 -0.8400891933802086 9.9824402369085874 0 0 0 0 -1.6187866244545148 1.4277824097034681 0 1.4277824097034681 3.9502915832736107 0 0 0 0 2.9174075097653258 4.2191681727604191 0 4.2191681727604191 6.0414009937940136 0 0 0 0 1.2667484038370844 -2.5452592320803546 0 -2.5452592320803546 4.372579117989905 0 0 0 0 1.7551983836934824 7.5838345016952857 0 7.5838345016952857 7.1563826193052886 0 0 0 0 3.2228274197332212 7.0308631518523725 0 7.0308631518523725 -10.27361662036401 0 0 0 0 -4.4755107657474582 21.753043272307877 0 21.753043272307877 -1.6350416092491287 0 0 0 0 -7.4004792463238118 14.347681826250664 0 14.347681826250664 9.6383836850100124 0 0 0 0 -8.894114665898087 49.046317721280502 0 49.046317721280502 -3.5045538120211859 0 0 0 0 6.6019835683400743 13.106335140242663 0 13.106335140242663 18.544441441345043 0 0 0 0 -1.1161324395698742 0.7231044948365053 0 0.7231044948365053 15.262849004257951 0 0 0 0 -53.755754818193964 23.931521776179579 0 23.931521776179579 19.488342082587224 0 0 0 0 -21.940508026797033 -7.8134220735423696 0 -7.8134220735423696 10.90734378360662 0 0 0 0 0.10812426081974991 -21.104121105066497 0 -21.104121105066497 -26.752971128484205 0 0 0 0 113.94238131784368 78.198566612923969 0 78.198566612923969 3.5660826239532071 0 0 0 0 -0.019147654325934127 87.76925468580157 0 87.76925468580157 314.46992643190606 0 0 0 0 12.202699284782284 144.16600487037022 0 144.16600487037022 489.73117211479075 0 0 0 0 133.56662604522717 149.49416652885884 0 149.49416652885884 254.00309954397017 0 0 0 0 -0.2702097991983976 0.84634374820896596 0 0.84634374820896596 5.8955314184571677 0 0 0 0 -42.181712736164627 -112.34773529765152 0 -112.34773529765152 336.8839212127059 0 0 0 0 7.8586955975042656 -97.02281967899944 0 -97.02281967899944 132.7826851098871 0 0 0 0 -47.623677100535133 -48.391910171294512 0 -48.391910171294512 142.23294059286218 0 0 0 0 5.7977705156154116 -50.458711201900769 0 -50.458711201900769 138.29147187046328 0 0 0 0 23.635419088270282 -29.171709798623851 0 -29.171709798623851 -26.529383177672571 0 0 0 0 0.19996621429163497 -32.578319546249986 0 -32.578319546249986 89.031482320170653 0 0 0 0 22.678881202140474 19.865631305430725 0 19.865631305430725 16.620683212780477 0 0 0 0 7.581699000656954 31.924566267498449 0 31.924566267498449 46.77094913099063 0 0 0 0 9.49188608804252 81.66314476747084 0 81.66314476747084 128.31389714840225 0 0 0 0 -27.693964581660111 -11.073159934544492 0 -11.073159934544492 190.08755922927685 0 0 0 0 79.39451484138408 23.228206628757107 0 23.228206628757107 142.07893388064986 0 0 0 0 -46.109221730584977 -38.09493358729469 0 -38.09493358729469 212.08585738045076 0 0 0 0 -31.742792904522503 1.5218068760777896 0 1.5218068760777896 153.21514712071439 0 0 0 0 -74.751122865942307 44.080353958472188 0 44.080353958472188 262.31237814502401 0 0 0 0 -58.806275860792084 115.1545774197175 0 115.1545774197175 90.365790744137485 0 0 0 0 -57.852458512119483 77.336521873025049 0 77.336521873025049 102.1968171947675 0 0 0 0 -24.392673505382845 69.02488150357749 0 69.02488150357749 102.46469985439762 0 0 0 0 -4.6454376252672773 39.489569106331288 0 39.489569106331288 141.44816147176243 0 0 0 0 -4.2115972050014534 56.993374408898035 0 56.993374408898035 -20.851889413439494 0 0 0 0 -63.839428861805573 53.950282283906745 0 53.950282283906745 48.841460848158022 0 0 0 0 -55.654975007452776 120.14644690403986 0 120.14644690403986 3.9580397855388583 0 0 0 0 151.26511703127471 130.86159012711596 0 130.86159012711596 -475.53661123145866 0 0 0 0 -72.239462647339678 237.62628537921955 0 237.62628537921955 54.878602525950555 0 0 0 0 6.2159142168384278 -29.527000381704056 0 -29.527000381704056 -259.99382261859591 0 0 0 0 0.042247985249559861 86.850923510721259 0 86.850923510721259 80.732047223078553 0 0 0 0 -19.926688220999495 -71.013953198779745 0 -71.013953198779745 453.69199501743969 0 0 0 0 -58.429951852820523 202.82166950325063 0 202.82166950325063 528.60687220540058 0 0 0 0 261.27743862921488 133.80112688952067 0 133.80112688952067 19.986241461463123 0 0 0 0 -31.254202708829325 43.183992279067752 0 43.183992279067752 -506.54765094901995 0 0 0 0 -120.20754488383136 60.726320401521662 0 60.726320401521662 -113.25781050050864 0 0 0 0 -68.057841418312819 45.541757653722016 0 45.541757653722016 -301.1737191090433 0 0 0 0 15.544827892148533 -93.427924594856449 0 -93.427924594856449 -79.406068665386556 0 0 0 0 -24.049357095253072 -0.88839871568052331 0 -0.88839871568052331 -302.85733954454963 0 0 0 0 87.862740080077856 19.033973840653744 0 19.033973840653744 -481.36344034376089 0 0 0 0 -267.15259082730972 12.881104697815317 0 12.881104697815317 -471.07557292959245 0 0 0 0 -159.51635042640555 146.07963963588554 0 146.07963963588554 -307.31354747810474 0 0 0 0 -186.94553484085918 234.69207544744859 0 234.69207544744859 -388.11417379423801 0 0 0 0 -3.0847152125319113 -1.8569545511784895 0 -1.8569545511784895 -0.82561281531422992 0 0 0 0 -342.48493950863849 291.32384201187961 0 291.32384201187961 -57.446029210506822 0 0 0 0 -367.6388456323557 82.692331496058614 0 82.692331496058614 -93.989213208507863 0 0 0 0 -343.19317877716458 358.59167842842726 0 358.59167842842726 -167.41836383131158 0 0 0 0 -295.84185972993509 333.10504245707125 0 333.10504245707125 -215.45081654610112 0 0 0 0 -241.21725234654605 200.47205533226588 0 200.47205533226588 -340.99489000020549 0 0 0 0 -287.495610944894 290.64951396400284 0 290.64951396400284 -214.1717066308338 0 0 0 0 -301.60135149165581 368.51846715361171 0 368.51846715361171 -258.58234099481342 0 0 0 0 -156.23046420577884 327.44604511778925 0 327.44604511778925 -405.57763090773369 0 0 0 0 -92.527972026016869 157.94227083829901 0 157.94227083829901 -201.28063740645302 0 0 0 0 -97.313540670704242 -11.616125199449016 0 -11.616125199449016 -48.111275141127408 0 0 0 0 37.665177380056775 86.062360234394873 0 86.062360234394873 -337.08570835390128 0 0 0 0 -582.25026592639915 714.29112216281646 0 714.29112216281646 -461.90398561064649 0 0 0 0 -360.96475966853177 -52.987823333911365 0 -52.987823333911365 26.873756145598236 0 0 0 0 -10.460787020237994 3.2530303727584169 0 3.2530303727584169 -1.4042457571291322 0 0 0 0 -100.10363257171593 387.25114630905955 0 387.25114630905955 -938.35977503323375 0 0 0 0 192.1202463744321 12.165407245309325 0 12.165407245309325 -722.48520061829186 0 0 0 0 -1102.9383932410547 232.19541766111433 0 232.19541766111433 198.86954701301875 0 0 0 0 -201.11851832031243 98.711863826683839 0 98.711863826683839 -96.228851722211402 0 0 0 0 -210.72403131839019 -144.97816510109533 0 -144.97816510109533 69.969022058663541 0 0 0 0 -3.9980781079378289 -3.9455307414486569 0 -3.9455307414486569 -4.2687476532046276 0 0 0 0 -124.79161904067769 101.0834829954656 0 101.0834829954656 79.34268934118154 0 0 0 0 -142.82629759160409 44.301867360067263 0 44.301867360067263 -88.685397805355024 0 0 0 0 -1.6382305939247317 -2.2376226174141465 0 -2.2376226174141465 -4.4992138158737305 0 0 0 0 -200.69977635849136 227.45512531621353 0 227.45512531621353 -18.728999578201183 0 0 0 0 154.99625536679196 64.601085096008319 0 64.601085096008319 -64.284152537984482 0 0 0 0 -147.47132201839486 25.141498370852787 0 25.141498370852787 28.606794368970441 0 0 0 0 227.70712026494766 288.69901275330631 0 288.69901275330631 442.34022781563544 0 0 0 0 923.66311767163006 179.81419169556466 0 179.81419169556466 -40.608628958223562 0 0 0 0 373.03927282522636 -229.76972791222215 0 -229.76972791222215 120.56062115876557 0 0 0 0 -77.998530662783651 49.628608121442085 0 49.628608121442085 -29.864403476502048 0 0 0 0 -0.79206254163606005 8.8168680950318503 0 8.8168680950318503 -10.679110352009388 0 0 0 0 8.2306752299828077 80.706089114573842 0 80.706089114573842 393.13373853806115 0 0 0 0 -0.29131885235818089 3.576343469238914 0 3.576343469238914 6.1724561373195002 0 0 0 0 294.1900078738654 392.08471635958995 0 392.08471635958995 322.84146259909357 0 0 0 0 770.06328650655814 229.42554209720765 0 229.42554209720765 -182.74971275619464 0 0 0 0 281.22881500519134 191.33641122037807 0 191.33641122037807 4.4591820795321837 0 0 0 0 -1.0759499271835669 1.8078465404663433 0 1.8078465404663433 -5.6549418590282983 0 0 0 0 326.38036939939229 417.50730300080977 0 417.50730300080977 -344.59866425790824 0 0 0 0 3.7847523389100388 655.88727889156144 0 655.88727889156144 -490.20391607440251 0 0 0 0 298.82884538626797 52.119651560281454 0 52.119651560281454 -248.22736530673865 0 0 0 0 293.42249167594491 459.59257226718182 0 459.59257226718182 -340.21685189679556 0 0 0 0 43.693510019810674 90.781904861476505 0 90.781904861476505 -535.59714651951799 0 0 0 0 245.03996901581922 384.8328520464529 0 384.8328520464529 -628.13841722758661 0 0 0 0 36.641904381356653 529.67756091788397 0 529.67756091788397 -590.85789219166327 0 0 0 0 269.07915434281131 334.33720566331613 0 334.33720566331613 -504.08318864451576 0 0 0 0 43.597851210935914 437.40507030306617 0 437.40507030306617 -726.57029689666524 0 0 0 0 129.23149379986535 45.815147023989994 0 45.815147023989994 -179.35702946573292 0 0 0 0 227.31485183190853 227.5234510712362 0 227.5234510712362 -435.71499052028958 0 0 0 0 55.217082572013169 94.227660818563891 0 94.227660818563891 -519.00073327097925 0 0 0 0 186.82927995198099 -107.6645497403681 0 -107.6645497403681 -330.45549499786284 0 0 0 0 -7.7972147104592295 320.0888334041847 0 320.0888334041847 -586.29158305065357 0 0 0 0 -4.8810250753531363 65.834515160631781 0 65.834515160631781 -459.44995129844756 0 0 0 0 -43.838350995682049 132.27935218333369 0 132.27935218333369 -481.47746422779892 0 0 0 0 94.244532135640839 225.62859819992445 0 225.62859819992445 -822.59807024442125 0 0 0 0 14.735435566366885 9.4025573595285721 0 9.4025573595285721 3.4682845073701145 0 0 0 0 -774.48112676201345 429.41717439382046 0 429.41717439382046 -862.66464102192549 0 0 0 0 -4.8901659150487831 578.53710232704179 0 578.53710232704179 -760.08737461119563 0 0 0 0 -194.04736850728113 592.39535958908527 0 592.39535958908527 -816.94299399691954 0 0 0 0 7.4038398785258863 6.8999836295226515 0 6.8999836295226515 2.0863176860009389 0 0 0 0 -289.45705543855911 301.04943751826067 0 301.04943751826067 -33.579304251383292 0 0 0 0 -146.39522096714609 153.79591918936785 0 153.79591918936785 -541.90535611608175 0 0 0 0 -250.16132744760398 438.65995148093498 0 438.65995148093498 -611.73122492888797 0 0 0 0 49.079716279330796 169.1339731602784 0 169.1339731602784 -460.12715909881808 0 0 0 0 -207.4981625372593 141.02831404817334 0 141.02831404817334 -168.84992830660485 0 0 0 0 -25.104822061794039 50.692184982013714 0 50.692184982013714 -187.21774234583791 0 0 0 0 36.574552485395543 -74.502998538780957 0 -74.502998538780957 -69.662469543036423 0 0 0 0 10.902082906050055 15.994927320083661 0 15.994927320083661 -197.98446998094914 0 0 0 0 -3.0411739934879733 163.38135273643911 0 163.38135273643911 -239.50153711950406 0 0 0 0 151.93569958341192 36.623590505549032 0 36.623590505549032 74.924954711430473 0 0 0 0 258.21664786235488 -69.121986982179806 0 -69.121986982179806 -111.00587890649331 0 0 0 0 -132.69815942853666 -58.782587670017165 0 -58.782587670017165 156.07893527165288 0 0 0 0 147.85099069798605 -172.24624296009358 0 -172.24624296009358 90.082768800566555 0 0 0 0 0.81598226231653825 -39.674917932468816 0 -39.674917932468816 -20.652401593404647 0 0 0 0 -23.965557860934496 -114.75601815500704 0 -114.75601815500704 118.15135946380906 0 0 0 0 118.94986429765413 45.010759539713035 0 45.010759539713035 -464.36897010996108 0 0 0 0 -211.46837861595213 215.70816357906369 0 215.70816357906369 -235.08336588842212 0 0 0 0 26.667292320729757 149.43189219286432 0 149.43189219286432 131.83598187581811 0 0 0 0 110.88940806242135 81.659276949678315 0 81.659276949678315 -227.74841330876939 0 0 0 0 -97.300905337368476 325.03046419391376 0 325.03046419391376 179.95764453632728 0 0 0 0 -68.975762935760287 399.91104514370431 0 399.91104514370431 -135.62033171191433 0 0 0 0 9.7129793914274032 8.768849104873965 0 8.768849104873965 4.9034591370151048 0 0 0 0 -121.13884103788769 97.698179074821383 0 97.698179074821383 -281.56511977955233 0 0 0 0 -78.389384302527105 71.279144929059839 0 71.279144929059839 -289.94476717351063 0 0 0 0 -2.2478958706483354 457.73443012195276 0 457.73443012195276 -578.9714394640323 0 0 0 0 -9.5795966861678608 87.020668608638516 0 87.020668608638516 -484.83085834443409 0 0 0 0 14.824378941669771 10.015496078246983 0 10.015496078246983 4.3993160282109329 0 0 0 0 -8.7919737332631485 97.043118257393417 0 97.043118257393417 -357.85041401041963 0 0 0 0 -141.28422751241305 -10.151671541734686 0 -10.151671541734686 -441.82419061230758 0 0 0 0 -159.59472632686084 228.52221117458248 0 228.52221117458248 -503.94296320645662 0 0 0 0 -273.68255389358819 93.706925278211202 0 93.706925278211202 -282.76093386663706 0 0 0 0 -90.078165131653805 138.62728313217667 0 138.62728313217667 -291.6345613601402 0 0 0 0 -128.73462936660962 174.76607504603271 0 174.76607504603271 -235.93611165878247 0 0 0 0 -133.47726885021802 123.81229182893003 0 123.81229182893003 177.36491400025989 0 0 0 0 2.3688358318359661 4.6142495314999223 0 4.6142495314999223 3.3286569413073011 0 0 0 0 -85.079595058980431 321.9566185650483 0 321.9566185650483 566.45070196229062 0 0 0 0 184.99332098422747 222.86225794166239 0 222.86225794166239 -328.62613384580254 0 0 0 0 196.77136753632345 517.21744939221912 0 517.21744939221912 -122.19153710716637 0 0 0 0 0.06432093542025541 335.79582891734754 0 335.79582891734754 333.45499714512334 0 0 0 0 -2.7840195647252131 367.84471501519693 0 367.84471501519693 -6.8908934793507797 0 0 0 0 21.182959571177889 341.30025845825276 0 341.30025845825276 -131.510088060415 0 0 0 0 20.272770930954721 296.6059966948269 0 296.6059966948269 -52.49567463962012 0 0 0 0 20.34916109416281 381.2259980849858 0 381.2259980849858 -124.36713881566538 0 0 0 0 18.93564463232542 383.12999241118087 0 383.12999241118087 -82.498796583211515 0 0 0 0 20.473056326263759 344.8284798965542 0 344.8284798965542 -91.300829418803914 0 0 0 0 36.111440070315439 413.71241721320621 0 413.71241721320621 -135.49189844700595 0 0 0 0 44.903616233699722 360.0931659204507 0 360.0931659204507 -130.94483337576094 0 0 0 0 48.882182211837971 362.63099696485006 0 362.63099696485006 -219.15155219448206 0 0 0 0 26.876109024422476 303.60903449378384 0 303.60903449378384 -160.59302933503932 0 0 0 0 -90.793456130348204 292.10295062037039 0 292.10295062037039 -222.12296572232117 0 0 0 0 -156.03378699029054 178.35042350157528 0 178.35042350157528 -293.12509257310558 0 0 0 0 72.132888404676123 252.71950672618914 0 252.71950672618914 -315.67043387325975 0 0 0 0 -5.5208729422993201 324.63877404563755 0 324.63877404563755 -175.00675029986814 0 0 0 0 63.772020524927939 352.41648814920791 0 352.41648814920791 -255.26031821776996 0 0 0 0 -169.49839701651945 344.43005142008769 0 344.43005142008769 -149.19189875871598 0 0 0 0 -242.28990713580606 359.05846189609474 0 359.05846189609474 -148.64507922661141 0 0 0 0 -34.325337061279242 324.79784808832392 0 324.79784808832392 -205.89695377160388 0 0 0 0 -55.967470830768434 425.13849363016925 0 425.13849363016925 -406.46229391549105 0 0 0 0 6.7963694265781669 365.00040388310299 0 365.00040388310299 -165.38225317475758 0 0 0 0 6.1870402346394258 352.2239674869852 0 352.2239674869852 -206.29549425204186 0 0 0 0 -3.3443869990644544 328.09033004959576 0 328.09033004959576 -165.77246623121027 0 0 0 0 -3.7311482178338338 315.24947350483126 0 315.24947350483126 -210.09190901201964 0 0 0 0 19.89344226445246 304.62868778498159 0 304.62868778498159 -221.55509944621735 0 0 0 0 39.957872077178763 385.29236929418767 0 385.29236929418767 -145.57586557957984 0 0 0 0 45.706385235533162 350.73917843094387 0 350.73917843094387 -171.52304336805537 0 0 0 0 35.432369097976334 378.97457178832337 0 378.97457178832337 -57.398617656086572 0 0 0 0 70.346703292383609 390.37769321312953 0 390.37769321312953 -131.63114054488688 0 0 0 0 63.675280367006053 308.2304752874029 0 308.2304752874029 -147.37524334489717 0 0 0 0 -90.740345638481813 341.12239054353995 0 341.12239054353995 -145.33900910044031 0 0 0 0 -112.75582463328101 334.28961191511007 0 334.28961191511007 -115.21584023594914 0 0 0 0 -101.02630778133698 293.73039878053169 0 293.73039878053169 -135.15760216525814 0 0 0 0 -62.850447478809656 268.24348003424893 0 268.24348003424893 -75.63995675840124 0 0 0 0 -54.991234760833322 23.444513347232714 0 23.444513347232714 501.50736203770975 0 0 0 0 -2.8295747292612248 2.9227499152397911 0 2.9227499152397911 0.71003765475968095 0 0 0 0 -103.78096920360986 297.55661976934061 0 297.55661976934061 -292.04959524479727 0 0 0 0 15.415170849133574 83.468681860402285 0 83.468681860402285 272.5643380628826 0 0 0 0 27.216635551746094 150.45096796740017 0 150.45096796740017 482.31970431940863 0 0 0 0 -15.437973357482406 91.237447647778026 0 91.237447647778026 294.25511384702986 0 0 0 0 296.64775815292523 322.38330133786803 0 322.38330133786803 -67.818876584007739 0 0 0 0 -66.893798908073222 59.358650672831573 0 59.358650672831573 425.79690094219404 0 0 0 0 -0.29411906310262736 0.066363055678575478 0 0.066363055678575478 4.4418287820445812 0 0 0 0 332.01801728730788 319.50449457204377 0 319.50449457204377 281.56642172774445 0 0 0 0 593.28846317539137 83.220358762147953 0 83.220358762147953 27.089827762218192 0 0 0 0 -114.14303904562985 20.74294243571785 0 20.74294243571785 180.43587083232705 0 0 0 0 -18.084205088694944 44.621310920616452 0 44.621310920616452 -37.72590833666618 0 0 0 0 -23.249377830689355 261.15409265238986 0 261.15409265238986 15.071559654534212 0 0 0 0 -10.565451328351628 369.93345622996276 0 369.93345622996276 426.23090859728109 0 0 0 0 22.260487316067156 254.21014856941474 0 254.21014856941474 -65.931454595777723 0 0 0 0 -17.185457855030108 95.662375175386842 0 95.662375175386842 135.83097694746175 0 0 0 0 -13.887823030796426 86.100692654486011 0 86.100692654486011 -38.533437705220422 0 0 0 0 9.2846207432667143 62.108167530292121 0 62.108167530292121 -17.432835547544528 0 0 0 0 11.459037505104078 22.47902770311552 0 22.47902770311552 4.1980347991288198 0 0 0 0 36.893271956163517 33.985526770236902 0 33.985526770236902 -36.527205311207581 0 0 0 0 13.865566384196427 49.563904468985129 0 49.563904468985129 -53.287161737018323 0 0 0 0 48.095841385373205 18.37851189774301 0 18.37851189774301 -75.974379411178234 0 0 0 0 10.08741664800683 4.0712678879069024 0 4.0712678879069024 -32.949596866485194 0 0 0 0 119.80572491121711 -39.719042839249596 0 -39.719042839249596 -36.958474324608687 0 0 0 0 63.796048708056333 22.50451326007169 0 22.50451326007169 -10.057808465877315 0 0 0 0 -0.95488621208914992 2.8795396384844594 0 2.8795396384844594 0.68414872478371791 0 0 0 0 0.13661013719882931 4.8691314966647781 0 4.8691314966647781 8.6783782253926347 0 0 0 0 -45.273289858294447 64.182699402070284 0 64.182699402070284 -21.528254754113732 0 0 0 0 139.21038871032215 -15.176893126183131 0 -15.176893126183131 6.3164961336333363 0 0 0 0 -39.294601942616282 51.016593901818851 0 51.016593901818851 -13.208483885042369 0 0 0 0 -19.610669859903282 28.359987621464825 0 28.359987621464825 -12.638316890690476 0 0 0 0 149.40145017589566 16.070240305502011 0 16.070240305502011 11.847575916413916 0 0 0 0 196.86599654677411 -8.6799299862177577 0 -8.6799299862177577 15.417534493655694 0 0 0 0 269.30389341101909 136.80251069501901 0 136.80251069501901 -1.3825015444599558 0 0 0 0 101.9993388819712 -4.1614312897145282 0 -4.1614312897145282 3.3018344842857914 0 0 0 0 139.10735654763994 14.403138716828835 0 14.403138716828835 -40.588663378672209 0 0 0 0 115.28181101405789 37.365077641268726 0 37.365077641268726 -61.699723750323756 0 0 0 0 30.948323209238879 14.032398905597802 0 14.032398905597802 -63.3353300414974 0 0 0 0 108.3419792977902 118.07007321065703 0 118.07007321065703 -0.1879268171323929 0 0 0 0 118.106392460184 107.12066069587308 0 107.12066069587308 -39.705445188671547 0 0 0 0 6.6477062218327774 154.42819497031451 0 154.42819497031451 55.387707517918898 0 0 0 0 103.13133047465089 147.57547328114742 0 147.57547328114742 154.75200584587583 0 0 0 0 52.545122127517971 125.73451046675473 0 125.73451046675473 56.82903289119713 0 0 0 0 105.62600194819242 176.28099754222058 0 176.28099754222058 104.36283412088233 0 0 0 0 51.902663560591463 -67.266657303785905 0 -67.266657303785905 -323.60600046394029 0 0 0 0 -75.074605635039916 322.48445837222789 0 322.48445837222789 -463.94201916686143 0 0 0 0 -224.42649601115409 314.22468630207004 0 314.22468630207004 -345.07158227462787 0 0 0 0 -159.79144522227944 130.35756631673576 0 130.35756631673576 -541.37840793360374 0 0 0 0 -52.901165177156145 271.1604006836933 0 271.1604006836933 -355.41546073411882 0 0 0 0 -246.31318245645525 100.29404889225771 0 100.29404889225771 -378.57717438495456 0 0 0 0 32.311511079904449 177.73557939143211 0 177.73557939143211 -298.24667495358335 0 0 0 0 16.702337812948826 344.13754260505448 0 344.13754260505448 -318.75948155003425 0 0 0 0 49.367256621790148 235.00322655434866 0 235.00322655434866 -243.75088008996681 0 0 0 0 36.450138569674891 238.67538036016776 0 238.67538036016776 -55.938910897821188 0 0 0 0 70.176397133069258 57.158970684577071 0 57.158970684577071 -62.014598257432226 0 0 0 0 29.716059888065502 98.722542698051257 0 98.722542698051257 -98.365828288850025 0 0 0 0 31.55546297561159 202.27218047979841 0 202.27218047979841 -152.81996560307743 0 0 0 0 102.35343686438137 115.52086846744351 0 115.52086846744351 -241.26110642027925 0 0 0 0 -22.076102537736006 26.93350868626294 0 26.93350868626294 -86.204403712144995 0 0 0 0 -19.146811399315993 12.214757201543762 0 12.214757201543762 -13.081964598386548 0 0 0 0 -3.2839960404834585 -0.12629143173891322 0 -0.12629143173891322 3.683782209485571 0 0 0 0 133.20068799335786 6.5410410093536484 0 6.5410410093536484 -38.552953093007091 0 0 0 0 15.767416497088561 63.797120961753535 0 63.797120961753535 -17.123419018091226 0 0 0 0 7.674880211976415 54.53935136194923 0 54.53935136194923 -47.463528562264401 0 0 0 0 27.433579085678502 70.164674747531535 0 70.164674747531535 -19.935583625876461 0 0 0 0 5.7567964126074003 -4.7020624743004191 0 -4.7020624743004191 -32.948929300066084 0 0 0 0 37.504704491791927 34.363012374436948 0 34.363012374436948 -70.373858091370494 0 0 0 0 13.849157916044362 24.859102787742387 0 24.859102787742387 7.5177710597693661 0 0 0 0 26.203367103647906 40.951857539825141 0 40.951857539825141 -32.607428647723282 0 0 0 0 0.86133574240228938 5.0361666948600217 0 5.0361666948600217 -6.2045937766743577 0 0 0 0 -39.316994238790357 16.518105108087184 0 16.518105108087184 -18.418802710366435 0 0 0 0 44.518276194092323 8.4731392055982724 0 8.4731392055982724 7.4389826667465968 0 0 0 0 -8.1041418888489716 48.802705738373334 0 48.802705738373334 25.439349043590482 0 0 0 0 25.599690121322055 40.746155470857047 0 40.746155470857047 -41.163849342774483 0 0 0 0 3.3621857172068488 5.9362880512751133 0 5.9362880512751133 -4.6893775163513283 0 0 0 0 3.0340048153533417 4.6841405405273093 0 4.6841405405273093 -6.5963596679846148 0 0 0 0 23.789256618042245 51.668344900948753 0 51.668344900948753 29.615055166214688 0 0 0 0 -24.462297898875562 36.630243846864602 0 36.630243846864602 2.3984880914289306 0 0 0 0 -0.28732915154250804 -17.88549589671311 0 -17.88549589671311 80.1866863746327 0 0 0 0 -5.3372624712246761 -41.709200762794353 0 -41.709200762794353 25.885030173725681 0 0 0 0 -24.423666615136071 10.340347481836631 0 10.340347481836631 17.108008830314191 0 0 0 0 -13.965893785167495 19.713906840064226 0 19.713906840064226 7.1319328558477295 0 0 0 0 -10.840784312342294 17.161041415005457 0 17.161041415005457 16.316211736630066 0 0 0 0 43.724144110352427 0.69331842872452398 0 0.69331842872452398 -59.037208148569334 0 0 0 0 1.1344293979876028 -1.9527777894469409 0 -1.9527777894469409 -4.3583729477046518 0 0 0 0 -368.53912036156362 200.00325675521526 0 200.00325675521526 -89.48292330201366 0 0 0 0 -149.98068675344257 -3.118662634951761 0 -3.118662634951761 27.609362421186233 0 0 0 0 -172.79491159681493 270.33643716113875 0 270.33643716113875 -271.90102461232163 0 0 0 0 -177.69508966708963 174.85882539556042 0 174.85882539556042 -161.37832449797133 0 0 0 0 -183.18712786448305 192.54608939233003 0 192.54608939233003 -137.07117533986457 0 0 0 0 -28.888019747345538 5.5673065147666136 0 5.5673065147666136 1.4224149676474696 0 0 0 0 -143.36565817738301 59.36553438307601 0 59.36553438307601 40.046234792123869 0 0 0 0 -105.14743599428766 72.484025725047104 0 72.484025725047104 76.040728509982728 0 0 0 0 -140.59416765017522 154.56283712301229 0 154.56283712301229 -182.07183971336053 0 0 0 0 -139.8622938392283 75.945418827387869 0 75.945418827387869 -28.844238103134558 0 0 0 0 -43.993494157060923 76.44933487984963 0 76.44933487984963 -43.518088535187417 0 0 0 0 -65.841213469029526 83.111390215577558 0 83.111390215577558 55.193944722341257 0 0 0 0 -0.8228562020419119 4.5672628115881082 0 4.5672628115881082 0.60124708179234432 0 0 0 0 -32.715473571737675 88.725410180297331 0 88.725410180297331 114.50372325933131 0 0 0 0 -81.376297168737437 41.586401602638944 0 41.586401602638944 158.81378793784825 0 0 0 0 -75.260314262726752 17.383189526022761 0 17.383189526022761 30.44695036901976 0 0 0 0 -11.694930595960614 42.368535104615148 0 42.368535104615148 -76.098616669158218 0 0 0 0 144.77591692136048 77.516810508204799 0 77.516810508204799 -148.81466788668331 0 0 0 0 -132.55743049574448 24.561982263188838 0 24.561982263188838 104.45571376560474 0 0 0 0 -34.976209617403583 73.225365663669436 0 73.225365663669436 27.514096559592872 0 0 0 0 -83.51345950972609 83.302524279759382 0 83.302524279759382 9.7128728771349415 0 0 0 0 6.7304211159035177 28.072626259999879 0 28.072626259999879 35.652197642644524 0 0 0 0 19.296545704382879 24.042912852950394 0 24.042912852950394 -6.9539088135934435 0 0 0 0 2.4053601041788326 17.8561298263268 0 17.8561298263268 22.006558309935286 0 0 0 0 -23.598786708261997 43.186327155854599 0 43.186327155854599 56.380075249707993 0 0 0 0 39.037633951619824 31.184383522505115 0 31.184383522505115 -1.6931666777282217 0 0 0 0 196.63550142264285 108.90639120875494 0 108.90639120875494 -74.99005403161209 0 0 0 0 -124.53262991862721 -46.80477038196841 0 -46.80477038196841 197.24387771425791 0 0 0 0 -12.714835296899729 41.343148253737468 0 41.343148253737468 24.52538950064087 0 0 0 0 11.754182182285149 33.136894131022927 0 33.136894131022927 0.0057741904747672379 0 0 0 0 125.73179279905526 178.71957202625526 0 178.71957202625526 -165.92948055642773 0 0 0 0 -125.79995798739765 -3.9671944753572461 0 -3.9671944753572461 68.245324705727398 0 0 0 0 7.5336793656460941 111.53475939188866 0 111.53475939188866 86.374718445415965 0 0 0 0 -3.152095779878394 2.9787790993144085 0 2.9787790993144085 2.2513168891234159 0 0 0 0 80.589408224121144 8.5261201236062334 0 8.5261201236062334 -120.37934207238141 0 0 0 0 133.17222316196421 103.06836570620726 0 103.06836570620726 14.563449701890931 0 0 0 0 -24.203670711171078 31.642575123989431 0 31.642575123989431 22.064456059694066 0 0 0 0 38.658560464520633 79.255579602579019 0 79.255579602579019 36.580791639324161 0 0 0 0 -35.334110642497762 88.709847622831148 0 88.709847622831148 56.691740410176862 0 0 0 0 -55.595438471525995 12.136392668908229 0 12.136392668908229 32.040890693198889 0 0 0 0 3.1839562790264608 29.02619496222178 0 29.02619496222178 70.831195975959417 0 0 0 0 6.3079370067061973 57.741564032519818 0 57.741564032519818 54.031793923610167 0 0 0 0 1.6018819632699888 86.417418583598192 0 86.417418583598192 49.886856550067023 0 0 0 0 -310.87517320813276 164.97087469897087 0 164.97087469897087 126.26295982059673 0 0 0 0 -17.978759465348048 -181.1091240536025 0 -181.1091240536025 125.244034965217 0 0 0 0 24.966417668393472 40.152425634783782 0 40.152425634783782 64.012737427949389 0 0 0 0 -63.298348675119996 90.192971058309922 0 90.192971058309922 59.688971282077546 0 0 0 0 -3.9023803802410839 39.063377907314134 0 39.063377907314134 24.984571486254026 0 0 0 0 -107.24266824005099 64.860853418707848 0 64.860853418707848 46.053041396000481 0 0 0 0 21.130591367415036 69.884504191097221 0 69.884504191097221 -40.863126504451884 0 0 0 0 18.323147719209231 41.676608144244739 0 41.676608144244739 -9.5519510002355545 0 0 0 0 73.345196433496312 86.991126619454008 0 86.991126619454008 -116.9228730743198 0 0 0 0 59.639590712271456 28.115939660038293 0 28.115939660038293 -8.5250703006167896 0 0 0 0 57.563287994082202 43.732670844612585 0 43.732670844612585 -57.066993995380471 0 0 0 0 17.052926869713701 100.54938944426613 0 100.54938944426613 -47.808059873553248 0 0 0 0 63.640092449073563 70.907818962150486 0 70.907818962150486 -23.853712370029825 0 0 0 0 70.228163036488695 51.655272882431746 0 51.655272882431746 0.74376446857513656 0 0 0 0 93.042302058907808 42.203844857471267 0 42.203844857471267 -0.29909682646393776 0 0 0 0 72.647560983314179 51.329390133287234 0 51.329390133287234 -3.7982203132851282 0 0 0 0 63.677312093961518 49.677750928880414 0 49.677750928880414 36.172105642865063 0 0 0 0 83.22585748920028 -8.4404539512506744 0 -8.4404539512506744 -142.07705920029548 0 0 0 0 53.492890438216591 42.784703676426119 0 42.784703676426119 -14.274315752350439 0 0 0 0 10.911949981093329 31.578972805222463 0 31.578972805222463 -7.9607272585667843 0 0 0 0 38.20862794891454 48.691277091680107 0 48.691277091680107 -4.3899753498238283 0 0 0 0 19.830138358127442 65.020925302167598 0 65.020925302167598 -11.497699333245691 0 0 0 0 -7.3999995683434463 3.7689542086782239 0 3.7689542086782239 22.562263752304716 0 0 0 0 54.089815076615196 132.34148741685203 0 132.34148741685203 46.131169779560878 0 0 0 0 72.962950489854848 64.114420039641118 0 64.114420039641118 8.2851133873537037 0 0 0 0 26.383822995337226 45.326451721829152 0 45.326451721829152 13.165212390880896 0 0 0 0 62.146165209753235 54.041607309854953 0 54.041607309854953 6.3192392410128377 0 0 0 0 83.652476367831696 34.052114841142611 0 34.052114841142611 -5.0571114069898613 0 0 0 0 68.735061234037858 64.611407043419604 0 64.611407043419604 14.574320173032902 0 0 0 0 14.651165090970906 15.271848944503191 0 15.271848944503191 5.1006466993941331 0 0 0 0 59.408579135882974 106.76466245076699 0 106.76466245076699 23.510991804258083 0 0 0 0 81.037754532742838 74.62005330730608 0 74.62005330730608 6.9712257304636296 0 0 0 0 23.831026816543826 46.752165386301058 0 46.752165386301058 39.78386381037889 0 0 0 0 0.093677167091286151 23.34800679779238 0 23.34800679779238 -11.975819688598904 0 0 0 0 76.953025015016465 57.791169988561251 0 57.791169988561251 6.7048495112612727 0 0 0 0 37.413500941336679 59.505276465959469 0 59.505276465959469 30.191620274799789 0 0 0 0 50.500172492793354 61.772397781784093 0 61.772397781784093 7.8354409593594028 0 0 0 0 70.199817544757025 61.929174972525288 0 61.929174972525288 -7.9141609867219813 0 0 0 0 8.5179712811441277 61.042991575883207 0 61.042991575883207 19.126477143981901 0 0 0 0 39.503701735571667 63.873222502268618 0 63.873222502268618 -3.4760256582158036 0 0 0 0 45.763427935009531 73.409738788031973 0 73.409738788031973 -6.3699999833706897 0 0 0 0 33.719100313508534 66.949208227666531 0 66.949208227666531 15.563593824181226 0 0 0 0 -18.229935627467057 61.586168336449191 0 61.586168336449191 25.878061951806558 0 0 0 0 1.7700259091761836 48.306098363844285 0 48.306098363844285 24.749595127836074 0 0 0 0 -33.17731738396833 78.293522890671738 0 78.293522890671738 13.309398633507953 0 0 0 0 -23.344487221234886 56.200277410858689 0 56.200277410858689 21.362241710317903 0 0 0 0 -9.4319819625161472 52.809972538256261 0 52.809972538256261 22.180696687733871 0 0 0 0 3.2339318467384146 67.818222004263589 0 67.818222004263589 16.103399351224652 0 0 0 0 35.012447618864826 93.805540931343785 0 93.805540931343785 -15.846952445392162 0 0 0 0 -10.417353014581749 76.940451052765638 0 76.940451052765638 22.538507762164954 0 0 0 0 -6.4940564196949708 66.748670717926871 0 66.748670717926871 -23.164335253984973 0 0 0 0 21.600707584118936 37.849370465763968 0 37.849370465763968 41.542240961611242 0 0 0 0 -69.794346053764457 86.587265199317699 0 86.587265199317699 25.242404858718146 0 0 0 0 -6.3164282445920605 4.9983081199245305 0 4.9983081199245305 0.5780917242802559 0 0 0 0 -18.266313765052473 -38.006230465316548 0 -38.006230465316548 105.22466196831374 0 0 0 0 162.27804741739237 65.898327836835961 0 65.898327836835961 -77.115110333390476 0 0 0 0 -11.394846302009 9.7304559076794845 0 9.7304559076794845 -8.3605973036155063 0 0 0 0 75.273050549367326 78.497927895678004 0 78.497927895678004 18.034956117736328 0 0 0 0 134.81441687664847 64.881375516725711 0 64.881375516725711 -74.427865867524815 0 0 0 0 143.61856350585731 90.868704434762549 0 90.868704434762549 -44.72800949941302 0 0 0 0 1.1659163898148108 64.743915328675939 0 64.743915328675939 28.955427574640453 0 0 0 0 -25.739028724303353 254.92698847807605 0 254.92698847807605 -75.975297711225721 0 0 0 0 751.96362177847186 573.82975149763115 0 573.82975149763115 -29.200244640174787 0 0 0 0 13.257792388394591 91.244403161379523 0 91.244403161379523 -179.60056231895942 0 0 0 0 483.92059894607155 -191.28305630284649 0 -191.28305630284649 169.46139831950131 0 0 0 0 216.81363544600026 130.8024244608132 0 130.8024244608132 572.7371361588921 0 0 0 0 -814.95387206634041 643.16151729988451 0 643.16151729988451 1146.8070531276171 0 0 0 0 -361.67421646129515 -670.79552110750774 0 -670.79552110750774 436.97521072406289 0 0 0 0 9.6335253862278591 4.9127524866013914 0 4.9127524866013914 2.5748805783548008 0 0 0 0 226.28854394719383 506.0276537970949 0 506.0276537970949 -245.06721973714593 0 0 0 0 153.19124468391237 177.12003936831661 0 177.12003936831661 -365.82625566764546 0 0 0 0 233.95734073330823 329.56225602695486 0 329.56225602695486 -93.080883300926871 0 0 0 0 509.51557402664912 389.6927766267363 0 389.6927766267363 -178.04884602910533 0 0 0 0 209.05794530914682 461.06980497682207 0 461.06980497682207 46.817808279767632 0 0 0 0 112.99176913096744 -13.137246080024852 0 -13.137246080024852 -155.21825002532751 0 0 0 0 486.17612835134332 144.86765916902016 0 144.86765916902016 -94.132718016084254 0 0 0 0 67.479815177102864 130.20686140779799 0 130.20686140779799 68.661153698223643 0 0 0 0 -32.555255511993892 50.089369624049141 0 50.089369624049141 48.392685408522084 0 0 0 0 90.181733681747573 75.476235785830795 0 75.476235785830795 50.133597073792771 0 0 0 0 -18.643047191639198 94.084627393753181 0 94.084627393753181 125.35704847647503 0 0 0 0 216.3897032920795 114.41719334234222 0 114.41719334234222 44.09828806625228 0 0 0 0 386.26198018726427 -24.651176165596553 0 -24.651176165596553 -45.537825560124475 0 0 0 0 101.41819895031222 -32.388524026573577 0 -32.388524026573577 313.0820996112634 0 0 0 0 94.427738057793249 17.460285809692778 0 17.460285809692778 -24.258223930177337 0 0 0 0 18.025344238840262 -163.37790868279171 0 -163.37790868279171 -178.40817215245261 0 0 0 0 833.05370019370457 445.41727441160765 0 445.41727441160765 -369.61286598102743 0 0 0 0 -11.959856828107149 107.04104626209664 0 107.04104626209664 -26.936450492954464 0 0 0 0 -2.5977170350379311 122.62709366523632 0 122.62709366523632 84.651613170863129 0 0 0 0 -60.937622615077998 174.022595688195 0 174.022595688195 85.14838962432259 0 0 0 0 6.9046326594268379 1.166150148702485 0 1.166150148702485 -5.7700026773216138 0 0 0 0 368.70924073910282 68.625051600491133 0 68.625051600491133 -178.79994536153026 0 0 0 0 -115.08574708576998 241.62801257036972 0 241.62801257036972 -4.1898382551989926 0 0 0 0 32.366813848604096 29.795208895376682 0 29.795208895376682 24.816257113856516 0 0 0 0 -62.832642454770394 132.76159581366664 0 132.76159581366664 95.191430828866942 0 0 0 0 -61.857661786139943 169.10265973991045 0 169.10265973991045 49.347269440033415 0 0 0 0 -199.60314060104429 158.52009788749092 0 158.52009788749092 67.698798495028313 0 0 0 0 -177.79181851982139 62.416484655093882 0 62.416484655093882 53.521609705576793 0 0 0 0 -54.295608200471179 206.44525069013559 0 206.44525069013559 -33.966883102468273 0 0 0 0 -176.01411590121097 577.17023639100717 0 577.17023639100717 562.87098056462764 0 0 0 0 530.32182620705862 -393.87959568110273 0 -393.87959568110273 8.6371136391870778 0 0 0 0 178.14641230415145 -496.31426983257597 0 -496.31426983257597 -505.74074835668398 0 0 0 0 63.882257016597578 -330.64719515978368 0 -330.64719515978368 20.667866080761087 0 0 0 0 177.44096387890386 21.743237656567771 0 21.743237656567771 -606.26518018949537 0 0 0 0 -8.8875274580786936 57.521632793548633 0 57.521632793548633 -45.430552237608936 0 0 0 0 -25.570351920376197 166.57222215582169 0 166.57222215582169 -67.833146793254855 0 0 0 0 20.315856322506392 24.038295082355411 0 24.038295082355411 9.4032858919255773 0 0 0 0 43.421607050925189 27.311229922751842 0 27.311229922751842 -5.1786720200095857 0 0 0 0 -808.12598978981259 -252.5120847853359 0 -252.5120847853359 -155.17069497615739 0 0 0 0 1.0814987959931273 3.9491719553577802 0 3.9491719553577802 1.5172325905121475 0 0 0 0 -79.401412758481456 2.4231387850450119 0 2.4231387850450119 57.0249972151978 0 0 0 0 -11.926648471785882 25.307276671969589 0 25.307276671969589 26.671703377170697 0 0 0 0 12.626003137345833 93.749849391975658 0 93.749849391975658 58.363760067826661 0 0 0 0 -3.7996339968558459 82.58283822847261 0 82.58283822847261 74.343190729774506 0 0 0 0 -53.709832823384204 85.012066386560036 0 85.012066386560036 78.492112353998891 0 0 0 0 -47.516435432953585 102.49405417335947 0 102.49405417335947 65.318089789945589 0 0 0 0 71.81701442742451 94.412464711900611 0 94.412464711900611 53.855078367196256 0 0 0 0 34.966743998207676 63.193727863366803 0 63.193727863366803 75.236210833341829 0 0 0 0 15.701261915488303 42.906415932761959 0 42.906415932761959 43.478063589322915 0 0 0 0 48.16178284909256 88.788132734152896 0 88.788132734152896 19.571319555830996 0 0 0 0 -2.821634563250349 42.674726187212997 0 42.674726187212997 31.179314856904455 0 0 0 0 -63.353081922228739 123.00860711998666 0 123.00860711998666 47.793019578537496 0 0 0 0 36.931370022314198 74.066369905668168 0 74.066369905668168 79.434963262943796 0 0 0 0 -1.0184938304882962 177.12018729948886 0 177.12018729948886 102.20663651509676 0 0 0 0 -208.84576972646028 96.438211679052984 0 96.438211679052984 51.480236328628962 0 0 0 0 23.722701721734637 26.134253406295471 0 26.134253406295471 -3.394428832966824 0 0 0 0 247.48509637505049 151.66990316231022 0 151.66990316231022 -129.02482023169068 0 0 0 0 277.14182786727542 241.35447457005012 0 241.35447457005012 140.35037370455757 0 0 0 0 -1418.0990725751908 -114.81041902954348 0 -114.81041902954348 712.92357501414517 0 0 0 0 -0.43817922977763146 2.707990669138951 0 2.707990669138951 -3.3407996842044696 0 0 0 0 236.20729914780532 -2.4483451588621392 0 -2.4483451588621392 -26.579625661017417 0 0 0 0 28.530082232980597 68.730443657274407 0 68.730443657274407 61.752743906379038 0 0 0 0 34.426192547809478 52.341325413748564 0 52.341325413748564 71.643411242526781 0 0 0 0 -212.99871158795941 82.06441261485088 0 82.06441261485088 209.98091924455093 0 0 0 0 -14.569165057495411 183.81300184752399 0 183.81300184752399 178.34505487691422 0 0 0 0 33.067110627074726 49.002424293656077 0 49.002424293656077 66.893353522566031 0 0 0 0 21.294627503986703 39.288100624908111 0 39.288100624908111 83.506964768872422 0 0 0 0 30.0266715121179 55.080276156186301 0 55.080276156186301 65.395967341704818 0 0 0 0 37.915868613155908 51.271538639128266 0 51.271538639128266 36.010378137521911 0 0 0 0 10.488844011932088 94.786911678645993 0 94.786911678645993 31.31914662206691 0 0 0 0 21.90869468188248 71.512766740997904 0 71.512766740997904 77.215408160858715 0 0 0 0 -5.2039625918114325 91.795224218303701 0 91.795224218303701 59.326341811174643 0 0 0 0 -22.867188927858308 33.461535332156188 0 33.461535332156188 -28.615905811792889 0 0 0 0 27.318272128184617 166.78935906925562 0 166.78935906925562 147.54080896956657 0 0 0 0 79.805726679478539 38.41571012690838 0 38.41571012690838 420.42351577720547 0 0 0 0 26.781981906226065 53.593534095777159 0 53.593534095777159 -16.665751191620075 0 0 0 0 147.58454850374255 156.51903602732637 0 156.51903602732637 333.17705633450532 0 0 0 0 11.317715366754783 102.75171974234217 0 102.75171974234217 -26.655774313003349 0 0 0 0 -4.8752741159572963 -1.6020581186277667 0 -1.6020581186277667 1.7656792599351689 0 0 0 0 24.097645426401868 70.790825929543644 0 70.790825929543644 46.775637828643085 0 0 0 0 32.151755125873024 31.009223773733538 0 31.009223773733538 57.758156264360878 0 0 0 0 -35.504335820494163 62.071506459034424 0 62.071506459034424 -6.1521392863075874 0 0 0 0 -87.986405059780736 377.18222798091574 0 377.18222798091574 -18.382224958753795 0 0 0 0 -3.7884877091782982 92.778275378504986 0 92.778275378504986 115.18766826218598 0 0 0 0 11.103824523589083 23.7619050904093 0 23.7619050904093 112.67964873049277 0 0 0 0 -33.04860353060576 184.90244726841593 0 184.90244726841593 190.26833684747362 0 0 0 0 12.179327896836629 61.712819244257886 0 61.712819244257886 65.739841792242501 0 0 0 0 27.589604450875918 73.909342136041005 0 73.909342136041005 95.93675542793423 0 0 0 0 -28.291269765140896 78.58615563953208 0 78.58615563953208 74.611641313840664 0 0 0 0 -87.86263116835471 97.784676809078519 0 97.784676809078519 106.43934563922085 0 0 0 0 -56.944978336046916 142.30303297679347 0 142.30303297679347 15.906600687543687 0 0 0 0 -36.315265598893731 62.287923296662441 0 62.287923296662441 -38.191167905304759 0 0 0 0 -12.338772776886799 133.27233530142621 0 133.27233530142621 62.941429542423066 0 0 0 0 -28.801346981847626 72.044797042942761 0 72.044797042942761 -32.41469039170552 0 0 0 0 39.020389392913785 125.45322528181714 0 125.45322528181714 -47.780867310968461 0 0 0 0 -17.33819514906827 80.554528637418116 0 80.554528637418116 38.278458781063819 0 0 0 0 35.059207442395405 226.466641452766 0 226.466641452766 102.54605780445127 0 0 0 0 17.98692018030961 25.499553069997035 0 25.499553069997035 -75.7347034025006 0 0 0 0 20.605485162235709 146.89688988864509 0 146.89688988864509 -12.444076491119631 0 0 0 0 134.62799492531485 -11.915892024520872 0 -11.915892024520872 144.18700546510081 0 0 0 0 -42.584841494141074 194.05366441098158 0 194.05366441098158 366.10898952595016 0 0 0 0 -81.17631021859961 303.87672433825355 0 303.87672433825355 -67.001330954059085 0 0 0 0 228.44054479106671 199.53319455142628 0 199.53319455142628 -94.932583340292695 0 0 0 0 31.363820496589909 51.220818235085055 0 51.220818235085055 88.735891859379308 0 0 0 0 -371.74320332123079 287.46966582317145 0 287.46966582317145 415.68400860916154 0 0 0 0 198.33356229706533 -227.21287500055769 0 -227.21287500055769 120.04581971728476 0 0 0 0 -327.29028231562347 -57.503363744153376 0 -57.503363744153376 293.26270739654137 0 0 0 0 -173.38580974187062 32.714697023344343 0 32.714697023344343 10.306363193267316 0 0 0 0 -148.25687192942132 80.755090878898045 0 80.755090878898045 -54.034790381774656 0 0 0 0 -37.595945188521 307.91752676473698 0 307.91752676473698 10.694074220897164 0 0 0 0 1.2206755959244333 2.632149983429926 0 2.632149983429926 4.2989431673948957 0 0 0 0 -109.73432362383392 358.46103135748126 0 358.46103135748126 237.84438447330467 0 0 0 0 -40.157409299816209 201.85464864115647 0 201.85464864115647 85.349373314034892 0 0 0 0 25.90346452576523 326.47570403957616 0 326.47570403957616 125.8641536791838 0 0 0 0 212.78653587842746 508.55488728576165 0 508.55488728576165 277.37394056995254 0 0 0 0 -94.788782401497883 245.35494165811633 0 245.35494165811633 425.5843724522565 0 0 0 0 -99.333109481640349 147.33826745019906 0 147.33826745019906 31.554726349946577 0 0 0 0 12.605247417329338 345.6543104493594 0 345.6543104493594 182.72969176530023 0 0 0 0 -176.24310031896675 259.11407922591025 0 259.11407922591025 258.03293546534405 0 0 0 0 -297.78962546276307 39.6440612055153 0 39.6440612055153 79.195912013063207 0 0 0 0 -296.25280082019526 263.44588136042876 0 263.44588136042876 82.329575578489312 0 0 0 0 -228.64635204828937 503.10602536245551 0 503.10602536245551 -144.72350400577125 0 0 0 0 -78.405788708063483 194.15941766570904 0 194.15941766570904 104.25035309726809 0 0 0 0 -136.78378597956817 208.47586337127177 0 208.47586337127177 -92.225525809073588 0 0 0 0 -694.33138429317569 83.27226550729938 0 83.27226550729938 148.84333836841688 0 0 0 0 -422.22708973312911 491.68462835432729 0 491.68462835432729 -322.20961643861301 0 0 0 0 -261.25502835734187 15.066216955259733 0 15.066216955259733 91.297472579477471 0 0 0 0 -250.67359448066418 55.004425119659572 0 55.004425119659572 41.878640308546892 0 0 0 0 206.65797675847716 -2.1837595038959989 0 -2.1837595038959989 -158.24704459545319 0 0 0 0 0.66130464037681236 -1.3252417848279379 0 -1.3252417848279379 -0.35625682534536196 0 0 0 0 -123.75473997283189 -98.338059397421603 0 -98.338059397421603 184.68692439008737 0 0 0 0 33.20238165759838 -2.4804035546985688 0 -2.4804035546985688 22.882562560771476 0 0 0 0 -57.585260927298805 72.574044994820724 0 72.574044994820724 -80.168129847694217 0 0 0 0 -172.2991760132827 105.45673449217429 0 105.45673449217429 -36.242931291766581 0 0 0 0 5.6117118954619727 7.9110943603842259 0 7.9110943603842259 12.791581764268585 0 0 0 0 -139.86348677367278 -16.358876056135159 0 -16.358876056135159 45.137133477386669 0 0 0 0 -148.74387393528013 52.093908067319717 0 52.093908067319717 -11.881735260758433 0 0 0 0 -79.505768688715762 -1.6880016527575208 0 -1.6880016527575208 27.102537072853011 0 0 0 0 -205.64123828979427 31.431620698298502 0 31.431620698298502 15.281798273383174 0 0 0 0 -212.5859011261382 70.26920244183566 0 70.26920244183566 86.657633119357342 0 0 0 0 17.101158932250655 26.161159293063974 0 26.161159293063974 -30.067995603938471 0 0 0 0 4.4966956965404847 1.0803382802693591 0 1.0803382802693591 -1.1336725098157103 0 0 0 0 8.7249080759353603 11.855669299007431 0 11.855669299007431 6.4690627044053031 0 0 0 0 -38.163824711672532 8.598657706999802 0 8.598657706999802 -11.048165173880989 0 0 0 0 -66.442483674162304 24.746589849408338 0 24.746589849408338 19.535379293753067 0 0 0 0 -75.872680905163179 3.9834962164368335 0 3.9834962164368335 -6.143867693739594 0 0 0 0 364.44081583678417 243.58816416894115 0 243.58816416894115 24.771958542049106 0 0 0 0 310.13783387966214 295.01039924822544 0 295.01039924822544 -14.842635795794195 0 0 0 0 439.45209855143003 314.16451397230412 0 314.16451397230412 -115.10930252192156 0 0 0 0 -0.10054851432910539 -0.05763883727220076 0 -0.05763883727220076 -1.5098927152045007 0 0 0 0 439.06995684505364 307.84162268212094 0 307.84162268212094 -58.448874254478142 0 0 0 0 285.85297239550346 444.43449619215244 0 444.43449619215244 -158.62253603646968 0 0 0 0 475.42869272220923 222.74520700723951 0 222.74520700723951 -65.705237274160027 0 0 0 0 276.53040971152404 547.57091666017368 0 547.57091666017368 151.25483891312615 0 0 0 0 339.1432752919518 337.81221759581604 0 337.81221759581604 24.53639498812845 0 0 0 0 -66.151577554161122 138.03563737178411 0 138.03563737178411 158.08100742233728 0 0 0 0 3.5102605681506276 1.726232839026423 0 1.726232839026423 5.3198651625469893 0 0 0 0 -19.164080230224499 260.52562351752931 0 260.52562351752931 455.28974899806417 0 0 0 0 299.11473466279995 197.59321992220157 0 197.59321992220157 -88.090447893671808 0 0 0 0 0.055536039787007496 20.489526603603835 0 20.489526603603835 -8.9284852399503052 0 0 0 0 -53.229681442151559 88.731033162221138 0 88.731033162221138 -49.675883233283457 0 0 0 0 -28.350295459179051 65.8828066311562 0 65.8828066311562 -45.268770225869957 0 0 0 0 -40.638257020735182 69.700825889529369 0 69.700825889529369 -14.328303841553861 0 0 0 0 -43.917264046262062 61.339057693454379 0 61.339057693454379 27.621391962427879 0 0 0 0 2.0733899241221749 24.538964876718005 0 24.538964876718005 6.1510733517645804 0 0 0 0 -33.348623060319369 64.478396037971834 0 64.478396037971834 -42.802447822781687 0 0 0 0 -42.700891013984801 65.692747814420727 0 65.692747814420727 -39.492890935358446 0 0 0 0 -65.495746142759344 100.02425616357505 0 100.02425616357505 -30.152412742831075 0 0 0 0 -52.250274372621078 59.890138372976452 0 59.890138372976452 -29.887579579620407 0 0 0 0 -60.294470668088252 90.57311430972004 0 90.57311430972004 -33.571612023079069 0 0 0 0 -108.87035161852646 102.75342771070427 0 102.75342771070427 185.79085224705341 0 0 0 0 -142.74309286226071 191.07851124711215 0 191.07851124711215 20.383557599016058 0 0 0 0 2.7745779965625772 43.151760971679948 0 43.151760971679948 8.2094268823291827 0 0 0 0 -75.582695040851831 46.402252939238679 0 46.402252939238679 61.057267682484962 0 0 0 0 13.291187530191564 22.816261503194255 0 22.816261503194255 3.3963932608239702 0 0 0 0 -54.334638790709093 27.16864125828026 0 27.16864125828026 10.488832519804536 0 0 0 0 -101.51119835881309 17.928036875680846 0 17.928036875680846 144.67423225927632 0 0 0 0 -45.289342280901074 29.209801038513149 0 29.209801038513149 26.078033887514163 0 0 0 0 -106.19558790576957 66.036117450195889 0 66.036117450195889 15.689725270141935 0 0 0 0 6.1518365094879712 32.408687944299373 0 32.408687944299373 14.080999729288564 0 0 0 0 -30.99188731725036 121.85556331313637 0 121.85556331313637 -62.857161586973234 0 0 0 0 -49.782943859742318 95.752942646402516 0 95.752942646402516 -61.043276430486003 0 0 0 0 -53.732495619182373 33.694569232815411 0 33.694569232815411 -31.570921374696809 0 0 0 0 57.457469405637312 170.98444021223622 0 170.98444021223622 33.262547829908726 0 0 0 0 -73.150105195962169 73.701766257847339 0 73.701766257847339 -72.46070319001592 0 0 0 0 -42.275380318924356 68.982714499786269 0 68.982714499786269 -45.642134795718604 0 0 0 0 120.84786964659179 32.27343413093331 0 32.27343413093331 154.76794477974181 0 0 0 0 -58.86742034945928 -55.371532604738604 0 -55.371532604738604 171.87297802396461 0 0 0 0 -22.859842461224943 -1.8867136557566511 0 -1.8867136557566511 21.086083761265684 0 0 0 0 -38.932997316373985 72.744898193407835 0 72.744898193407835 71.552915585314622 0 0 0 0 -45.569309496884557 48.824193112517506 0 48.824193112517506 -42.111756298523517 0 0 0 0 -43.996396838534565 113.30387691554279 0 113.30387691554279 80.790346395784582 0 0 0 0 521.64509031735543 156.09792230075254 0 156.09792230075254 106.18350192961225 0 0 0 0 123.2923085300672 63.410757822344749 0 63.410757822344749 62.909547752922663 0 0 0 0 -38.058504536393215 60.846199351463241 0 60.846199351463241 -54.548997754136948 0 0 0 0 -159.12819504846266 481.62198895807524 0 481.62198895807524 195.56124024676137 0 0 0 0 -50.094842099962158 47.30897016225093 0 47.30897016225093 -48.973717178470359 0 0 0 0 -14.690630063092613 104.2406092264755 0 104.2406092264755 43.343042675664037 0 0 0 0 -75.583076654838806 99.267732050229824 0 99.267732050229824 81.17841327944916 0 0 0 0 -124.41891574172405 71.273043657638482 0 71.273043657638482 81.927483074141492 0 0 0 0 -71.163566186105527 91.694647631106818 0 91.694647631106818 83.12301872309763 0 0 0 0 -79.321830241882708 143.75786043418157 0 143.75786043418157 56.615123033880081 0 0 0 0 -444.01067495004281 186.69072158266499 0 186.69072158266499 54.572648749197924 0 0 0 0 -196.95853615301894 97.535518424838301 0 97.535518424838301 88.836942096237181 0 0 0 0 16.677864592127662 209.57906835736685 0 209.57906835736685 -48.447874414956459 0 0 0 0 206.47150270280326 165.0213363792318 0 165.0213363792318 -66.284932155829665 0 0 0 0 -52.104526527957205 12.09346510063915 0 12.09346510063915 78.549684866151438 0 0 0 0 -44.461001706889874 1.9215488393092528 0 1.9215488393092528 34.532737282210292 0 0 0 0 -61.736369341073441 16.884265411950764 0 16.884265411950764 61.247991483624901 0 0 0 0 -17.225456641557685 27.725494045681444 0 27.725494045681444 56.676724826385907 0 0 0 0 -46.115790641430067 9.3834563891578 0 9.3834563891578 60.290683401770366 0 0 0 0 -58.555941479478861 31.675523937985417 0 31.675523937985417 71.109746153699234 0 0 0 0 -64.47961880251205 14.342373671692258 0 14.342373671692258 61.165263104106998 0 0 0 0 -115.2991677299724 18.247903542072891 0 18.247903542072891 71.054491325088748 0 0 0 0 -164.50434909722935 -20.75654305721946 0 -20.75654305721946 48.854014072752761 0 0 0 0 -44.316809270087106 -1.717898383471038 0 -1.717898383471038 10.424824181798613 0 0 0 0 -47.77902152059869 6.9753026874986972 0 6.9753026874986972 30.195933945287834 0 0 0 0 -11.371739539194557 4.219688478063393 0 4.219688478063393 -1.0283692885158118 0 0 0 0 -11.859140171152148 14.042374551674811 0 14.042374551674811 25.596029632477439 0 0 0 0 21.161148335789221 264.25299497047217 0 264.25299497047217 383.3751219860751 0 0 0 0 65.742278029543741 103.45520001455043 0 103.45520001455043 215.10256183644742 0 0 0 0 4.6147649912727502 153.63125009829855 0 153.63125009829855 241.22883467885549 0 0 0 0 48.530364521613365 326.61860664758876 0 326.61860664758876 -62.990494302899606 0 0 0 0 -319.20115353233632 -119.67324514137181 0 -119.67324514137181 -15.576455688444184 0 0 0 0 -4.4102827010511021 1.546107983959228 0 1.546107983959228 -0.32786035762633503 0 0 0 0 90.059553644197877 205.93119548172035 0 205.93119548172035 -7.9558526286709821 0 0 0 0 16.100792942614135 188.69464038070873 0 188.69464038070873 -54.846648874037783 0 0 0 0 -59.646290533224601 276.21401117886307 0 276.21401117886307 -17.173284520928291 0 0 0 0 -123.25523763772799 345.64937600370467 0 345.64937600370467 -126.38600650294757 0 0 0 0 436.75037212445022 313.4875093670671 0 313.4875093670671 -202.85886294407101 0 0 0 0 -274.28871831878132 -10.8328262475261 0 -10.8328262475261 94.954683669546284 0 0 0 0 -350.49271782712367 317.03033209580553 0 317.03033209580553 28.505741799048337 0 0 0 0 6.45215831566491 4.8553368389440124 0 4.8553368389440124 3.1092697103106985 0 0 0 0 397.24961574127747 -212.83238370106119 0 -212.83238370106119 2.6305660566322331 0 0 0 0 516.7564809114474 53.101671493475806 0 53.101671493475806 -170.85240093860193 0 0 0 0 3.1612103391853452 66.018580376541649 0 66.018580376541649 -60.830542545885692 0 0 0 0 118.7611900836182 -3.686841843471484 0 -3.686841843471484 21.260445072887592 0 0 0 0 88.465469679792477 64.218645616350841 0 64.218645616350841 -45.746816380356904 0 0 0 0 86.383576252595958 45.518651475696061 0 45.518651475696061 -49.607232448192008 0 0 0 0 7.1065860758226336 128.5588100249106 0 128.5588100249106 -72.6921449804031 0 0 0 0 191.40843208638216 76.539440569073122 0 76.539440569073122 -169.14878551202128 0 0 0 0 -68.810133875771498 248.34862973411418 0 248.34862973411418 -94.973036951578251 0 0 0 0 -102.07254606611059 238.28239145284533 0 238.28239145284533 -94.236898681663433 0 0 0 0 16.115121338084933 14.197783330335092 0 14.197783330335092 12.989901728939415 0 0 0 0 -36.128278004225649 190.99635454550662 0 190.99635454550662 -200.10425609097729 0 0 0 0 -19.479795206289054 216.57125566439026 0 216.57125566439026 -179.04539107353776 0 0 0 0 25.917034860199919 67.025325815906854 0 67.025325815906854 -141.39770123551352 0 0 0 0 24.562716128420945 26.816510747781233 0 26.816510747781233 16.502490370410086 0 0 0 0 1.7309436567866214 53.886217049175343 0 53.886217049175343 43.128439458402227 0 0 0 0 -36.56719061911781 66.757576958978461 0 66.757576958978461 14.06322398467637 0 0 0 0 -8.7103729983696834 24.537490091115281 0 24.537490091115281 1.3688918563143915 0 0 0 0 -35.370099894704254 58.25748157672092 0 58.25748157672092 51.976051862326131 0 0 0 0 72.034520408476965 40.253038901706532 0 40.253038901706532 -41.287441602997205 0 0 0 0 104.85406037334178 58.651520451632678 0 58.651520451632678 -40.523026091188513 0 0 0 0 127.20798281395582 37.409271852061465 0 37.409271852061465 -26.93256781492164 0 0 0 0 97.114407972921981 76.756665274604529 0 76.756665274604529 -1.6807221738745284 0 0 0 0 41.994807027189552 38.136096687342196 0 38.136096687342196 7.1244601243519199 0 0 0 0 88.807972942464403 48.048810844444233 0 48.048810844444233 -12.664874629623228 0 0 0 0 -65.794596255966098 119.83836979810303 0 119.83836979810303 -15.619788255944513 0 0 0 0 16.490307789096413 40.707415622054448 0 40.707415622054448 52.661670038415139 0 0 0 0 101.16153274434146 50.552287158917352 0 50.552287158917352 -12.818249255982664 0 0 0 0 94.532172720715607 32.803441548303454 0 32.803441548303454 14.036939690620784 0 0 0 0 -46.95716163754696 76.590060416151346 0 76.590060416151346 68.944784621425242 0 0 0 0 12.073317470665643 121.88144658874216 0 121.88144658874216 98.619618118958897 0 0 0 0 -25.608117352277592 8.6733343714174467 0 8.6733343714174467 15.528398685538647 0 0 0 0 45.577956585828495 66.530262885189757 0 66.530262885189757 44.241456178337522 0 0 0 0 207.03360349006834 -165.12765154059889 0 -165.12765154059889 72.103983099699576 0 0 0 0 72.384226337489963 125.21626773676326 0 125.21626773676326 64.366673147651454 0 0 0 0 10.753414702355791 27.574602061188877 0 27.574602061188877 -0.73799751486422693 0 0 0 0 198.33271926974339 62.382891575354734 0 62.382891575354734 -6.3275333976703223 0 0 0 0 185.15149338330048 -28.967166309362256 0 -28.967166309362256 53.536974853526772 0 0 0 0 -364.79337810499055 194.98982178673396 0 194.98982178673396 354.53509182466951 0 0 0 0 -3.8073921809219131 30.118159400893077 0 30.118159400893077 7.8464299883636937 0 0 0 0 -35.974949679966812 27.296638964797239 0 27.296638964797239 19.659110900568976 0 0 0 0 56.405462555030681 34.076342352961433 0 34.076342352961433 36.905732300608179 0 0 0 0 11.724388473247512 44.461274742592849 0 44.461274742592849 13.331412826177134 0 0 0 0 -4.8761408097240206 23.761143735776628 0 23.761143735776628 5.330057508001059 0 0 0 0 32.214475271843185 70.066377486439706 0 70.066377486439706 -16.336351401643242 0 0 0 0 65.2290024890317 67.016236871694559 0 67.016236871694559 -10.71541797283237 0 0 0 0 -28.412231145961414 80.58730098767137 0 80.58730098767137 11.912628621863405 0 0 0 0 -15.268204623090179 41.389976522245924 0 41.389976522245924 3.2271694993014588 0 0 0 0 -2.9637025838892441 85.652736409926092 0 85.652736409926092 -5.9765212321794934 0 0 0 0 -7.3299814756901469 78.896491190702136 0 78.896491190702136 9.4091637901775016 0 0 0 0 -22.078160984950955 84.842222730571962 0 84.842222730571962 12.005290521865163 0 0 0 0 -26.33606505492935 72.666014560336862 0 72.666014560336862 17.112181005926459 0 0 0 0 30.339539482993132 42.472565310894538 0 42.472565310894538 18.269755902302904 0 0 0 0 -30.366455625320668 61.908707544261858 0 61.908707544261858 24.749747041779301 0 0 0 0 0.71688453328533797 67.748667139690951 0 67.748667139690951 -9.2116940720133016 0 0 0 0 -13.580887706189969 77.546579582633058 0 77.546579582633058 7.5551240484192022 0 0 0 0 5.3276028444161057 87.617737715712792 0 87.617737715712792 -120.50838537852542 0 0 0 0 -42.937702494506084 101.29910949068562 0 101.29910949068562 -1.1980691236731218 0 0 0 0 -7.337082335930118 0.82427475509425285 0 0.82427475509425285 3.7345166077514751 0 0 0 0 -37.739165523825022 -8.5944976807473381 0 -8.5944976807473381 17.862574044255325 0 0 0 0 55.387011283790343 59.73016528561152 0 59.73016528561152 14.72033341655515 0 0 0 0 -75.804182847560696 44.371159761480612 0 44.371159761480612 92.401188431939545 0 0 0 0 29.596863231374755 93.186009267255486 0 93.186009267255486 57.250946042874148 0 0 0 0 0.18561705380034255 63.17053257112434 0 63.17053257112434 33.2257869881646 0 0 0 0 -4.3059551866299444 66.836519969270626 0 66.836519969270626 36.439743731107114 0 0 0 0 -14.911832667459748 20.269968041628545 0 20.269968041628545 5.3676244718460566 0 0 0 0 19.241158445975998 34.375666500765078 0 34.375666500765078 -0.23720173348203843 0 0 0 0 17.076564466510717 57.4229787390924 0 57.4229787390924 35.026029404220935 0 0 0 0 -55.587083582275227 109.52492017573348 0 109.52492017573348 349.91881022914663 0 0 0 0 -0.20961135545800857 4.4821877594100279 0 4.4821877594100279 -1.8845659289810042 0 0 0 0 -63.521338476435631 175.2762515419297 0 175.2762515419297 162.44595243079266 0 0 0 0 128.57525597637868 197.3619293750838 0 197.3619293750838 96.438705532526001 0 0 0 0 95.299018007881386 158.77008154123428 0 158.77008154123428 56.106987575577477 0 0 0 0 -6.149370341685426 232.74853258372286 0 232.74853258372286 54.631014029238372 0 0 0 0 67.524521873780031 2.9716057741367479 0 2.9716057741367479 290.34565252202844 0 0 0 0 82.756596333882044 14.375256675093055 0 14.375256675093055 -2.3654918270073892 0 0 0 0 18.15508860363245 7.8373958627557574 0 7.8373958627557574 -1.3400581562122091 0 0 0 0 -181.32351512241803 155.15263910074066 0 155.15263910074066 223.21868175788939 0 0 0 0 189.72411436554103 140.04068787848962 0 140.04068787848962 -41.944992223869349 0 0 0 0 6.7542148320985973 20.676751238376163 0 20.676751238376163 -1.3221679021739736 0 0 0 0 22.366469462712303 -46.524432037991659 0 -46.524432037991659 94.188794599660469 0 0 0 0 3.4217191721560241 2.1992703716057491 0 2.1992703716057491 1.3395868327278824 0 0 0 0 -32.785602474272309 77.9131955918985 0 77.9131955918985 232.83494312681341 0 0 0 0 75.735528568220616 234.94936399780886 0 234.94936399780886 62.52616983229882 0 0 0 0 12.548695923693103 20.572097526593019 0 20.572097526593019 5.1518114851699623 0 0 0 0 -22.756295774743194 64.30522393658606 0 64.30522393658606 26.126531906782571 0 0 0 0 -8.2925145745757618 53.76119294768796 0 53.76119294768796 -25.25311699495461 0 0 0 0 -19.220926332694944 79.953423628573773 0 79.953423628573773 -11.256400299141831 0 0 0 0 0.2873844776214014 3.260890302959857 0 3.260890302959857 2.9763159399238299 0 0 0 0 -18.595652142546896 46.6665268040027 0 46.6665268040027 98.214585379488881 0 0 0 0 26.043303923535859 39.726776513984078 0 39.726776513984078 42.787229153862654 0 0 0 0 1.0196626541645486 -0.10679278592797559 0 -0.10679278592797559 -3.6731271875609428 0 0 0 0 -13.812276975717396 100.11794696013584 0 100.11794696013584 5.6969420911584621 0 0 0 0 -25.746252534852829 73.72855866315831 0 73.72855866315831 6.3276614809997227 0 0 0 0 -17.22493972441589 72.872860773700438 0 72.872860773700438 5.0607126154914113 0 0 0 0 93.661634105716075 118.7485971237777 0 118.7485971237777 -271.33668896100971 0 0 0 0 -5.8422460039429183 4.6705647053947432 0 4.6705647053947432 -2.4071301356486052 0 0 0 0 5.5384842890052823 115.76572839894561 0 115.76572839894561 218.55085573364977 0 0 0 0 -36.575803491658007 68.511209412666631 0 68.511209412666631 14.655379731478206 0 0 0 0 -22.637511515484221 50.462605277201874 0 50.462605277201874 -17.178856301780115 0 0 0 0 104.03795844090928 -204.30915121562248 0 -204.30915121562248 -306.65760191050435 0 0 0 0 32.629000517405075 38.312352929466442 0 38.312352929466442 170.01971113064337 0 0 0 0 -3.8937475010297931 66.578978440777746 0 66.578978440777746 83.574301879289123 0 0 0 0 21.215423299712711 98.436430323273271 0 98.436430323273271 99.06303643716501 0 0 0 0 9.9754518425761489 41.078839369243269 0 41.078839369243269 91.398166034961832 0 0 0 0 -12.261179728498973 164.61814115192283 0 164.61814115192283 9.61728987192555 0 0 0 0 -53.747997674920043 117.05877910443451 0 117.05877910443451 93.031285232774096 0 0 0 0 2.3691774861254089 56.57258401392869 0 56.57258401392869 9.3458426030765622 0 0 0 0 24.449940602113202 78.905880117320976 0 78.905880117320976 56.700416528477831 0 0 0 0 32.806108166772901 92.737461386203904 0 92.737461386203904 -7.9104286266328927 0 0 0 0 22.899276398409711 101.53480100465231 0 101.53480100465231 60.510980435848978 0 0 0 0 6.9829571884311008 71.569460610068461 0 71.569460610068461 156.11974850306706 0 0 0 0 27.320412099336863 110.64607680417038 0 110.64607680417038 49.975853796574029 0 0 0 0 88.257203192355519 89.74420404298462 0 89.74420404298462 36.25700183810477 0 0 0 0 40.915879698219214 77.403227845760284 0 77.403227845760284 10.725987927254209 0 0 0 0 30.995359556800395 81.416873688331179 0 81.416873688331179 35.247010600525755 0 0 0 0 43.686488266779634 80.236532018221624 0 80.236532018221624 -14.742530023455402 0 0 0 0 30.455808278078621 92.658438607640392 0 92.658438607640392 1.4954141858124785 0 0 0 0 18.109858050753246 82.901758178806631 0 82.901758178806631 -5.3244284710708598 0 0 0 0 25.981871802219757 68.307543452528307 0 68.307543452528307 -21.875810160478068 0 0 0 0 22.158830933178251 81.993621383251138 0 81.993621383251138 -30.920041061635857 0 0 0 0 2.0384509529685602 95.886927605291021 0 95.886927605291021 7.1550878097814348 0 0 0 0 9.0547568523057009 13.362651749489414 0 13.362651749489414 -11.315541834753716 0 0 0 0 15.115850744889372 59.581404162522055 0 59.581404162522055 31.78782577361364 0 0 0 0 -93.62468787648686 -76.811241862455063 0 -76.811241862455063 295.75878788012778 0 0 0 0 243.91337279437357 0.56906595039254171 0 0.56906595039254171 -128.59296426082619 0 0 0 0 22.914184249023947 -4.2900694961231238 0 -4.2900694961231238 116.43549433836597 0 0 0 0 -79.187214422225225 167.9937925646318 0 167.9937925646318 -37.116780003172607 0 0 0 0 35.815907469437164 62.318147168288661 0 62.318147168288661 4.4580385264793208 0 0 0 0 245.40021851968413 407.82210258519081 0 407.82210258519081 19.254028615243442 0 0 0 0 40.735921060375404 82.56311323970931 0 82.56311323970931 -48.259262213341572 0 0 0 0 -11.910557327762945 109.64308464582427 0 109.64308464582427 -2.8359342265612213 0 0 0 0 -4.5629645590888686 67.508623852865639 0 67.508623852865639 -37.634739938270059 0 0 0 0 27.723779802233892 52.477321351095767 0 52.477321351095767 27.506340862569672 0 0 0 0 -12.090841499574488 30.803499355790997 0 30.803499355790997 9.1043341315840287 0 0 0 0 26.340521909837761 42.395378557567795 0 42.395378557567795 29.7676542502507 0 0 0 0 14.646203223745033 120.54957198677039 0 120.54957198677039 -62.559178608075854 0 0 0 0 -24.142519209226975 101.16745963279965 0 101.16745963279965 -9.4456784936087388 0 0 0 0 -20.508163314971988 44.870439975367717 0 44.870439975367717 25.264749032429766 0 0 0 0 -56.671984869291919 108.22278689078667 0 108.22278689078667 11.721530953948786 0 0 0 0 7.9179801722602861 94.446528748783749 0 94.446528748783749 -31.516162386877113 0 0 0 0 55.321058516665367 49.765148072057706 0 49.765148072057706 -13.925591219209124 0 0 0 0 -179.71319545223923 355.84175435746556 0 355.84175435746556 32.953904555703048 0 0 0 0 5.318286185098259 92.943883570744219 0 92.943883570744219 -389.43312301733022 0 0 0 0 -186.38809427876186 -56.296406402474531 0 -56.296406402474531 347.99944053938634 0 0 0 0 248.70651934951911 438.16990396914434 0 438.16990396914434 -77.613967293927999 0 0 0 0 17.685386387835024 124.27181427008145 0 124.27181427008145 -39.974800524642887 0 0 0 0 44.143956664597297 58.138540226458375 0 58.138540226458375 3.6446658187486349 0 0 0 0 -8.9902722075166821 3.6959167349814379 0 3.6959167349814379 -56.141989269592159 0 0 0 0 -307.86086998751307 184.84574441946552 0 184.84574441946552 83.409278394450666 0 0 0 0 -4.3508923910717385 -12.912187596266449 0 -12.912187596266449 -60.626530855595774 0 0 0 0 266.24900268232886 -171.97820083469742 0 -171.97820083469742 31.230709748200752 0 0 0 0 -9.6595389354370127 -21.53199127843618 0 -21.53199127843618 -51.463373732098262 0 0 0 0 34.521207918674918 -4.3666171277036483 0 -4.3666171277036483 -108.86435310878005 0 0 0 0 50.888354035356315 25.71627957763485 0 25.71627957763485 -55.387136355318944 0 0 0 0 45.079073445114773 32.083927451672935 0 32.083927451672935 -21.457366293157975 0 0 0 0 0.96668326763028745 2.1223115563916508 0 2.1223115563916508 1.1666288768101367 0 0 0 0 -4.7646851614229888 16.068361897172039 0 16.068361897172039 10.003060084013171 0 0 0 0 -340.05928121885063 -8.5871743308734949 0 -8.5871743308734949 64.474157702996308 0 0 0 0 21.382954799672007 41.386747720021958 0 41.386747720021958 19.858732307140599 0 0 0 0 1985.5046753952338 96.419348024144711 0 96.419348024144711 -303.83407169825659 0 0 0 0 -782.81998005247442 768.03586709887895 0 768.03586709887895 939.92560830010916 0 0 0 0 -122.43805403540318 134.35371245905117 0 134.35371245905117 374.57513882497733 0 0 0 0 0.44554437574242911 194.60298971546445 0 194.60298971546445 -220.39312508061994 0 0 0 0 -275.79260781765333 184.24844017856594 0 184.24844017856594 183.42209327028741 0 0 0 0 186.71569192878815 -19.951784013785073 0 -19.951784013785073 -138.13863956539717 0 0 0 0 0.5324352657721505 1.5900275931245318 0 1.5900275931245318 -3.8757724690478881 0 0 0 0 -275.78366002279989 -2.644466789763336 0 -2.644466789763336 265.02942573366454 0 0 0 0 11.18800514650502 -25.076904787958483 0 -25.076904787958483 -253.24856961837213 0 0 0 0 -184.81714149322943 279.31895837570482 0 279.31895837570482 -221.49724899607827 0 0 0 0 -37.307628805610875 212.54849646776347 0 212.54849646776347 -326.48181165966889 0 0 0 0 -305.61792544110051 267.52930260477115 0 267.52930260477115 -39.636784525660914 0 0 0 0 -304.26919131937029 71.961453391788382 0 71.961453391788382 154.59518058645699 0 0 0 0 21.022718932615014 12.957853534263791 0 12.957853534263791 1.0202626880414769 0 0 0 0 -229.45801951939939 356.29934577598033 0 356.29934577598033 -192.93872894627566 0 0 0 0 -191.69033674194361 -16.382076029345626 0 -16.382076029345626 142.82298423383327 0 0 0 0 -34.88352931999907 120.02859352723863 0 120.02859352723863 2.0218338348568068 0 0 0 0 -89.234112504374934 220.6043509983283 0 220.6043509983283 -22.900413077048142 0 0 0 0 43.702427877167793 111.57798098396506 0 111.57798098396506 -110.64611049706582 0 0 0 0 15.009421765818843 74.292286460342439 0 74.292286460342439 -66.115378624409459 0 0 0 0 36.468232494989934 80.949845175817245 0 80.949845175817245 12.109767163849028 0 0 0 0 59.987058291990252 75.627434845790049 0 75.627434845790049 -42.517242025976884 0 0 0 0 57.608203224323006 160.62932186388844 0 160.62932186388844 3.2487886981325573 0 0 0 0 41.823012704269786 77.273727192743536 0 77.273727192743536 52.071938750905247 0 0 0 0 53.469909560946689 98.792875136719886 0 98.792875136719886 50.192007762932917 0 0 0 0 12.76810361972457 72.913977373627858 0 72.913977373627858 46.674348871718394 0 0 0 0 53.212816396204289 89.995093688459747 0 89.995093688459747 33.053454945940757 0 0 0 0 37.334817959228531 52.559409356359538 0 52.559409356359538 -6.2325802554441907 0 0 0 0 44.242024713748833 38.434817292050866 0 38.434817292050866 -8.1319085707946215 0 0 0 0 43.437435107989586 50.808929164646543 0 50.808929164646543 -6.700432282537804 0 0 0 0 38.878795566921781 69.499445847918423 0 69.499445847918423 29.709605022930191 0 0 0 0 25.688308399709058 36.023443197344022 0 36.023443197344022 -7.9334381521402975 0 0 0 0 33.286963148388168 50.959224982329033 0 50.959224982329033 -15.248414376605069 0 0 0 0 29.952822073384596 55.463862401338702 0 55.463862401338702 -16.550200100851725 0 0 0 0 18.036935507392627 65.630529879672395 0 65.630529879672395 -21.866651391239429 0 0 0 0 -0.55400374572629119 14.126755483714618 0 14.126755483714618 14.268007555192504 0 0 0 0 31.061126361913921 42.713645108156925 0 42.713645108156925 -9.4366941214375402 0 0 0 0 27.507011365378276 52.542086073342944 0 52.542086073342944 -12.253647217075923 0 0 0 0 30.437873788923753 47.864254683334366 0 47.864254683334366 -7.1909100757329725 0 0 0 0 -4.7046098492282908 63.802135675487079 0 63.802135675487079 5.9415012840654526 0 0 0 0 28.749459476785631 38.769188809195015 0 38.769188809195015 27.7574135680415 0 0 0 0 -0.042655033525079489 121.04588708109804 0 121.04588708109804 -109.01325182990695 0 0 0 0 32.132132526348869 107.25759200551329 0 107.25759200551329 -135.40509425085475 0 0 0 0 -11.448666487412993 91.042048157862155 0 91.042048157862155 -75.240418912660971 0 0 0 0 -1.8734287037077593 76.560779061997891 0 76.560779061997891 -63.631868007541925 0 0 0 0 29.486713930789847 76.052449058148341 0 76.052449058148341 -75.646206238758168 0 0 0 0 47.627905261837441 60.823018642597162 0 60.823018642597162 -152.80524489267555 0 0 0 0 29.665162324687117 55.986671406855749 0 55.986671406855749 -21.605419415354845 0 0 0 0 27.46804422014975 42.412679931832827 0 42.412679931832827 -30.171404285705648 0 0 0 0 -13.194632525715861 19.227522013392445 0 19.227522013392445 92.27487320779619 0 0 0 0 15.501559253301821 -38.2165997537777 0 -38.2165997537777 -100.99494661505742 0 0 0 0 -164.33350753851118 -158.18657325501408 0 -158.18657325501408 495.22318780288333 0 0 0 0 200.71959161830455 159.95844626136386 0 159.95844626136386 42.489579996821703 0 0 0 0 6.8103778780584179 28.237651056828113 0 28.237651056828113 -19.784216314169136 0 0 0 0 63.441106288070841 316.57520807402307 0 316.57520807402307 452.05752325274807 0 0 0 0 -4.2058284619330948 7.4387085073099755 0 7.4387085073099755 -3.0581044682720915 0 0 0 0 26.926196959058871 56.249617563393258 0 56.249617563393258 88.713920509808304 0 0 0 0 -0.24705685722553028 10.004244219478338 0 10.004244219478338 14.585067877427875 0 0 0 0 74.55861755404112 105.97283139636784 0 105.97283139636784 48.397259436358581 0 0 0 0 55.040835091345798 98.116065785921819 0 98.116065785921819 46.28935369136525 0 0 0 0 36.937859504396329 111.08779512121691 0 111.08779512121691 98.997140920807851 0 0 0 0 -50.677709802854224 22.152594524814049 0 22.152594524814049 18.586948552765534 0 0 0 0 -87.604314193042228 79.264614854686442 0 79.264614854686442 -155.5770132792004 0 0 0 0 -41.296795042657749 31.63255484013753 0 31.63255484013753 19.347606977944867 0 0 0 0 -83.997529269545339 86.98144299582782 0 86.98144299582782 -55.406913404269289 0 0 0 0 -48.533880987342542 62.720857801474978 0 62.720857801474978 43.858307251340669 0 0 0 0 -282.94702357216738 277.30799887340618 0 277.30799887340618 -43.882899115102191 0 0 0 0 2.2584849517309635 21.957435705479341 0 21.957435705479341 17.892008693651441 0 0 0 0 -488.38429520511272 202.56455966866133 0 202.56455966866133 440.09297348128894 0 0 0 0 -425.30559214713867 237.3363080329782 0 237.3363080329782 142.24575228090544 0 0 0 0 -232.04683899895463 -62.000264749753114 0 -62.000264749753114 -123.89319955473366 0 0 0 0 -31.908929397613974 -10.122960986778708 0 -10.122960986778708 -48.941083986122067 0 0 0 0 -9.3832650915657752 4.350368089379856 0 4.350368089379856 -1.483054337902864 0 0 0 0 -515.34798604657408 -151.30410220181147 0 -151.30410220181147 330.64048747480956 0 0 0 0 -0.27681555678134373 1.6501729382815284 0 1.6501729382815284 3.8127300941736992 0 0 0 0 -537.0920363040641 -262.35033901846145 0 -262.35033901846145 77.13320676488911 0 0 0 0 -15.956544005130127 27.092957200831052 0 27.092957200831052 6.6691442804731196 0 0 0 0 39.749875164008699 31.621565133009426 0 31.621565133009426 94.494393170403782 0 0 0 0 26.329427724042034 -4.7703626052925756 0 -4.7703626052925756 -0.36024295154493302 0 0 0 0 -9.5503428977489193 9.6577178218789257 0 9.6577178218789257 -2.0501326633687036 0 0 0 0 -363.76174796765554 -312.95836237553794 0 -312.95836237553794 -175.88771204995987 0 0 0 0 2.4516877101460466 21.805987619351285 0 21.805987619351285 14.515988039051145 0 0 0 0 -8.9793540429818677 49.441515093645648 0 49.441515093645648 12.362123826772404 0 0 0 0 -27.591701727084001 68.181413894350044 0 68.181413894350044 10.414040288509568 0 0 0 0 -145.30861470969285 321.08305981062324 0 321.08305981062324 276.76059467683808 0 0 0 0 11.395241264009627 45.88860523405836 0 45.88860523405836 38.313063904627313 0 0 0 0 -36.359051314546377 45.700942908618345 0 45.700942908618345 16.358000528998673 0 0 0 0 -4.5931017644616077 62.353823042385557 0 62.353823042385557 10.044873334933527 0 0 0 0 -14.292393798612466 59.674098061316727 0 59.674098061316727 15.790018957031862 0 0 0 0 6.4798895900457865 57.406423319545411 0 57.406423319545411 -7.4993453789807063 0 0 0 0 1.7500584804310506 20.763246527903892 0 20.763246527903892 11.480345880641718 0 0 0 0 -3.0964944467268651 43.399639382027999 0 43.399639382027999 11.851916136569571 0 0 0 0 0.52918650133506162 37.052395391878576 0 37.052395391878576 -27.774593849046596 0 0 0 0 35.701429390712974 19.918878276047295 0 19.918878276047295 7.7282561829533574 0 0 0 0 0.00024751551939061756 58.977398158854101 0 58.977398158854101 -22.954527309773766 0 0 0 0 -0.22677213413771824 50.081233323306378 0 50.081233323306378 -14.834312396829318 0 0 0 0 8.0991674666410063 26.867148881847271 0 26.867148881847271 7.3043229616870065 0 0 0 0 -4.0862625331319578 40.020076755709908 0 40.020076755709908 -0.35485235129749526 0 0 0 0 12.02965499896527 45.954233125199153 0 45.954233125199153 -11.270463249375098 0 0 0 0 -1.7043086816411233 53.645052274471709 0 53.645052274471709 -12.333041261096696 0 0 0 0 5.9275436113239266 58.436938210896642 0 58.436938210896642 -27.540170858109832 0 0 0 0 -21.761037360876799 68.883577217704442 0 68.883577217704442 13.371196317688373 0 0 0 0 8.4075033866829472 56.456716907848886 0 56.456716907848886 -21.48110244248528 0 0 0 0 9.0748052354889523 3.8207392225316212 0 3.8207392225316212 -6.2882686207432821 0 0 0 0 -6.0292025611591242 32.794992090403127 0 32.794992090403127 -10.442752425977226 0 0 0 0 16.787962842863635 56.122052925081789 0 56.122052925081789 -42.18799706127993 0 0 0 0 18.993082827408216 25.84658756584804 0 25.84658756584804 0.28106875956473232 0 0 0 0 18.62748395271592 24.266755966453729 0 24.266755966453729 -10.055267429801461 0 0 0 0 -1.2251968463457601 17.582887840774909 0 17.582887840774909 -14.675237541994894 0 0 0 0 9.6852826933270961 19.765406485050804 0 19.765406485050804 -13.594744795878411 0 0 0 0 34.09273581126763 53.237515588591123 0 53.237515588591123 -26.716803600285857 0 0 0 0 39.087625651096459 63.291018383754817 0 63.291018383754817 -24.441800839547113 0 0 0 0 41.164301319608057 58.870572526749129 0 58.870572526749129 -15.775253036636059 0 0 0 0 38.934173948931857 74.959348624846825 0 74.959348624846825 0.95586223727241304 0 0 0 0 39.735451776592527 76.792488572453294 0 76.792488572453294 -24.1726641949125 0 0 0 0 52.039603411561984 77.187411269122094 0 77.187411269122094 -24.160868573544576 0 0 0 0 53.717354251399229 66.974981448631297 0 66.974981448631297 -24.380752362369094 0 0 0 0 31.943055500261835 65.658434273243984 0 65.658434273243984 -21.589320296213373 0 0 0 0 38.26428750406194 76.098714732261215 0 76.098714732261215 -21.967346231907868 0 0 0 0 41.273714580886008 73.193133669834424 0 73.193133669834424 -15.907106800885231 0 0 0 0 11.602168502489803 25.958832977266866 0 25.958832977266866 -11.329754427191801 0 0 0 0 39.938504372446914 79.800717494608762 0 79.800717494608762 -15.257799638951838 0 0 0 0 12.682168201340261 40.644177552166241 0 40.644177552166241 -15.59165511698972 0 0 0 0 36.982845786427788 77.6483549026525 0 77.6483549026525 -20.177837497762084 0 0 0 0 -9.0136271964292973 68.841357096127467 0 68.841357096127467 34.679646332464472 0 0 0 0 10.252850468599689 31.009645666237745 0 31.009645666237745 3.5105285562479658 0 0 0 0 4.8914291528708418 27.775993435756391 0 27.775993435756391 -10.680040127368557 0 0 0 0 19.646331914133043 36.540399456391242 0 36.540399456391242 -10.006914238449099 0 0 0 0 6.9194246499981205 26.985987189322231 0 26.985987189322231 -12.214112613305218 0 0 0 0 22.491704358026212 51.120107108181067 0 51.120107108181067 -19.250445485037439 0 0 0 0 20.257460876006917 41.332496662948074 0 41.332496662948074 -2.9707809655810706 0 0 0 0 6.248308904512669 56.302088311122134 0 56.302088311122134 5.1309672919528566 0 0 0 0 -0.037055741264936159 33.391706844105784 0 33.391706844105784 9.7460625357525252 0 0 0 0 3.9971500253595877 39.957227038736903 0 39.957227038736903 -4.7653666282861877 0 0 0 0 11.135981068484924 38.012165575672086 0 38.012165575672086 -2.4505470278359596 0 0 0 0 -7.0989096732591861 53.501440128866307 0 53.501440128866307 19.84181428512602 0 0 0 0 -7.1040102314711646 24.964200206126847 0 24.964200206126847 10.663301895667566 0 0 0 0 1.1259936582577126 26.753931266420913 0 26.753931266420913 -12.389015958101465 0 0 0 0 11.088755383592797 33.482863947076822 0 33.482863947076822 17.026075112728222 0 0 0 0 12.717625733810564 33.683384374877051 0 33.683384374877051 8.0864408836787334 0 0 0 0 11.767673271076234 28.053411891200611 0 28.053411891200611 -22.698541683516545 0 0 0 0 520.89027981499021 -359.67005346906484 0 -359.67005346906484 -97.782555695861902 0 0 0 0 720.00881434241728 1150.440911651089 0 1150.440911651089 926.6668406374647 0 0 0 0 7.8080577998186698 6.2703880339316669 0 6.2703880339316669 6.1215792776824483 0 0 0 0 -221.63931396248518 -349.92900477479452 0 -349.92900477479452 616.23176187627678 0 0 0 0 -63.180121944031271 21.303067551355525 0 21.303067551355525 920.80412654538395 0 0 0 0 -237.47649362565244 -281.57492275408219 0 -281.57492275408219 544.28171993454998 0 0 0 0 24.072489253311943 21.030089419819895 0 21.030089419819895 9.7872056568561412 0 0 0 0 395.1524424594536 33.572703057919881 0 33.572703057919881 -466.72854177562323 0 0 0 0 44.042267677956261 26.184512514041785 0 26.184512514041785 -0.42962681518702084 0 0 0 0 -3.8558673482631889 9.2088410575682129 0 9.2088410575682129 4.0802323846301487 0 0 0 0 887.85410253518785 455.06476244391524 0 455.06476244391524 -1481.9966465362468 0 0 0 0 7.7650686867778518 27.794496062242629 0 27.794496062242629 13.970616828912728 0 0 0 0 -11.467960758833215 51.320937722593953 0 51.320937722593953 -41.288565681266846 0 0 0 0 -224.58158623237978 1005.9117879114965 0 1005.9117879114965 1421.7366773346639 0 0 0 0 -398.09833863413223 287.57710411810967 0 287.57710411810967 263.54298465168085 0 0 0 0 -246.23767038706865 677.38675589913419 0 677.38675589913419 103.63264176141092 0 0 0 0 615.17368241822987 54.417516926726421 0 54.417516926726421 -170.08910073919992 0 0 0 0 14.7458024719663 9.6587815649664321 0 9.6587815649664321 7.3602579555618242 0 0 0 0 -368.04645453685225 -280.58062207872536 0 -280.58062207872536 1411.1948641319777 0 0 0 0 820.01006855866035 688.17008018931574 0 688.17008018931574 125.99465818046338 0 0 0 0 -487.31573280536395 61.751806558553199 0 61.751806558553199 1173.1909684952093 0 0 0 0 1658.5549330410649 -392.60686373515296 0 -392.60686373515296 -627.96029871888186 0 0 0 0 -76.569484194707911 -625.07810742402171 0 -625.07810742402171 -656.71898179140317 0 0 0 0 -117.62687129812548 120.57017276632723 0 120.57017276632723 55.087921624537714 0 0 0 0 -1.3542042898750424 5.3979970841851355 0 5.3979970841851355 4.0596862447133715 0 0 0 0 9.0206524125387659 44.343422491150477 0 44.343422491150477 -45.416061930441515 0 0 0 0 6.4994749529511466 14.231093443405607 0 14.231093443405607 2.3310376326300886 0 0 0 0 -150.73251921089832 60.857969098018657 0 60.857969098018657 53.984744664801838 0 0 0 0 7.5798058459768072 36.101590678024877 0 36.101590678024877 -70.522041230211471 0 0 0 0 -243.15971481064207 -57.914565811172196 0 -57.914565811172196 -410.34476889468533 0 0 0 0 -62.540852116813767 916.75312910017419 0 916.75312910017419 -189.68596155635805 0 0 0 0 10.871154221424632 9.4537498038940555 0 9.4537498038940555 8.8910236295284264 0 0 0 0 425.04738119669491 -340.50414417989987 0 -340.50414417989987 -0.54628187747653101 0 0 0 0 808.08522924857971 512.27359317282799 0 512.27359317282799 -203.82725899326397 0 0 0 0 -326.18217886780985 -80.726110215235849 0 -80.726110215235849 598.93980394470964 0 0 0 0 14.954313876936794 -20.80665758628993 0 -20.80665758628993 -481.57045989459186 0 0 0 0 29.173328018840863 11.875227290649889 0 11.875227290649889 -6.2449829475372791 0 0 0 0 119.70744214354636 175.91440785493126 0 175.91440785493126 -224.86396793348558 0 0 0 0 102.19722838606685 513.39177650653119 0 513.39177650653119 -470.42308314372167 0 0 0 0 -1.3579111705766991 36.432785039609371 0 36.432785039609371 -52.055745820574884 0 0 0 0 -0.18133923586435685 0.69303412681266252 0 0.69303412681266252 3.6825142053605076 0 0 0 0 130.71599516153219 218.71548777927205 0 218.71548777927205 -451.60830650077179 0 0 0 0 -270.91413896539598 -1.8251671335001447 0 -1.8251671335001447 191.52640042453913 0 0 0 0 -296.77643259485194 -22.853118837372676 0 -22.853118837372676 500.42103443596716 0 0 0 0 51.05430560761306 308.93667004550298 0 308.93667004550298 -223.50790113843141 0 0 0 0 -197.01668822310603 182.57223252781114 0 182.57223252781114 598.85433420211484 0 0 0 0 242.07547343605256 358.86592722950445 0 358.86592722950445 726.49299603590407 0 0 0 0 -60.863817262696102 64.607312848371294 0 64.607312848371294 465.63045422549385 0 0 0 0 35.176432319261949 459.78719409211226 0 459.78719409211226 301.66374740939864 0 0 0 0 29.828974674660486 28.545668349100112 0 28.545668349100112 25.429030752620406 0 0 0 0 -123.52091798237234 507.02080265404402 0 507.02080265404402 -147.65851008625577 0 0 0 0 27.014294461983809 6.864486377801768 0 6.864486377801768 -95.482622133004043 0 0 0 0 0.41881978583310797 4.3416624421238055 0 4.3416624421238055 -5.6489462393154533 0 0 0 0 7.2339646499458468 -3.0721436610083401 0 -3.0721436610083401 -35.076348400940333 0 0 0 0 23.324155723123113 32.862197866001225 0 32.862197866001225 -100.2360697430554 0 0 0 0 17.598128096004075 21.437972950848234 0 21.437972950848234 -25.429210690934269 0 0 0 0 -1.0695536175099107 21.266708635009209 0 21.266708635009209 11.129377637210387 0 0 0 0 -24.542160593991866 87.444478473629715 0 87.444478473629715 83.999749494189018 0 0 0 0 174.24522552418057 -225.8406212437294 0 -225.8406212437294 143.25022644408637 0 0 0 0 -143.81688574174768 82.490786083841158 0 82.490786083841158 607.81217414360071 0 0 0 0 -202.86019189213403 -59.218826449256085 0 -59.218826449256085 1081.1049893105301 0 0 0 0 -175.13904998710859 -4.3243653547076519 0 -4.3243653547076519 550.42685882540172 0 0 0 0 -362.3738989741687 192.80743921546582 0 192.80743921546582 353.72700722178888 0 0 0 0 -449.99267425108701 115.98616422580017 0 115.98616422580017 537.54296000273007 0 0 0 0 -18.826258844070253 -29.216202386503937 0 -29.216202386503937 -17.801259626792671 0 0 0 0 28.400957915699109 134.63685961151532 0 134.63685961151532 23.341314688830607 0 0 0 0 742.01845927350951 612.42926902852241 0 612.42926902852241 -364.4053867778598 0 0 0 0 36.650687604007544 89.76813080473039 0 89.76813080473039 -93.405178722750861 0 0 0 0 1.6225650231534132 18.354158659988499 0 18.354158659988499 10.882583184993781 0 0 0 0 -418.98652551838495 34.00025882870068 0 34.00025882870068 653.30328525588993 0 0 0 0 -16.707357209423208 -548.41455988723646 0 -548.41455988723646 474.6055400592104 0 0 0 0 -335.96374733967968 350.57487121486429 0 350.57487121486429 954.04359541820122 0 0 0 0 -49.904284077296325 46.875177023955985 0 46.875177023955985 56.917248820347595 0 0 0 0 -15.553513954135269 73.905918220688363 0 73.905918220688363 44.050606042657819 0 0 0 0 -12.477580734892399 55.585881278221677 0 55.585881278221677 51.111494757039054 0 0 0 0 -9.5468828391822171 47.350597930005733 0 47.350597930005733 71.355733760541625 0 0 0 0 -7.9954412597289775 62.823884867436391 0 62.823884867436391 46.834584178783189 0 0 0 0 33.131784015175072 40.565258392703981 0 40.565258392703981 35.692481153808785 0 0 0 0 -1.4138989268176374 40.361026284996115 0 40.361026284996115 35.879326989219408 0 0 0 0 -19.657726251200074 14.752260228141495 0 14.752260228141495 8.9546014614388696 0 0 0 0 22.783278955321293 42.477347872332757 0 42.477347872332757 23.877479216320353 0 0 0 0 2.2329292722279206 49.670347039729677 0 49.670347039729677 77.143408542164252 0 0 0 0 -0.20708738473823018 1.4867282653854517 0 1.4867282653854517 1.0011884216055904 0 0 0 0 67.980670840304811 5.7065338150077878 0 5.7065338150077878 23.694346197831003 0 0 0 0 62.769725105828002 68.729235925063563 0 68.729235925063563 41.111607505568827 0 0 0 0 53.497628121098387 40.60362630383861 0 40.60362630383861 22.927364863578077 0 0 0 0 43.531750058835314 53.491344012730224 0 53.491344012730224 9.3047164404270006 0 0 0 0 17.981585473633459 5.304943183951309 0 5.304943183951309 3.3302331068916828 0 0 0 0 17.513997675610881 42.922562198558808 0 42.922562198558808 43.797995568351325 0 0 0 0 -16.90124542544072 17.695864200051801 0 17.695864200051801 39.903272167335672 0 0 0 0 34.220983664934465 41.582830910768735 0 41.582830910768735 90.202467835069001 0 0 0 0 100.2450863666927 52.842488777413109 0 52.842488777413109 7.6985751759207233 0 0 0 0 -10.936640450228879 134.35088001739723 0 134.35088001739723 86.479034310445059 0 0 0 0 58.500623281899607 47.107374838690703 0 47.107374838690703 -10.188376236118643 0 0 0 0 58.220431958208792 87.646427655433854 0 87.646427655433854 8.9596808190303818 0 0 0 0 53.241744524437308 73.942740212473154 0 73.942740212473154 25.552071257121497 0 0 0 0 87.761706324745319 102.64732730998094 0 102.64732730998094 47.446763636242395 0 0 0 0 86.497360778055736 73.731578972297029 0 73.731578972297029 -15.356358300776094 0 0 0 0 139.22282730182997 56.30168810596615 0 56.30168810596615 -5.3863853262882913 0 0 0 0 -11.514980454476465 2.4149889796006789 0 2.4149889796006789 0.92009837120993154 0 0 0 0 63.638254118397526 24.493239281333672 0 24.493239281333672 -18.032095452834255 0 0 0 0 29.133489456987945 32.540698431559747 0 32.540698431559747 12.480949561860065 0 0 0 0 -3.8918768368166639 64.372831814187862 0 64.372831814187862 -24.552391322761991 0 0 0 0 -76.336891778923018 24.11011141759991 0 24.11011141759991 18.813208471854523 0 0 0 0 -12.867723103277967 50.491447114275502 0 50.491447114275502 -23.139168856413676 0 0 0 0 8.7622402822397589 44.784050904857402 0 44.784050904857402 -18.106710505021621 0 0 0 0 -430.28911915517529 169.26103921130425 0 169.26103921130425 41.290817321602844 0 0 0 0 -314.28223088027153 73.664719937867631 0 73.664719937867631 -121.98304389627435 0 0 0 0 -133.98721834264143 -30.626924011206029 0 -30.626924011206029 59.650174734114159 0 0 0 0 -14.91540647905137 24.166546633945508 0 24.166546633945508 18.585395476871412 0 0 0 0 -163.39268433470716 -132.25656903313029 0 -132.25656903313029 -223.44601085880367 0 0 0 0 -50.793067948932318 48.264780611319289 0 48.264780611319289 15.458726425009322 0 0 0 0 -27.435627643058979 92.718593681280026 0 92.718593681280026 -7.4452740459610141 0 0 0 0 -53.167507361337812 77.995373749769641 0 77.995373749769641 50.620810286188771 0 0 0 0 -52.457784396203351 84.00966629263894 0 84.00966629263894 100.45643362046849 0 0 0 0 41.085387289211212 314.41111487862338 0 314.41111487862338 -142.46394841938172 0 0 0 0 -10.282475295186529 15.168538932900006 0 15.168538932900006 12.723196770766428 0 0 0 0 -11.31462096782343 135.45445372669803 0 135.45445372669803 -33.881091576268318 0 0 0 0 12.764582790798158 73.120488564789412 0 73.120488564789412 39.503627477853115 0 0 0 0 -257.13370049493824 162.87646549733256 0 162.87646549733256 188.47781659072984 0 0 0 0 -44.225735066726074 28.909146832225076 0 28.909146832225076 50.364691562691426 0 0 0 0 402.44213727907481 651.59548200563086 0 651.59548200563086 -1033.2411791913441 0 0 0 0 131.55241669788666 -583.29214657225907 0 -583.29214657225907 927.59033407003153 0 0 0 0 95.753593406043365 81.980133312399218 0 81.980133312399218 204.14000602582547 0 0 0 0 -200.07858730007865 288.65965918452702 0 288.65965918452702 808.35024973387874 0 0 0 0 -135.49995865570963 -85.965875980163901 0 -85.965875980163901 369.17214369963858 0 0 0 0 96.451292725052554 165.31968471378329 0 165.31968471378329 384.24377155553384 0 0 0 0 1.3905301421778802 -0.1716072983445649 0 -0.1716072983445649 -0.46141869721194784 0 0 0 0 116.41364135701951 28.833537183543655 0 28.833537183543655 -174.43556496880728 0 0 0 0 -67.014370995530044 47.992096704855157 0 47.992096704855157 8.1264429490991574 0 0 0 0 167.89580771604597 117.8112932187554 0 117.8112932187554 -22.769617091594029 0 0 0 0 9.0390370453370252 5.4417596078671568 0 5.4417596078671568 -0.0010983124670553915 0 0 0 0 116.33984704386967 126.34974666972738 0 126.34974666972738 444.79362578367289 0 0 0 0 29.62566672648245 7.02381130932622 0 7.02381130932622 -110.2497016884972 0 0 0 0 13.820895697606829 8.6273656009060318 0 8.6273656009060318 -100.19184762764189 0 0 0 0 34.516253496258287 15.757246304355476 0 15.757246304355476 -104.41479341662739 0 0 0 0 24.625728362079826 23.413860828484587 0 23.413860828484587 -72.145899920526062 0 0 0 0 36.608741460688179 25.803713295529178 0 25.803713295529178 -75.246625900391791 0 0 0 0 9.7326655142751406 20.330927401504141 0 20.330927401504141 -75.023862084544362 0 0 0 0 13.096874143651803 40.729672074631708 0 40.729672074631708 -77.256129625580343 0 0 0 0 19.738062630596687 16.064912430528693 0 16.064912430528693 -29.963658565630794 0 0 0 0 29.357026053970912 3.4665783192813251 0 3.4665783192813251 -23.827951186273822 0 0 0 0 51.680603412249184 18.296695459700686 0 18.296695459700686 -49.077970401168386 0 0 0 0 28.048753106239019 37.999719237194824 0 37.999719237194824 -60.507884757351349 0 0 0 0 -24.397969478166488 89.108734127262323 0 89.108734127262323 -49.717188686746795 0 0 0 0 -8.3244171971746255 60.800311370866893 0 60.800311370866893 -111.31746729771839 0 0 0 0 -6.8599344021640718 42.376828684853081 0 42.376828684853081 -33.889413036720043 0 0 0 0 -10.49131192418281 37.292321791390918 0 37.292321791390918 -97.79565851821161 0 0 0 0 -24.898763850480464 15.587555145222979 0 15.587555145222979 -142.41703207179037 0 0 0 0 8.8727947508868965 -8.3443477369919918 0 -8.3443477369919918 -130.83105762123887 0 0 0 0 10.42484706085088 35.309953622894682 0 35.309953622894682 -127.06348763517281 0 0 0 0 2.6388227039960839 3.4299111512286045 0 3.4299111512286045 0.21093329081042869 0 0 0 0 -96.599453696580895 -0.5043576663940712 0 -0.5043576663940712 -135.13829285866086 0 0 0 0 -87.195351461195969 124.57853413086741 0 124.57853413086741 523.18344551015116 0 0 0 0 2.1953453045812523 2.3195259296994379 0 2.3195259296994379 6.9523017005116845 0 0 0 0 492.17874176796113 -98.916375015885222 0 -98.916375015885222 -162.49599604438799 0 0 0 0 5.4196703473553498 79.645387251944101 0 79.645387251944101 48.372850048539021 0 0 0 0 14.756388144799075 72.928219275128242 0 72.928219275128242 45.606877453726156 0 0 0 0 11.998247011632884 59.760682253979084 0 59.760682253979084 80.200085099825628 0 0 0 0 18.042223337157338 66.924398794280933 0 66.924398794280933 20.823439656272967 0 0 0 0 -25.19490770916309 82.315125024152394 0 82.315125024152394 -103.62949732230481 0 0 0 0 36.598689682043187 52.25929671625795 0 52.25929671625795 2.67222340750277 0 0 0 0 3.9941944202302011 15.68614050616555 0 15.68614050616555 11.927158691634396 0 0 0 0 21.210965173922887 85.498383987682473 0 85.498383987682473 53.49431844761898 0 0 0 0 -9.6653580059155502 32.377843538751236 0 32.377843538751236 -168.37940614431091 0 0 0 0 5.5815492311880917 18.385657262174384 0 18.385657262174384 -23.41927639612959 0 0 0 0 0.65417897648876533 43.818064217874053 0 43.818064217874053 3.19060672760952 0 0 0 0 -11.113550414957444 29.777763038014747 0 29.777763038014747 -7.8727266234344295 0 0 0 0 4.7045137274108129 52.329885714102147 0 52.329885714102147 4.7345144977907694 0 0 0 0 3.3779647661538093 63.98913874937822 0 63.98913874937822 22.788136610804486 0 0 0 0 -12.245226356707605 25.670561696238423 0 25.670561696238423 -1.9813242164352154 0 0 0 0 208.41901462159149 -8.1162288220693881 0 -8.1162288220693881 91.674687067203195 0 0 0 0 -4.565987498332106 27.102177435795966 0 27.102177435795966 2.2621962847915711 0 0 0 0 12.07453631257178 17.554445401410987 0 17.554445401410987 -7.3932377518821468 0 0 0 0 -4.2848065932881809 33.018240080332475 0 33.018240080332475 1.2089110883789544 0 0 0 0 -9.3316143647025456 38.59087275087586 0 38.59087275087586 -26.954960498922446 0 0 0 0 -9.2176172517042119 24.017533313068771 0 24.017533313068771 -14.574768678516257 0 0 0 0 -1.8851761801178384 4.2801394515875444 0 4.2801394515875444 -9.1324735367359082 0 0 0 0 -21.523117593711504 47.885411180270239 0 47.885411180270239 -8.1850728168356 0 0 0 0 2.3883820805362319 10.79316192766629 0 10.79316192766629 -3.6015032903327011 0 0 0 0 17.641757601195422 42.23891017832284 0 42.23891017832284 -13.268314738816116 0 0 0 0 37.603670043466991 53.866250627841509 0 53.866250627841509 -20.734630567898421 0 0 0 0 -27.463946555173607 63.488201598154319 0 63.488201598154319 22.017705460382331 0 0 0 0 52.773181414348073 26.820076436400996 0 26.820076436400996 -28.33723580136575 0 0 0 0 3.6342251373033321 28.286146758767465 0 28.286146758767465 -14.062813807369238 0 0 0 0 8.0167378014966744 34.823112456277755 0 34.823112456277755 -4.6680129074902652 0 0 0 0 -1.7787725988500256 24.175355958997578 0 24.175355958997578 -19.301070553535034 0 0 0 0 6.5151181631081272 38.919057144432372 0 38.919057144432372 -5.6108781855382404 0 0 0 0 -27.445320183112926 90.525600791888792 0 90.525600791888792 -28.731437319401834 0 0 0 0 0.95117094368391975 37.058312565864753 0 37.058312565864753 -16.431188556107713 0 0 0 0 -834.52440587702586 474.13410936865876 0 474.13410936865876 -0.83429114307728014 0 0 0 0 863.62865305680316 -34.99474155097414 0 -34.99474155097414 -65.310146943520067 0 0 0 0 -465.81304903849377 -582.83292506250109 0 -582.83292506250109 417.01905237560641 0 0 0 0 247.34524638055882 -127.95939493654078 0 -127.95939493654078 -76.061267143490113 0 0 0 0 -63.953276635862494 -49.078502639687485 0 -49.078502639687485 19.472974840911775 0 0 0 0 -33.772791508481532 77.388118488074497 0 77.388118488074497 -52.88003224379645 0 0 0 0 110.43433793229633 7.262717247242108 0 7.262717247242108 -6.4557625278648629 0 0 0 0 94.907100585362059 94.71673841284246 0 94.71673841284246 -31.735783982441717 0 0 0 0 106.80003679486617 69.88251564078962 0 69.88251564078962 -5.4491337674517126 0 0 0 0 81.704151059355354 63.851251061329094 0 63.851251061329094 6.4255271651313706 0 0 0 0 34.605808416476066 96.752240796480692 0 96.752240796480692 25.986047094062087 0 0 0 0 102.75863048122301 130.73032482186045 0 130.73032482186045 38.852333113554778 0 0 0 0 383.58704019291326 227.53108169270672 0 227.53108169270672 28.852282057199773 0 0 0 0 418.6751610149222 424.63511608038607 0 424.63511608038607 280.25780200530608 0 0 0 0 21.217307681275997 200.98976095716534 0 200.98976095716534 154.63447210922095 0 0 0 0 -191.19244378287112 20.374923028992271 0 20.374923028992271 172.11328786477861 0 0 0 0 14.999490022364625 137.5226069249527 0 137.5226069249527 103.86849200960569 0 0 0 0 -124.0172990076826 27.452435356847673 0 27.452435356847673 80.309776253987366 0 0 0 0 -26.642338133478916 61.151546771795665 0 61.151546771795665 38.467522819781152 0 0 0 0 -54.034447573128418 40.892676675483663 0 40.892676675483663 34.243166076340714 0 0 0 0 -46.471172471166938 119.77775678974103 0 119.77775678974103 115.23692081676563 0 0 0 0 6.8208461123722373 75.443419838984482 0 75.443419838984482 47.447272803652595 0 0 0 0 -27.844823255341907 88.009739482356053 0 88.009739482356053 61.33502643063548 0 0 0 0 -41.901170612457605 31.955909010593302 0 31.955909010593302 41.806758410391581 0 0 0 0 -141.39421246289203 78.946994165777198 0 78.946994165777198 93.492565174250558 0 0 0 0 -41.673159816418774 63.206246449855826 0 63.206246449855826 65.178492468163313 0 0 0 0 6.2578942645086499 76.082113746635969 0 76.082113746635969 38.283268539277287 0 0 0 0 -0.78667873078393313 66.230628685840685 0 66.230628685840685 44.5573120248946 0 0 0 0 -1.1879592839248971 1.0588677845456331 0 1.0588677845456331 12.478049109981264 0 0 0 0 -12.243689868939697 39.957466209871143 0 39.957466209871143 18.725270354153011 0 0 0 0 -286.46604989941989 142.83648707624161 0 142.83648707624161 -96.651924665720799 0 0 0 0 -52.543633383887936 -13.949695634526506 0 -13.949695634526506 71.362007948056998 0 0 0 0 108.90337142025601 -214.34069421244749 0 -214.34069421244749 -276.56308923018514 0 0 0 0 -44.101405496331068 42.759806941035286 0 42.759806941035286 -11.602570402318548 0 0 0 0 -50.05292235710948 144.01332462736684 0 144.01332462736684 -149.22575099148526 0 0 0 0 -85.653092941487557 60.406733372088638 0 60.406733372088638 12.143217358696347 0 0 0 0 -63.765363424264052 14.10863076314422 0 14.10863076314422 12.840275023471779 0 0 0 0 314.94309923695982 178.8328406603714 0 178.8328406603714 -189.89714749141785 0 0 0 0 -24.755999034901421 36.483548793685415 0 36.483548793685415 -10.285531880591449 0 0 0 0 -61.929484044499986 40.352478033797524 0 40.352478033797524 16.07747457275309 0 0 0 0 -8.9569922469570713 5.4334981426296025 0 5.4334981426296025 3.2717787414902944 0 0 0 0 -1.8470283102135454 10.648712661137125 0 10.648712661137125 -2.155736485077437 0 0 0 0 10.588306450645177 146.34524497293523 0 146.34524497293523 458.87495541349563 0 0 0 0 826.34884802081797 -124.12752481891039 0 -124.12752481891039 -10.788032190928789 0 0 0 0 -42.510549942497164 50.306007584396866 0 50.306007584396866 2.0958346179522778 0 0 0 0 -23.863650053677361 38.954129903704157 0 38.954129903704157 -6.961224047333701 0 0 0 0 97.784893855467089 157.57773435855052 0 157.57773435855052 89.317724598762652 0 0 0 0 46.994503745052498 154.53327319276832 0 154.53327319276832 94.018162205964472 0 0 0 0 -80.469028792787867 315.61747768116447 0 315.61747768116447 149.88656003243887 0 0 0 0 -783.17750252390397 446.00664082118965 0 446.00664082118965 125.73210977135295 0 0 0 0 451.54441596189645 893.04929257760932 0 893.04929257760932 -470.72681742204077 0 0 0 0 4.8103619063913357 66.360874797893302 0 66.360874797893302 -41.815544816396141 0 0 0 0 -27.730158260183089 38.509040715872288 0 38.509040715872288 -7.4388997738351463 0 0 0 0 2.0634305151324952 38.495070496785047 0 38.495070496785047 -6.1488076270798047 0 0 0 0 -6.7682323170725596 25.278563615572978 0 25.278563615572978 -24.22836976835211 0 0 0 0 -31.095929967027558 33.764622149805191 0 33.764622149805191 -11.861158650099014 0 0 0 0 -9.5606984139828057 4.3171510710796497 0 4.3171510710796497 1.546309402286127 0 0 0 0 40.670489531126805 41.52204124594391 0 41.52204124594391 -29.296459507320833 0 0 0 0 -21.452745514790877 47.045625053910044 0 47.045625053910044 -16.904367301243838 0 0 0 0 4.2354320595622994 32.767140660389487 0 32.767140660389487 -75.739520065089891 0 0 0 0 -59.184881257191591 102.10984386248492 0 102.10984386248492 142.65368428809597 0 0 0 0 -28.496539808060561 12.845976469245663 0 12.845976469245663 -2.819441661052382 0 0 0 0 -34.053387689050666 33.687216965848222 0 33.687216965848222 -11.549039832454412 0 0 0 0 12.831517689061002 13.636771121813581 0 13.636771121813581 -53.755093223475342 0 0 0 0 -26.449676932592411 44.089094784258123 0 44.089094784258123 -8.2299465463438537 0 0 0 0 -27.158103812173067 60.516475931962304 0 60.516475931962304 -10.264201035253791 0 0 0 0 -29.024062279148019 39.465609500313306 0 39.465609500313306 -15.684583291040809 0 0 0 0 -22.015412084503623 54.722955584726151 0 54.722955584726151 -12.461440439829403 0 0 0 0 -15.353409874300525 40.125187754856853 0 40.125187754856853 -18.706857910603553 0 0 0 0 -473.33263917965087 914.94899085123689 0 914.94899085123689 371.82488460121385 0 0 0 0 -1021.6828599335277 -576.64304984025875 0 -576.64304984025875 75.665132010505658 0 0 0 0 -9.1575770230124931 1.4723606462010004 0 1.4723606462010004 0.7531468568143822 0 0 0 0 -13.137446891523723 58.84233036668229 0 58.84233036668229 -194.66934260911512 0 0 0 0 -60.403473559504164 -72.252343790280065 0 -72.252343790280065 87.428531679979642 0 0 0 0 97.645047706253536 -17.52996101388635 0 -17.52996101388635 -411.36515142001372 0 0 0 0 -7.4332402446489141 4.3037594174630129 0 4.3037594174630129 -1.2006413235221984 0 0 0 0 -57.889816134884313 126.7507718284578 0 126.7507718284578 -121.78141778885038 0 0 0 0 2.4946646786593192 -11.535810078798022 0 -11.535810078798022 142.05203213895402 0 0 0 0 -554.50954576661752 74.967148569317942 0 74.967148569317942 554.35025450650573 0 0 0 0 -18.605920164161944 53.197993067959032 0 53.197993067959032 -48.082374542151229 0 0 0 0 -21.730502487289073 8.3011626288653666 0 8.3011626288653666 -2.6812885531373709 0 0 0 0 529.61361876734736 240.32787629117956 0 240.32787629117956 -620.78664135292638 0 0 0 0 -5.6947547735653643 30.052491654141704 0 30.052491654141704 -7.1561826672477764 0 0 0 0 -21.858190178478253 73.173614278108289 0 73.173614278108289 -40.631756424878404 0 0 0 0 -35.580683608750405 69.227220762155412 0 69.227220762155412 -21.505227633198956 0 0 0 0 -23.283375464743585 75.067080277311106 0 75.067080277311106 -41.716740667157865 0 0 0 0 -75.621606069609697 90.310139905076412 0 90.310139905076412 -66.46654637237225 0 0 0 0 -37.061793262029823 103.24354300182313 0 103.24354300182313 -63.091400021461595 0 0 0 0 6.2570541794557357 24.098676497444103 0 24.098676497444103 -85.465565817932657 0 0 0 0 -44.587822847206553 112.34007729816585 0 112.34007729816585 -117.77933503263193 0 0 0 0 -68.348365865233063 116.14721222160006 0 116.14721222160006 -116.61079712122773 0 0 0 0 14.246901352404194 1.4590881783751968 0 1.4590881783751968 -15.968776122357127 0 0 0 0 -3.0868037046602694 54.495249753250391 0 54.495249753250391 -74.995449376512624 0 0 0 0 -5.442819406867784 14.453524935182941 0 14.453524935182941 -31.177149179262415 0 0 0 0 2.9555844865953986 30.388255087539619 0 30.388255087539619 -61.124855877897062 0 0 0 0 -10.530607521292808 11.27422139709941 0 11.27422139709941 8.9852928410109811 0 0 0 0 20.537952118677751 5.9501412862271224 0 5.9501412862271224 -5.3660193445375484 0 0 0 0 -38.44425239256816 53.772252267728618 0 53.772252267728618 -26.476048341109163 0 0 0 0 -76.191200179084944 149.46430257904956 0 149.46430257904956 14.205185761864414 0 0 0 0 61.961593513478874 229.59402668824623 0 229.59402668824623 -67.988001717301813 0 0 0 0 148.32788958356105 139.45427424751324 0 139.45427424751324 -336.78651906799496 0 0 0 0 -4.7637848990198108 42.976857038154776 0 42.976857038154776 -22.8470263772615 0 0 0 0 17.401055699589591 22.313406163945132 0 22.313406163945132 -5.5128769041669585 0 0 0 0 -24.305283812527705 48.195114359961735 0 48.195114359961735 -23.998156546207611 0 0 0 0 -84.480573678389192 44.160379543376621 0 44.160379543376621 -19.003347316245708 0 0 0 0 -24.849308935572338 24.293286433111689 0 24.293286433111689 0.051260574042451879 0 0 0 0 -37.413608368879068 68.238522288760578 0 68.238522288760578 -16.898414986348143 0 0 0 0 -58.31703462871674 54.643749076607008 0 54.643749076607008 -5.0901934833906353 0 0 0 0 19.200121589310584 38.474663684391999 0 38.474663684391999 -22.700820519545232 0 0 0 0 -10.343332696983794 26.22434882051931 0 26.22434882051931 -18.567712964520013 0 0 0 0 -30.288889663512506 38.001921721522464 0 38.001921721522464 -26.097934348172998 0 0 0 0 -75.98805736702343 70.117613071702181 0 70.117613071702181 -21.333653586312721 0 0 0 0 -25.494117851958435 53.448806030273772 0 53.448806030273772 -19.152166646770638 0 0 0 0 -36.320236791791103 68.080084859517228 0 68.080084859517228 173.59775391409858 0 0 0 0 -18.134076255009859 33.159803618778824 0 33.159803618778824 50.212467000797915 0 0 0 0 4.6425242969344254 101.44587038591271 0 101.44587038591271 53.862806363900745 0 0 0 0 118.2213163681372 190.66839799933223 0 190.66839799933223 109.56577779092731 0 0 0 0 2.0235281836331183 1.5545423762380608 0 1.5545423762380608 1.0073210783504152 0 0 0 0 -46.735642401643418 -5.0103217950763792 0 -5.0103217950763792 110.69291048970626 0 0 0 0 321.72784015479556 52.454688602145325 0 52.454688602145325 -7.0018735994890449 0 0 0 0 67.392766701712389 -2.3083305561904126 0 -2.3083305561904126 -18.298432665818837 0 0 0 0 2.9543701114125724 6.9245102335025877 0 6.9245102335025877 -13.350776185729046 0 0 0 0 -16.378872277309711 24.934057822465547 0 24.934057822465547 52.155687061713252 0 0 0 0 -20.848494985635625 18.384317600401118 0 18.384317600401118 55.816639630320424 0 0 0 0 -16.637342469191935 21.683658463733082 0 21.683658463733082 41.038270873003057 0 0 0 0 -26.621302242216188 33.385594013969239 0 33.385594013969239 37.71015075336436 0 0 0 0 -18.448110375989927 25.274349937590159 0 25.274349937590159 38.85652948536881 0 0 0 0 -17.689380392446765 28.836614360217936 0 28.836614360217936 45.533408500625228 0 0 0 0 -27.797084155678192 15.563970862865705 0 15.563970862865705 -4.2318721595286135 0 0 0 0 -25.362348190465127 30.801480115733284 0 30.801480115733284 39.468530177553475 0 0 0 0 303.70732170779957 266.51484423201691 0 266.51484423201691 31.265670032173148 0 0 0 0 -21.828017947191256 30.95287724998343 0 30.95287724998343 17.210003217303893 0 0 0 0 -28.805942044738913 25.323454966965073 0 25.323454966965073 37.882884180280598 0 0 0 0 -32.955999567911931 49.902459492492198 0 49.902459492492198 17.065776099145296 0 0 0 0 -21.423057153151603 53.471578089556715 0 53.471578089556715 -14.392308011447312 0 0 0 0 -21.795898837073764 36.342047001904575 0 36.342047001904575 60.994811363081681 0 0 0 0 -25.821921269627637 46.629497818896198 0 46.629497818896198 34.723359839949808 0 0 0 0 -22.593273968475842 41.221046973903867 0 41.221046973903867 15.053225229756208 0 0 0 0 -29.724237167916726 81.435222313921258 0 81.435222313921258 9.3043058932362328 0 0 0 0 -22.766864820430783 71.413908429898584 0 71.413908429898584 -58.764965306574595 0 0 0 0 -11.072024781540676 67.03800059812238 0 67.03800059812238 -13.882231330477225 0 0 0 0 -7.2594489040930057 99.762982936690605 0 99.762982936690605 -7.3475691350467969 0 0 0 0 -36.171969154456747 104.60846963808217 0 104.60846963808217 -55.420783432689859 0 0 0 0 -29.746205239713163 63.42686837868132 0 63.42686837868132 -31.149705931169592 0 0 0 0 -53.458871191935032 83.70759637673109 0 83.70759637673109 -22.049048612077058 0 0 0 0 -50.660291278648401 81.169749983908332 0 81.169749983908332 -85.163100762343674 0 0 0 0 -46.567345989198657 127.49935967965575 0 127.49935967965575 -108.94263101553952 0 0 0 0 4.1958784666785505 97.669175782339153 0 97.669175782339153 -62.097770220170787 0 0 0 0 6.581410280741693 111.12243748499532 0 111.12243748499532 -99.600422750874714 0 0 0 0 -25.979598793994228 82.337783793198469 0 82.337783793198469 -124.98845392230578 0 0 0 0 73.169428217857785 87.290013892648858 0 87.290013892648858 -135.34050472834497 0 0 0 0 125.80719055174995 135.63586202156876 0 135.63586202156876 -90.938899688295351 0 0 0 0 36.730821669461875 113.44930034466415 0 113.44930034466415 1.0615314931346802 0 0 0 0 31.377184013315855 88.605940423196444 0 88.605940423196444 -7.0863154235630645 0 0 0 0 28.048186313913902 88.056026273836324 0 88.056026273836324 -71.311373625230772 0 0 0 0 236.34300970375625 52.609392775612832 0 52.609392775612832 2.7615735859653796 0 0 0 0 126.40839433995643 129.7049026818222 0 129.7049026818222 -32.467452572829643 0 0 0 0 -134.6130378268208 55.293086754667456 0 55.293086754667456 22.290458613882947 0 0 0 0 -10.801601154592431 49.631105529654576 0 49.631105529654576 20.975814162480916 0 0 0 0 53.850106963320286 117.40199251233571 0 117.40199251233571 -19.56927755104698 0 0 0 0 55.516176916324184 6.535343277730135 0 6.535343277730135 -0.50203966613116791 0 0 0 0 43.243479388627748 21.57596767323048 0 21.57596767323048 213.517051585226 0 0 0 0 -146.20312662882134 43.617586276262955 0 43.617586276262955 103.75234494651158 0 0 0 0 -10.979588123539326 50.82904868000378 0 50.82904868000378 29.699024586996174 0 0 0 0 13.244225812508375 97.587418721850554 0 97.587418721850554 23.103800812164991 0 0 0 0 53.156174611343886 114.22048997786442 0 114.22048997786442 13.556273767031598 0 0 0 0 54.76402895875799 124.62091198777671 0 124.62091198777671 65.682323974528117 0 0 0 0 202.1679611561558 219.40502099889636 0 219.40502099889636 119.82646070595365 0 0 0 0 -23.193797576267151 46.533531288036087 0 46.533531288036087 60.601036344712028 0 0 0 0 93.523876911895059 111.86352912081747 0 111.86352912081747 14.072515722240496 0 0 0 0 37.101966149675718 85.235939416979818 0 85.235939416979818 103.46172196759835 0 0 0 0 67.71078804056549 77.16169537403897 0 77.16169537403897 297.86277032104772 0 0 0 0 52.169741752259142 17.743577049512169 0 17.743577049512169 -44.209871600053248 0 0 0 0 -127.30995590247085 -18.512841684524574 0 -18.512841684524574 195.2459851200183 0 0 0 0 96.99923684345049 124.65668825952162 0 124.65668825952162 2.3833871970700784 0 0 0 0 82.092357266586987 138.26624257713956 0 138.26624257713956 176.030265175963 0 0 0 0 3.7506347057610867 21.215095238733962 0 21.215095238733962 11.639781021134052 0 0 0 0 141.92072340075265 52.24611028181198 0 52.24611028181198 -60.828111067939972 0 0 0 0 0.12128197193435897 15.151671632796926 0 15.151671632796926 -3.446167647642767 0 0 0 0 -25.055707762036491 64.044114714488387 0 64.044114714488387 1.4594371607090579 0 0 0 0 19.934228460095476 55.43746786300418 0 55.43746786300418 12.114315481116614 0 0 0 0 148.92654610873069 87.626632409335798 0 87.626632409335798 -35.748885283814161 0 0 0 0 -25.055707762033308 64.044114714470197 0 64.044114714470197 1.4594371607454377 0 0 0 0 5.2939055619929354 31.248429285600203 0 31.248429285600203 5.4749852875394538 0 0 0 0 23.762969538808193 55.655418136538174 0 55.655418136538174 -12.963122067711083 0 0 0 0 -47.164404417798551 52.701189654268092 0 52.701189654268092 12.902707014363841 0 0 0 0 -3.2889975665908722 30.527398542802029 0 30.527398542802029 8.8078790816513219 0 0 0 0 -25.055707762034558 64.044114714466559 0 64.044114714466559 1.4594371606508503 0 0 0 0 -42.886247450655276 20.104739984473781 0 20.104739984473781 11.610353099371423 0 0 0 0 173.07904394060461 119.31623192384359 0 119.31623192384359 -47.56666223794673 0 0 0 0 201.58258104811102 14.799512347846758 0 14.799512347846758 60.712530260418589 0 0 0 0 -29.996667930890908 133.93008472651491 0 133.93008472651491 15.543279788005748 0 0 0 0 81.347600965331367 44.734416580686229 0 44.734416580686229 39.619210697248491 0 0 0 0 9.136178390044936 29.664482610772907 0 29.664482610772907 -2.555110686319793 0 0 0 0 -37.419046787828847 44.993491915007326 0 44.993491915007326 37.954627749524661 0 0 0 0 -32.855243961224915 34.011691363750288 0 34.011691363750288 24.353505251099705 0 0 0 0 6.5151699011930759 44.918469033396832 0 44.918469033396832 -3.8251946502114151 0 0 0 0 -0.83115072988155303 34.334145928631521 0 34.334145928631521 16.473731880264182 0 0 0 0 -38.191421029318917 46.566327894208371 0 46.566327894208371 -2.0958817463833839 0 0 0 0 -26.661892692761739 54.364972901970759 0 54.364972901970759 -13.033860397072203 0 0 0 0 -261.86301160647236 -87.868651250288167 0 -87.868651250288167 -70.80015464832104 0 0 0 0 -19.356807987811408 56.598981857916442 0 56.598981857916442 55.703554833753515 0 0 0 0 -17.435010474436496 29.252147470927575 0 29.252147470927575 -16.404463398607447 0 0 0 0 -13.718279710201386 23.424582269548409 0 23.424582269548409 -6.1697434437774064 0 0 0 0 -13.370039753692708 42.583114069817384 0 42.583114069817384 -1.625142844452057 0 0 0 0 10.467383508553775 30.531432067198111 0 30.531432067198111 -12.374643898472698 0 0 0 0 -31.330484551899644 52.429894129878448 0 52.429894129878448 -3.3996632668695383 0 0 0 0 -6.837238262343817 -985.66099690256669 0 -985.66099690256669 -24.784961122485583 0 0 0 0 293.65919659563042 558.30362364086977 0 558.30362364086977 491.79928293748708 0 0 0 0 0.67567925257390016 71.959206587134759 0 71.959206587134759 14.473420869897382 0 0 0 0 -12.21739972503768 18.911261429344222 0 18.911261429344222 -21.626028969944045 0 0 0 0 30.263509869646441 -179.94250290706259 0 -179.94250290706259 -305.04360287271447 0 0 0 0 -133.59320681925055 89.542999203180443 0 89.542999203180443 -22.012653048285756 0 0 0 0 -6.4355904831665107 36.952761742221952 0 36.952761742221952 -3.230597351390974 0 0 0 0 5.1146890418248177 7.9482931346240093 0 7.9482931346240093 -33.589626944627526 0 0 0 0 -39.040108417844749 298.19925187317494 0 298.19925187317494 -293.14107220599453 0 0 0 0 -0.94658429645457787 3.245262730481393 0 3.245262730481393 -1.0045562923015203 0 0 0 0 21.722161781301793 214.78629755446616 0 214.78629755446616 208.21208178877896 0 0 0 0 119.27093529808735 29.737127149094704 0 29.737127149094704 -589.00862970319577 0 0 0 0 -76.74764757414232 138.84141165818892 0 138.84141165818892 532.55904133617776 0 0 0 0 51.286393363790012 25.126748947265355 0 25.126748947265355 255.55165708312961 0 0 0 0 -12.288900852458937 24.977166000455782 0 24.977166000455782 100.80654257503011 0 0 0 0 -14.22549873413266 39.373580748459815 0 39.373580748459815 -4.0655509091247986 0 0 0 0 -0.8740440568944905 27.009909287018672 0 27.009909287018672 -51.768076514119457 0 0 0 0 -1.3191198504910062 -13.095417216874466 0 -13.095417216874466 160.76387108989343 0 0 0 0 -26.118499489595706 12.604852423112789 0 12.604852423112789 90.344425961572597 0 0 0 0 -23.272220050861506 113.36880455761184 0 113.36880455761184 24.894021480617539 0 0 0 0 10.340031894098502 159.77210820981145 0 159.77210820981145 63.443635735340649 0 0 0 0 -23.450058817083118 114.0383902174799 0 114.0383902174799 229.70859712759375 0 0 0 0 53.781807762351377 243.14275872406697 0 243.14275872406697 60.78702250151764 0 0 0 0 -73.407495335967724 38.656105209484394 0 38.656105209484394 58.369762064140559 0 0 0 0 -1.0495082268298574 74.548558626030172 0 74.548558626030172 -16.282170562201372 0 0 0 0 -26.125032844532267 46.268103384387992 0 46.268103384387992 35.131758948375555 0 0 0 0 -26.986565322624301 104.18973506911152 0 104.18973506911152 131.52102075660878 0 0 0 0 -7.6542489810135521 74.249918774886282 0 74.249918774886282 63.883732164197681 0 0 0 0 -30.538312841286825 45.22916386877705 0 45.22916386877705 80.781200239596728 0 0 0 0 -26.810815198545242 55.864537275507018 0 55.864537275507018 11.881859503046144 0 0 0 0 6.1820705054822156 124.73475417349439 0 124.73475417349439 216.94392726975275 0 0 0 0 72.579266574904523 99.336092633632006 0 99.336092633632006 225.01891290918593 0 0 0 0 4.229400670950298 39.996979217992539 0 39.996979217992539 257.11683754825935 0 0 0 0 -5.221638633503062 23.717957137021131 0 23.717957137021131 90.317591178763905 0 0 0 0 -19.775170168098157 119.66956546144866 0 119.66956546144866 157.21120414524648 0 0 0 0 -36.497231046763773 64.080590494641001 0 64.080590494641001 232.46926366867524 0 0 0 0 10.14275167021151 64.573984449745694 0 64.573984449745694 5.063081012773182 0 0 0 0 -38.822213480269056 64.853025859094487 0 64.853025859094487 8.2957522893211717 0 0 0 0 39.617997329675745 54.019608209719081 0 54.019608209719081 35.042087961957805 0 0 0 0 59.328492631270137 81.729629984984342 0 81.729629984984342 29.663082727865913 0 0 0 0 57.250194493057279 60.889291874124865 0 60.889291874124865 -1.056608546343341 0 0 0 0 23.058784256656509 28.937849154760443 0 28.937849154760443 6.9722166615849801 0 0 0 0 43.238734702454678 29.662278220384042 0 29.662278220384042 8.862403230024043 0 0 0 0 7.0723185031856701 111.71507633154442 0 111.71507633154442 -22.977997132164774 0 0 0 0 -7.3246715546070789 25.621085421181682 0 25.621085421181682 22.538090051916726 0 0 0 0 -40.721522813679258 50.426010248816056 0 50.426010248816056 25.287986887418811 0 0 0 0 -51.892731780506438 57.61636444499527 0 57.61636444499527 22.23439895946467 0 0 0 0 4.7047898752702331 9.5637975401173456 0 9.5637975401173456 7.5606895969814687 0 0 0 0 -0.029125254362270425 61.94649659537788 0 61.94649659537788 -95.750312042582664 0 0 0 0 58.037768063973999 -38.22417676656687 0 -38.22417676656687 10.859753775315767 0 0 0 0 -27.436466797915273 43.980382264377567 0 43.980382264377567 126.52344422208171 0 0 0 0 -37.078917853458734 5.2652922048757773 0 5.2652922048757773 23.836370133666605 0 0 0 0 -22.167024168386536 34.184150445434277 0 34.184150445434277 -0.64230853819724221 0 0 0 0 -2.7289176779722766 72.267228527870884 0 72.267228527870884 10.177746831504692 0 0 0 0 -21.931846577836925 58.672833449197768 0 58.672833449197768 14.916808266894229 0 0 0 0 -63.988318966007228 37.222436872700655 0 37.222436872700655 15.062745307913247 0 0 0 0 82.393772677462948 53.99185379501705 0 53.99185379501705 13.122439534881778 0 0 0 0 -31.100922435658731 64.870841780349565 0 64.870841780349565 -17.887692351074293 0 0 0 0 -30.017297289568887 58.060901267034751 0 58.060901267034751 12.650058575093681 0 0 0 0 -16.246951352404615 32.401601472377529 0 32.401601472377529 25.416980259467973 0 0 0 0 -15.811777476481893 160.2445765294076 0 160.2445765294076 19.131652224693426 0 0 0 0 27.646862948928174 45.348513301815728 0 45.348513301815728 42.696178864426656 0 0 0 0 -15.004678187367972 60.174579126342451 0 60.174579126342451 -48.34274981789531 0 0 0 0 0.6912416181070995 56.027295579489092 0 56.027295579489092 20.732707040089743 0 0 0 0 -75.761390567247872 70.732649476722145 0 70.732649476722145 38.955079736269909 0 0 0 0 2.2828209072562942 4.2462421261730547 0 4.2462421261730547 7.3408327216499387 0 0 0 0 -4.0417363498785761 13.728324958321835 0 13.728324958321835 0.97840962599510206 0 0 0 0 9.7424612856812018 38.954692975836679 0 38.954692975836679 19.54492003765381 0 0 0 0 23.007093385505868 67.252783511103189 0 67.252783511103189 37.241007161740981 0 0 0 0 13.436361059073533 28.346126487088895 0 28.346126487088895 -6.7966228694456277 0 0 0 0 22.482714281592735 40.801824816146194 0 40.801824816146194 -11.667602111127053 0 0 0 0 56.581865700751223 87.789851106197602 0 87.789851106197602 65.291017454383109 0 0 0 0 -47.803073776691235 52.127416696119326 0 52.127416696119326 42.422047534293597 0 0 0 0 -10.109438993748963 54.455514176496465 0 54.455514176496465 36.706636137700414 0 0 0 0 24.979951221559531 28.680597052691834 0 28.680597052691834 -60.403343986723144 0 0 0 0 16.294761318276869 44.361483030847239 0 44.361483030847239 23.316112356860231 0 0 0 0 6.8112651185939477 22.226922281649045 0 22.226922281649045 -16.88886753837339 0 0 0 0 -5.9587155576175235 27.660866108109296 0 27.660866108109296 -7.4632567152870735 0 0 0 0 23.755180550855584 28.746731937767322 0 28.746731937767322 -59.5989826348451 0 0 0 0 18.463826656457968 26.739519997266143 0 26.739519997266143 -60.245890413520101 0 0 0 0 22.59701780800242 29.791090544283634 0 29.791090544283634 -58.843820734863812 0 0 0 0 27.227294687574613 28.023604423760617 0 28.023604423760617 -62.345075038987716 0 0 0 0 26.781611747224815 31.192517961768544 0 31.192517961768544 -57.212943005280067 0 0 0 0 8.4291884198682965 18.170758442286001 0 18.170758442286001 -61.300220012339196 0 0 0 0 18.913611023919657 0.92262733080235648 0 0.92262733080235648 -94.207448427308691 0 0 0 0 27.109067382611101 21.978166428737268 0 21.978166428737268 -66.745659995675396 0 0 0 0 7.5052159376209602 22.598199867279618 0 22.598199867279618 12.63440217153402 0 0 0 0 12.990029097457565 20.129881179117884 0 20.129881179117884 -24.588871898632014 0 0 0 0 22.028413746971637 36.40522392629191 0 36.40522392629191 -42.790310090929779 0 0 0 0 19.019542783680663 29.217704014798528 0 29.217704014798528 -53.371923669114949 0 0 0 0 21.603919184344704 34.534311227705587 0 34.534311227705587 -58.635166304517497 0 0 0 0 39.317432544281473 36.505877757114376 0 36.505877757114376 -55.391114946563903 0 0 0 0 27.674289448230411 33.022021395175443 0 33.022021395175443 -56.853426079525832 0 0 0 0 44.312983704127134 36.71835685040346 0 36.71835685040346 -42.279510853232928 0 0 0 0 34.571394821396098 27.511655017386602 0 27.511655017386602 -58.414904664551727 0 0 0 0 21.062615750328405 24.274280839428684 0 24.274280839428684 -46.233556497890731 0 0 0 0 13.35005010314778 25.38014623460683 0 25.38014623460683 8.5884349744680932 0 0 0 0 56.956596849758625 78.80677593355415 0 78.80677593355415 38.442909517030785 0 0 0 0 68.85398893137608 94.974660964386203 0 94.974660964386203 58.521143133912119 0 0 0 0 57.791522884726874 87.453555367130321 0 87.453555367130321 14.740367783710099 0 0 0 0 6.388139517806394 20.086535237759708 0 20.086535237759708 -16.18147703334629 0 0 0 0 8.8059830883744326 26.698529967424065 0 26.698529967424065 10.408960689625019 0 0 0 0 165.27982516474003 100.72478424188921 0 100.72478424188921 -4.0441664086392848 0 0 0 0 66.726455034433457 88.402721347152692 0 88.402721347152692 14.330872892436673 0 0 0 0 -24.327352242227789 77.586074585125971 0 77.586074585125971 38.82975398149938 0 0 0 0 23.817318527439056 120.94372079589994 0 120.94372079589994 30.276647379621863 0 0 0 0 -84.277225930716668 46.254844373573178 0 46.254844373573178 61.969029133082586 0 0 0 0 -10.622009794616872 48.431230799912427 0 48.431230799912427 33.496745926421951 0 0 0 0 128.30726573188531 59.250544368577266 0 59.250544368577266 -4.2543773818288173 0 0 0 0 22.951632635926217 80.63911575281054 0 80.63911575281054 50.412050250494758 0 0 0 0 34.588225046572461 30.791178972717489 0 30.791178972717489 3.350216529728641 0 0 0 0 35.205862584407441 37.21374108987311 0 37.21374108987311 22.896065867408652 0 0 0 0 2.1130601157241813 1.1113275533275129 0 1.1113275533275129 -0.74057548551834174 0 0 0 0 -0.17749796908901772 58.884889105605453 0 58.884889105605453 -89.753585221342291 0 0 0 0 201.89128387488745 -244.68026649592775 0 -244.68026649592775 -162.94127579659471 0 0 0 0 -105.25076484691817 126.13361496714788 0 126.13361496714788 -132.7847322895268 0 0 0 0 -50.942909564691945 -146.41551699971205 0 -146.41551699971205 158.2317782634268 0 0 0 0 -114.81484874989837 176.98795554041408 0 176.98795554041408 -167.47395621847318 0 0 0 0 1.903836632649984 2.6873381187388361 0 2.6873381187388361 3.3072652451614104 0 0 0 0 -83.129796865017852 50.849039309416185 0 50.849039309416185 31.649713834644444 0 0 0 0 -61.479627055236051 23.534127418521166 0 23.534127418521166 64.984972045594986 0 0 0 0 -16.910803872320685 121.93350226991242 0 121.93350226991242 17.137026602755554 0 0 0 0 22.411734995981533 19.55431151322955 0 19.55431151322955 25.062760492475718 0 0 0 0 -377.46243628673255 102.20135189629309 0 102.20135189629309 95.063017142269928 0 0 0 0 -62.644099247314443 204.04987398574804 0 204.04987398574804 -362.6409125897917 0 0 0 0 29.94427237383934 -20.77653223539437 0 -20.77653223539437 -102.76927272198918 0 0 0 0 -3.5053847420878697 3.3298694286186077 0 3.3298694286186077 -3.1330891894035524 0 0 0 0 -308.16849758182434 197.57194008516899 0 197.57194008516899 -48.253528805702445 0 0 0 0 -16.322248240132467 -138.56454275958185 0 -138.56454275958185 -399.62380940345111 0 0 0 0 -292.92913787342513 -216.32722784899238 0 -216.32722784899238 -145.35827292527028 0 0 0 0 -13.766047203702328 189.21059226392663 0 189.21059226392663 -583.96760075778548 0 0 0 0 4.7062288344159242 75.51646831957305 0 75.51646831957305 -48.571708836834659 0 0 0 0 0.59971187268092763 139.15920397764103 0 139.15920397764103 -155.66652940577205 0 0 0 0 -104.84938929394411 169.78442448751298 0 169.78442448751298 -115.98478659428997 0 0 0 0 -68.026847905059185 37.885018678391589 0 37.885018678391589 17.356501299866068 0 0 0 0 -21.847561457543634 70.95849025617963 0 70.95849025617963 -42.712655530461802 0 0 0 0 -0.29180543333495734 79.610512858107768 0 79.610512858107768 -39.475104258784086 0 0 0 0 0.059203126103966497 66.969609700558522 0 66.969609700558522 -51.588307271844883 0 0 0 0 -40.422411056460987 50.825849090038673 0 50.825849090038673 -36.055414936543912 0 0 0 0 0.43551378182019107 20.80153504488112 0 20.80153504488112 -67.317733177245373 0 0 0 0 -7.0594629874976818 40.23885555542924 0 40.23885555542924 -33.529317328255274 0 0 0 0 -9.1235055770748659 53.120763518889099 0 53.120763518889099 -67.828823310162988 0 0 0 0 -11.544600165158045 58.336576288512447 0 58.336576288512447 -70.864060875876248 0 0 0 0 21.390956049479428 35.572245426763288 0 35.572245426763288 -27.140177794417014 0 0 0 0 8.6807913941520383 14.340304688702417 0 14.340304688702417 -31.628767200611719 0 0 0 0 0.26397326138976496 27.987004141385341 0 27.987004141385341 -48.283765730030723 0 0 0 0 3.7032284153392538 41.867215273006423 0 41.867215273006423 -23.445442508528231 0 0 0 0 32.56442892326595 20.505739731096583 0 20.505739731096583 -8.4497246811206423 0 0 0 0 9.6921302280179589 60.693878718872384 0 60.693878718872384 16.710824231003244 0 0 0 0 -19.85501200791623 22.498203677776019 0 22.498203677776019 -4.4534818603096937 0 0 0 0 7.5022942746363697 46.574992854258198 0 46.574992854258198 -24.168641847326853 0 0 0 0 -6.8992327472383863 8.7684148896994714 0 8.7684148896994714 -10.940962791903072 0 0 0 0 30.696044219803298 29.596423585498997 0 29.596423585498997 -110.8398871853442 0 0 0 0 -2.6454182557499735 0.30410300338735397 0 0.30410300338735397 -96.063808159432028 0 0 0 0 0.3676456799657899 -23.35431959524567 0 -23.35431959524567 -28.396657096258423 0 0 0 0 -31.347826246448676 1.2322438825176505 0 1.2322438825176505 -81.7204608356069 0 0 0 0 -42.862112639464613 -4.8516111244803142 0 -4.8516111244803142 -31.240493585228251 0 0 0 0 -40.523802480853192 -3.2157135828128958 0 -3.2157135828128958 -76.304946196436504 0 0 0 0 -63.79267197966692 6.421997925944197 0 6.421997925944197 -14.846706604610517 0 0 0 0 -70.24621380609824 28.08402569051259 0 28.08402569051259 -40.174766341147915 0 0 0 0 -13.536174780674628 10.370471189819909 0 10.370471189819909 -45.783900183951118 0 0 0 0 37.137995846132981 76.77495003454078 0 76.77495003454078 -14.544321078586108 0 0 0 0 -26.341104511942831 25.739405727099438 0 25.739405727099438 25.239594574642979 0 0 0 0 45.030874090673024 57.730854965160034 0 57.730854965160034 -7.4850649753029757 0 0 0 0 -10.399437477880952 13.246104025051039 0 13.246104025051039 -16.401938110673576 0 0 0 0 14.925263322307728 32.508660418288628 0 32.508660418288628 0.48043430638932705 0 0 0 0 31.796946167683927 4.7059021147761086 0 4.7059021147761086 -63.720222683911743 0 0 0 0 -68.177664031372842 42.122416052936387 0 42.122416052936387 31.238472577642824 0 0 0 0 -10.841879064183217 16.183428109201998 0 16.183428109201998 -22.932220481360218 0 0 0 0 27.094602228447911 37.714726424647097 0 37.714726424647097 -29.901794012145643 0 0 0 0 -15.845545292759198 49.227876689560617 0 49.227876689560617 24.082702871117363 0 0 0 0 28.6926724355435 21.391324245700872 0 21.391324245700872 -47.391979511794034 0 0 0 0 30.791101063194219 26.68870000127135 0 26.68870000127135 -41.257687653964126 0 0 0 0 22.802864709476125 19.359586286784747 0 19.359586286784747 -18.989280788558887 0 0 0 0 36.386132613726659 22.803962683477948 0 22.803962683477948 -64.530714475949935 0 0 0 0 29.731384882325074 51.984371056048985 0 51.984371056048985 -157.29348029715038 0 0 0 0 -79.101303325878689 68.318301336121294 0 68.318301336121294 -35.191552534857692 0 0 0 0 -1.2311071347162397 2.3341716022142123 0 2.3341716022142123 1.6968632720728678 0 0 0 0 -15.074423250472137 21.003220453624408 0 21.003220453624408 -8.7946353646239004 0 0 0 0 4.6534147209442551 10.877946248600651 0 10.877946248600651 2.9584143033813159 0 0 0 0 -11.192657745223187 55.14931003829895 0 55.14931003829895 -50.758184924965462 0 0 0 0 65.297415230175829 10.020328630019321 0 10.020328630019321 -59.941566395489644 0 0 0 0 -3.4186133123293985 11.827685380354524 0 11.827685380354524 11.582907765510754 0 0 0 0 29.627245200244943 27.068802015819529 0 27.068802015819529 -37.0608206056163 0 0 0 0 -1.5507048340883784 3.3348036319239327 0 3.3348036319239327 -12.669517339468836 0 0 0 0 16.271015864418587 10.000028491209378 0 10.000028491209378 -18.387312794166974 0 0 0 0 52.78873994292735 43.381940779468096 0 43.381940779468096 -39.110525951862655 0 0 0 0 59.442427588728606 -53.694554156880258 0 -53.694554156880258 -5.9272561633715668 0 0 0 0 -1.7932939660913689 -6.4045706228248491 0 -6.4045706228248491 -29.944494705836405 0 0 0 0 0.96569744281558201 -0.51941674293661322 0 -0.51941674293661322 -6.3869862078669826 0 0 0 0 6.05416298127966 -63.141757999661422 0 -63.141757999661422 6.2954794424585998 0 0 0 0 -59.809325595240807 -11.690823857284386 0 -11.690823857284386 2.0580197142589896 0 0 0 0 -1.7932939660677221 -6.4045706228162089 0 -6.4045706228162089 -29.944494705830948 0 0 0 0 -52.091897956939647 50.159361924273981 0 50.159361924273981 24.586502760059375 0 0 0 0 48.986246698332252 -22.878932553324375 0 -22.878932553324375 -2.5178788266393894 0 0 0 0 10.310843643681437 -7.2071424229359877 0 -7.2071424229359877 -8.7520402100417414 0 0 0 0 -92.831376201414969 -91.644005292399015 0 -91.644005292399015 -75.626703677434307 0 0 0 0 -85.144343246007793 61.800321034700914 0 61.800321034700914 -175.28964538714354 0 0 0 0 -39.302088294745772 -37.861291367380545 0 -37.861291367380545 -23.553045328947064 0 0 0 0 2.3316768841212365 -1.2101488228459516 0 -1.2101488228459516 -1.0147389482780369 0 0 0 0 0.0025168260326609015 -1.4642563677625731 0 -1.4642563677625731 -40.630743043890106 0 0 0 0 0.64867597819343814 -3.0718824925799595 0 -3.0718824925799595 -3.3152719723295547 0 0 0 0 -0.496698661949182 -0.49941529302475374 0 -0.49941529302475374 0.40824762122782232 0 0 0 0 -39.151409290236188 -9.5949590347245248 0 -9.5949590347245248 -23.617478903892334 0 0 0 0 -41.866318583735847 -2.9187554679519963 0 -2.9187554679519963 -2.2924986743782938 0 0 0 0 0.32738523167802214 -0.33070708760337197 0 -0.33070708760337197 -1.7547111002265616 0 0 0 0 -1.7932939660677221 -6.4045706227989285 0 -6.4045706227989285 -29.944494705830948 0 0 0 0 -59.77746482603834 34.822965544099134 0 34.822965544099134 -43.371248398350872 0 0 0 0 -4.5110728134168312 6.5349877844128059 0 6.5349877844128059 -9.0988772907585371 0 0 0 0 -48.929749012662796 36.863276705797034 0 36.863276705797034 -43.090450304780461 0 0 0 0 -29.701499539427459 49.977836431422475 0 49.977836431422475 -50.198644467925988 0 0 0 0 -52.166804641732597 16.888008110467126 0 16.888008110467126 -36.784183842471521 0 0 0 0 -53.597389095069957 26.372961313003543 0 26.372961313003543 -59.937681751267519 0 0 0 0 -19.534369080982287 19.447680899147599 0 19.447680899147599 -83.136947776960369 0 0 0 0 -19.590533671998401 21.821666248696147 0 21.821666248696147 -104.37507654060028 0 0 0 0 -39.391641764290398 30.510077416754939 0 30.510077416754939 -88.631199634997756 0 0 0 0 -24.825347807905928 -0.74516103906898934 0 -0.74516103906898934 -130.24801793496408 0 0 0 0 -12.614522608506377 22.897684744144499 0 22.897684744144499 -129.76933260324404 0 0 0 0 -45.559979457728332 29.638821657779772 0 29.638821657779772 -12.030266671674326 0 0 0 0 -46.629740179312648 72.985002212937616 0 72.985002212937616 -126.77888494573381 0 0 0 0 1.1424175545271282 55.361594786861815 0 55.361594786861815 -166.6688760484285 0 0 0 0 -0.38332054025607931 -1.7591651962401471 0 -1.7591651962401471 -3.215113585259104 0 0 0 0 -12.568194946536096 60.009395862005476 0 60.009395862005476 -92.668220690015005 0 0 0 0 45.843272245932894 26.537170481981775 0 26.537170481981775 -149.94303639400277 0 0 0 0 17.160394088205067 5.4262695589472969 0 5.4262695589472969 -119.09937154570071 0 0 0 0 -9.5256654963632172 62.962861201940314 0 62.962861201940314 -60.621822629060262 0 0 0 0 3.3131657676130999 12.696525453800632 0 12.696525453800632 -145.92214705699735 0 0 0 0 1.1217245842562988 22.25303328094742 0 22.25303328094742 -136.31131280090631 0 0 0 0 -32.362062162974325 -39.533983743921453 0 -39.533983743921453 -153.87224656659691 0 0 0 0 5.9333315356343519 -12.512476461491133 0 -12.512476461491133 -211.71483580230779 0 0 0 0 -59.114547694014618 -10.512257575797776 0 -10.512257575797776 -91.018579334198648 0 0 0 0 13.10216818729532 27.758632883490009 0 27.758632883490009 -228.92346666610138 0 0 0 0 -0.2581285368648345 1.7617970194035024 0 1.7617970194035024 -1.1213493730921726 0 0 0 0 295.3970537615678 41.599532660648947 0 41.599532660648947 -259.90151751603253 0 0 0 0 -12.237710063593113 89.376014457727251 0 89.376014457727251 -208.46423038011974 0 0 0 0 -278.70889625727523 53.438468400826821 0 53.438468400826821 -38.052746358451259 0 0 0 0 -27.219680682304897 19.239523007948264 0 19.239523007948264 -40.780350904591614 0 0 0 0 -0.53801740707081791 3.5630698719395753 0 3.5630698719395753 -2.579125294097004 0 0 0 0 152.15310541225972 47.365785440143327 0 47.365785440143327 5.026252515404849 0 0 0 0 -164.0057672322655 -48.165134536832738 0 -48.165134536832738 -14.281169067153314 0 0 0 0 -4.7551614566618809 94.912472623619578 0 94.912472623619578 24.446838765286884 0 0 0 0 94.782053799295682 100.88099251331914 0 100.88099251331914 47.756847563923657 0 0 0 0 118.01495514300041 73.701790101051301 0 73.701790101051301 -80.940786252659564 0 0 0 0 29.811226164725667 141.97242547804854 0 141.97242547804854 21.995526151896229 0 0 0 0 215.82621118641327 216.20783280316027 0 216.20783280316027 24.214586114230769 0 0 0 0 81.840858727446175 93.9705398556207 0 93.9705398556207 61.509422118881957 0 0 0 0 177.81348339348915 222.18165458247131 0 222.18165458247131 130.16143537841072 0 0 0 0 253.57304296061727 194.34469847339454 0 194.34469847339454 133.70798870423096 0 0 0 0 241.39146561739472 148.87600789782664 0 148.87600789782664 175.05887932516634 0 0 0 0 344.51989876713196 247.4721918162104 0 247.4721918162104 148.40604435866953 0 0 0 0 395.13956348247302 171.648759589576 0 171.648759589576 205.65670640270127 0 0 0 0 313.34200098333531 306.62862724364459 0 306.62862724364459 369.19610266951167 0 0 0 0 345.04800394568883 178.00966803913343 0 178.00966803913343 452.85957013095674 0 0 0 0 432.89643828375847 337.83003404871579 0 337.83003404871579 116.24489239812465 0 0 0 0 298.15101167895773 275.6011782675605 0 275.6011782675605 106.77306083462304 0 0 0 0 317.23938500013901 185.98274173359459 0 185.98274173359459 36.857265783346065 0 0 0 0 320.4466292824618 268.51272583066793 0 268.51272583066793 86.518270147640578 0 0 0 0 207.05610365056782 255.22876741588607 0 255.22876741588607 2.2179296124868415 0 0 0 0 193.97959817828087 229.63933839173296 0 229.63933839173296 22.239468788207887 0 0 0 0 319.78583779051667 305.79820422798161 0 305.79820422798161 43.78325155958737 0 0 0 0 279.99333422761265 155.29646651185431 0 155.29646651185431 -100.35874939769928 0 0 0 0 278.45770928351703 167.670058626235 0 167.670058626235 55.798638112653862 0 0 0 0 241.08589277103601 138.93538973048999 0 138.93538973048999 56.373171704393826 0 0 0 0 186.07348362522316 30.635759486335701 0 30.635759486335701 -30.479718889193464 0 0 0 0 0.42970311307328757 -0.33918148326884534 0 -0.33918148326884534 -1.1710670223230224 0 0 0 0 227.0106989769597 97.79626594130383 0 97.79626594130383 -71.155747496197364 0 0 0 0 -14.895788347923371 197.27668767137129 0 197.27668767137129 -112.02885681603311 0 0 0 0 -2.2768150252959458 -43.720926892017815 0 -43.720926892017815 1.9036473404094068 0 0 0 0 -54.257284896069905 27.169723010891175 0 27.169723010891175 33.321129102798295 0 0 0 0 134.68047392906738 42.169018135653005 0 42.169018135653005 16.275224814722606 0 0 0 0 143.19833836157341 28.784283698148101 0 28.784283698148101 -3.0743948463150446 0 0 0 0 105.6883340984059 -28.573541934601963 0 -28.573541934601963 -1.7967143763708009 0 0 0 0 123.18336926521442 40.617644948334942 0 40.617644948334942 14.835565281628078 0 0 0 0 5.2543927278456977 -10.551351502319449 0 -10.551351502319449 55.643551176297478 0 0 0 0 -32.702117553912103 -19.235965935264176 0 -19.235965935264176 26.301713147925511 0 0 0 0 5.3002153467896278 -5.9903306359560702 0 -5.9903306359560702 10.445403620236902 0 0 0 0 -56.356903586711269 -26.173732488301539 0 -26.173732488301539 31.384237770715117 0 0 0 0 -45.356616877848865 -44.116065171479022 0 -44.116065171479022 0.41221050913964064 0 0 0 0 5.6112967087101424 24.122733982684167 0 24.122733982684167 -18.451057746033257 0 0 0 0 5.5339475776563631 -82.470568457871195 0 -82.470568457871195 22.095790835045506 0 0 0 0 80.676423097625957 -43.004215935647153 0 -43.004215935647153 -48.392368545424688 0 0 0 0 17.297625541832531 -17.239798802931546 0 -17.239798802931546 -80.331178514957173 0 0 0 0 2.7139632309114745 -0.53288806276142964 0 -0.53288806276142964 -0.64916216933652038 0 0 0 0 4.7343358423095196 -16.078384201004155 0 -16.078384201004155 -53.643839111777197 0 0 0 0 30.234932269799174 14.507640569263458 0 14.507640569263458 -98.450587407818603 0 0 0 0 -20.064279770711437 -45.764356241495989 0 -45.764356241495989 -5.8776446166411915 0 0 0 0 2.1950468144204933 -35.712040580001485 0 -35.712040580001485 -105.67287183423468 0 0 0 0 0.27883237179980824 0.045872796106479541 0 0.045872796106479541 -2.7700791498870512 0 0 0 0 -52.276936054782709 -91.687708809762626 0 -91.687708809762626 -102.60105866823869 0 0 0 0 237.35012441826984 159.83275052991121 0 159.83275052991121 8.2012545666057122 0 0 0 0 188.21655807651405 86.965536121192599 0 86.965536121192599 -18.22627840301675 0 0 0 0 67.698417632567725 -36.537252149575124 0 -36.537252149575124 19.568889139169187 0 0 0 0 218.93585907424131 71.469620996044341 0 71.469620996044341 -31.034512459777034 0 0 0 0 420.82544919983775 119.27429337267768 0 119.27429337267768 -20.403146288386779 0 0 0 0 224.741080656946 -43.450699367414472 0 -43.450699367414472 75.466786100075296 0 0 0 0 223.33726393593679 138.63358553748094 0 138.63358553748094 127.58046179200755 0 0 0 0 320.60704087287377 -13.801912200795186 0 -13.801912200795186 -221.76684717406533 0 0 0 0 363.71215259973542 95.426894114533752 0 95.426894114533752 22.158455994417182 0 0 0 0 2.7693380017762479 1.1787943607502029 0 1.1787943607502029 0.3115698618528473 0 0 0 0 4.8286184081920851 2.7739202676383314 0 2.7739202676383314 0.78575620291806558 0 0 0 0 199.15939984042052 380.43630993958686 0 380.43630993958686 89.713102903855088 0 0 0 0 3.0194212578426232 56.55558168859443 0 56.55558168859443 74.668552103300499 0 0 0 0 33.411327962559881 26.292864280537287 0 26.292864280537287 50.315593232615356 0 0 0 0 137.79727957487194 199.69339765356472 0 199.69339765356472 331.10706033333645 0 0 0 0 60.606542609340977 148.62896016470495 0 148.62896016470495 105.79713799917363 0 0 0 0 251.87354947907443 99.938817316113273 0 99.938817316113273 -58.477874157926635 0 0 0 0 50.960294935051934 96.142275683714615 0 96.142275683714615 -77.096033892978085 0 0 0 0 -46.73032645915373 157.41887202727276 0 157.41887202727276 -17.020653095740272 0 0 0 0 102.9141737397149 108.89051561507313 0 108.89051561507313 -41.915044526042038 0 0 0 0 115.20033885159864 147.25654886428492 0 147.25654886428492 -105.590724598831 0 0 0 0 -213.98436740867328 968.03017421144955 0 968.03017421144955 275.66727802948071 0 0 0 0 -85.256936362951819 -455.02607271786428 0 -455.02607271786428 451.16288615792655 0 0 0 0 -45.820534410479013 125.83280264608857 0 125.83280264608857 -136.51198594841503 0 0 0 0 40.876492326768215 41.518868120668671 0 41.518868120668671 39.098447062169448 0 0 0 0 -30.370510610213387 51.937502695233889 0 51.937502695233889 -189.33912508297362 0 0 0 0 -144.52513989598083 258.31003806551416 0 258.31003806551416 -166.47252511537772 0 0 0 0 -237.24678955378477 133.89036988566045 0 133.89036988566045 -71.164008851063045 0 0 0 0 -18.596616824426746 107.00411153664754 0 107.00411153664754 -95.184423983737361 0 0 0 0 -34.834367219067644 19.576080729859768 0 19.576080729859768 38.547572221789778 0 0 0 0 -110.34098919712414 235.99830595912135 0 235.99830595912135 743.74952560962265 0 0 0 0 -26.008256556662673 43.838060226358721 0 43.838060226358721 11.557977771417427 0 0 0 0 1.9085906388630747 2.1195357538208555 0 2.1195357538208555 0.91972855702523848 0 0 0 0 61.631152828602353 236.46957252025459 0 236.46957252025459 623.09989569982736 0 0 0 0 232.14994955051225 194.46973099230354 0 194.46973099230354 -70.576753362249292 0 0 0 0 259.41480561433127 169.04861819026337 0 169.04861819026337 646.08109225160842 0 0 0 0 437.36332998010039 -49.815142428013132 0 -49.815142428013132 912.51803708578518 0 0 0 0 222.87945414640126 568.37774665468532 0 568.37774665468532 1020.3533807930899 0 0 0 0 93.145606437756214 -465.367099068073 0 -465.367099068073 533.22495458842968 0 0 0 0 678.03989366951282 487.37388846480462 0 487.37388846480462 325.42898337681254 0 0 0 0 -2.7755131008403851 4.8324182580559381 0 4.8324182580559381 5.4091352770961052 0 0 0 0 176.7320821049434 390.45094392883948 0 390.45094392883948 337.49408965822659 0 0 0 0 -81.800223245387315 170.86225739531983 0 170.86225739531983 767.19307586811919 0 0 0 0 50.939870074160353 152.15951597045728 0 152.15951597045728 338.16482170021482 0 0 0 0 84.494862326042494 16.685460501236776 0 16.685460501236776 -23.702854050863607 0 0 0 0 -0.30832809175240072 0.64366453562463732 0 0.64366453562463732 -1.838534320135377 0 0 0 0 3.7384455758845974 10.096566484384766 0 10.096566484384766 -30.425009156121071 0 0 0 0 -12.921090774558252 33.478476175558171 0 33.478476175558171 -51.717607350277831 0 0 0 0 8.4899121018747223 8.9405491754920803 0 8.9405491754920803 -3.4541900395089016 0 0 0 0 52.641083453781903 173.38275660273757 0 173.38275660273757 396.4274922835275 0 0 0 0 -133.17954503557121 122.83339245667867 0 122.83339245667867 -75.698054626417616 0 0 0 0 -175.25084917154345 119.525894180254 0 119.525894180254 558.74615370998799 0 0 0 0 3.0459788929051683 2.7236725375236688 0 2.7236725375236688 2.3358746619083703 0 0 0 0 -153.53125411100791 -2.1267639158360225 0 -2.1267639158360225 962.90391622331299 0 0 0 0 197.84814228476171 273.48949925426143 0 273.48949925426143 405.03753770777439 0 0 0 0 84.822168107391917 -145.70598162478382 0 -145.70598162478382 236.61639530636421 0 0 0 0 236.31656622274022 482.8005739335531 0 482.8005739335531 -5.836325171887438 0 0 0 0 51.711106892675161 249.96690998015038 0 249.96690998015038 22.912795308899831 0 0 0 0 144.67180927524169 290.04735036804959 0 290.04735036804959 -368.36319144496883 0 0 0 0 -134.28708634077339 131.08562185168194 0 131.08562185168194 -115.33575640466461 0 0 0 0 -218.44533935122308 156.21591896040445 0 156.21591896040445 62.600692976855498 0 0 0 0 45.662312012071197 265.55113720945337 0 265.55113720945337 -14.861624566579849 0 0 0 0 21.06659324328939 219.96170484106005 0 219.96170484106005 96.384041516061643 0 0 0 0 309.9236561866901 345.44434714357726 0 345.44434714357726 27.131669284921372 0 0 0 0 285.56595992573784 396.01831388618689 0 396.01831388618689 179.26267006769922 0 0 0 0 -9.849223077246279 282.06487794452369 0 282.06487794452369 42.389653330585134 0 0 0 0 -84.022082167110057 30.16785268714375 0 30.16785268714375 127.74934316067038 0 0 0 0 -367.04260151118797 -52.486106104333885 0 -52.486106104333885 29.421757579866153 0 0 0 0 2.5255660582479322 29.078021749489835 0 29.078021749489835 41.164190215644339 0 0 0 0 4.8768408088672004 25.984982065799613 0 25.984982065799613 40.810866417776197 0 0 0 0 -1.0445365391251897 7.0857309869007281 0 7.0857309869007281 -15.824927226357943 0 0 0 0 21.134948913721018 36.458933324208829 0 36.458933324208829 21.088716816699161 0 0 0 0 -181.05804195511155 120.33096990473859 0 120.33096990473859 -19.495854192966135 0 0 0 0 -236.42631470636479 90.165316941967831 0 90.165316941967831 -14.922407816942723 0 0 0 0 -87.950724315967818 153.99803729212363 0 153.99803729212363 -329.99647700120113 0 0 0 0 -30.776220283568534 -3.5361177649001831 0 -3.5361177649001831 -0.40607438221154624 0 0 0 0 -116.04818530798366 374.57403480890662 0 374.57403480890662 -188.97758507539922 0 0 0 0 -403.27670100401883 -94.371108368665773 0 -94.371108368665773 336.98269606714712 0 0 0 0 -168.06225397175876 432.73349963603232 0 432.73349963603232 -225.81969849056986 0 0 0 0 -258.80781924526673 516.38869055546547 0 516.38869055546547 -284.5302250999448 0 0 0 0 -281.03775881914771 177.7495753912026 0 177.7495753912026 130.66211947798274 0 0 0 0 9.5592743132074247 15.571025014577572 0 15.571025014577572 16.962902105453395 0 0 0 0 95.197874948877143 183.18584590043611 0 183.18584590043611 -188.84008992643794 0 0 0 0 -1.1780489645874894 1.6480730451615671 0 1.6480730451615671 -5.5513089974379071 0 0 0 0 -817.65787095135602 139.95919649347525 0 139.95919649347525 94.034823333364329 0 0 0 0 13.286324446264189 -76.429140857375387 0 -76.429140857375387 -43.702266584404015 0 0 0 0 -276.84259114145061 277.21926027520772 0 277.21926027520772 -155.80631880730289 0 0 0 0 -23.022365418597474 96.277950293800131 0 96.277950293800131 -43.108123166601217 0 0 0 0 -39.114230563340243 3.1481978096044259 0 3.1481978096044259 356.08443244101773 0 0 0 0 13.065402899956098 -82.752033394586761 0 -82.752033394586761 32.737217551847607 0 0 0 0 -45.773962516598374 -4.1854357540489389 0 -4.1854357540489389 4.9041628613199357 0 0 0 0 -28.916568740089133 -61.512788439768883 0 -61.512788439768883 158.71861790152252 0 0 0 0 4.9740076915259124 -55.70764090981038 0 -55.70764090981038 78.360828400946048 0 0 0 0 15.288793125553639 -37.645948093074821 0 -37.645948093074821 49.902668678907503 0 0 0 0 -7.5193040713784285 -27.937588372747996 0 -27.937588372747996 76.245046436035864 0 0 0 0 -16.255151479766937 -1.7558174494838568 0 -1.7558174494838568 42.421633099002065 0 0 0 0 -6.6861704179827939 -85.671425827643361 0 -85.671425827643361 100.39781075420797 0 0 0 0 -38.049676616428769 -4.4942831657181159 0 -4.4942831657181159 94.607304141647546 0 0 0 0 -53.285250245389761 17.632785589037667 0 17.632785589037667 66.727871246520863 0 0 0 0 -46.652109918300994 29.66095698580375 0 29.66095698580375 87.665066387766274 0 0 0 0 -61.361266132880701 25.277708681153399 0 25.277708681153399 92.070479938078279 0 0 0 0 -59.328399805228401 58.910142164197168 0 58.910142164197168 123.93203023032402 0 0 0 0 -71.938969822411309 9.2447423261687618 0 9.2447423261687618 100.83757861073173 0 0 0 0 -19.568534022342646 -6.7462096578565252 0 -6.7462096578565252 98.40718586996536 0 0 0 0 -12.982228886985467 13.48706964073267 0 13.48706964073267 110.26800641388763 0 0 0 0 32.019709680673259 6.5828869353172195 0 6.5828869353172195 67.686187941930257 0 0 0 0 -24.58724780085322 19.657922985785262 0 19.657922985785262 135.09937914256443 0 0 0 0 -166.10617712675594 -103.72302302819844 0 -103.72302302819844 117.41144957822326 0 0 0 0 -11.390110041102218 -0.83407670794985478 0 -0.83407670794985478 -0.10769856116390031 0 0 0 0 -505.1376984007984 -38.595541924613372 0 -38.595541924613372 149.9733397129603 0 0 0 0 -79.898523169234977 -10.666747469820621 0 -10.666747469820621 128.8679243261613 0 0 0 0 -80.271120449440787 -29.18836485839347 0 -29.18836485839347 84.147045598439945 0 0 0 0 -277.21164046046761 53.470917098532027 0 53.470917098532027 164.82103946366624 0 0 0 0 -41.068109799525701 80.664754057561368 0 80.664754057561368 167.89367892543805 0 0 0 0 -54.64262808294734 -11.713189314146803 0 -11.713189314146803 143.73782967527586 0 0 0 0 -18.795922921015972 2.0274466169301775 0 2.0274466169301775 -0.25809792556433564 0 0 0 0 -39.280008657973667 37.164579504167705 0 37.164579504167705 205.90773975149023 0 0 0 0 9.2263469461977365 70.328340551376641 0 70.328340551376641 -253.78705232329594 0 0 0 0 -46.719859701552195 149.37612879752123 0 149.37612879752123 -27.285744525954215 0 0 0 0 -53.91633841854491 41.81668774132504 0 41.81668774132504 -53.749641921160219 0 0 0 0 -37.630873363348655 78.331749998784289 0 78.331749998784289 -67.46332547675047 0 0 0 0 -27.50811908718606 62.639063969832932 0 62.639063969832932 -54.005049873045209 0 0 0 0 -62.127138597279554 84.175867631989604 0 84.175867631989604 -11.611502550407749 0 0 0 0 -53.436751497603836 99.925738943275064 0 99.925738943275064 -33.473258071509917 0 0 0 0 -60.399228469509126 39.82523609185921 0 39.82523609185921 79.649474490124703 0 0 0 0 -22.244305357026235 26.849335228245494 0 26.849335228245494 19.291486396261945 0 0 0 0 -41.474515722205979 -102.24767222010541 0 -102.24767222010541 -81.854316549441137 0 0 0 0 -197.09954046914936 100.44829749286873 0 100.44829749286873 42.3496686860708 0 0 0 0 35.256293725775322 10.539070360964615 0 10.539070360964615 64.312708499819564 0 0 0 0 12.379054368386278 -1.6152060267304478 0 -1.6152060267304478 57.877711750985327 0 0 0 0 -31.21941413461758 38.072873467792775 0 38.072873467792775 13.535782325841694 0 0 0 0 -9.1139426099543925 85.176447549187287 0 85.176447549187287 -36.035430328403891 0 0 0 0 -17.718375159573043 74.827114871768572 0 74.827114871768572 -26.229447449775762 0 0 0 0 -10.361644091870403 79.190624098213448 0 79.190624098213448 -47.78778692011474 0 0 0 0 -3.7436036912258714 83.294246579316678 0 83.294246579316678 -46.19753188607865 0 0 0 0 -8.0589039822662016 76.23123266782568 0 76.23123266782568 -29.591367729197373 0 0 0 0 -2.9434633883211063 87.208027333417704 0 87.208027333417704 -53.895121563677094 0 0 0 0 2.3507302831712877 94.934576156098046 0 94.934576156098046 -43.045317569227336 0 0 0 0 -36.473486898243209 94.834380136207983 0 94.834380136207983 -22.483189119287999 0 0 0 0 -64.235234385523654 11.215721623917489 0 11.215721623917489 96.569294096825615 0 0 0 0 -20.949218419627869 60.74401542805208 0 60.74401542805208 -28.323947110540757 0 0 0 0 -17.143055539336757 28.995737922292847 0 28.995737922292847 19.852276434030607 0 0 0 0 -29.858032072370406 66.474282604471227 0 66.474282604471227 15.773997759366466 0 0 0 0 -463.04127118228644 7.2410519501063391 0 7.2410519501063391 416.60136192011851 0 0 0 0 96.075100504753209 87.790459399614519 0 87.790459399614519 -494.62397762366345 0 0 0 0 -6.2106779754164165 0.6091692244271556 0 0.6091692244271556 -0.25031499916544675 0 0 0 0 -8.3031074858590728 25.74397853872324 0 25.74397853872324 108.85091521272261 0 0 0 0 -145.4737046000846 -44.487327550742066 0 -44.487327550742066 157.08102623026389 0 0 0 0 -283.87430595920887 142.70138780280649 0 142.70138780280649 94.202173674089863 0 0 0 0 -40.21339946158696 279.3211129817937 0 279.3211129817937 -247.57903806239847 0 0 0 0 102.68138175536296 63.219620548679814 0 63.219620548679814 46.637212863605328 0 0 0 0 183.30896972311166 73.720958015054748 0 73.720958015054748 -58.147232211089431 0 0 0 0 -21.011499444674357 23.381544424341882 0 23.381544424341882 15.91240124560489 0 0 0 0 -25.687281130783958 28.354266745997847 0 28.354266745997847 14.530984074055596 0 0 0 0 2.349600306188222 34.258249397613326 0 34.258249397613326 -4.1200816227064934 0 0 0 0 5.4624619186989634 40.702806911751779 0 40.702806911751779 -25.007801373484938 0 0 0 0 -22.20807300346496 66.288141939818161 0 66.288141939818161 -43.612943005904526 0 0 0 0 -8.6763923891503794 36.508305149536497 0 36.508305149536497 14.905326790459085 0 0 0 0 132.01093563166796 -143.75792865949006 0 -143.75792865949006 142.99000004732079 0 0 0 0 196.83841441725963 -132.32113324296733 0 -132.32113324296733 -387.09481696645616 0 0 0 0 -21.760731830232544 64.057440748119006 0 64.057440748119006 -41.77951873317943 0 0 0 0 -24.121784880248015 68.49529790989618 0 68.49529790989618 -32.086116505066457 0 0 0 0 -26.696205615655344 62.60384674033412 0 62.60384674033412 -44.190095039586595 0 0 0 0 45.043360559371649 10.50864249287406 0 10.50864249287406 -2.413731295215257 0 0 0 0 29.326186699772308 28.078286638067738 0 28.078286638067738 -14.948624067031332 0 0 0 0 -23.03258138106321 67.857972862813767 0 67.857972862813767 -42.386080415291872 0 0 0 0 57.60372555059439 10.079234767345042 0 10.079234767345042 -3.4790352305681154 0 0 0 0 48.874241581310343 22.287930212953142 0 22.287930212953142 0.11774065809731837 0 0 0 0 30.029954704745336 29.006486999446565 0 29.006486999446565 -5.7100373742832744 0 0 0 0 9.2547241386200767 59.062553505129472 0 59.062553505129472 -64.858592135686195 0 0 0 0 12.192021436143506 -0.91649021072873893 0 -0.91649021072873893 -4.0933433862837347 0 0 0 0 -80.487559092754964 70.155299502846901 0 70.155299502846901 -5.5982684595073806 0 0 0 0 -14.550926757336129 94.562754868558841 0 94.562754868558841 -72.417667418289057 0 0 0 0 -24.966811594946194 62.150519603153953 0 62.150519603153953 -48.029907387957792 0 0 0 0 -26.217017399903852 67.448632338720927 0 67.448632338720927 -31.46405772216167 0 0 0 0 -4.0699634005317336 8.5638642077231424 0 8.5638642077231424 -10.196966225255053 0 0 0 0 -438.47599014418665 90.41730432647455 0 90.41730432647455 63.139211570232874 0 0 0 0 407.73758255389112 288.50390518752465 0 288.50390518752465 -16.757534697830124 0 0 0 0 116.77599105627451 333.06400365742593 0 333.06400365742593 76.222865609794098 0 0 0 0 -477.0327664460201 39.424915056017198 0 39.424915056017198 130.34253169328076 0 0 0 0 -337.68265669644461 -253.4864648080802 0 -253.4864648080802 -29.49895229476715 0 0 0 0 161.09728457481106 266.06164959270245 0 266.06164959270245 -197.09420321167272 0 0 0 0 5.7484235740023735 6.4436209335986803 0 6.4436209335986803 -8.0051049394683815 0 0 0 0 -486.64663924723573 360.56815288698635 0 360.56815288698635 -40.457591661917832 0 0 0 0 -886.67848534527002 -168.11314116084031 0 -168.11314116084031 154.3538348533184 0 0 0 0 -1.947044181523907 3.4609897246747607 0 3.4609897246747607 -3.3216373646461648 0 0 0 0 573.18346542100335 121.80074862464971 0 121.80074862464971 -197.69753870373825 0 0 0 0 232.86440923965711 225.77992466219803 0 225.77992466219803 -187.39006301005429 0 0 0 0 386.45681528570276 -81.344531917313361 0 -81.344531917313361 -133.40409979953984 0 0 0 0 271.47068793659491 75.586605520846661 0 75.586605520846661 -49.006555514177307 0 0 0 0 5.5205711512993503 15.398528217571268 0 15.398528217571268 4.4280067472223479 0 0 0 0 8.0620363583002472 -22.938346498114697 0 -22.938346498114697 216.05273463908452 0 0 0 0 -496.9818722341297 213.47171475839787 0 213.47171475839787 111.00576796811583 0 0 0 0 38.804005939519811 195.8363182506198 0 195.8363182506198 -103.50535942582792 0 0 0 0 265.72377368839807 -218.4654686585236 0 -218.4654686585236 -192.25699316172086 0 0 0 0 11.900792301409467 20.445940529851072 0 20.445940529851072 -1.0350421457449812 0 0 0 0 -7.6896307233570838 21.217202765154994 0 21.217202765154994 6.5871323945770754 0 0 0 0 -8.4670007130516751 29.8633471191024 0 29.8633471191024 7.6641987676703138 0 0 0 0 -15.960200086905388 39.481791728661847 0 39.481791728661847 1.8069010627204989 0 0 0 0 9.7361743917615513 15.619984374713965 0 15.619984374713965 3.8427664389797087 0 0 0 0 0.62824352404277306 18.414239404151886 0 18.414239404151886 -4.5897106323627668 0 0 0 0 23.715088147378992 12.473517978221935 0 12.473517978221935 105.80407612407726 0 0 0 0 3.11139987438969 13.419277892604256 0 13.419277892604256 -3.2793488055428242 0 0 0 0 -2.7141820861957342 0.24418665322551192 0 0.24418665322551192 0.82406751469910944 0 0 0 0 89.069787648419151 288.36589650557289 0 288.36589650557289 95.290699513418076 0 0 0 0 4.721964678959921 74.991323918909075 0 74.991323918909075 258.13898896417231 0 0 0 0 137.68124914480723 269.0778098038345 0 269.0778098038345 247.18052498567704 0 0 0 0 209.81629025042639 324.77538705674306 0 324.77538705674306 337.03334035029911 0 0 0 0 100.49262969987467 185.74948422832676 0 185.74948422832676 168.33624962619069 0 0 0 0 137.79342066399113 371.57678757776011 0 371.57678757776011 353.06434394735334 0 0 0 0 291.02434721391182 418.14187878568191 0 418.14187878568191 234.92511485422528 0 0 0 0 263.10764818656025 433.95216885659465 0 433.95216885659465 324.70780627142085 0 0 0 0 254.71094155579522 398.31356244665096 0 398.31356244665096 274.70345919014653 0 0 0 0 262.85588596407433 332.07443804012701 0 332.07443804012701 267.87606958963079 0 0 0 0 422.17039607043262 421.53767400243487 0 421.53767400243487 291.9934463663667 0 0 0 0 417.75082191594993 398.78739733442308 0 398.78739733442308 272.34944996750346 0 0 0 0 -14.637410823338882 12.913821118077422 0 12.913821118077422 1.0411481944716101 0 0 0 0 205.02257364648813 295.85440984381762 0 295.85440984381762 276.52442779267221 0 0 0 0 -9.2637099549610866 27.484043774666134 0 27.484043774666134 7.3637464217622437 0 0 0 0 297.64007395595399 266.92652624219409 0 266.92652624219409 208.58712910126087 0 0 0 0 -11.832757696924091 22.391916445195875 0 22.391916445195875 14.204509038332617 0 0 0 0 -13.032990196239552 23.436730010196698 0 23.436730010196698 14.081047586195609 0 0 0 0 -11.884154808925814 24.970603005804151 0 24.970603005804151 14.923681549873436 0 0 0 0 38.699439465126488 181.75163170412543 0 181.75163170412543 35.68339904328343 0 0 0 0 -17.662301281600506 17.162690002634506 0 17.162690002634506 14.188943857717149 0 0 0 0 -8.0517145780031569 20.290307432427653 0 20.290307432427653 8.5163059970363975 0 0 0 0 -23.85535628176369 14.604016848229449 0 14.604016848229449 18.883861105795752 0 0 0 0 -16.415824066018104 17.797510163976767 0 17.797510163976767 18.262966681751095 0 0 0 0 -16.454635830996267 13.966763897706187 0 13.966763897706187 8.0703514210690628 0 0 0 0 -16.729619703660489 11.726861178736925 0 11.726861178736925 0.73594172391648272 0 0 0 0 566.07422800757922 318.26995440343671 0 318.26995440343671 166.5517751173029 0 0 0 0 -0.50794160883003769 3.282129141588932 0 3.282129141588932 1.0128112623210379 0 0 0 0 -3.4912029379081559 -1.4981223884472428 0 -1.4981223884472428 9.8480232188847268 0 0 0 0 568.00131778797368 492.53257036577634 0 492.53257036577634 353.1007390454397 0 0 0 0 588.85096462015645 545.51978478275305 0 545.51978478275305 483.69444864548677 0 0 0 0 563.10549269684634 345.44118514697607 0 345.44118514697607 307.76771332188946 0 0 0 0 -25.366306417010492 -7.8686685736756772 0 -7.8686685736756772 40.690788519821581 0 0 0 0 -17.76118578435495 10.368701791252931 0 10.368701791252931 2.9173084653245169 0 0 0 0 -39.337843440138386 -7.3139728284477314 0 -7.3139728284477314 41.314490458574255 0 0 0 0 667.39204313265509 623.72157754969703 0 623.72157754969703 459.75171483160443 0 0 0 0 -30.448347766134248 -36.997678364087733 0 -36.997678364087733 -0.2602347727806773 0 0 0 0 -8.1884555603464833 -5.4776253558002281 0 -5.4776253558002281 5.8527399623926613 0 0 0 0 0.57399401303339914 -0.45430363717403566 0 -0.45430363717403566 2.3356062471120325 0 0 0 0 480.99071539699798 371.8918997305318 0 371.8918997305318 274.77173941713772 0 0 0 0 455.33903877040575 375.20909810327521 0 375.20909810327521 412.63998065546548 0 0 0 0 262.6931071438521 288.11715972311322 0 288.11715972311322 289.24139540566102 0 0 0 0 358.52772437366366 323.11652709769805 0 323.11652709769805 343.73596735879619 0 0 0 0 370.70407214983425 316.253843460383 0 316.253843460383 231.243770611336 0 0 0 0 252.49372496557771 266.82802869386069 0 266.82802869386069 261.58140320215534 0 0 0 0 263.98359149257885 310.64220771608234 0 310.64220771608234 206.08940853130207 0 0 0 0 255.46479466607525 330.14594123887582 0 330.14594123887582 221.79036651650131 0 0 0 0 265.6196670130812 359.14886699198723 0 359.14886699198723 286.70545167738237 0 0 0 0 359.27821280226635 364.75205785214166 0 364.75205785214166 256.85343186744649 0 0 0 0 421.83474367740564 352.00363109192403 0 352.00363109192403 354.86981659065714 0 0 0 0 360.50991047719435 394.23604222873291 0 394.23604222873291 368.31178987423118 0 0 0 0 477.57684477392468 402.00032922420542 0 402.00032922420542 305.85292675788151 0 0 0 0 195.25565045779331 160.27513552047481 0 160.27513552047481 57.874480774140466 0 0 0 0 117.97112148287124 187.6992522178025 0 187.6992522178025 72.954652827059817 0 0 0 0 289.98147563995735 348.84437939691452 0 348.84437939691452 185.58716245865071 0 0 0 0 190.94084485309577 206.19145601920354 0 206.19145601920354 110.91782102243815 0 0 0 0 155.60820885239809 213.53079231599986 0 213.53079231599986 118.78770803824682 0 0 0 0 51.537050264905702 56.288127772982534 0 56.288127772982534 25.587241099463427 0 0 0 0 92.501747166727 35.456820548026371 0 35.456820548026371 -26.031840248844674 0 0 0 0 -0.89024999347741129 4.2413792560384707 0 4.2413792560384707 -3.7101346155749724 0 0 0 0 -131.25517512846272 -47.327187123016301 0 -47.327187123016301 32.040805293210724 0 0 0 0 127.56670720044349 98.7512877445497 0 98.7512877445497 2.0374196102998212 0 0 0 0 363.36998262959241 14.116556395514635 0 14.116556395514635 -7.1018094465107424 0 0 0 0 152.10205399579718 185.4608253603401 0 185.4608253603401 -95.59229971921377 0 0 0 0 16.67615921781362 42.675944436958503 0 42.675944436958503 -22.584010271690204 0 0 0 0 0.00083455901075524253 7.4544343109525926 0 7.4544343109525926 -6.7546382881090636 0 0 0 0 -282.78816551873024 -11.909200126087853 0 -11.909200126087853 228.75460246314105 0 0 0 0 12.177589170169085 -193.7490660154217 0 -193.7490660154217 72.948617662354081 0 0 0 0 311.59608445047343 -92.444407456507179 0 -92.444407456507179 -155.80758489118671 0 0 0 0 518.61976390094787 216.49345903699032 0 216.49345903699032 543.39225792835714 0 0 0 0 46.807653999654576 128.61492961656404 0 128.61492961656404 212.28332877442153 0 0 0 0 586.73028108563449 238.0648329969008 0 238.0648329969008 13.71733804379619 0 0 0 0 969.40552276279777 358.80407767147699 0 358.80407767147699 119.18807127100172 0 0 0 0 648.31363680496725 837.19428287544361 0 837.19428287544361 739.48514686210183 0 0 0 0 496.9422323233448 331.48591339002814 0 331.48591339002814 57.316072000565292 0 0 0 0 301.72525607518401 259.71042979813296 0 259.71042979813296 199.45681870504995 0 0 0 0 284.49126740943029 441.35034094266484 0 441.35034094266484 311.901900474375 0 0 0 0 282.70793669765408 431.98762789164903 0 431.98762789164903 264.04339841277033 0 0 0 0 258.44929096083797 490.22618253461587 0 490.22618253461587 452.45569464735308 0 0 0 0 311.29542643972673 458.13246781153066 0 458.13246781153066 314.52373133195897 0 0 0 0 24.312431996630039 278.69162644416792 0 278.69162644416792 596.73858173253939 0 0 0 0 -4.7598136836541016 298.30281183212981 0 298.30281183212981 1395.8457825213773 0 0 0 0 14.555546950752614 79.053959465587468 0 79.053959465587468 341.93728597120935 0 0 0 0 87.23084099782136 138.47240418899673 0 138.47240418899673 221.50365117584079 0 0 0 0 14.558521527874518 7.576908436005624 0 7.576908436005624 -3.4048362735033955 0 0 0 0 608.39553665685526 135.30746673980138 0 135.30746673980138 -283.26611167744886 0 0 0 0 512.0223876994387 830.89860298106646 0 830.89860298106646 579.16184756794246 0 0 0 0 6.478694061229362 1.0334112488516354 0 1.0334112488516354 0.29125554137738874 0 0 0 0 -87.985989166307263 53.814530009191003 0 53.814530009191003 -20.538200211520234 0 0 0 0 -5.8669323928288861 13.545991334372204 0 13.545991334372204 -9.9635546910881629 0 0 0 0 -32.542781672869751 215.70344750290315 0 215.70344750290315 182.48239135400217 0 0 0 0 129.07217489476898 -90.725250224402771 0 -90.725250224402771 -436.65130300337478 0 0 0 0 -3.8286222560398073 3.5855354510726869 0 3.5855354510726869 -3.731684196841158 0 0 0 0 148.47348881015205 15.904359046904574 0 15.904359046904574 -55.83121107201805 0 0 0 0 260.14867465035059 464.64337488493311 0 464.64337488493311 -510.44945578427723 0 0 0 0 -354.04136080460739 -66.729052943208444 0 -66.729052943208444 76.696766485579246 0 0 0 0 -77.441158582892967 73.278412973551895 0 73.278412973551895 126.05972657336315 0 0 0 0 -577.85871042709186 -148.44665331684337 0 -148.44665331684337 29.322933509400173 0 0 0 0 74.844431418547174 186.65250968202236 0 186.65250968202236 58.572523235485278 0 0 0 0 -281.2652292796738 520.26204689329279 0 520.26204689329279 -245.8838581807795 0 0 0 0 418.61359246721258 372.1585237145282 0 372.1585237145282 92.516034516403664 0 0 0 0 264.76407570270385 413.83480719321324 0 413.83480719321324 552.71762851007588 0 0 0 0 419.00189860190585 315.66954719645946 0 315.66954719645946 -255.0665619336869 0 0 0 0 -38.142731169078615 194.91857325679666 0 194.91857325679666 485.00713126455594 0 0 0 0 395.49035627872217 411.35780425256962 0 411.35780425256962 41.193031899361813 0 0 0 0 248.40190130042538 444.46641991073238 0 444.46641991073238 113.14710521699453 0 0 0 0 618.23855208118039 630.13825444021495 0 630.13825444021495 93.872624916466222 0 0 0 0 394.51955300943519 756.6521364002183 0 756.6521364002183 154.94024179741245 0 0 0 0 97.382602773534018 551.58707415046956 0 551.58707415046956 91.469540677302575 0 0 0 0 507.9006498932431 1017.3329796632806 0 1017.3329796632806 560.58834187984758 0 0 0 0 29.739129228139063 478.49878205499408 0 478.49878205499408 377.35103448239897 0 0 0 0 562.5250822417438 848.26087275427926 0 848.26087275427926 493.78339592060001 0 0 0 0 991.76650335991872 426.83428318257938 0 426.83428318257938 21.23115590145062 0 0 0 0 519.52438783527759 778.33621556023536 0 778.33621556023536 674.55312487908304 0 0 0 0 580.92915332097618 775.36836637577835 0 775.36836637577835 547.20528351396752 0 0 0 0 3.1386316923341724 5.6317040467496327 0 5.6317040467496327 1.5856548648750817 0 0 0 0 753.75395954014675 454.73373073912444 0 454.73373073912444 14.648885419119324 0 0 0 0 -21.17786090853042 37.145422039149707 0 37.145422039149707 -13.292412213952048 0 0 0 0 -296.74300100840264 28.863221099102702 0 28.863221099102702 125.10322772180371 0 0 0 0 -222.35167836984328 432.42008765102582 0 432.42008765102582 742.52030720837774 0 0 0 0 -389.03211981416462 192.78136467282411 0 192.78136467282411 -86.240010118905047 0 0 0 0 0.28060392771184794 6.3113632338809964 0 6.3113632338809964 -0.037426446026188387 0 0 0 0 -303.51545703443117 133.00360313537021 0 133.00360313537021 -88.139107445766058 0 0 0 0 -212.72900922319513 84.689272223730995 0 84.689272223730995 -71.825506274246436 0 0 0 0 -223.00426949553366 175.67303778273708 0 175.67303778273708 -141.9086081959249 0 0 0 0 -381.90298909265584 199.81334553309739 0 199.81334553309739 -51.708718083773419 0 0 0 0 3.183399352678606 4.5092483632044207 0 4.5092483632044207 3.1234635147476553 0 0 0 0 -360.31882722496084 116.91442387534516 0 116.91442387534516 82.285928629591581 0 0 0 0 -217.68447678886878 97.905927092762795 0 97.905927092762795 -15.997601509930973 0 0 0 0 314.40301300474675 608.19257616788673 0 608.19257616788673 39.185662679401503 0 0 0 0 196.02593640764826 394.53608619494844 0 394.53608619494844 -126.57131465388738 0 0 0 0 2.4879510136140937 2.9792693105383989 0 2.9792693105383989 1.2272636434874187 0 0 0 0 -386.51890643050865 207.9381795170957 0 207.9381795170957 507.82200791134892 0 0 0 0 106.26108532914077 462.38114406390378 0 462.38114406390378 483.44172570775436 0 0 0 0 -0.18224716583790723 274.28723773499769 0 274.28723773499769 296.18538330846604 0 0 0 0 -53.644693951460795 169.0761934936736 0 169.0761934936736 -103.19722040832858 0 0 0 0 -106.3407651408852 114.06500415640039 0 114.06500415640039 188.17182458920433 0 0 0 0 0.087562875633011572 198.02114103525673 0 198.02114103525673 -103.73790829548307 0 0 0 0 -287.95040573763254 278.2034238665492 0 278.2034238665492 -53.165631398465848 0 0 0 0 -54.258830594080791 106.03714820860478 0 106.03714820860478 -188.40025396031706 0 0 0 0 -11.6079122855881 195.57780709252711 0 195.57780709252711 -102.612109328722 0 0 0 0 -0.013926546467700973 188.37811666595644 0 188.37811666595644 -101.30588777053345 0 0 0 0 -3.1483962326528854 264.02943255245327 0 264.02943255245327 117.06849334013168 0 0 0 0 -0.036246480914996937 190.04056669487727 0 190.04056669487727 -68.01425160414874 0 0 0 0 6.5805006885930197 110.44878794519354 0 110.44878794519354 143.23114807241564 0 0 0 0 -172.6793763153255 308.11642154668061 0 308.11642154668061 83.710517253741273 0 0 0 0 55.180164416844491 215.00662312127952 0 215.00662312127952 -98.111726923369133 0 0 0 0 2.2577806971036694 2.3583123764023242 0 2.3583123764023242 0.24982827998840662 0 0 0 0 -263.34703091863776 78.025798146553825 0 78.025798146553825 69.871471460694011 0 0 0 0 12.516453127798741 222.06382628857864 0 222.06382628857864 -119.05481053296717 0 0 0 0 -282.45697672880488 123.19521727056599 0 123.19521727056599 -36.869085563069348 0 0 0 0 -289.32313738632365 111.22803485900658 0 111.22803485900658 -54.730352875129029 0 0 0 0 1.1422563162705899 7.0835303450416802 0 7.0835303450416802 13.630668955603156 0 0 0 0 -337.15556704248593 172.49095747930005 0 172.49095747930005 -59.591996503449991 0 0 0 0 -329.33830349573691 135.35105214507348 0 135.35105214507348 -11.110542266927951 0 0 0 0 -274.95056173877674 158.87735236427397 0 158.87735236427397 -76.165465392637998 0 0 0 0 2.2580781216582011 6.2695596362068784 0 6.2695596362068784 12.083848455675266 0 0 0 0 -15.927102074580034 0.4162275700173268 0 0.4162275700173268 21.7212365260566 0 0 0 0 -335.23640066901862 170.56222256691672 0 170.56222256691672 -18.966172471551545 0 0 0 0 -361.44777115056786 274.43761730890583 0 274.43761730890583 -101.50000326409099 0 0 0 0 -37.358721565149608 66.29217390606027 0 66.29217390606027 -2.2982924572534102 0 0 0 0 -22.224807551974664 15.936219818447171 0 15.936219818447171 -2.6114094725045689 0 0 0 0 3.254369147856778 56.421253040866759 0 56.421253040866759 17.515554772648102 0 0 0 0 -57.084873373103619 29.345045395312809 0 29.345045395312809 65.542150516790571 0 0 0 0 2.2211061557149208 5.0040185608382615 0 5.0040185608382615 8.2653562705707415 0 0 0 0 -282.50262712033145 285.85167641081534 0 285.85167641081534 -157.54334238858064 0 0 0 0 -107.497731600306 141.40679938297035 0 141.40679938297035 -166.6809913921353 0 0 0 0 -0.021750689447799232 145.51085987206443 0 145.51085987206443 -199.1413156537601 0 0 0 0 -64.673109415554791 189.67484162651817 0 189.67484162651817 -185.52237278354005 0 0 0 0 0.22889847588521661 146.22166316854145 0 146.22166316854145 -176.29145851468638 0 0 0 0 -113.48353545984719 227.30452198008243 0 227.30452198008243 -188.64133941994442 0 0 0 0 -108.30835800649947 251.65319342425755 0 251.65319342425755 -98.109550933307986 0 0 0 0 -640.77507228385366 1027.3285160076775 0 1027.3285160076775 -795.8150236355541 0 0 0 0 -922.75279175878677 870.01576648376795 0 870.01576648376795 -712.72360722771555 0 0 0 0 -538.54314273694399 937.52921745067761 0 937.52921745067761 -915.82299803030037 0 0 0 0 -271.57325863381266 992.15722491471388 0 992.15722491471388 -928.33415628255898 0 0 0 0 -1.4131988882290898 1190.5248905128828 0 1190.5248905128828 -1007.7695575020844 0 0 0 0 -446.63208150710852 1335.0635785764516 0 1335.0635785764516 -716.79454327957501 0 0 0 0 -748.86401856053999 1013.4346363694312 0 1013.4346363694312 -824.19451677911275 0 0 0 0 -886.71917640518222 1086.9175585333978 0 1086.9175585333978 -788.99083985199104 0 0 0 0 -820.5585976907023 955.564603016006 0 955.564603016006 -805.07573495073484 0 0 0 0 -653.37434561864939 1127.1807489754246 0 1127.1807489754246 -773.9369190434445 0 0 0 0 -980.65123278761166 1033.97314173021 0 1033.97314173021 -763.54316355126502 0 0 0 0 -1047.2749868449464 949.07921432676812 0 949.07921432676812 -766.53469204958424 0 0 0 0 -1215.9336338942685 951.96144364102202 0 951.96144364102202 -725.87175887396006 0 0 0 0 -1253.7909340058686 1003.5397101896451 0 1003.5397101896451 -752.25829493898345 0 0 0 0 -1045.2338161875523 950.3176623102554 0 950.3176623102554 -837.72600600338046 0 0 0 0 -1273.8926708124636 971.33271098673868 0 971.33271098673868 -704.45708611920782 0 0 0 0 -1026.4481216825952 916.05649287051347 0 916.05649287051347 -746.7399262418694 0 0 0 0 -1205.1393206121356 991.64955455511517 0 991.64955455511517 -752.27314198293607 0 0 0 0 -48.129790936702193 28.291527852210493 0 28.291527852210493 -14.294960453597014 0 0 0 0 -4.6325447986757524 0.5775972738199755 0 0.5775972738199755 -1.3017789815394849 0 0 0 0 -72.328013779915636 27.688349559655762 0 27.688349559655762 31.546496652554197 0 0 0 0 -35.984376959931978 3.9016053265186201 0 3.9016053265186201 19.622221181634814 0 0 0 0 -1124.5670534899691 985.82298733148491 0 985.82298733148491 -863.7695967652835 0 0 0 0 -982.95331172514125 974.51211333153333 0 974.51211333153333 -792.34985249892634 0 0 0 0 -1219.439873932075 851.21044280295246 0 851.21044280295246 -734.9098697014997 0 0 0 0 -1146.2821420474793 935.10737662065367 0 935.10737662065367 -709.52455711385119 0 0 0 0 -1.5879957693174305 2.0755043957064885 0 2.0755043957064885 0.6451105184868311 0 0 0 0 -1058.1452435721003 879.04446228060988 0 879.04446228060988 -832.84090866334736 0 0 0 0 -1625.1276228894421 1077.1974325998854 0 1077.1974325998854 -613.79809369971917 0 0 0 0 -8.5353909288132854 11.410028951785534 0 11.410028951785534 -40.837620749574853 0 0 0 0 -998.81495125760557 882.59152739412821 0 882.59152739412821 -660.30771204564007 0 0 0 0 -2.7765693605686295 2.9209631492726658 0 2.9209631492726658 5.5262397597189477 0 0 0 0 -5.305722346281982 20.139221178133994 0 20.139221178133994 -44.502621909850859 0 0 0 0 -69.053888121503405 74.176220155786723 0 74.176220155786723 -991.57017896347679 0 0 0 0 -2.9561777375140892 6.7773983134091651 0 6.7773983134091651 -12.305771940513807 0 0 0 0 -118.8435218617451 67.743478925600357 0 67.743478925600357 1.4947407974141242 0 0 0 0 -28.997481197286106 74.032954799200525 0 74.032954799200525 -105.27980616812783 0 0 0 0 -6.0878182263184044 3.3185387411593581 0 3.3185387411593581 -2.6969393737599745 0 0 0 0 -114.7601718435908 -55.225158131783246 0 -55.225158131783246 -67.880690207282896 0 0 0 0 -423.38042228808627 -582.74375953985145 0 -582.74375953985145 1117.7450627216604 0 0 0 0 1.2908820033189841 14.691558935457579 0 14.691558935457579 -26.494525882415473 0 0 0 0 4.6696090213154093 13.406061635920196 0 13.406061635920196 -42.001713075806038 0 0 0 0 5.767672890011454 7.7676321562976227 0 7.7676321562976227 -41.082742844242603 0 0 0 0 11.298611002246616 18.372217516262026 0 18.372217516262026 -33.233205326105235 0 0 0 0 6.1743715529955807 24.844024186362731 0 24.844024186362731 -20.788054960707086 0 0 0 0 -53.734258804877754 80.473676578789309 0 80.473676578789309 -14.857827533123782 0 0 0 0 0.65242159672078515 2.9110848425710287 0 2.9110848425710287 3.2527080047611747 0 0 0 0 -501.73403334486648 696.95619957937743 0 696.95619957937743 -634.54605621672272 0 0 0 0 -961.57942859677132 941.58501600849559 0 941.58501600849559 -685.94317692273216 0 0 0 0 -734.24480099698121 665.77335424723424 0 665.77335424723424 -629.17863685319026 0 0 0 0 -0.086281796327966731 665.63054241922146 0 665.63054241922146 -863.92093935630692 0 0 0 0 -339.85197624638386 908.99259099291157 0 908.99259099291157 -911.93016387482567 0 0 0 0 -488.89518220829632 602.63766971075529 0 602.63766971075529 -625.96117940597469 0 0 0 0 1.8107785219454797 1.662061497258037 0 1.662061497258037 -0.071973556756077528 0 0 0 0 -0.83455049724580022 305.1878305217906 0 305.1878305217906 -445.05916573667128 0 0 0 0 -51.415352289224529 6.7545001811085399 0 6.7545001811085399 357.69371642137412 0 0 0 0 47.283094910279033 79.200917053185549 0 79.200917053185549 -27.48963277022267 0 0 0 0 67.063790261032409 78.28226105239446 0 78.28226105239446 228.40355306252604 0 0 0 0 -53.165349583175725 -78.779946857162514 0 -78.779946857162514 112.59683364588273 0 0 0 0 -9.6088448005757527 6.2807411351823248 0 6.2807411351823248 316.59685317771073 0 0 0 0 -49.667452288340428 289.97804912771244 0 289.97804912771244 686.91502653172211 0 0 0 0 -0.49540958918507272 -1.1712912197716747 0 -1.1712912197716747 1.1634793475171108 0 0 0 0 -36.602533257893811 121.9837690699369 0 121.9837690699369 249.45330133363314 0 0 0 0 -2.0585816300590523 392.7302252491354 0 392.7302252491354 565.43771787068545 0 0 0 0 0.059217506270215381 315.70051360202706 0 315.70051360202706 560.87939813323464 0 0 0 0 24.057781059978879 291.01712670745837 0 291.01712670745837 456.04739330902521 0 0 0 0 -31.375805467749387 264.75570190252341 0 264.75570190252341 396.43856193670945 0 0 0 0 -30.573703535279492 243.83351465817032 0 243.83351465817032 573.28565323639123 0 0 0 0 -113.53801024981931 224.02074217793097 0 224.02074217793097 433.10508413173739 0 0 0 0 -135.56192588723843 363.27632857181266 0 363.27632857181266 534.59416746150237 0 0 0 0 254.88550632793704 331.96375236106542 0 331.96375236106542 445.43647841661004 0 0 0 0 240.27760830913394 403.42917441818781 0 403.42917441818781 447.8573579535514 0 0 0 0 208.87070659271558 411.26542926354159 0 411.26542926354159 448.15890400024273 0 0 0 0 66.922889393288642 274.5472112633397 0 274.5472112633397 431.95393025878002 0 0 0 0 211.73555902954831 395.59513300098479 0 395.59513300098479 526.46856548564392 0 0 0 0 118.33480954013066 380.92528622591271 0 380.92528622591271 448.91677514896583 0 0 0 0 166.18930747848935 498.02973088506769 0 498.02973088506769 604.86529343867005 0 0 0 0 22.400228317957954 330.26962847477625 0 330.26962847477625 858.60186967591653 0 0 0 0 -370.8573217340745 117.52086784469429 0 117.52086784469429 -173.66770964756142 0 0 0 0 2.1897495831739775 -1.4466686447905914 0 -1.4466686447905914 0.077200392295837972 0 0 0 0 162.53807910661271 178.13495129686999 0 178.13495129686999 -168.3579576592274 0 0 0 0 -24.970728082640562 148.8041531889321 0 148.8041531889321 613.93497023598138 0 0 0 0 -158.20080714460346 500.30188223943696 0 500.30188223943696 -251.61367844126289 0 0 0 0 -1.7391780979992149 4.0097702209907737 0 4.0097702209907737 -1.4232819072882137 0 0 0 0 131.46549018098449 134.53431213664953 0 134.53431213664953 2.2358719648618717 0 0 0 0 -511.1882784450645 95.284100083781595 0 95.284100083781595 92.539751139156579 0 0 0 0 -328.31477085818915 -34.290430187563288 0 -34.290430187563288 -5.6094289184184163 0 0 0 0 -204.29286739008967 -63.088710109412204 0 -63.088710109412204 -48.775936760517652 0 0 0 0 -0.50580030978312607 -1.2501782829214036 0 -1.2501782829214036 0.72409534700706857 0 0 0 0 -38.341574841062538 177.89570849742449 0 177.89570849742449 513.13035593744098 0 0 0 0 235.6404657386156 415.09403414678673 0 415.09403414678673 6.2702847844484495 0 0 0 0 155.8042306836287 189.59376726660048 0 189.59376726660048 116.94122706976486 0 0 0 0 -30.371400653508317 -19.450700586392486 0 -19.450700586392486 43.376577731054567 0 0 0 0 107.84382995887427 51.184079529812152 0 51.184079529812152 65.964337143974262 0 0 0 0 68.006106607568654 -34.91687059751257 0 -34.91687059751257 37.371380368880637 0 0 0 0 0.57782181138099986 -51.031684109818343 0 -51.031684109818343 66.567814059046214 0 0 0 0 19.866973619471537 26.982272228262445 0 26.982272228262445 81.458472489997803 0 0 0 0 26.629419980075909 -16.416683092596941 0 -16.416683092596941 21.277780120028183 0 0 0 0 -123.16110122125247 48.461674678219424 0 48.461674678219424 41.105211986097856 0 0 0 0 -2.2316618489691251 6.2961777144839459 0 6.2961777144839459 -8.3669514787439141 0 0 0 0 -112.53053624890163 34.775064120083698 0 34.775064120083698 -30.941715247208776 0 0 0 0 -19.207300231893896 27.294891949473822 0 27.294891949473822 0.18841565345792333 0 0 0 0 -139.09862960450118 78.154474291397491 0 78.154474291397491 3.173050009929284 0 0 0 0 -8.6546962853983693 22.365996287513525 0 22.365996287513525 -0.81032063107412 0 0 0 0 -33.007862308761105 20.6422508686519 0 20.6422508686519 -2.9460714941160404 0 0 0 0 -32.86798179068137 23.816938956439117 0 23.816938956439117 -0.63662702739384258 0 0 0 0 -4.6556231388848275 21.603037691845117 0 21.603037691845117 -5.1561549319798701 0 0 0 0 -33.722923520510449 21.050219529437754 0 21.050219529437754 1.5704537685596733 0 0 0 0 -52.749459862141521 -34.392687974377623 0 -34.392687974377623 20.804491621956458 0 0 0 0 -114.49630264577718 87.891250993721769 0 87.891250993721769 -84.39379961018858 0 0 0 0 44.298285993805621 41.481282139104223 0 41.481282139104223 -58.734916990229976 0 0 0 0 -256.56068287714515 128.55456890385994 0 128.55456890385994 -41.541146840871079 0 0 0 0 19.860160461696069 7.2924742009918191 0 7.2924742009918191 -24.528857907440397 0 0 0 0 -29.489784127414168 1.9804753318658186 0 1.9804753318658186 56.632012346250121 0 0 0 0 183.57642028645205 69.727481445057492 0 69.727481445057492 -9.9167362475418486 0 0 0 0 6.2531638456519545 2.9425862533971241 0 2.9425862533971241 -1.2193997876992508 0 0 0 0 -36.50488988016059 -11.859261064808607 0 -11.859261064808607 199.57838869992702 0 0 0 0 140.50217777755461 150.20755980686954 0 150.20755980686954 97.522957691493502 0 0 0 0 31.884240444240277 4.6550032146624289 0 4.6550032146624289 -10.427622250830609 0 0 0 0 -22.595269744589359 9.3542629615187423 0 9.3542629615187423 2.6249820244859059 0 0 0 0 -27.767756704197382 22.163597486825893 0 22.163597486825893 -3.309766987328203 0 0 0 0 88.499125353595446 -97.877997126834089 0 -97.877997126834089 119.53260672285978 0 0 0 0 -2.9004621306296414 3.6318526192825118 0 3.6318526192825118 4.5692114248967641 0 0 0 0 -42.987623852648539 -105.03242187970682 0 -105.03242187970682 340.12102501084155 0 0 0 0 135.02639097619976 237.05933862631355 0 237.05933862631355 427.58810830648872 0 0 0 0 202.45785626085308 276.37283676376728 0 276.37283676376728 333.65121784272924 0 0 0 0 126.67847567214631 264.89421937731822 0 264.89421937731822 417.66248774637279 0 0 0 0 -46.255888149928069 129.41330967787508 0 129.41330967787508 198.97957469363791 0 0 0 0 -3.9905285691384051 122.74805361840708 0 122.74805361840708 106.5880044953301 0 0 0 0 -6.6006660218990874 106.31495778351382 0 106.31495778351382 135.08821410228848 0 0 0 0 151.20314895031333 81.05285296065631 0 81.05285296065631 97.11044129273796 0 0 0 0 -290.11869195502368 163.58134581472405 0 163.58134581472405 195.63462928320223 0 0 0 0 5.6505414991697762 286.43463353232801 0 286.43463353232801 64.552081397439224 0 0 0 0 -250.66550313329208 9.144278773215774 0 9.144278773215774 262.43139355264429 0 0 0 0 -74.503175929246936 -24.752401641437245 0 -24.752401641437245 160.0518642235329 0 0 0 0 -157.4804107407399 33.630403694929555 0 33.630403694929555 145.49304894609668 0 0 0 0 -99.766454122291179 -34.894443681121629 0 -34.894443681121629 221.51957338313514 0 0 0 0 -39.221694934822153 -1.3366297871343704 0 -1.3366297871343704 35.245786094994401 0 0 0 0 -15.767091062305212 7.5976890191151369 0 7.5976890191151369 0.30872261672580947 0 0 0 0 -38.848843639862025 -43.275870491157548 0 -43.275870491157548 153.15645889453299 0 0 0 0 59.673452169678058 106.74637594803244 0 106.74637594803244 72.055953141345526 0 0 0 0 -15.422929733264027 62.866382264433923 0 62.866382264433923 143.7301518039385 0 0 0 0 -83.80660720339074 58.408555822496965 0 58.408555822496965 114.28930747484264 0 0 0 0 -5.4035796761107733 6.9748687695638978 0 6.9748687695638978 1.1166212965524096 0 0 0 0 16.105697763239732 14.76362603823145 0 14.76362603823145 -20.225011219386943 0 0 0 0 -17.211587779439469 7.8944844463074304 0 7.8944844463074304 -0.0089984670770881792 0 0 0 0 -112.73703046662558 -56.725385993683631 0 -56.725385993683631 -29.875385088584153 0 0 0 0 -110.78871531322511 -42.606635188032669 0 -42.606635188032669 -16.663648049376206 0 0 0 0 -44.230342248672969 -0.45345328322582645 0 -0.45345328322582645 7.0909094141825335 0 0 0 0 -26.521349811948312 69.155684724409184 0 69.155684724409184 -10.956344721402274 0 0 0 0 -3.7983139893411604 5.9545089228192865 0 5.9545089228192865 5.8675693812318741 0 0 0 0 -4.2783486394210684 2.9131301353259005 0 2.9131301353259005 1.0598674681560567 0 0 0 0 -112.62035578088035 -36.936986943038391 0 -36.936986943038391 -27.857067868651939 0 0 0 0 -27.314158317691181 13.9274931848704 0 13.9274931848704 4.883216176625865 0 0 0 0 -25.829821318213362 8.8008192434645025 0 8.8008192434645025 12.240132020071087 0 0 0 0 -36.129001137529485 13.898734535819131 0 13.898734535819131 6.2607904868127662 0 0 0 0 -53.576871492878126 22.149804967804812 0 22.149804967804812 2.4075606663900544 0 0 0 0 -51.143174243741669 3.0688929142088455 0 3.0688929142088455 37.801062758364424 0 0 0 0 -12.659752962789618 9.3178661697278073 0 9.3178661697278073 9.1215447771647575 0 0 0 0 -88.091462020995095 -31.974548131023766 0 -31.974548131023766 12.972217031303444 0 0 0 0 -83.584531924061594 21.665398322926194 0 21.665398322926194 -34.148200525145512 0 0 0 0 -272.13885054812999 -61.901281854283297 0 -61.901281854283297 32.239671445800923 0 0 0 0 -105.23067953442114 42.457388335371434 0 42.457388335371434 42.467589422536548 0 0 0 0 -26.328676435368834 33.180094555667893 0 33.180094555667893 -11.821924450101505 0 0 0 0 -87.1482463680004 10.817628323860845 0 10.817628323860845 66.67801237423555 0 0 0 0 -48.527729644716572 22.281071844955051 0 22.281071844955051 -2.1034944308784311 0 0 0 0 -27.939927251318295 47.823776177887339 0 47.823776177887339 10.006328002244118 0 0 0 0 -9.3733312850975565 5.1912245732346349 0 5.1912245732346349 -1.9215274606380319 0 0 0 0 -11.673911343052168 45.375458208894997 0 45.375458208894997 -3.6250661449885229 0 0 0 0 -89.943027002656891 37.877267120256874 0 37.877267120256874 -0.39211926615826087 0 0 0 0 -43.636226635993751 14.79999242504428 0 14.79999242504428 -1.4535445159857296 0 0 0 0 -49.155236755075748 15.486821022750519 0 15.486821022750519 7.5628747358077817 0 0 0 0 -35.465198029924068 25.784723265885987 0 25.784723265885987 -10.781261062205886 0 0 0 0 -59.795123667019652 44.446541492216056 0 44.446541492216056 -9.2354582010175363 0 0 0 0 -33.866379785023327 21.021154890356655 0 21.021154890356655 -6.0154315953323074 0 0 0 0 -24.81964722200064 28.207812980335802 0 28.207812980335802 1.5276786232061568 0 0 0 0 5.2068715269560926 28.028629141135752 0 28.028629141135752 -47.864762062141381 0 0 0 0 -10.739517682082553 30.107301608814183 0 30.107301608814183 -23.435921691500937 0 0 0 0 -41.024240005259344 52.333446582495526 0 52.333446582495526 -13.682703824561031 0 0 0 0 -65.638093978863253 47.156430525888027 0 47.156430525888027 -7.841312185919378 0 0 0 0 15.035583327247878 61.248709890478494 0 61.248709890478494 -42.47701263178169 0 0 0 0 -4.7656494707152035 27.177785600644881 0 27.177785600644881 -18.964202323251357 0 0 0 0 -38.389576960282284 39.815361903409212 0 39.815361903409212 -0.80298322579619708 0 0 0 0 -65.121873892496296 62.255210904678734 0 62.255210904678734 -18.887769379405654 0 0 0 0 -2.4854322478022262 27.5528702988085 0 27.5528702988085 -13.318700126939177 0 0 0 0 -54.430843551352154 21.73972374076402 0 21.73972374076402 -12.131416743540285 0 0 0 0 -38.176799425877107 22.642692451208859 0 22.642692451208859 -5.8369049023567641 0 0 0 0 -54.936736636635032 95.765620685368049 0 95.765620685368049 -72.200522408085817 0 0 0 0 -229.87410503411957 48.90413395298674 0 48.90413395298674 10.975804652349325 0 0 0 0 1.1812123985289134 -0.28518484858719262 0 -0.28518484858719262 -1.0094967722162664 0 0 0 0 24.928589844599628 66.601480551978966 0 66.601480551978966 -44.836748311172414 0 0 0 0 87.388369875101489 37.17246109189 0 37.17246109189 -40.362473631590547 0 0 0 0 4.7858325811175746 25.158123539680673 0 25.158123539680673 12.510752251648228 0 0 0 0 -65.258936964746681 29.628327329150011 0 29.628327329150011 -13.725388416612986 0 0 0 0 -59.308305142170866 54.47607273705944 0 54.47607273705944 4.3398446524370229 0 0 0 0 -39.370284707503743 60.124341719376389 0 60.124341719376389 -16.780458568944596 0 0 0 0 -53.726834186309134 55.459369130636333 0 55.459369130636333 -3.7265521139597695 0 0 0 0 -54.279445714601025 58.897330915046041 0 58.897330915046041 -16.736556437710533 0 0 0 0 -46.041816880941042 61.539284099235374 0 61.539284099235374 -4.6713180432734589 0 0 0 0 -46.081733193568652 59.943183225135726 0 59.943183225135726 7.6802968209958635 0 0 0 0 -26.603402012340666 57.614870814497408 0 57.614870814497408 -5.8889639420085587 0 0 0 0 -31.165862673951779 50.188238502130844 0 50.188238502130844 -5.4080994424366509 0 0 0 0 -22.016593614054727 38.617640412747278 0 38.617640412747278 -7.4224754719984958 0 0 0 0 -26.713855671958299 49.432966974400188 0 49.432966974400188 -31.326787821919424 0 0 0 0 -39.349318338041485 48.264693919754791 0 48.264693919754791 -14.255728008152801 0 0 0 0 -70.241680556318897 55.196769999060052 0 55.196769999060052 -15.12174374992901 0 0 0 0 -45.151176777777437 60.497546173581213 0 60.497546173581213 -38.759487417744822 0 0 0 0 -108.66999371358543 66.148629343777429 0 66.148629343777429 -30.757987992743438 0 0 0 0 -71.52946579651325 50.147969399229623 0 50.147969399229623 -45.251148426759755 0 0 0 0 -170.85060833158786 37.874460233171703 0 37.874460233171703 -17.928331076036557 0 0 0 0 -113.47301225693082 81.46608320598898 0 81.46608320598898 -39.449046632653335 0 0 0 0 -115.05738479727006 46.585569136659615 0 46.585569136659615 -17.48914748824609 0 0 0 0 -111.66820120402554 41.177376102350536 0 41.177376102350536 -8.8670106996723916 0 0 0 0 -75.090556227674824 65.057342215812241 0 65.057342215812241 -34.16975083957368 0 0 0 0 -0.720728298990025 1.5981953249345082 0 1.5981953249345082 -1.5958465798249222 0 0 0 0 423.73077838564495 109.02478999176674 0 109.02478999176674 -46.362025425511092 0 0 0 0 -244.94452790982905 -3.982156242342171 0 -3.982156242342171 7.2066453316583647 0 0 0 0 -151.76250311553304 25.986705847215489 0 25.986705847215489 -3.2793261404440273 0 0 0 0 -125.07728901191149 -32.950414619786898 0 -32.950414619786898 -18.669171523244586 0 0 0 0 -32.065355753373296 2.0323773102481937 0 2.0323773102481937 -9.9768507994886022 0 0 0 0 -49.413590383148403 -22.739299121196382 0 -22.739299121196382 -17.551648544049385 0 0 0 0 -88.540443970283377 14.698170884279534 0 14.698170884279534 -0.412222577346256 0 0 0 0 -87.804896598390769 13.975517378334189 0 13.975517378334189 -2.8604898990233778 0 0 0 0 -44.387057796557201 7.788635693701508 0 7.788635693701508 -0.57303698538453318 0 0 0 0 -101.67414495759658 49.887749326542689 0 49.887749326542689 -4.7391456200130051 0 0 0 0 -64.261785631955718 37.332693388510961 0 37.332693388510961 -1.657703354190744 0 0 0 0 -76.181204971435363 33.334613846913271 0 33.334613846913271 4.4891249184438493 0 0 0 0 -72.129681360369432 62.358997564992023 0 62.358997564992023 -0.5051438067748677 0 0 0 0 -53.532163608098926 41.049916625908736 0 41.049916625908736 15.025179582182318 0 0 0 0 -7.5973258912199526 16.74352567398455 0 16.74352567398455 7.2192462077655364 0 0 0 0 -34.486987834506181 2.7704876776388119 0 2.7704876776388119 1.0100776859617326 0 0 0 0 -46.740344569690933 5.5656266602800315 0 5.5656266602800315 1.0433244927262422 0 0 0 0 -29.725873229952413 34.168110341648571 0 34.168110341648571 4.2838388597938319 0 0 0 0 -21.394481529365294 7.2270488612757617 0 7.2270488612757617 28.008255663226009 0 0 0 0 -5.1866360473941313 42.981670401873998 0 42.981670401873998 14.738097043050402 0 0 0 0 -10.191079656301127 26.542665848293311 0 26.542665848293311 -5.9321128999452952 0 0 0 0 -38.403596038857359 47.373263262787077 0 47.373263262787077 29.304008874438296 0 0 0 0 -2.4999745772074675 49.24250446545193 0 49.24250446545193 1.4695963987178402 0 0 0 0 -17.012937641583974 11.059498159512053 0 11.059498159512053 15.059217132078743 0 0 0 0 -53.95373813106562 66.062274188436277 0 66.062274188436277 8.2487349979146529 0 0 0 0 -35.378719698921486 57.91573909026738 0 57.91573909026738 4.7520404774477356 0 0 0 0 -31.415347635891521 43.606209373683669 0 43.606209373683669 4.9353029171761591 0 0 0 0 -35.475806085727527 58.574441344702791 0 58.574441344702791 6.9213266817387193 0 0 0 0 -61.235295821286854 55.411691528837764 0 55.411691528837764 10.535377086474909 0 0 0 0 -39.110041870299028 44.859933547493711 0 44.859933547493711 4.9519770797900264 0 0 0 0 -63.962086916333647 53.100465205279761 0 53.100465205279761 51.653162531812995 0 0 0 0 -54.368727564101277 26.978265079777586 0 26.978265079777586 0.60154794443734616 0 0 0 0 -91.478885722361156 55.236839778335707 0 55.236839778335707 38.290741270880972 0 0 0 0 -40.384528718343063 44.271599496569252 0 44.271599496569252 12.179879617440747 0 0 0 0 -38.638309744230355 55.648787063797499 0 55.648787063797499 40.776208188406599 0 0 0 0 -51.15258919353073 23.337040626531234 0 23.337040626531234 49.207050632285245 0 0 0 0 -99.927503756334772 49.921462958423945 0 49.921462958423945 65.191026099790179 0 0 0 0 -82.484411650351831 24.517893605476274 0 24.517893605476274 15.816159150344902 0 0 0 0 -103.26615300800768 12.610106364547391 0 12.610106364547391 24.582062876266718 0 0 0 0 -29.861781586238862 24.580971083022092 0 24.580971083022092 2.1921017038077935 0 0 0 0 -17.635727352215326 109.87440746563789 0 109.87440746563789 60.348942444201384 0 0 0 0 -27.311123752362619 26.571878835715324 0 26.571878835715324 42.79389981663553 0 0 0 0 -92.848003716773746 74.996198149801785 0 74.996198149801785 99.786324013228295 0 0 0 0 -127.82550350511156 -5.2272877266441355 0 -5.2272877266441355 37.697373111586785 0 0 0 0 -108.92762879221846 -23.511242112548643 0 -23.511242112548643 8.8099965633591637 0 0 0 0 -141.3617086961749 -23.779770537257718 0 -23.779770537257718 19.238313657202525 0 0 0 0 -86.638794305112242 30.764241775742903 0 30.764241775742903 36.382012595771812 0 0 0 0 -140.39378506592766 32.176517705516744 0 32.176517705516744 69.718320555286482 0 0 0 0 -181.31239196314709 -15.547234493147698 0 -15.547234493147698 35.894560466269468 0 0 0 0 -186.02252250019228 -54.698905088029278 0 -54.698905088029278 23.534691288663453 0 0 0 0 -140.55481458906434 -22.643708808071096 0 -22.643708808071096 15.480494200499379 0 0 0 0 -142.40303249354474 -47.471275300245907 0 -47.471275300245907 -3.1521291005483363 0 0 0 0 -197.84481343915104 -65.576963863753917 0 -65.576963863753917 14.636457950924523 0 0 0 0 -6.614249762583114 12.012056633320185 0 12.012056633320185 -14.571118228931368 0 0 0 0 -141.42080665673711 -101.02786658086552 0 -101.02786658086552 -97.690376602768083 0 0 0 0 -160.15160389505763 -47.951201842903174 0 -47.951201842903174 -38.372384339279961 0 0 0 0 -0.43180731598891953 2.0723530963973218 0 2.0723530963973218 -2.7647434935800028 0 0 0 0 -171.4923309404694 -29.73676511557278 0 -29.73676511557278 136.37029325768708 0 0 0 0 -5.4516748996684328 26.161835924096522 0 26.161835924096522 -147.23167263558571 0 0 0 0 -441.60503903917561 -68.32957708248432 0 -68.32957708248432 12.583187801115855 0 0 0 0 -295.36461434081139 -168.92213948512654 0 -168.92213948512654 -130.66751441616361 0 0 0 0 -211.4325247987872 2.502532287442591 0 2.502532287442591 33.772449026961112 0 0 0 0 113.71110297729319 173.70481283487243 0 173.70481283487243 -57.489079574673269 0 0 0 0 -129.20744477946209 140.15421351649456 0 140.15421351649456 21.949464225486736 0 0 0 0 -22.815084470814327 56.315292223211145 0 56.315292223211145 -8.7828260124661028 0 0 0 0 -70.581354120920878 88.399480866457452 0 88.399480866457452 -3.5201606385380728 0 0 0 0 -417.09938405560388 118.68918374609348 0 118.68918374609348 31.162338352993174 0 0 0 0 -86.879515201375398 208.96005650277084 0 208.96005650277084 -238.49849947553594 0 0 0 0 -3.7599799894549619 3.3160909669115597 0 3.3160909669115597 -1.6154409494827746 0 0 0 0 3.209932377484165 -3.6776163414817802 0 -3.6776163414817802 -118.28710030359798 0 0 0 0 -514.69940437949845 76.266488156234118 0 76.266488156234118 96.877096855736454 0 0 0 0 1.8340358259174536 -30.252422291878929 0 -30.252422291878929 -37.018513334245654 0 0 0 0 33.111186539259506 72.873817420990235 0 72.873817420990235 -182.41069255437469 0 0 0 0 18.518666643474717 -6.910260361386463 0 -6.910260361386463 -10.070221523390501 0 0 0 0 -493.27322450764768 139.31472055006816 0 139.31472055006816 20.391057486449427 0 0 0 0 -52.885599929490127 -97.056247959811117 0 -97.056247959811117 -304.41396405066189 0 0 0 0 -27.589692128969261 32.553147094682728 0 32.553147094682728 0.73765699760387804 0 0 0 0 -1.1773086500543286 37.989235430519329 0 37.989235430519329 14.406054381594004 0 0 0 0 -0.84309174341615289 42.714976694252982 0 42.714976694252982 -0.51049776065337937 0 0 0 0 -1.9159265608323039 34.839643111972691 0 34.839643111972691 -4.5882008288463112 0 0 0 0 -7.1124402957211714 36.648452914039808 0 36.648452914039808 1.5282844809989911 0 0 0 0 -33.393237829339341 51.672784469810722 0 51.672784469810722 31.226696246187203 0 0 0 0 -14.993177983589703 68.771154617923457 0 68.771154617923457 -30.849346519302344 0 0 0 0 21.515839050523937 55.597601181128994 0 55.597601181128994 -3.6331032490852522 0 0 0 0 -7.7193503570621118 0.53558020203186629 0 0.53558020203186629 2.6668875415459041 0 0 0 0 183.30164220748702 74.017675223822152 0 74.017675223822152 -43.422090247921005 0 0 0 0 124.50157469589612 68.62057933867618 0 68.62057933867618 2.3670489821981846 0 0 0 0 91.522773487689847 11.83196892662454 0 11.83196892662454 -52.756669183276244 0 0 0 0 95.085469348065089 6.5148895929814898 0 6.5148895929814898 -79.344939252216136 0 0 0 0 46.472830698701728 21.579146616968501 0 21.579146616968501 -20.256180880940519 0 0 0 0 90.202527014887892 38.881422855847632 0 38.881422855847632 -63.828330671425647 0 0 0 0 88.413696134979546 44.45445696959905 0 44.45445696959905 -20.023826988064684 0 0 0 0 166.99758085736539 24.54192555143527 0 24.54192555143527 -28.346165796057903 0 0 0 0 101.75445430417312 209.45177727281043 0 209.45177727281043 26.341305665587242 0 0 0 0 80.116488783678506 48.25237426788226 0 48.25237426788226 94.066271802352276 0 0 0 0 73.116707015404245 83.265081101992109 0 83.265081101992109 -68.020030730775034 0 0 0 0 3.3869593583526409 16.886150005824291 0 16.886150005824291 14.388965041187575 0 0 0 0 -15.725095556008455 31.069590522427461 0 31.069590522427461 -0.48397340674273437 0 0 0 0 -11.919139887213532 38.023263454964763 0 38.023263454964763 3.1583643822232261 0 0 0 0 -17.661792383223656 32.611912235839554 0 32.611912235839554 -2.0930328620725049 0 0 0 0 -17.879354046265334 29.63516018674737 0 29.63516018674737 -9.4337441204275478 0 0 0 0 -18.482626526696549 44.161293570105045 0 44.161293570105045 -6.7895059386937646 0 0 0 0 -10.893281299875525 36.251549718966999 0 36.251549718966999 20.015400280901304 0 0 0 0 0.065986353962216526 33.168333450686987 0 33.168333450686987 -3.8880235429678578 0 0 0 0 -16.678237340348915 45.828490983308484 0 45.828490983308484 -6.8081853975309059 0 0 0 0 -9.3423267818725435 33.660257934912806 0 33.660257934912806 -7.1547659196439781 0 0 0 0 -20.127714215544984 38.033707048540236 0 38.033707048540236 0.047304981901106657 0 0 0 0 -27.27845298900408 43.85748947878443 0 43.85748947878443 15.420571565097024 0 0 0 0 -35.028491739743913 51.031800078842934 0 51.031800078842934 10.406215069247992 0 0 0 0 -29.203599307402328 38.954495764272906 0 38.954495764272906 -27.457252658859943 0 0 0 0 4.3635530685151025 29.575778352575824 0 29.575778352575824 6.6632284542741189 0 0 0 0 -4.0189319770724978 34.42167607920419 0 34.42167607920419 1.7788765163531934 0 0 0 0 -5.2942037501833568 28.173697935122988 0 28.173697935122988 -0.28488040318553942 0 0 0 0 1.7369579680835017 33.027899806551446 0 33.027899806551446 -1.7195095943276328 0 0 0 0 -44.076926990106585 34.801644232531544 0 34.801644232531544 -13.373194068757584 0 0 0 0 -34.763314717143658 26.850314437273482 0 26.850314437273482 -27.863822165988495 0 0 0 0 0.010642578968941052 8.5040081965865397 0 8.5040081965865397 -7.9832024881994101 0 0 0 0 -145.50101680065563 15.861322935965291 0 15.861322935965291 50.08524248739559 0 0 0 0 23.4982994970851 55.930804483289648 0 55.930804483289648 7.7251642982300837 0 0 0 0 8.1983960411671433 41.393308970553335 0 41.393308970553335 29.136176390136825 0 0 0 0 9.9704416809230167 16.323611090089045 0 16.323611090089045 14.7702365998815 0 0 0 0 19.86277738242643 46.73816341969723 0 46.73816341969723 -6.4050917798012961 0 0 0 0 3.5158351674763253 26.034302571053558 0 26.034302571053558 -6.5057002218532034 0 0 0 0 -11.710394225443451 22.377239755633127 0 22.377239755633127 7.8482896260247799 0 0 0 0 8.6187334099668078 24.312327545292646 0 24.312327545292646 -16.1722389602146 0 0 0 0 -1.048856990546696 0.84034968161751067 0 0.84034968161751067 -3.7355394769247994 0 0 0 0 87.563306570868008 29.725002198696529 0 29.725002198696529 -69.956376824589825 0 0 0 0 13.896600542779197 10.041759885054489 0 10.041759885054489 20.703654169906258 0 0 0 0 -38.201785497374658 146.14021632604454 0 146.14021632604454 -98.63005832501949 0 0 0 0 34.572549090318944 84.835692540911282 0 84.835692540911282 -116.76238549152913 0 0 0 0 11.724881547881523 59.958995032116945 0 59.958995032116945 -62.792031600747578 0 0 0 0 -7.6026588408931275 57.252068862158922 0 57.252068862158922 -13.398822410526918 0 0 0 0 -0.72830249879189068 38.966040761170007 0 38.966040761170007 -20.036918920319295 0 0 0 0 1.5750561297609238 36.19448221231869 0 36.19448221231869 -20.661651111890023 0 0 0 0 31.451209040806134 36.462706392954033 0 36.462706392954033 -38.515846970694838 0 0 0 0 -29.384178510877526 35.669682489362103 0 35.669682489362103 -3.8007193817582277 0 0 0 0 -164.12299816642553 14.498343966795801 0 14.498343966795801 -43.685765325528337 0 0 0 0 179.77611785507906 120.52085920121317 0 120.52085920121317 -86.927886942619807 0 0 0 0 147.54223420403287 33.000280660413409 0 33.000280660413409 -212.00823222519648 0 0 0 0 -272.6117878296136 210.27451023483172 0 210.27451023483172 103.23931561365316 0 0 0 0 -7.355609110527439 -41.79900082857057 0 -41.79900082857057 -67.213644620449486 0 0 0 0 -423.65503517605248 -66.240776342359823 0 -66.240776342359823 78.01178975484072 0 0 0 0 88.443170449492754 251.90102563772962 0 251.90102563772962 -36.017960768254852 0 0 0 0 -1.2165877586392604 4.6698739135815188 0 4.6698739135815188 -6.8042693285299265 0 0 0 0 120.45451047630559 116.24364409892587 0 116.24364409892587 21.609430371085182 0 0 0 0 -154.73377935595454 118.38985232460232 0 118.38985232460232 -57.723439320187026 0 0 0 0 -176.2542264833537 -102.63452816273275 0 -102.63452816273275 45.334305739099364 0 0 0 0 -37.560692399983182 39.872597893639409 0 39.872597893639409 -11.238989576618081 0 0 0 0 83.212042560655391 126.15305554298538 0 126.15305554298538 57.806899097951828 0 0 0 0 -1.1534552139114993 2.2585208374881063 0 2.2585208374881063 -1.7313540360495097 0 0 0 0 292.74551742905169 131.30582222152862 0 131.30582222152862 -54.803518774089753 0 0 0 0 -396.88575115523417 -148.71664832112219 0 -148.71664832112219 175.0848382922959 0 0 0 0 301.82421062337926 163.19295875872285 0 163.19295875872285 -109.24564188868681 0 0 0 0 133.68527678638202 50.783281203363003 0 50.783281203363003 47.712377719479264 0 0 0 0 -120.03167976753139 82.003094342597251 0 82.003094342597251 82.361917438793171 0 0 0 0 4.3912403616221809 10.533648641773325 0 10.533648641773325 -0.080227825351224524 0 0 0 0 -27.995227991566935 104.02899443728529 0 104.02899443728529 26.98334969663847 0 0 0 0 -12.760106222427567 216.8827376127083 0 216.8827376127083 -133.09259314723022 0 0 0 0 -39.982106686639014 43.508042467132228 0 43.508042467132228 -12.708140618880833 0 0 0 0 -28.176524767084629 94.383399651807849 0 94.383399651807849 135.45441563068016 0 0 0 0 -231.33610821155889 -21.396359835773183 0 -21.396359835773183 74.94544829014194 0 0 0 0 123.93500813046558 174.20202606539897 0 174.20202606539897 -51.257677863817662 0 0 0 0 377.12923680935637 235.13539498051978 0 235.13539498051978 -157.89862991142581 0 0 0 0 254.2192658116619 314.58266941563488 0 314.58266941563488 55.736143887843355 0 0 0 0 110.32568416086724 58.195845174832357 0 58.195845174832357 -103.21779185983178 0 0 0 0 65.349372836353723 90.61093331441225 0 90.61093331441225 107.56469255162028 0 0 0 0 81.431320551278986 112.5567644901148 0 112.5567644901148 48.94876335052686 0 0 0 0 -16.054634201580484 44.812437138840323 0 44.812437138840323 24.629646032990422 0 0 0 0 33.405152423557865 26.778397132299403 0 26.778397132299403 -11.008358463303011 0 0 0 0 34.725179639832731 67.782782941624646 0 67.782782941624646 -22.323744565663219 0 0 0 0 -1.8818005016073585 62.968986504929489 0 62.968986504929489 15.025721148442244 0 0 0 0 22.855323775763878 31.877241282920352 0 31.877241282920352 32.00028520995167 0 0 0 0 2.8740179563873625 29.605550162655824 0 29.605550162655824 32.331939071778436 0 0 0 0 -21.347108672862305 76.748884296872347 0 76.748884296872347 97.173082512730616 0 0 0 0 6.6713515940937214 30.29556656837849 0 30.29556656837849 26.957742931481334 0 0 0 0 1.2197871912067058 67.15724027406759 0 67.15724027406759 -14.960065253733774 0 0 0 0 12.506059661886027 32.851076106120331 0 32.851076106120331 33.047049551659924 0 0 0 0 -9.2871317873295993 104.96683825408627 0 104.96683825408627 56.787091765145306 0 0 0 0 3.6725336080125999 17.11169202128076 0 17.11169202128076 34.474991670445888 0 0 0 0 -20.638766579540516 34.17305931818521 0 34.17305931818521 1.9660175925805277 0 0 0 0 -7.5175628937892895 39.526478595375806 0 39.526478595375806 24.974813849169777 0 0 0 0 -12.804219474492129 40.977002842249931 0 40.977002842249931 15.538872715564139 0 0 0 0 21.427284082295955 73.999839887452254 0 73.999839887452254 27.467812788512674 0 0 0 0 18.551505784307665 59.390067166612425 0 59.390067166612425 46.508812200336251 0 0 0 0 -6.5341427537382799 53.158610257115598 0 53.158610257115598 14.252100053041005 0 0 0 0 57.017413040681276 40.062453347003611 0 40.062453347003611 8.0728706513782527 0 0 0 0 87.406609162062523 67.553105816434254 0 67.553105816434254 14.25902415625751 0 0 0 0 -7.7492759131527578 24.563064124539025 0 24.563064124539025 -6.4508732582946955 0 0 0 0 -3.5446069494481378 9.2080641433101178 0 9.2080641433101178 -2.5146297138536227 0 0 0 0 88.388076287408012 114.19450798049513 0 114.19450798049513 31.010852275285288 0 0 0 0 -6.4841983640435501 21.71614116152341 0 21.71614116152341 24.511912363792362 0 0 0 0 -18.41606913592841 17.045207562907308 0 17.045207562907308 38.333239212319313 0 0 0 0 21.016716217272915 127.84819774721836 0 127.84819774721836 78.855227399879368 0 0 0 0 -0.67145334431734227 60.724568451354571 0 60.724568451354571 33.751969748249394 0 0 0 0 -21.889853352957289 58.10009511874523 0 58.10009511874523 36.638993324369949 0 0 0 0 8.8653826705995016 86.669088086477132 0 86.669088086477132 64.756337216618704 0 0 0 0 74.449759388651728 125.1887232914396 0 125.1887232914396 53.823761411382293 0 0 0 0 -28.916720602396026 29.539549554697917 0 29.539549554697917 -7.9957444888730151 0 0 0 0 -1.431511986798526 2.8398658692021712 0 2.8398658692021712 -5.0627868912608562 0 0 0 0 161.51146425111801 29.304188456590055 0 29.304188456590055 -1.4388009690046601 0 0 0 0 147.57944420652348 180.15383676229612 0 180.15383676229612 98.125521950554685 0 0 0 0 -2.3497525488569693 2.2889609138165738 0 2.2889609138165738 -4.2631526461724718 0 0 0 0 -160.52415709582419 -19.086781898266054 0 -19.086781898266054 20.729272204845984 0 0 0 0 -98.822924477077322 130.15275569604273 0 130.15275569604273 93.366805260076944 0 0 0 0 -160.59565873234533 83.843717716423271 0 83.843717716423271 80.183550414141791 0 0 0 0 0.38423934338788968 30.007887069679782 0 30.007887069679782 4.5850973723136121 0 0 0 0 32.330280577065423 124.06705187003536 0 124.06705187003536 9.0482195947079163 0 0 0 0 34.524646751963701 62.264165983604471 0 62.264165983604471 -20.985501194852986 0 0 0 0 43.018584908757475 31.071940240522963 0 31.071940240522963 -65.79340029280138 0 0 0 0 178.63159657476353 185.4665028743475 0 185.4665028743475 13.316853610238468 0 0 0 0 10.351918473774276 10.629786608078575 0 10.629786608078575 -44.049463159171864 0 0 0 0 11.174282993019006 40.125541837813216 0 40.125541837813216 -16.00283196438977 0 0 0 0 12.924409177256166 38.521764539145806 0 38.521764539145806 -15.479485338553786 0 0 0 0 3.6415630968428729 23.601946283338933 0 23.601946283338933 9.6522166076307059 0 0 0 0 -0.62747823499375954 19.884386141522555 0 19.884386141522555 1.3691457577224355 0 0 0 0 11.42121706038597 38.275505324265396 0 38.275505324265396 -13.245220843557036 0 0 0 0 5.2090754334330001 30.168322098027701 0 30.168322098027701 9.2888309305094481 0 0 0 0 -1.3116033375969494 5.2969032471581414 0 5.2969032471581414 2.5289738212010846 0 0 0 0 1.4300398509512888 53.048042522310425 0 53.048042522310425 53.703743001133262 0 0 0 0 -18.841247508367815 47.268982607634825 0 47.268982607634825 74.158782434155 0 0 0 0 -5.1243899021208108 12.073620143575859 0 12.073620143575859 -6.8524046169449093 0 0 0 0 5.2961042771667053 30.92617674461826 0 30.92617674461826 4.0549496990279295 0 0 0 0 -6.9186497776172473 63.214232952028397 0 63.214232952028397 4.7616096509955241 0 0 0 0 229.72637362165551 100.32790723396465 0 100.32790723396465 -18.765740469738375 0 0 0 0 341.37387439550002 282.15926407277584 0 282.15926407277584 27.193022949621081 0 0 0 0 291.61620401332038 257.58634430843813 0 257.58634430843813 15.931681193505938 0 0 0 0 149.17875533156257 135.93619249498806 0 135.93619249498806 99.147068097212468 0 0 0 0 58.92179963264698 12.945069355891974 0 12.945069355891974 -21.484576145026949 0 0 0 0 172.59392144845515 109.88179068509999 0 109.88179068509999 -24.607827537882258 0 0 0 0 274.67307651603187 171.78801858708175 0 171.78801858708175 23.962099879485322 0 0 0 0 200.51323496586701 129.23722086397174 0 129.23722086397174 24.868333349260411 0 0 0 0 109.1930183603381 172.70764566532125 0 172.70764566532125 25.612454124348005 0 0 0 0 130.0667068556877 -207.71082001387731 0 -207.71082001387731 -137.91577772896562 0 0 0 0 -14.352580785416691 31.028752498007989 0 31.028752498007989 -41.179008798159316 0 0 0 0 -296.63883705347689 438.71139004977522 0 438.71139004977522 57.568799406106336 0 0 0 0 44.720592570367444 -118.64127823838498 0 -118.64127823838498 -111.39511043534731 0 0 0 0 161.29657787893029 155.01066115617687 0 155.01066115617687 -48.327289555978496 0 0 0 0 156.7935270016751 123.06324067522291 0 123.06324067522291 -264.02611391934624 0 0 0 0 33.342738098712289 22.325862234494707 0 22.325862234494707 83.719157769514823 0 0 0 0 43.530973973476648 -12.301633514947753 0 -12.301633514947753 -32.366988461697474 0 0 0 0 47.175674144396908 -45.294297374781308 0 -45.294297374781308 93.158802438629209 0 0 0 0 -14.650534862573096 30.050670231778184 0 30.050670231778184 -39.364987242272093 0 0 0 0 3.0071620419575993 9.8331342280221179 0 9.8331342280221179 -3.9626986374496482 0 0 0 0 -76.75764905406686 36.161790458332689 0 36.161790458332689 1.9002212093873823 0 0 0 0 57.91039624921541 62.415046559071925 0 62.415046559071925 -13.536795341024117 0 0 0 0 -14.981856132479152 73.829786184722252 0 73.829786184722252 -76.052577177622879 0 0 0 0 14.978008282442488 7.5495902247571109 0 7.5495902247571109 -3.6627768753046865 0 0 0 0 -10.259478929660773 31.21018887515087 0 31.21018887515087 -29.41708911330943 0 0 0 0 71.148555275744002 164.08959851605323 0 164.08959851605323 111.45442508310225 0 0 0 0 0.43766378031068598 99.174694529383487 0 99.174694529383487 217.12900130396883 0 0 0 0 60.057786511308223 30.122841427029925 0 30.122841427029925 22.260260925344483 0 0 0 0 81.101496834849968 293.40720422644154 0 293.40720422644154 640.90944950909761 0 0 0 0 5.5574401277608274 3.3363879685213647 0 3.3363879685213647 2.0401480367372926 0 0 0 0 -14.673423135773191 -33.38490451395046 0 -33.38490451395046 -54.12734948983416 0 0 0 0 310.39435652138491 9.1618773116788361 0 9.1618773116788361 -168.650667204005 0 0 0 0 258.61454186777701 116.06995735980308 0 116.06995735980308 -133.90104881883599 0 0 0 0 624.77621964222635 191.06685920182645 0 191.06685920182645 -136.87040062311553 0 0 0 0 597.20935615044118 467.21697192545253 0 467.21697192545253 -66.343498622329207 0 0 0 0 34.293933617373114 34.525288217810157 0 34.525288217810157 -14.840245506449719 0 0 0 0 775.90341444358637 -95.491082056265441 0 -95.491082056265441 781.38732039456954 0 0 0 0 3.7600389524840665 -0.44556033178727716 0 -0.44556033178727716 -3.8110689781304075 0 0 0 0 1.3462764464816388 2.8302380630477089 0 2.8302380630477089 -6.8489749153393404 0 0 0 0 43.41469787326605 -10.464980108462896 0 -10.464980108462896 19.143133598787244 0 0 0 0 263.34820630821923 667.57778164542106 0 667.57778164542106 110.74981739811483 0 0 0 0 12.760572932092145 -31.998838727119619 0 -31.998838727119619 11.874520371617109 0 0 0 0 309.70766711038505 179.6871272769522 0 179.6871272769522 127.02892659207282 0 0 0 0 20.591743562342344 98.264651076139671 0 98.264651076139671 85.70103958430991 0 0 0 0 3.0029859702495401 -0.61866912852634925 0 -0.61866912852634925 -2.1385521872764741 0 0 0 0 269.67210155898647 118.04162177797116 0 118.04162177797116 -4.8245873271371238 0 0 0 0 334.1344557270495 300.76550389261683 0 300.76550389261683 214.50821489271766 0 0 0 0 50.692979234537233 92.279041897621028 0 92.279041897621028 -43.820716127345804 0 0 0 0 1.271057416405597 3.2595670369222418 0 3.2595670369222418 -6.6734354663075237 0 0 0 0 -0.94998735830267833 14.045855437397222 0 14.045855437397222 27.772488911621622 0 0 0 0 155.73833315330558 172.51618427243011 0 172.51618427243011 127.73201852908824 0 0 0 0 -6.3754953064317306 32.912297277885955 0 32.912297277885955 -16.542934661410982 0 0 0 0 -10.339631220838783 19.296559934591642 0 19.296559934591642 5.3736984563365695 0 0 0 0 6.8153804394735289 10.067027039807954 0 10.067027039807954 0.15339421870885417 0 0 0 0 32.090253507354646 4.7751809600194974 0 4.7751809600194974 3.369604277642793 0 0 0 0 22.697784869407769 14.38236425100331 0 14.38236425100331 -0.012765593952055548 0 0 0 0 6.8647540826589193 9.3478052285236117 0 9.3478052285236117 6.6266001770854928 0 0 0 0 1.3577818666024939 1.3765371013167282 0 1.3765371013167282 -3.3171068194862414 0 0 0 0 17.34265570955904 11.402744349188652 0 11.402744349188652 0.019700397417182103 0 0 0 0 19.350556020250224 14.806883835008193 0 14.806883835008193 5.1271424628212117 0 0 0 0 0.98276461172505947 2.9294502491610359 0 2.9294502491610359 -5.6549106699071388 0 0 0 0 33.147447334624303 23.459143872853019 0 23.459143872853019 6.8389841046664515 0 0 0 0 28.923057905951282 134.33987493153472 0 134.33987493153472 165.4942806406907 0 0 0 0 165.55854525475024 170.23727705739111 0 170.23727705739111 122.72003093341482 0 0 0 0 144.92135173831502 237.30501718069354 0 237.30501718069354 198.25554848216416 0 0 0 0 148.33328535663168 168.72629689078167 0 168.72629689078167 170.35189639670352 0 0 0 0 91.978078780244687 187.48495672700665 0 187.48495672700665 180.51504462384037 0 0 0 0 85.136869888978254 141.05947291954362 0 141.05947291954362 149.33571283033234 0 0 0 0 150.72650972153497 257.80017219411093 0 257.80017219411093 213.32790605885248 0 0 0 0 28.265615359267031 135.97889604645206 0 135.97889604645206 149.32676962137339 0 0 0 0 32.244065638422398 128.57313632030127 0 128.57313632030127 98.470326647671754 0 0 0 0 98.465964172522945 148.55263194268628 0 148.55263194268628 132.06573130417382 0 0 0 0 -799.97987335473226 645.85262101567423 0 645.85262101567423 -0.38425965125134098 0 0 0 0 -21.006253530053073 119.61081832794298 0 119.61081832794298 217.63839378015837 0 0 0 0 -26.610015596204903 150.72339324569475 0 150.72339324569475 164.43870797294949 0 0 0 0 -3.5314661175764286 6.407625477304407 0 6.407625477304407 -4.5070251517149984 0 0 0 0 11.303263128327671 7.3614566119213123 0 7.3614566119213123 -24.848101275623776 0 0 0 0 43.253003293226357 152.19211860616633 0 152.19211860616633 137.22369411811087 0 0 0 0 -32.453014020051342 31.543729752651416 0 31.543729752651416 -60.894262568697741 0 0 0 0 0.2217954406144429 6.6829006430588151 0 6.6829006430588151 -9.0996241117727017 0 0 0 0 -48.815722537139663 67.516232421970926 0 67.516232421970926 273.68231991584616 0 0 0 0 -66.799816309088783 319.76458556490252 0 319.76458556490252 -7.2753930866238079 0 0 0 0 3.6413183527838555 172.54483708553744 0 172.54483708553744 112.60826810121944 0 0 0 0 60.600000833263039 246.9544680074905 0 246.9544680074905 189.89517977558353 0 0 0 0 -102.6057766278027 149.48223733907071 0 149.48223733907071 164.0463206678869 0 0 0 0 29.708514203048253 132.42188721866114 0 132.42188721866114 169.8211113388752 0 0 0 0 8.9760756501273136 80.250716942578947 0 80.250716942578947 184.30351398268249 0 0 0 0 14.248773150815396 109.43248615880293 0 109.43248615880293 136.21701018753083 0 0 0 0 48.961295425287972 96.623075457358937 0 96.623075457358937 129.22689020679536 0 0 0 0 -83.350832158739649 557.81218768522012 0 557.81218768522012 -278.78401075886359 0 0 0 0 99.18693140403775 250.36742540172781 0 250.36742540172781 -223.36528581385937 0 0 0 0 -287.04834930437937 277.6249572054985 0 277.6249572054985 186.04350671030898 0 0 0 0 97.867865615524352 166.47329709478799 0 166.47329709478799 -88.179650482255965 0 0 0 0 -0.065567422232334138 0.15608280832756805 0 0.15608280832756805 -2.221191980828138 0 0 0 0 -1577.9004645688401 1300.7693509573328 0 1300.7693509573328 -670.11054591335414 0 0 0 0 105.80985758885072 9.2911673191483715 0 9.2911673191483715 -38.762649637064897 0 0 0 0 127.21417440045843 121.88124219132078 0 121.88124219132078 -46.831027516382164 0 0 0 0 -9.7200592041463096 103.29852818835661 0 103.29852818835661 -1.2893031264538877 0 0 0 0 0.68536934388976078 164.82263715064619 0 164.82263715064619 128.76927346106095 0 0 0 0 1.3460343143669888 225.34752616346532 0 225.34752616346532 26.918836410477525 0 0 0 0 28.111790591094177 29.159402714110911 0 29.159402714110911 -3.7169745874707587 0 0 0 0 -53.218072047893656 52.791501319617964 0 52.791501319617964 113.49477345472405 0 0 0 0 -37.051653235321282 37.438507072343782 0 37.438507072343782 12.594115192099707 0 0 0 0 -15.770536662690574 37.521405456194771 0 37.521405456194771 -6.523791570100002 0 0 0 0 -42.531922315742122 53.884921781573212 0 53.884921781573212 -14.371842483218643 0 0 0 0 -38.088375394567265 48.62130689022888 0 48.62130689022888 -75.477710356513853 0 0 0 0 -7.7511562572326511 13.899609169922769 0 13.899609169922769 -10.525232475614757 0 0 0 0 -21.576684718532107 23.763441418812192 0 23.763441418812192 -13.315140016692027 0 0 0 0 -78.009952428546967 43.162960562214721 0 43.162960562214721 4.2242955640540458 0 0 0 0 -5.8859150390289017 3.852549543611353 0 3.852549543611353 5.2737281045402824 0 0 0 0 -29.5332431743538 28.853278021050755 0 28.853278021050755 -9.7339008748065758 0 0 0 0 -19.915880284817746 21.327731150713237 0 21.327731150713237 -6.6783982623576321 0 0 0 0 -27.6873162431948 30.051853616881999 0 30.051853616881999 -20.124277044706105 0 0 0 0 -16.561123800318455 27.411082523582081 0 27.411082523582081 -34.610862678426201 0 0 0 0 -21.110272061408068 18.713028548589307 0 18.713028548589307 6.6981497706955011 0 0 0 0 -6.8821708755422151 42.478678827243129 0 42.478678827243129 -22.226858733869449 0 0 0 0 -40.037612060441461 63.799558673663341 0 63.799558673663341 -43.185717383959854 0 0 0 0 -11.260989812988555 34.14481192533276 0 34.14481192533276 -44.772021513376785 0 0 0 0 -14.326515546097994 15.698150520237448 0 15.698150520237448 3.6048413271623474 0 0 0 0 -34.28698207387788 56.984433749252275 0 56.984433749252275 -40.459164187399438 0 0 0 0 -43.539040772040607 61.084719583166589 0 61.084719583166589 -19.088004803245894 0 0 0 0 -36.650046114198631 60.610988786687813 0 60.610988786687813 -37.199077232333366 0 0 0 0 -44.684065207402455 53.969031374555925 0 53.969031374555925 -38.891469319190946 0 0 0 0 -44.579002004888025 51.420744287333946 0 51.420744287333946 -44.742923952377168 0 0 0 0 -34.425480170571973 59.048447011775352 0 59.048447011775352 -46.460599414989701 0 0 0 0 -31.843657675963186 339.52306731632416 0 339.52306731632416 -24.750238520322455 0 0 0 0 217.99437118030619 68.411234157327272 0 68.411234157327272 -142.41427180128812 0 0 0 0 -24.796199948390807 39.454119620596771 0 39.454119620596771 -58.256918066480353 0 0 0 0 35.52548799723445 -198.63037977660133 0 -198.63037977660133 -199.94936348759802 0 0 0 0 -302.60614445367537 82.599989186819585 0 82.599989186819585 -50.070137862057891 0 0 0 0 -8.5012674898316618 -5.5949290634162026 0 -5.5949290634162026 -43.885766667051939 0 0 0 0 -120.16218868500437 43.573867861981853 0 43.573867861981853 -42.109173513672431 0 0 0 0 10.475166017582524 -17.517586184520042 0 -17.517586184520042 -219.04234818861914 0 0 0 0 51.493121493302169 186.4674588738344 0 186.4674588738344 -19.4151920027507 0 0 0 0 -90.818766153410252 160.21402270186081 0 160.21402270186081 -174.12002347885573 0 0 0 0 61.297584123232809 101.39367843451328 0 101.39367843451328 -158.08493209883454 0 0 0 0 -58.162523030034208 18.915648957248777 0 18.915648957248777 44.758996758770081 0 0 0 0 12.559210538476691 77.93494562140404 0 77.93494562140404 -15.323513812516467 0 0 0 0 10.32107309415926 40.8375251810902 0 40.8375251810902 -15.703575972119054 0 0 0 0 2.1167258578614963 6.3398077608878936 0 6.3398077608878936 2.9701935692536949 0 0 0 0 -4.1118118584272452 81.570489923036803 0 81.570489923036803 -90.184665335415048 0 0 0 0 -19.104873594527163 45.295405016227321 0 45.295405016227321 -60.500893943674527 0 0 0 0 -4.1478480922580445 14.068604955895054 0 14.068604955895054 -10.04273483993968 0 0 0 0 -45.557045913985348 72.71815375929873 0 72.71815375929873 22.046244858924183 0 0 0 0 -35.21204780912376 46.922134213709796 0 46.922134213709796 67.081888761698792 0 0 0 0 12.657769170011306 125.18443779665722 0 125.18443779665722 34.463350959769741 0 0 0 0 -54.058848775210208 33.809212332216703 0 33.809212332216703 27.936232950363774 0 0 0 0 -30.402700027689932 36.559283994217694 0 36.559283994217694 -12.830564799201881 0 0 0 0 74.360518215551565 28.464166031015338 0 28.464166031015338 20.000121433309687 0 0 0 0 -28.978042918345523 32.649349264328634 0 32.649349264328634 -12.842037074559698 0 0 0 0 -236.11617446732271 91.881050799554941 0 91.881050799554941 -9.0343083357583964 0 0 0 0 370.16385010731756 152.00210696185241 0 152.00210696185241 -70.555686985142529 0 0 0 0 -251.49225092919369 -97.669146714659291 0 -97.669146714659291 45.299680463038385 0 0 0 0 -170.570261764733 139.76631423029903 0 139.76631423029903 -72.474009767989628 0 0 0 0 -127.97692128652125 108.387814697664 0 108.387814697664 94.386819295876194 0 0 0 0 -47.785049731297477 32.6436866526019 0 32.6436866526019 -31.28778546556714 0 0 0 0 -36.52703860928159 40.370137446519948 0 40.370137446519948 -24.59286466424237 0 0 0 0 -68.92327799560735 64.100975446403027 0 64.100975446403027 -35.508959983657405 0 0 0 0 -94.929301263444358 110.66824915952748 0 110.66824915952748 -119.13288135534094 0 0 0 0 -70.308310765649367 48.046658939691042 0 48.046658939691042 -71.355538743227953 0 0 0 0 -138.97709591640159 63.710728458172525 0 63.710728458172525 -44.770142379456956 0 0 0 0 -105.187355712711 91.599415245407727 0 91.599415245407727 -59.895302972203353 0 0 0 0 -56.320775491403765 60.953219152357633 0 60.953219152357633 -48.552987587536336 0 0 0 0 -43.131610525248107 42.669511575615616 0 42.669511575615616 -33.449010406540765 0 0 0 0 -44.437807666123263 44.969719172055193 0 44.969719172055193 -17.916562096143025 0 0 0 0 -36.709028455443331 43.114411092312366 0 43.114411092312366 -28.554954832913609 0 0 0 0 -36.529132385359844 49.842007714491046 0 49.842007714491046 -27.248793665741687 0 0 0 0 -13.750581546017202 53.21903647655563 0 53.21903647655563 -30.371822670578695 0 0 0 0 -34.331502290737262 46.451712516547559 0 46.451712516547559 -29.617443244118476 0 0 0 0 -42.736268772212497 62.285882032014342 0 62.285882032014342 -19.579963545947976 0 0 0 0 -34.474186574040687 53.547983010909775 0 53.547983010909775 -22.550975557671336 0 0 0 0 -41.231115898379358 61.042759275987919 0 61.042759275987919 -19.097060407679237 0 0 0 0 -44.140401025502797 64.828803505895849 0 64.828803505895849 -3.9469348643178819 0 0 0 0 -45.365535022772747 42.705634427229597 0 42.705634427229597 -8.5275924088491593 0 0 0 0 -34.087913042021682 53.13930821633403 0 53.13930821633403 -5.8298488660620933 0 0 0 0 -43.087481600930914 63.173105831569046 0 63.173105831569046 -14.209464773361105 0 0 0 0 -32.093826481912402 80.270131631834374 0 80.270131631834374 -44.654769626024063 0 0 0 0 -77.032310463357135 73.628719241154613 0 73.628719241154613 -11.261857367537232 0 0 0 0 -50.314168504708505 12.156623375139134 0 12.156623375139134 -39.025140607889625 0 0 0 0 6.234980790890404 0.2184623220236972 0 0.2184623220236972 -6.7955013903447252 0 0 0 0 43.675380519300234 42.192065055227431 0 42.192065055227431 -40.801273996228701 0 0 0 0 -2018.181355109311 1384.7506299437746 0 1384.7506299437746 -818.61967298027594 0 0 0 0 -0.47608025817928024 4.0749098111743649 0 4.0749098111743649 -0.37923883245389334 0 0 0 0 -721.46748528652279 987.15050954880098 0 987.15050954880098 -1296.2973949697771 0 0 0 0 10.366203763464512 17.177944100730542 0 17.177944100730542 1.9536242630559286 0 0 0 0 -1441.4346699879138 1079.3629042351347 0 1079.3629042351347 -761.48335193931416 0 0 0 0 -1441.5949703263741 1135.2684885617557 0 1135.2684885617557 -1140.8929471641895 0 0 0 0 -14.610287571478693 45.148289060012758 0 45.148289060012758 -10.492407065510633 0 0 0 0 0.16720511548919603 10.413354516742402 0 10.413354516742402 4.0951391803100705 0 0 0 0 -1412.5408841514727 1000.6211743177264 0 1000.6211743177264 -669.18277189868968 0 0 0 0 14.378691613559198 18.325864010242668 0 18.325864010242668 6.743546693090309 0 0 0 0 -1386.7892930049184 1070.7477104417803 0 1070.7477104417803 -518.97840385757445 0 0 0 0 -1953.2825228449365 1473.2729512895748 0 1473.2729512895748 -214.33535009411571 0 0 0 0 -1603.4199482227268 1727.9154992390904 0 1727.9154992390904 -1076.1648269122816 0 0 0 0 -1796.1923981486616 857.90911304269684 0 857.90911304269684 577.47012344692484 0 0 0 0 -3.8618378072441715 3.7697236377359502 0 3.7697236377359502 2.7123933073795854 0 0 0 0 -1330.7563400187282 1386.4722084938876 0 1386.4722084938876 -1477.0017797003529 0 0 0 0 -1454.5379604300251 1313.8684685445114 0 1313.8684685445114 -902.22964009538919 0 0 0 0 -1359.1417228489736 1439.5314499056622 0 1439.5314499056622 -773.4477221823181 0 0 0 0 -1289.7823378945486 1904.2852507195121 0 1904.2852507195121 -1482.1719578549455 0 0 0 0 -1330.0394132569127 1947.7976927408545 0 1947.7976927408545 -950.62449284775357 0 0 0 0 -1836.8518684086375 2355.2801215797263 0 2355.2801215797263 -1276.3565957087631 0 0 0 0 -2345.7949886095375 1960.7811683315776 0 1960.7811683315776 -411.2129023164598 0 0 0 0 -5.3749954309826649 16.307424412892914 0 16.307424412892914 15.46783105112489 0 0 0 0 16.114961252031321 16.685931941733372 0 16.685931941733372 -8.488963178578615 0 0 0 0 -1740.0163072246069 -162.89499768074893 0 -162.89499768074893 -27.605230081848276 0 0 0 0 -7.0925790033652447 37.169299003719061 0 37.169299003719061 -39.698145452719473 0 0 0 0 -33.664027713672112 54.180449946328736 0 54.180449946328736 -4.160152510215994 0 0 0 0 -33.449227134347893 40.576159988177096 0 40.576159988177096 6.2311643360662856 0 0 0 0 -28.767501779671875 45.028448334807763 0 45.028448334807763 -17.045304003476758 0 0 0 0 -35.661669848166639 33.940409995218943 0 33.940409995218943 -2.7474052517209202 0 0 0 0 -29.20483488517857 36.867378140238543 0 36.867378140238543 -42.854666234896285 0 0 0 0 -0.61935048002135318 4.5767694634751876 0 4.5767694634751876 -13.500974666015765 0 0 0 0 -1043.1096792754834 1177.6187428861558 0 1177.6187428861558 -1193.7566395100293 0 0 0 0 -17.891441705317106 26.165274346068372 0 26.165274346068372 0.38848931409759757 0 0 0 0 -19.500610185716909 6.9246014498646247 0 6.9246014498646247 -3.2616690956294772 0 0 0 0 -1694.4823502986728 2180.5574769962423 0 2180.5574769962423 -2643.2266546719184 0 0 0 0 -1707.1739752086214 1546.7977273260476 0 1546.7977273260476 -1106.279816904992 0 0 0 0 -2112.5454713328218 1470.8667000687165 0 1470.8667000687165 -528.68208106087695 0 0 0 0 -1730.662038506224 1244.0432191771049 0 1244.0432191771049 -535.49644111993985 0 0 0 0 -1739.9237818495967 1420.9584829877385 0 1420.9584829877385 -625.61754880284025 0 0 0 0 -2043.2547091634988 1358.8016756984762 0 1358.8016756984762 -0.69806112732619019 0 0 0 0 -1613.7122844615624 1434.7222971935153 0 1434.7222971935153 -564.19036252789374 0 0 0 0 -2003.4539699966481 1300.5676476749977 0 1300.5676476749977 -609.9871596580997 0 0 0 0 -1799.8135415237011 1370.9421028031629 0 1370.9421028031629 -987.47503377816611 0 0 0 0 -1469.4029830577347 1083.4483174684719 0 1083.4483174684719 -1973.5788098306548 0 0 0 0 -3210.6852445969416 1330.1644497525904 0 1330.1644497525904 -946.24345976552286 0 0 0 0 -1124.7894218707079 1736.7777959901559 0 1736.7777959901559 -1026.2491066068178 0 0 0 0 -1143.2485177649432 1580.7556233833275 0 1580.7556233833275 -1013.3749982777063 0 0 0 0 -1163.9946360842514 1486.0288209819737 0 1486.0288209819737 -1278.2114444327926 0 0 0 0 -1100.9704507067509 1963.1220887995587 0 1963.1220887995587 0.05306329168053206 0 0 0 0 -762.82842690851976 1849.150825283923 0 1849.150825283923 -827.31499726380935 0 0 0 0 -1603.8259126903031 1468.7300425057902 0 1468.7300425057902 -457.50425696558523 0 0 0 0 1.476762150414288 2047.95702148489 0 2047.95702148489 -866.68647381043775 0 0 0 0 -724.78991003287729 1595.3343773385498 0 1595.3343773385498 -1117.3054558405493 0 0 0 0 -829.47440540116077 1879.3282723512675 0 1879.3282723512675 -1361.0005593786409 0 0 0 0 -1.6018641102991871 1058.2517244711266 0 1058.2517244711266 -1551.655174444546 0 0 0 0 -1131.9599533189321 1591.387415654197 0 1591.387415654197 -1819.1803216262365 0 0 0 0 1.5658498692984608 3.6324348582490984 0 3.6324348582490984 -4.8889921514907257 0 0 0 0 -994.59672735934146 1192.6019637231075 0 1192.6019637231075 -1639.8612588986944 0 0 0 0 -1104.3572474328284 1274.0375067504979 0 1274.0375067504979 -1368.9465813319985 0 0 0 0 -501.89635885325697 824.21126201920561 0 824.21126201920561 -1224.4301112970788 0 0 0 0 1.3449089055239938 2.896093490213417 0 2.896093490213417 -3.4558926367343474 0 0 0 0 -620.21775985707063 1682.5677929380363 0 1682.5677929380363 -1110.3647278352219 0 0 0 0 -1232.9458173668099 1270.3057619200044 0 1270.3057619200044 -1364.7298923445778 0 0 0 0 -1187.8823894490488 1576.4213924071373 0 1576.4213924071373 -862.4864021097419 0 0 0 0 1.0708995219955 4.6042617788490361 0 4.6042617788490361 -0.45894813618951957 0 0 0 0 -1361.7995724286229 1315.5348486413895 0 1315.5348486413895 -1306.5754190987791 0 0 0 0 -1327.5658028680191 1173.5109504894644 0 1173.5109504894644 -1130.3659371433678 0 0 0 0 -999.46824061756342 1644.010414325865 0 1644.010414325865 -1613.5838595073728 0 0 0 0 3.4669317570279361 7.9171567671974685 0 7.9171567671974685 1.1765254719902885 0 0 0 0 -1131.4023100031191 1125.3511856634395 0 1125.3511856634395 -1219.5542055214064 0 0 0 0 -1360.810344647587 1136.9770694191247 0 1136.9770694191247 -1162.6801709637439 0 0 0 0 -1298.5204973780565 1081.6021055646906 0 1081.6021055646906 -888.37298191893206 0 0 0 0 -1369.0813100911619 897.62391758263402 0 897.62391758263402 -628.12352638915763 0 0 0 0 -12.652420119056245 -0.27433773175650344 0 -0.27433773175650344 3.1850016358882556 0 0 0 0 -1347.1323062769006 1068.1682119248489 0 1068.1682119248489 -891.92858509521466 0 0 0 0 -1157.6637920733774 1080.8626472445849 0 1080.8626472445849 -972.86012367525836 0 0 0 0 -1061.2140014685574 1007.8067385600025 0 1007.8067385600025 -1024.3181170073731 0 0 0 0 -905.6943935862364 880.35033228054817 0 880.35033228054817 -936.49227391651584 0 0 0 0 1.926948320884776 3.5222299105413413 0 3.5222299105413413 -1.9513936049520595 0 0 0 0 -845.98778897548254 1108.6901172745938 0 1108.6901172745938 -711.26052239089768 0 0 0 0 -0.52790028318122495 964.17597790820219 0 964.17597790820219 -1481.5732309865198 0 0 0 0 -4.2094439656939358 1398.1300047238183 0 1398.1300047238183 -1796.6073831851018 0 0 0 0 -868.10467162436771 1173.5216013383431 0 1173.5216013383431 -1519.3409855764912 0 0 0 0 -1002.1533690568467 1109.9202217899438 0 1109.9202217899438 -1252.6575614070316 0 0 0 0 4.217402680851194 6.7248485957968853 0 6.7248485957968853 0.081009758680011146 0 0 0 0 -866.38460692782246 1333.4746777476794 0 1333.4746777476794 -1690.1623733099877 0 0 0 0 46.590086802164478 86.98156458919766 0 86.98156458919766 -44.595025292917853 0 0 0 0 52.073280756338136 64.097709877853049 0 64.097709877853049 40.251488463240094 0 0 0 0 -11.156499141022607 102.20448664864989 0 102.20448664864989 -8.8239614039193839 0 0 0 0 -16.573331447159035 65.868622734320525 0 65.868622734320525 34.070818291751493 0 0 0 0 0.60769753793451464 2.6134723477441213 0 2.6134723477441213 4.0337062736957279 0 0 0 0 5.8536062798641524 51.62947519772024 0 51.62947519772024 69.157030150316132 0 0 0 0 -13.20838277716507 88.3760816215472 0 88.3760816215472 55.332540424846229 0 0 0 0 30.842784137182662 72.785326002500369 0 72.785326002500369 60.133702478844498 0 0 0 0 64.614808011316882 78.46486064372948 0 78.46486064372948 18.015933285598294 0 0 0 0 -13.476641201552553 28.419167401694942 0 28.419167401694942 16.569666565010607 0 0 0 0 18.9910372101603 26.363606705583578 0 26.363606705583578 14.192484523833627 0 0 0 0 34.134620768039895 50.067570050799986 0 50.067570050799986 22.216952285372827 0 0 0 0 -140.57113742420552 137.51205159201891 0 137.51205159201891 37.884414484724402 0 0 0 0 -211.69210441620089 -35.525985373315052 0 -35.525985373315052 18.246775416351738 0 0 0 0 13.161371580947105 11.998343831878991 0 11.998343831878991 5.1618679885191057 0 0 0 0 -175.66163219692498 35.864315703734974 0 35.864315703734974 69.286313086500741 0 0 0 0 -83.222414193936856 49.267097885785915 0 49.267097885785915 -56.186830212085624 0 0 0 0 -124.49647239764818 104.8755544069827 0 104.8755544069827 3.8235268920470844 0 0 0 0 -6.6405910692363754 34.578967509299595 0 34.578967509299595 23.141093346531704 0 0 0 0 20.206134851530805 35.737296598465036 0 35.737296598465036 26.467872719673323 0 0 0 0 78.165722062182795 47.063470990524365 0 47.063470990524365 33.006604179718124 0 0 0 0 -13.622061403587061 24.863507939237781 0 24.863507939237781 17.283977408219073 0 0 0 0 123.28080624202448 74.131576048726856 0 74.131576048726856 -3.5309378506644862 0 0 0 0 10.983305474439476 29.523857524302002 0 29.523857524302002 24.940307874538121 0 0 0 0 23.770189845894492 36.946611799481616 0 36.946611799481616 12.926879495731555 0 0 0 0 -138.44409188472127 14.288014033838408 0 14.288014033838408 32.899291561538121 0 0 0 0 -128.8422224868209 -47.587353468621586 0 -47.587353468621586 -32.219785194931319 0 0 0 0 -160.92769957553901 -8.7895900336188788 0 -8.7895900336188788 70.550832246037317 0 0 0 0 -14.420462827866725 31.145806833446947 0 31.145806833446947 20.306610418148011 0 0 0 0 135.99102522447794 47.09821351158098 0 47.09821351158098 30.117629123677034 0 0 0 0 139.52805225342695 60.963666857292992 0 60.963666857292992 23.114550408696232 0 0 0 0 15.827414378160029 24.028413642692612 0 24.028413642692612 9.7718693907372653 0 0 0 0 -6.8400984972364274 27.400892943659692 0 27.400892943659692 21.044195482095461 0 0 0 0 11.131588339489921 19.786252680996569 0 19.786252680996569 4.498203618357195 0 0 0 0 81.925914946140892 82.738239700825943 0 82.738239700825943 61.469011148525169 0 0 0 0 31.465564305018233 45.98739711788221 0 45.98739711788221 53.633746110848733 0 0 0 0 75.718005364359442 52.216996315604774 0 52.216996315604774 29.781083931608009 0 0 0 0 54.449113827524343 73.719601429678733 0 73.719601429678733 36.749707419132392 0 0 0 0 38.490342309087282 48.859719132928149 0 48.859719132928149 16.666912015280104 0 0 0 0 6.138453468163334 76.056689764573093 0 76.056689764573093 27.608077311393572 0 0 0 0 0.2735891639131296 67.660844660775183 0 67.660844660775183 15.835027862747665 0 0 0 0 28.770342894168152 56.113005649542174 0 56.113005649542174 17.673757181757537 0 0 0 0 5.6348660828043649 54.884803364831896 0 54.884803364831896 32.202050215376403 0 0 0 0 13.027333849278875 73.833439503709087 0 73.833439503709087 7.7079491154518109 0 0 0 0 -8.5580974432586672 38.169322045703751 0 38.169322045703751 -31.634576625856539 0 0 0 0 5.9801048051731414 56.71950835876487 0 56.71950835876487 5.5452170565386041 0 0 0 0 -62.436741126481138 168.69475999027782 0 168.69475999027782 3.8598781316250097 0 0 0 0 1405.3348454571833 287.04768080555368 0 287.04768080555368 -244.27429693943122 0 0 0 0 -2.9234703390846279 20.585121704526244 0 20.585121704526244 55.32940781950532 0 0 0 0 490.7436070600088 194.88872630805417 0 194.88872630805417 294.78260820889409 0 0 0 0 570.30756764057151 516.85468520807626 0 516.85468520807626 382.16938166195177 0 0 0 0 9.072629193085028 7.7346987909841118 0 7.7346987909841118 3.4486579918665541 0 0 0 0 538.47398642082408 302.65840655940701 0 302.65840655940701 -26.681536424555816 0 0 0 0 480.71734514337732 249.93445469117432 0 249.93445469117432 -37.715215763084416 0 0 0 0 8.9706529915581541 68.334751024902289 0 68.334751024902289 1.0024716666666791 0 0 0 0 -107.26612601374654 98.6742437005596 0 98.6742437005596 8.2516142306412803 0 0 0 0 141.72153198037358 431.24989399668084 0 431.24989399668084 37.925996575286263 0 0 0 0 9.3923746843686704 40.91026558002963 0 40.91026558002963 9.9930190601681659 0 0 0 0 220.78106373280571 267.22519812858809 0 267.22519812858809 36.97327613417292 0 0 0 0 -5.2292830110363866 81.957451585065428 0 81.957451585065428 5.6099645519425394 0 0 0 0 51.746889839398136 95.760454246454174 0 95.760454246454174 -14.023954428732395 0 0 0 0 49.546217998675274 41.586526079270698 0 41.586526079270698 13.077069407139788 0 0 0 0 -8.6892233466309907 14.256810333813348 0 14.256810333813348 5.8658886322614876 0 0 0 0 78.115737138095028 37.786572062053892 0 37.786572062053892 75.251478853268054 0 0 0 0 138.48356141885756 136.56236693695246 0 136.56236693695246 57.635175733890719 0 0 0 0 -123.70511260935291 333.08715441414824 0 333.08715441414824 245.44708385498234 0 0 0 0 383.33493350864228 305.75410467521579 0 305.75410467521579 72.660892812811653 0 0 0 0 473.81181660237598 327.32828319375403 0 327.32828319375403 77.296795539587038 0 0 0 0 465.36539657419598 345.8190218997479 0 345.8190218997479 79.972115441807546 0 0 0 0 533.8755846509157 214.23741437036369 0 214.23741437036369 128.41614638024475 0 0 0 0 417.72619615904114 293.66900987164991 0 293.66900987164991 44.836551396540017 0 0 0 0 230.98282159531539 56.84743107070426 0 56.84743107070426 14.678453760323464 0 0 0 0 449.57495594498096 334.82471835718752 0 334.82471835718752 -75.837888971087523 0 0 0 0 627.29466605867128 341.17669702303829 0 341.17669702303829 -75.77148681259132 0 0 0 0 363.45088166545384 466.69322447713421 0 466.69322447713421 9.9698906247358536 0 0 0 0 1170.4081996579134 0.73064623184473021 0 0.73064623184473021 -93.095567083100491 0 0 0 0 535.47890448299529 34.407958549561954 0 34.407958549561954 -92.935447049327195 0 0 0 0 -32.653060324970738 74.815978279333649 0 74.815978279333649 34.008398422520258 0 0 0 0 4.1950291504757615 16.53401474028481 0 16.53401474028481 18.568258352215764 0 0 0 0 274.15400457137002 641.77423849106708 0 641.77423849106708 582.31421685606983 0 0 0 0 -124.16408822530957 24.482869098310402 0 24.482869098310402 665.84556430653174 0 0 0 0 41.533576432027075 74.111256265779957 0 74.111256265779957 25.516818378280732 0 0 0 0 7.3527776796987006 6.5518470799697965 0 6.5518470799697965 3.7860768550486625 0 0 0 0 58.107628198930797 -521.36455559191018 0 -521.36455559191018 697.81629043252906 0 0 0 0 113.21881677678721 554.89352129852341 0 554.89352129852341 745.33013846795075 0 0 0 0 941.68204549216534 525.26758132576288 0 525.26758132576288 4.6946000643656589 0 0 0 0 780.02584858787213 592.80019922255451 0 592.80019922255451 -122.86817339365371 0 0 0 0 520.20944231241083 237.12136838504375 0 237.12136838504375 -341.44145435432438 0 0 0 0 122.06444381040728 359.48103291018197 0 359.48103291018197 183.98985872682533 0 0 0 0 17.237951756755031 -6.8250228646358266 0 -6.8250228646358266 1.4458669967963118 0 0 0 0 -24.013277768043736 62.84478243144622 0 62.84478243144622 -60.715887523780111 0 0 0 0 102.71540852236831 66.558146039431449 0 66.558146039431449 0.45464127672312316 0 0 0 0 3.9253588517778892 4.281916647575283 0 4.281916647575283 2.3249210093551653 0 0 0 0 85.163046088373449 36.051308570356923 0 36.051308570356923 34.040737124538282 0 0 0 0 18.750341475055016 35.943194307578594 0 35.943194307578594 26.172712722089273 0 0 0 0 77.160122610548569 50.052437827675021 0 50.052437827675021 12.273217922011099 0 0 0 0 -468.5228808010088 83.486436412997136 0 83.486436412997136 398.46218690334354 0 0 0 0 96.344050400428387 25.431806813256117 0 25.431806813256117 -165.35536384785519 0 0 0 0 49.69525869626159 48.605438761762343 0 48.605438761762343 -30.951561655041587 0 0 0 0 26.041007381158572 -0.28165633080703856 0 -0.28165633080703856 8.0767172080093985 0 0 0 0 82.546287375638713 -260.13035798856254 0 -260.13035798856254 -320.89476102729532 0 0 0 0 11.052384536502261 30.640607840092454 0 30.640607840092454 16.073758640495981 0 0 0 0 82.880634151711547 8.7645603289356586 0 8.7645603289356586 13.789568042411702 0 0 0 0 46.435878535190568 28.782781530830107 0 28.782781530830107 9.5539126183866756 0 0 0 0 24.038905180203983 46.583366469956673 0 46.583366469956673 53.865148537501227 0 0 0 0 8.6591656034177529 24.156724497041179 0 24.156724497041179 18.221120861617976 0 0 0 0 46.821433748689245 23.718951770284363 0 23.718951770284363 8.1120118015694658 0 0 0 0 25.651726920730653 49.260799101808516 0 49.260799101808516 53.484302975688479 0 0 0 0 34.298817870101857 53.176675905138381 0 53.176675905138381 38.587304645174299 0 0 0 0 8.820804914304194 50.181967286541976 0 50.181967286541976 44.56908964863743 0 0 0 0 43.640336646682044 67.408222527388716 0 67.408222527388716 58.429748933274823 0 0 0 0 35.022370481566213 60.294597760828765 0 60.294597760828765 54.321591321462165 0 0 0 0 53.368932212331856 94.417014824870421 0 94.417014824870421 92.770022300013807 0 0 0 0 25.373670216824394 69.491508850456739 0 69.491508850456739 29.668696308162907 0 0 0 0 44.424632783717243 96.109574012301891 0 96.109574012301891 -17.325015592068667 0 0 0 0 13.336134977902482 13.405251737245067 0 13.405251737245067 0.10886768721428552 0 0 0 0 27.561329773507623 76.438920673809662 0 76.438920673809662 -48.61965614114888 0 0 0 0 3.717697335558114 128.2810694816435 0 128.2810694816435 -61.717325059566065 0 0 0 0 -3.1751341995631073 3.268411022085111 0 3.268411022085111 -0.18417975019536925 0 0 0 0 -492.7342172836652 123.71642462831005 0 123.71642462831005 67.77163979629222 0 0 0 0 336.32457976032674 178.00795070576896 0 178.00795070576896 -60.151973650834407 0 0 0 0 181.71831443032352 62.037432968005305 0 62.037432968005305 86.796371500386158 0 0 0 0 -33.640378071293526 110.67094228128553 0 110.67094228128553 33.126818381824705 0 0 0 0 34.881410558104108 84.450125703653612 0 84.450125703653612 -12.444069992547156 0 0 0 0 69.580137810371525 43.532413178036222 0 43.532413178036222 43.792676282231696 0 0 0 0 7.0315058763371781 71.956950114123174 0 71.956950114123174 31.655880821592291 0 0 0 0 55.997389817748626 115.82879078554834 0 115.82879078554834 79.283217355259694 0 0 0 0 178.86421475398674 77.05015786192962 0 77.05015786192962 14.414455843376345 0 0 0 0 40.33326794008326 75.607769408195963 0 75.607769408195963 66.156263144162949 0 0 0 0 -51.345349441834763 51.44806131926947 0 51.44806131926947 49.547803545541626 0 0 0 0 -5.4234801653365139 81.159516796731623 0 81.159516796731623 55.461402355576865 0 0 0 0 14.670647101463814 8.5665192248055888 0 8.5665192248055888 -5.8468639932814739 0 0 0 0 -28.368053386115221 -4.3994234654563851 0 -4.3994234654563851 4.913848063769791 0 0 0 0 101.40630398259054 58.885516383459617 0 58.885516383459617 -318.27992030128007 0 0 0 0 -60.035283243967569 41.089810779118125 0 41.089810779118125 -198.40640978891315 0 0 0 0 17.162248843695124 65.456610080898827 0 65.456610080898827 -156.34282283505308 0 0 0 0 13.664231127106177 62.593994895079959 0 62.593994895079959 -3.3616825788303686 0 0 0 0 50.633952989024692 234.28829520252839 0 234.28829520252839 -77.059223416868008 0 0 0 0 -23.01894761004769 264.25652665205371 0 264.25652665205371 -73.721435828178073 0 0 0 0 -61.17282863386572 141.27067551075743 0 141.27067551075743 6.0329424024894251 0 0 0 0 154.32928072300274 223.66668409896374 0 223.66668409896374 -145.71908686973302 0 0 0 0 550.25037811399307 92.292451315232029 0 92.292451315232029 -212.86965066953417 0 0 0 0 215.39457227095772 80.659283827568288 0 80.659283827568288 -209.51712367230539 0 0 0 0 172.2886955036945 59.43034987470719 0 59.43034987470719 -214.73899113691004 0 0 0 0 548.03603864858451 22.428349452073235 0 22.428349452073235 348.14868036667758 0 0 0 0 632.58428412950889 181.39809114909622 0 181.39809114909622 -50.065945531110629 0 0 0 0 293.04899403093987 157.28448646241304 0 157.28448646241304 2.608549036362092 0 0 0 0 263.98184589563107 383.49908677263602 0 383.49908677263602 -45.932812417231617 0 0 0 0 386.41201799349437 196.57245601978138 0 196.57245601978138 216.69680019849329 0 0 0 0 387.51276865319051 169.08186290018057 0 169.08186290018057 -1.0624408166831927 0 0 0 0 -199.91578708579073 457.56255369694009 0 457.56255369694009 50.14039181980479 0 0 0 0 -188.7656842077231 132.62495724023393 0 132.62495724023393 -81.604992321997997 0 0 0 0 -380.49136318457886 82.38792548090214 0 82.38792548090214 361.43339072931121 0 0 0 0 40.426184541379371 458.24595713097551 0 458.24595713097551 291.43606444398756 0 0 0 0 1259.2020401682039 101.14745784085608 0 101.14745784085608 -29.491460239856679 0 0 0 0 740.19091370922979 189.75504143345461 0 189.75504143345461 -19.495555242909177 0 0 0 0 1088.5802050194625 -263.27425720525389 0 -263.27425720525389 175.66115002853621 0 0 0 0 5.902818821163816 32.859195655456006 0 32.859195655456006 11.39539896857903 0 0 0 0 0.97721088650018828 57.506975074450565 0 57.506975074450565 19.9941718417831 0 0 0 0 -22.51693990488684 32.417828199450014 0 32.417828199450014 1.4307391566690058 0 0 0 0 -88.050798488049622 72.550220221462951 0 72.550220221462951 11.375988211944787 0 0 0 0 66.123937364554877 99.775797886171858 0 99.775797886171858 -13.717554209360969 0 0 0 0 45.66762043986455 66.592392435642978 0 66.592392435642978 14.509855593885732 0 0 0 0 131.2163826248252 36.888839989456756 0 36.888839989456756 8.7853568436039495 0 0 0 0 27.928300241296306 35.791947575464036 0 35.791947575464036 6.5260466204841521 0 0 0 0 130.21237961395673 254.8137118594168 0 254.8137118594168 8.8837406027741963 0 0 0 0 -193.92127079169586 302.59881705495354 0 302.59881705495354 2.0381254544354306 0 0 0 0 -398.65030513186321 -18.611470352217566 0 -18.611470352217566 179.15587270571268 0 0 0 0 -350.20173213427006 218.65029058756409 0 218.65029058756409 235.3965354022439 0 0 0 0 -59.516617463730654 58.265028401863674 0 58.265028401863674 16.941190980698593 0 0 0 0 -14.976682384442938 39.970362640837266 0 39.970362640837266 -1.6399264531210065 0 0 0 0 2.1311380721234454 33.325181234371911 0 33.325181234371911 -6.2163158366092262 0 0 0 0 27.222353995274034 58.024587063886216 0 58.024587063886216 15.094592676619953 0 0 0 0 42.51300609853206 30.267518253636808 0 30.267518253636808 4.5661626350211009 0 0 0 0 -3.9517952500487752 22.175651373967675 0 22.175651373967675 -7.5456526309699825 0 0 0 0 10.72359138618458 53.531111978878471 0 53.531111978878471 -1.1661475484543189 0 0 0 0 86.991444421523283 88.314880080813055 0 88.314880080813055 0.51969963767623994 0 0 0 0 -15.046660912683043 31.635294882093689 0 31.635294882093689 0.85733190521133906 0 0 0 0 -1.6282828802536642 53.007951733259688 0 53.007951733259688 21.307201355153666 0 0 0 0 -14.967965695991612 37.364370133909013 0 37.364370133909013 15.392601524332548 0 0 0 0 44.215903014636751 64.517484860455625 0 64.517484860455625 11.454702600654855 0 0 0 0 23.608116791343548 28.857799663459076 0 28.857799663459076 -10.436520121322744 0 0 0 0 11.315487876026964 50.022046746315027 0 50.022046746315027 6.5547848564383457 0 0 0 0 -3.2676471270867999 23.073370090125522 0 23.073370090125522 -10.277346060615557 0 0 0 0 17.7138364532575 67.365267690853216 0 67.365267690853216 23.254443293628356 0 0 0 0 22.192909024802248 41.390356610438175 0 41.390356610438175 26.25251099216257 0 0 0 0 22.564421862550716 83.792984960669855 0 83.792984960669855 59.941041943042364 0 0 0 0 -3.3050041300130211 17.851795832056553 0 17.851795832056553 -9.8617323383175233 0 0 0 0 29.040502991560743 66.991331213087506 0 66.991331213087506 48.238391351595055 0 0 0 0 -20.579200999924147 31.79298094552982 0 31.79298094552982 28.807189529305674 0 0 0 0 26.296215264971124 64.254675247037085 0 64.254675247037085 65.108877004196984 0 0 0 0 -113.26004368359645 48.481966914601799 0 48.481966914601799 87.20973998192494 0 0 0 0 -53.230834553854947 30.021735021357017 0 30.021735021357017 77.560899377109308 0 0 0 0 29.100133204485246 50.34874681177098 0 50.34874681177098 20.989167613952304 0 0 0 0 -7.5908625337531861 32.405477798228745 0 32.405477798228745 31.986352576904721 0 0 0 0 14.767589762275747 46.922503088235317 0 46.922503088235317 42.390822819783352 0 0 0 0 -0.86675523294616141 55.615548472687806 0 55.615548472687806 37.623563799690601 0 0 0 0 -13.258433772221313 43.610323795875409 0 43.610323795875409 49.681644992554936 0 0 0 0 -21.750461355376956 134.4225137636945 0 134.4225137636945 135.86523559116904 0 0 0 0 -18.905042369232348 53.165755973853436 0 53.165755973853436 -37.200514898830448 0 0 0 0 -97.194274481393222 -49.405448105189862 0 -49.405448105189862 -70.501316163205047 0 0 0 0 62.963970748212887 83.422756578973349 0 83.422756578973349 21.549000252967744 0 0 0 0 -151.32554708594398 60.272262430520641 0 60.272262430520641 53.931538280236055 0 0 0 0 -10.48358197097807 57.933158159115479 0 57.933158159115479 11.2245764904971 0 0 0 0 -1.2090704294851093 66.487868839279599 0 66.487868839279599 -7.8611945121119788 0 0 0 0 -31.310198356546607 136.39046188641169 0 136.39046188641169 2.690088591480162 0 0 0 0 69.974214660109283 267.84022859573815 0 267.84022859573815 171.12199651288392 0 0 0 0 41.425428607704816 -50.747308151858306 0 -50.747308151858306 191.04087788362153 0 0 0 0 262.72288615800426 238.94009079693569 0 238.94009079693569 65.813091060852457 0 0 0 0 44.624375182036601 238.31434006701602 0 238.31434006701602 616.65815286793804 0 0 0 0 191.1913672259052 224.16639952219884 0 224.16639952219884 -137.79706571505812 0 0 0 0 81.678534451020823 76.788733544966817 0 76.788733544966817 -335.09037279026234 0 0 0 0 3.571546391473376 0.3132033492278623 0 0.3132033492278623 0.17455478781435829 0 0 0 0 -66.262048041069647 136.01465247584201 0 136.01465247584201 -126.79139744175336 0 0 0 0 106.07015690900153 82.88990026913234 0 82.88990026913234 22.638659503711096 0 0 0 0 7.0092156518942801 4.4254827726845747 0 4.4254827726845747 -2.0216061807431061 0 0 0 0 -22.978459783946164 143.36928808286757 0 143.36928808286757 -224.03474547662699 0 0 0 0 -54.693083205083894 86.04407975117374 0 86.04407975117374 -164.04053054891847 0 0 0 0 2.6413321823338975 2.7387795140329558 0 2.7387795140329558 -4.9320871826384121 0 0 0 0 2.3579621408571256 -62.610573575802846 0 -62.610573575802846 435.18147650899482 0 0 0 0 20.004245653435646 -52.087132936410853 0 -52.087132936410853 207.14959283042117 0 0 0 0 97.472775205074868 152.80555422014731 0 152.80555422014731 309.23303809980644 0 0 0 0 30.138427361169306 55.777897361098439 0 55.777897361098439 200.344488773997 0 0 0 0 1.2903519811352453 122.75398400085487 0 122.75398400085487 276.64361709785589 0 0 0 0 -72.493772702189744 45.841950402718794 0 45.841950402718794 751.32525320015338 0 0 0 0 -82.837669674547215 -22.869670640789991 0 -22.869670640789991 505.03630846404849 0 0 0 0 61.248061149926798 13.736531787290005 0 13.736531787290005 513.63720006555377 0 0 0 0 63.931299381671124 203.47599293122767 0 203.47599293122767 215.55558187796123 0 0 0 0 53.184481301963388 169.9861524851076 0 169.9861524851076 -29.377916308985732 0 0 0 0 65.67451056392747 67.617071021533775 0 67.617071021533775 122.62912975489962 0 0 0 0 63.774298706492118 110.35272280362187 0 110.35272280362187 -14.330536281762761 0 0 0 0 62.05380322023143 190.75770526253592 0 190.75770526253592 147.9196685369825 0 0 0 0 22.82744971768625 120.20159378377502 0 120.20159378377502 -16.065164435334736 0 0 0 0 61.294632848435867 17.614474512305605 0 17.614474512305605 -221.64757532453223 0 0 0 0 -4.2963392923120409 212.70724337360662 0 212.70724337360662 165.70500175425514 0 0 0 0 -27.112041886758703 45.65994907850861 0 45.65994907850861 -45.999159347605683 0 0 0 0 50.096025292197737 154.61745678370789 0 154.61745678370789 74.442836266689483 0 0 0 0 68.444576167043124 -142.67569933028062 0 -142.67569933028062 -264.92310693377658 0 0 0 0 -116.34028005425034 97.58784755879924 0 97.58784755879924 52.409030702081509 0 0 0 0 -75.321329485357637 -29.511755493217606 0 -29.511755493217606 53.37461334974796 0 0 0 0 -62.943543181696441 113.848533830409 0 113.848533830409 78.864116069700685 0 0 0 0 -7.8170767311021336 112.43140279242652 0 112.43140279242652 74.985355480705039 0 0 0 0 -58.733083341096062 85.335797927727981 0 85.335797927727981 62.11154841008829 0 0 0 0 7.1610018658648187 84.672584531257598 0 84.672584531257598 51.485548000171548 0 0 0 0 86.938869044577586 67.86214939643105 0 67.86214939643105 21.996926018200611 0 0 0 0 -17.052340042652418 7.0095311927042872 0 7.0095311927042872 -11.6834101087058 0 0 0 0 -23.699346965891891 32.439560487247945 0 32.439560487247945 10.662602572716423 0 0 0 0 -74.20231780024551 40.274749633494139 0 40.274749633494139 26.607309741302743 0 0 0 0 -30.026766634873184 88.094646850658819 0 88.094646850658819 52.148221766372444 0 0 0 0 -38.656352505520772 44.854076293431717 0 44.854076293431717 66.911959206285246 0 0 0 0 -45.640595862729242 48.986189710620238 0 48.986189710620238 64.707685101177049 0 0 0 0 -33.856169104801666 46.856797755903244 0 46.856797755903244 10.456232388140052 0 0 0 0 -85.507624279278389 94.038923101034015 0 94.038923101034015 96.400512880896713 0 0 0 0 -58.056270656100423 80.158700767596201 0 80.158700767596201 101.49024424482195 0 0 0 0 -54.933273182679841 104.0777174451905 0 104.0777174451905 82.369651641376549 0 0 0 0 -67.234861122398797 83.066755745142473 0 83.066755745142473 89.673876456581638 0 0 0 0 -77.580003619317722 53.349291299979086 0 53.349291299979086 102.61665036105842 0 0 0 0 -45.102955383626977 40.272695761570503 0 40.272695761570503 73.347367708825914 0 0 0 0 -25.402215660431466 1.115759935002643 0 1.115759935002643 141.11448346670659 0 0 0 0 -49.936546658707812 43.505285114309117 0 43.505285114309117 71.420042457582895 0 0 0 0 -6.7715179661174147 16.294201156042035 0 16.294201156042035 7.8585011939019296 0 0 0 0 -17.201960918202531 3.1500718107890862 0 3.1500718107890862 125.14738955291796 0 0 0 0 -47.919451222383941 84.925078072148608 0 84.925078072148608 134.41316550971715 0 0 0 0 -19.637414067266945 50.439124808588531 0 50.439124808588531 124.23938092355093 0 0 0 0 -7.2209671861746756 89.68000308005503 0 89.68000308005503 -6.1218570194614585 0 0 0 0 12.04217757646984 145.06645348600068 0 145.06645348600068 121.87130312245802 0 0 0 0 39.338914028996442 115.82862235953689 0 115.82862235953689 -81.086073805774504 0 0 0 0 5.4094060766146868 124.90642312243472 0 124.90642312243472 0.52954393665277166 0 0 0 0 -32.93950830349786 57.310099371421529 0 57.310099371421529 -235.64658274215617 0 0 0 0 -32.689861903068959 74.988372939198598 0 74.988372939198598 -64.418396436740295 0 0 0 0 -101.97497989720432 65.2646387050263 0 65.2646387050263 102.57908801468875 0 0 0 0 -109.74015735333796 98.649226519572039 0 98.649226519572039 87.457607727948925 0 0 0 0 -81.967608274360828 96.792907184306387 0 96.792907184306387 45.601068752519495 0 0 0 0 -103.89950982366281 93.323820227258693 0 93.323820227258693 83.051945021463325 0 0 0 0 -260.43793080084288 68.37101530369182 0 68.37101530369182 49.382035165319394 0 0 0 0 26.807305717129566 118.68439907805077 0 118.68439907805077 -4.1076465956575703 0 0 0 0 -64.776699827540142 249.04367057382115 0 249.04367057382115 -180.39432766176674 0 0 0 0 91.251839237294917 212.26495530833927 0 212.26495530833927 5.6041688113909913 0 0 0 0 106.38659555708728 165.96107475339522 0 165.96107475339522 -23.130925474339165 0 0 0 0 -83.940748312134019 159.14415149162778 0 159.14415149162778 64.409967901694472 0 0 0 0 57.691479351517046 106.06847709511203 0 106.06847709511203 83.314763519760163 0 0 0 0 44.163009100455383 139.72024227340444 0 139.72024227340444 62.920770475531754 0 0 0 0 21.446412790806789 30.334272249507194 0 30.334272249507194 44.09006956207304 0 0 0 0 -9.4537369187091826 42.849956426398421 0 42.849956426398421 43.026114980047623 0 0 0 0 -8.5782864153343326 46.252216688031695 0 46.252216688031695 38.480459445243469 0 0 0 0 0.75927579366384634 11.763118942742491 0 11.763118942742491 4.775054126832714 0 0 0 0 32.142540415239637 27.885074113233713 0 27.885074113233713 -9.8285432269840385 0 0 0 0 -1.6047908528242232 1.0083508825044269 0 1.0083508825044269 -2.3066660893437074 0 0 0 0 21.487036305523361 -27.707761277375539 0 -27.707761277375539 -173.91157380169136 0 0 0 0 -240.42699399579215 36.457277964804234 0 36.457277964804234 39.914998243715672 0 0 0 0 -131.12926513360071 206.2752605145015 0 206.2752605145015 -95.590866990190989 0 0 0 0 -31.664426232098776 40.862701483460114 0 40.862701483460114 50.70902273622778 0 0 0 0 -20.201316455946653 39.956663906210451 0 39.956663906210451 36.098456287421868 0 0 0 0 -29.180172691500047 47.437054777095909 0 47.437054777095909 40.880819812613481 0 0 0 0 -64.941600720554561 155.5526001823273 0 155.5526001823273 74.511591028012845 0 0 0 0 -32.587977970057338 57.323299014979668 0 57.323299014979668 -42.576536412397232 0 0 0 0 -60.926447638816171 106.97604288844559 0 106.97604288844559 44.845833111390675 0 0 0 0 41.750859887084516 132.50867487165669 0 132.50867487165669 -103.49322627997208 0 0 0 0 41.299417342752349 133.67959605688884 0 133.67959605688884 -67.280710700753843 0 0 0 0 -47.403648926640926 -1.4275329065421829 0 -1.4275329065421829 -42.662342186566093 0 0 0 0 -30.74322696826323 51.998711805759974 0 51.998711805759974 -51.112043825191705 0 0 0 0 126.40282628099067 147.05472723706953 0 147.05472723706953 235.43275669608556 0 0 0 0 -9.2676571747088019 327.85539416456959 0 327.85539416456959 461.9717390461301 0 0 0 0 34.695645674080879 235.88644306051719 0 235.88644306051719 183.18634804015164 0 0 0 0 -9.4389684376983496 301.68229388194231 0 301.68229388194231 302.29884290503105 0 0 0 0 0.88844468751631211 139.27634185513671 0 139.27634185513671 -125.38558795004064 0 0 0 0 -88.257774912824971 125.11189796824328 0 125.11189796824328 648.13961057209235 0 0 0 0 18.141525680881315 11.855254801203586 0 11.855254801203586 -12.222249037031354 0 0 0 0 12.480385357164778 49.910314618711709 0 49.910314618711709 30.170195842074463 0 0 0 0 -29.55029904316325 47.943753229352296 0 47.943753229352296 73.80899977061199 0 0 0 0 -10.258661557483336 1.6273610974026695 0 1.6273610974026695 19.982732047271313 0 0 0 0 -7.2401016125301965 46.115851828881944 0 46.115851828881944 -38.93481139007001 0 0 0 0 -61.057453731627902 61.070668261396349 0 61.070668261396349 110.91163986944593 0 0 0 0 0.053045665699755773 27.077711021018331 0 27.077711021018331 3.2009073696062842 0 0 0 0 -0.16586633092697411 28.092504037290709 0 28.092504037290709 -18.070052369452185 0 0 0 0 68.548602643575578 178.44399636386152 0 178.44399636386152 257.57556315886904 0 0 0 0 32.208634357724804 205.0582197073818 0 205.0582197073818 257.07922789733857 0 0 0 0 113.91135953436606 88.607088304328499 0 88.607088304328499 329.08586648607161 0 0 0 0 -7.9602447574870894 187.63792345923139 0 187.63792345923139 403.99335740468814 0 0 0 0 44.198652272643812 254.95195466189762 0 254.95195466189762 174.83653218214749 0 0 0 0 -50.610098836099496 332.47752494622546 0 332.47752494622546 155.05452224355395 0 0 0 0 21.267595111537958 311.26129038010549 0 311.26129038010549 123.0151427315468 0 0 0 0 67.308005956823763 283.43857968332304 0 283.43857968332304 118.5708805648319 0 0 0 0 11.283764099604014 286.8612409375055 0 286.8612409375055 234.79239202805911 0 0 0 0 61.635387431349955 217.79939091479173 0 217.79939091479173 163.77875598613173 0 0 0 0 73.262570284830872 263.22814571898198 0 263.22814571898198 169.35396030482661 0 0 0 0 70.462497445223562 206.60268096998334 0 206.60268096998334 228.41103284407291 0 0 0 0 50.647053382446757 233.2487613603007 0 233.2487613603007 221.02011256868718 0 0 0 0 85.914339568153082 140.9926327336143 0 140.9926327336143 28.194128298891883 0 0 0 0 55.783244210673729 174.67044921015622 0 174.67044921015622 199.86023534524429 0 0 0 0 54.345305709925015 211.15342076358502 0 211.15342076358502 211.0346124178468 0 0 0 0 59.466897705075098 214.98944153069169 0 214.98944153069169 149.8125817013497 0 0 0 0 -12.478147222918295 34.570101844329514 0 34.570101844329514 -34.345784515670545 0 0 0 0 63.164527400309453 197.01993120131374 0 197.01993120131374 148.89927388599608 0 0 0 0 64.522888353618328 182.03415760249482 0 182.03415760249482 192.4137737621204 0 0 0 0 68.006159465774545 200.60528358843294 0 200.60528358843294 122.60934645825182 0 0 0 0 82.155021818205569 265.91579607571839 0 265.91579607571839 58.21798626772943 0 0 0 0 162.13520871232322 286.590990695855 0 286.590990695855 62.340563196805306 0 0 0 0 133.08393809040717 228.63857312461187 0 228.63857312461187 -12.410784091422101 0 0 0 0 -3.8558151551842457 22.70637565368088 0 22.70637565368088 -7.55315746999986 0 0 0 0 2.8081397544802513 25.711064969779315 0 25.711064969779315 3.6363049348048904 0 0 0 0 -10.736268239015772 41.968167016195366 0 41.968167016195366 40.359127979252662 0 0 0 0 61.788873506462551 193.23530688192841 0 193.23530688192841 146.523606307921 0 0 0 0 -1.8437638785368904 21.668949920121626 0 21.668949920121626 8.6135343410734038 0 0 0 0 3.8392048173118383 22.493195944378385 0 22.493195944378385 8.3965065304073505 0 0 0 0 -5.7558474638803858 35.99446539457108 0 35.99446539457108 -2.5091418009665745 0 0 0 0 7.4878309751065331 22.086167083570231 0 22.086167083570231 -11.156689662265592 0 0 0 0 8.5020475536330196 41.00550077713342 0 41.00550077713342 -15.142876350510051 0 0 0 0 -53.888184341252781 135.69426914766518 0 135.69426914766518 85.451531756025361 0 0 0 0 -82.14307670348353 80.315132972951687 0 80.315132972951687 62.019956303833169 0 0 0 0 -45.806583644753118 83.339306767353264 0 83.339306767353264 36.623750814775121 0 0 0 0 0.17810493344950373 136.1215461522479 0 136.1215461522479 13.177888060541591 0 0 0 0 -82.769716876136954 86.866657732112799 0 86.866657732112799 70.871135360310745 0 0 0 0 64.596450596725845 156.93692112130884 0 156.93692112130884 56.710238780455256 0 0 0 0 -6.9314747234166134 123.31393108728662 0 123.31393108728662 125.63771773562257 0 0 0 0 62.935033943784219 154.70436190865439 0 154.70436190865439 94.28892004199588 0 0 0 0 -26.976445623482533 49.857989145702973 0 49.857989145702973 -47.779006298821173 0 0 0 0 3.6327753440928063 154.94121885512868 0 154.94121885512868 34.524687882396393 0 0 0 0 27.497278895064483 104.87845384566026 0 104.87845384566026 44.266232201320236 0 0 0 0 53.748100393841014 260.42335339044803 0 260.42335339044803 212.91883798197523 0 0 0 0 135.31636062901089 234.03921652113058 0 234.03921652113058 -60.529280167229444 0 0 0 0 127.19104561175118 134.69132794543839 0 134.69132794543839 -360.1330943367866 0 0 0 0 5.9511632381692721 1.6996480408463128 0 1.6996480408463128 3.400937581887078 0 0 0 0 -373.30609942436422 91.700383799325209 0 91.700383799325209 1275.0268225603413 0 0 0 0 -154.83441595990371 -202.16380825870874 0 -202.16380825870874 226.01815780214747 0 0 0 0 231.77051322578882 195.49824778983202 0 195.49824778983202 44.193865570268827 0 0 0 0 -209.19581712476793 51.761510568849189 0 51.761510568849189 419.403337017171 0 0 0 0 -122.44244432211599 10.62319822817517 0 10.62319822817517 81.187628764644614 0 0 0 0 -141.19090466536727 27.301048200002697 0 27.301048200002697 137.88395121842041 0 0 0 0 -132.48110913096389 -63.775036059392733 0 -63.775036059392733 128.17948434864229 0 0 0 0 45.790019318053965 28.090115530103503 0 28.090115530103503 38.742901113272183 0 0 0 0 -7.9652557208464714 38.929037158530264 0 38.929037158530264 55.997358697393793 0 0 0 0 -17.213033002739394 23.301569164112152 0 23.301569164112152 39.186536290100776 0 0 0 0 52.587264602385403 -13.707929103213246 0 -13.707929103213246 -17.777961401174252 0 0 0 0 -29.988947388472297 -55.918930145497143 0 -55.918930145497143 29.032253724166367 0 0 0 0 -85.732689393938927 -204.70544184359096 0 -204.70544184359096 -241.56696271207329 0 0 0 0 -20.138276720004086 2.6075140472410965 0 2.6075140472410965 -1.4547022484283048 0 0 0 0 6.5393008265455137 -6.6245859952068713 0 -6.6245859952068713 75.846358984883409 0 0 0 0 -56.17285097380136 553.37270274942057 0 553.37270274942057 -358.29963452300581 0 0 0 0 -500.12709484683364 -353.90625294274651 0 -353.90625294274651 -306.87391144044523 0 0 0 0 -677.14108907095397 269.34547608084904 0 269.34547608084904 -380.08021493648994 0 0 0 0 -97.210750834012288 175.02145284142898 0 175.02145284142898 -175.28384385177924 0 0 0 0 -690.10077661306059 346.63468168843247 0 346.63468168843247 27.170767336727295 0 0 0 0 -5.9261847998554487 1.8437737791918352 0 1.8437737791918352 -0.88481279814443781 0 0 0 0 -144.28060426949742 488.88179865793791 0 488.88179865793791 -746.04166786737915 0 0 0 0 -191.26363040329306 47.856173157997546 0 47.856173157997546 179.47226650026278 0 0 0 0 -5.8983015050711884 3.0235797272954414 0 3.0235797272954414 -0.96211836905355419 0 0 0 0 -822.88058375249057 502.47553754428736 0 502.47553754428736 -280.94548550169566 0 0 0 0 8.2740406149059709 23.520562201843859 0 23.520562201843859 -532.1412686929616 0 0 0 0 -303.9974416596051 187.2553059379934 0 187.2553059379934 293.54871906593326 0 0 0 0 -329.49263431895088 553.21535628320271 0 553.21535628320271 -520.62407421521493 0 0 0 0 154.81966744556121 91.503385519048607 0 91.503385519048607 -253.54946825604884 0 0 0 0 -3.010971092723608 3.6891458442305662 0 3.6891458442305662 -1.1872214755621684 0 0 0 0 -642.80207865417105 498.68926553972415 0 498.68926553972415 -405.4395056192443 0 0 0 0 -476.81075254015741 162.36819917583489 0 162.36819917583489 415.43967237965262 0 0 0 0 -196.57332626666903 39.384607518179109 0 39.384607518179109 -253.5789522031555 0 0 0 0 -288.526419209702 353.74332165413944 0 353.74332165413944 -421.96426347843953 0 0 0 0 -128.23838254168368 134.56609666727309 0 134.56609666727309 -145.01338552865127 0 0 0 0 121.8822323501081 -91.340426612499868 0 -91.340426612499868 -68.001831875226344 0 0 0 0 -165.48551555904123 112.92107479594415 0 112.92107479594415 -108.13749492689385 0 0 0 0 -44.768940725414723 30.509397407447977 0 30.509397407447977 -114.42430793587118 0 0 0 0 93.669207618117071 151.39257803203509 0 151.39257803203509 -70.515777366003022 0 0 0 0 -237.30527581750721 103.2702443465605 0 103.2702443465605 27.30769826460164 0 0 0 0 -14.882336665798348 7.0904832933882176 0 7.0904832933882176 2.739754901105286 0 0 0 0 -232.43340992321373 -42.323742167684031 0 -42.323742167684031 82.29333567089634 0 0 0 0 12.829771367793001 38.660828187268635 0 38.660828187268635 -43.050919726472785 0 0 0 0 66.782381647113652 155.98439786289237 0 155.98439786289237 -319.05610856947533 0 0 0 0 3.605966268744595 1.8814388240792681 0 1.8814388240792681 -6.0470182413291127 0 0 0 0 308.61583538569539 203.67082517546078 0 203.67082517546078 44.165936822551885 0 0 0 0 478.70861388727644 135.42796034111961 0 135.42796034111961 63.874663564667571 0 0 0 0 708.45477707346436 137.76712191724801 0 137.76712191724801 63.594549525172624 0 0 0 0 0.47227598120065295 1.2059959028286471 0 1.2059959028286471 -0.22935288241805551 0 0 0 0 490.15768355064938 341.04687975152046 0 341.04687975152046 165.52649138928973 0 0 0 0 308.18997252530971 308.88116138744226 0 308.88116138744226 169.21268771821633 0 0 0 0 282.91417272151739 121.14987029695476 0 121.14987029695476 258.68707730888491 0 0 0 0 299.81000851178396 224.52074131537665 0 224.52074131537665 -13.019576521241106 0 0 0 0 217.1561504490237 295.48471522038017 0 295.48471522038017 -51.503118280146737 0 0 0 0 82.457375541700458 359.59692082823312 0 359.59692082823312 -1.0823596352420282 0 0 0 0 261.26365186767362 357.40526425967983 0 357.40526425967983 -15.078004823328229 0 0 0 0 538.34450648896745 194.14542648627685 0 194.14542648627685 -66.333016640186543 0 0 0 0 337.51993603670417 460.82886504708949 0 460.82886504708949 -124.39451115939301 0 0 0 0 -14.189862834638916 485.22188271918276 0 485.22188271918276 -18.172779463478946 0 0 0 0 45.080626897037291 325.77258053408514 0 325.77258053408514 15.367252459211159 0 0 0 0 -147.69333585107233 234.90711934761021 0 234.90711934761021 -0.65728681332257111 0 0 0 0 -1.8729873273623525 327.06684442392725 0 327.06684442392725 -229.94163096981356 0 0 0 0 -45.485082003171556 268.24835157966299 0 268.24835157966299 -241.87341803882737 0 0 0 0 16.688584773422917 49.585032138485985 0 49.585032138485985 147.784822121248 0 0 0 0 -195.94543848452304 177.95228956232313 0 177.95228956232313 -37.679208100016695 0 0 0 0 1.3945881649539444 1.362341096616575 0 1.362341096616575 -0.8617736683299313 0 0 0 0 -8.5066267864822294 -49.086605516902637 0 -49.086605516902637 -28.883392677224492 0 0 0 0 1.1339978665187402 5.9990772406313511 0 5.9990772406313511 4.6360155507951504 0 0 0 0 10.72746137631475 12.716320155734138 0 12.716320155734138 -3.7310076827561716 0 0 0 0 13.671072716490016 41.012534845358459 0 41.012534845358459 -347.10521900949334 0 0 0 0 36.609053367388697 195.71026673979213 0 195.71026673979213 -299.35954697542184 0 0 0 0 1.1050916649250979 2.1180301896944584 0 2.1180301896944584 0.52195029397864801 0 0 0 0 24.098697058099788 285.70478442497551 0 285.70478442497551 -369.3035527492375 0 0 0 0 -97.601096399470407 299.20740786235547 0 299.20740786235547 -219.78891284461133 0 0 0 0 10.9589686287527 205.55005761510847 0 205.55005761510847 -170.80192157163401 0 0 0 0 -45.778756357562088 207.82085169616039 0 207.82085169616039 173.626787549656 0 0 0 0 -2.9360274911814486 375.66708849288989 0 375.66708849288989 4.1075017859402578 0 0 0 0 41.21890496618289 297.96527129565584 0 297.96527129565584 -234.18344092882762 0 0 0 0 -89.864393212446885 302.6379452754918 0 302.6379452754918 258.98322045027817 0 0 0 0 75.296451300302579 204.64349416088953 0 204.64349416088953 -312.92370163763917 0 0 0 0 6.7119893637100176 28.883726518179174 0 28.883726518179174 -678.22031956051433 0 0 0 0 136.47602029226618 113.25035415625462 0 113.25035415625462 -433.86253084386408 0 0 0 0 -179.03349737539975 94.172519844349154 0 94.172519844349154 30.445419778428914 0 0 0 0 66.83037244051593 -231.28183581569465 0 -231.28183581569465 12.052540708473316 0 0 0 0 -4.182724717927556 2.9538756752675397 0 2.9538756752675397 6.6980234230534563 0 0 0 0 -6.2562122153922246 4.6391376622123062 0 4.6391376622123062 9.4178677555682953 0 0 0 0 -2.242039721335459 1.9648641116800718 0 1.9648641116800718 7.2007208433169581 0 0 0 0 -0.27869605430686306 4.5330320100927111 0 4.5330320100927111 7.0958494315256644 0 0 0 0 2.0206427345074189 11.431396991349175 0 11.431396991349175 5.2660934501036536 0 0 0 0 35.654439731750244 -5.1282002119769459 0 -5.1282002119769459 9.6367481419729302 0 0 0 0 -0.58656901399081107 -3.3912733699253295 0 -3.3912733699253295 7.0838951005134732 0 0 0 0 1.9318547509544715 3.5072609565690698 0 3.5072609565690698 -4.8727181797116259 0 0 0 0 2.3901927664785489 15.330278186112537 0 15.330278186112537 16.725216572885984 0 0 0 0 -1.9666434978807956 5.9630446306709928 0 5.9630446306709928 17.042570871693897 0 0 0 0 -0.68983632892195601 4.8119599422389001 0 4.8119599422389001 12.404791134773404 0 0 0 0 -7.2223022621765267 0.70199488807338639 0 0.70199488807338639 28.291996302781627 0 0 0 0 7.9326582271096413 18.396054781231214 0 18.396054781231214 13.829669150698464 0 0 0 0 214.98085911592352 386.93995726649882 0 386.93995726649882 -52.805431768865674 0 0 0 0 2.1125104466409539 16.045866839522205 0 16.045866839522205 -35.773688507309998 0 0 0 0 -10.02835872524156 19.195859540428501 0 19.195859540428501 -9.5724660316518566 0 0 0 0 0.92437039798096521 6.3237139611082966 0 6.3237139611082966 -11.364636114914902 0 0 0 0 8.5403731064216117 30.715112854770268 0 30.715112854770268 40.576380983118725 0 0 0 0 0.059839617081166807 2.1024921228924995 0 2.1024921228924995 -0.87514463815811894 0 0 0 0 -1.9912456021993421 3.5345682421611855 0 3.5345682421611855 13.626064518633939 0 0 0 0 0.028578245852258988 4.4004961162645486 0 4.4004961162645486 9.1636938056180952 0 0 0 0 -9.1690894641160412 5.402400374347053 0 5.402400374347053 1.4706501773544005 0 0 0 0 -1.2826698731798274 2.9190756640958 0 2.9190756640958 -0.54833424363518901 0 0 0 0 -0.8838312341540453 -1.2055555992475746 0 -1.2055555992475746 2.8271757227292937 0 0 0 0 -9.2114603074951447 6.8715796390424657 0 6.8715796390424657 -2.3573024850702495 0 0 0 0 56.251726596532535 49.63537229065696 0 49.63537229065696 41.486785168905044 0 0 0 0 -4.573033909086007 0.84008178216754459 0 0.84008178216754459 9.4855944088922115 0 0 0 0 -3.2778510056523373 6.435941514238948 0 6.435941514238948 13.392423465644242 0 0 0 0 -1.2339476559844655 -1.2193652523504852 0 -1.2193652523504852 0.20141990348218997 0 0 0 0 -4.7600608103006863 1.1892332324649999 0 1.1892332324649999 0.50471315319975218 0 0 0 0 25.875846038463351 34.153349016298307 0 34.153349016298307 33.770829878041695 0 0 0 0 50.76015957258187 66.28675495855623 0 66.28675495855623 13.637680871397606 0 0 0 0 65.020360871545563 122.7998357528304 0 122.7998357528304 -3.3913132968591526 0 0 0 0 138.00669446512256 48.072193292377051 0 48.072193292377051 15.929223174251092 0 0 0 0 145.09855917748246 135.57471305371837 0 135.57471305371837 0.095010086712136399 0 0 0 0 68.906061294483152 59.863618158920872 0 59.863618158920872 3.2312157578562619 0 0 0 0 -36.656064021187376 11.011158500981765 0 11.011158500981765 3.9060986946133198 0 0 0 0 289.16655001401159 74.225224664514826 0 74.225224664514826 -47.641586821351666 0 0 0 0 0.025612641899056321 -1.7861859820041914 0 -1.7861859820041914 1.1105933132034238 0 0 0 0 -13.431153900601203 6.4372814758062304 0 6.4372814758062304 -1.0227357870244305 0 0 0 0 -14.013838309349921 15.400953775231301 0 15.400953775231301 0.48370370363409165 0 0 0 0 -19.937573778075603 16.563309780231066 0 16.563309780231066 -0.011413503358198795 0 0 0 0 -12.030053587801376 10.865064972851542 0 10.865064972851542 -2.5936220752773806 0 0 0 0 -7.9179860647927853 17.779429963651637 0 17.779429963651637 0.012738802793054097 0 0 0 0 -394.24318316090535 111.93848262801885 0 111.93848262801885 13.621421262840158 0 0 0 0 -228.2450856866235 21.68198278077034 0 21.68198278077034 41.476811711057962 0 0 0 0 -256.02630362759737 210.24206953641988 0 210.24206953641988 -0.046661298249091487 0 0 0 0 -158.83318274311023 350.5142632070274 0 350.5142632070274 54.389028795723789 0 0 0 0 -512.97140988857063 234.25533935340354 0 234.25533935340354 36.673106783158801 0 0 0 0 -275.92141637528402 648.18960500903268 0 648.18960500903268 -0.6697593669523485 0 0 0 0 -382.80384002556821 175.75942676969862 0 175.75942676969862 -3.7629570490535116 0 0 0 0 -358.1852396635295 238.59443828194344 0 238.59443828194344 -310.34959004737902 0 0 0 0 -575.42026295539108 473.59224503488804 0 473.59224503488804 -171.83425191840797 0 0 0 0 -483.64889486947163 360.13619049291947 0 360.13619049291947 2.3806350780359935 0 0 0 0 -700.13580923327208 296.43568904628046 0 296.43568904628046 -7.0049957547162194 0 0 0 0 169.20048818989744 122.62515738448565 0 122.62515738448565 -179.90534154971829 0 0 0 0 0.48062242688600776 -0.71336133041292271 0 -0.71336133041292271 -3.8105981313396455 0 0 0 0 -485.0201411517919 387.13226195026073 0 387.13226195026073 -104.9235375089047 0 0 0 0 -412.71117524695728 112.57950741662353 0 112.57950741662353 72.790512725667213 0 0 0 0 -482.04108814842039 419.54252601021653 0 419.54252601021653 -58.516645695985062 0 0 0 0 -449.22524178509684 406.66840969698569 0 406.66840969698569 -97.689082422701176 0 0 0 0 -467.57806798216916 451.16090614933637 0 451.16090614933637 -182.98559571931401 0 0 0 0 -626.13083279292914 583.74724632846483 0 583.74724632846483 -219.94833898545767 0 0 0 0 -425.91258071296761 139.94257247877249 0 139.94257247877249 -9.9726366513568792 0 0 0 0 -376.00887231327579 244.19663515934371 0 244.19663515934371 -146.23105144377041 0 0 0 0 -666.15033356212325 320.30809627781491 0 320.30809627781491 325.10361531146918 0 0 0 0 60.466981592828233 85.015123166900594 0 85.015123166900594 133.62529684864421 0 0 0 0 135.8253746647606 17.889297865978733 0 17.889297865978733 181.14709305905853 0 0 0 0 0.48742045218693519 -1.0230113617562573 0 -1.0230113617562573 -0.77611279182923454 0 0 0 0 111.02548578297456 129.87805147324707 0 129.87805147324707 159.79149119624344 0 0 0 0 55.117972172578447 97.945507015669136 0 97.945507015669136 62.347171462613915 0 0 0 0 57.595265859476058 117.50394371006405 0 117.50394371006405 193.31957563242031 0 0 0 0 -7.3992846744034608 5.2105908416296245 0 5.2105908416296245 7.0886100850486855e-05 0 0 0 0 -3.5852197539816615 1.100495312524373 0 1.100495312524373 2.3907776494269228 0 0 0 0 41.972199779615039 77.711405578003905 0 77.711405578003905 135.48702543208492 0 0 0 0 -40.469524743137299 55.68546545998106 0 55.68546545998106 174.45177806404536 0 0 0 0 58.870169980269566 88.222299344839485 0 88.222299344839485 57.269686789353727 0 0 0 0 62.947841515797336 105.30869388102292 0 105.30869388102292 17.799609112873441 0 0 0 0 118.74788184957288 91.464991580152855 0 91.464991580152855 25.829609627187892 0 0 0 0 27.399270870708278 31.0670632745896 0 31.0670632745896 9.924658734798868 0 0 0 0 -9.5863964565851347 119.34696110611912 0 119.34696110611912 35.070113837180543 0 0 0 0 0.62989676322858301 -1.0283202904698889 0 -1.0283202904698889 -1.0008155485336374 0 0 0 0 -43.276103660184162 43.243114447650441 0 43.243114447650441 24.50010130465671 0 0 0 0 18.615487942835898 60.988886930532317 0 60.988886930532317 2.0648377867109957 0 0 0 0 -1.6845192387481802 77.448310760148161 0 77.448310760148161 17.406772203462538 0 0 0 0 -18.297679113522463 137.28746221018082 0 137.28746221018082 -0.093279787768551614 0 0 0 0 125.12533929809069 153.59900263968848 0 153.59900263968848 0.026403317344374955 0 0 0 0 0.92311903320903355 -1.4906119911712281 0 -1.4906119911712281 -1.0911940532612334 0 0 0 0 -197.61042874387203 25.500052283969126 0 25.500052283969126 30.974882938284281 0 0 0 0 -102.63294984603817 96.371062815607729 0 96.371062815607729 69.459180958307115 0 0 0 0 -66.640622836936927 206.17462234951017 0 206.17462234951017 73.500142418968608 0 0 0 0 -275.98084762290819 180.67261729681195 0 180.67261729681195 78.032692534776288 0 0 0 0 -55.422329640115095 212.78252085086933 0 212.78252085086933 0.15722525201272219 0 0 0 0 123.47124080794947 210.24496958800228 0 210.24496958800228 -0.16772142417903524 0 0 0 0 236.58308213581768 260.37014090572484 0 260.37014090572484 -49.894030636511161 0 0 0 0 66.48467986972355 294.46037060960225 0 294.46037060960225 7.2578403665975202 0 0 0 0 62.189488777219594 264.59504090590781 0 264.59504090590781 -14.687283136227052 0 0 0 0 -140.2275143467341 327.36312578840079 0 327.36312578840079 17.201500462120748 0 0 0 0 -4.4086340776775614 200.96091310757765 0 200.96091310757765 0.15558951007551514 0 0 0 0 119.51709721253155 154.67789769977753 0 154.67789769977753 13.890847992384806 0 0 0 0 129.52888513144353 204.24739057728584 0 204.24739057728584 -32.209182022648747 0 0 0 0 211.39826002254267 190.63680809233483 0 190.63680809233483 -29.961419003244373 0 0 0 0 130.69725360560048 157.05739680356965 0 157.05739680356965 -19.458139123453293 0 0 0 0 177.20350057888572 154.0601619570516 0 154.0601619570516 -19.338740590988891 0 0 0 0 108.02963316244586 115.76768069769969 0 115.76768069769969 -10.546250619605416 0 0 0 0 208.25585632705224 117.82930557795771 0 117.82930557795771 -34.104261823791603 0 0 0 0 208.86110162029217 190.59101254051347 0 190.59101254051347 -1.8315671560012561 0 0 0 0 173.14178534474013 156.39451832975101 0 156.39451832975101 -15.325436673636432 0 0 0 0 241.88299482070079 182.19977124907018 0 182.19977124907018 -6.9241718252305873 0 0 0 0 251.85433187859962 260.02526948230661 0 260.02526948230661 95.110015298618237 0 0 0 0 262.44278888730332 237.69034594557888 0 237.69034594557888 32.86869169829879 0 0 0 0 275.74639504388688 236.78523348006274 0 236.78523348006274 27.742739212641027 0 0 0 0 187.47943980350101 135.30467468161805 0 135.30467468161805 -15.257395425971481 0 0 0 0 280.58362236758734 128.86490670062403 0 128.86490670062403 -65.812675085398951 0 0 0 0 160.17434678900008 296.82997961549518 0 296.82997961549518 40.636238598337513 0 0 0 0 212.72436067063973 381.63995448008063 0 381.63995448008063 -92.526481849825359 0 0 0 0 369.24563849832703 355.82968544643518 0 355.82968544643518 55.922004121588543 0 0 0 0 188.45009318441225 208.59411391755202 0 208.59411391755202 6.6962575543147977 0 0 0 0 272.33564715947432 239.14283311811596 0 239.14283311811596 15.569505423140072 0 0 0 0 286.99891012497028 207.70429158620391 0 207.70429158620391 80.10075896276976 0 0 0 0 225.33213205371658 220.1899132268245 0 220.1899132268245 65.886423668038333 0 0 0 0 258.85052794300645 253.32706355815026 0 253.32706355815026 62.082352911800626 0 0 0 0 262.91878184267262 239.15796454273368 0 239.15796454273368 110.08631800682633 0 0 0 0 297.92395820075762 264.11230531596084 0 264.11230531596084 90.854867380636279 0 0 0 0 0.53922860896752667 -2.0654571958827201 0 -2.0654571958827201 1.4252003652802614 0 0 0 0 626.08570057625548 266.6100872491661 0 266.6100872491661 -24.273517300724052 0 0 0 0 415.26268551615249 128.74399632954737 0 128.74399632954737 57.287734020719654 0 0 0 0 -194.89640547533418 52.396689190802135 0 52.396689190802135 -10.023880843480583 0 0 0 0 -40.648408143762936 269.89638948325592 0 269.89638948325592 -219.67873855648213 0 0 0 0 16.785255447142845 -156.36790606638897 0 -156.36790606638897 57.707440236205002 0 0 0 0 3.8442293780347399 1.3766792431717754 0 1.3766792431717754 5.0045532702664559 0 0 0 0 38.169445745883422 94.615489516829257 0 94.615489516829257 17.902872263452991 0 0 0 0 139.50859910797226 100.47828555283922 0 100.47828555283922 91.111248861183412 0 0 0 0 2.6065969662595307 9.2337184950411029 0 9.2337184950411029 21.187137741479091 0 0 0 0 2.4447097623236864 2.0339382464721858 0 2.0339382464721858 -6.7301904020209804 0 0 0 0 217.30134630554494 48.37539554695104 0 48.37539554695104 -132.80608508497244 0 0 0 0 198.29259441938484 107.13675310471444 0 107.13675310471444 56.399280983394419 0 0 0 0 164.87750370823051 83.351170235619065 0 83.351170235619065 87.77657391068351 0 0 0 0 205.44234205834073 -22.92968116812699 0 -22.92968116812699 104.97448935150169 0 0 0 0 14.915481734926288 21.459939770109486 0 21.459939770109486 5.7773221367533552 0 0 0 0 47.525302033798653 30.521440222364618 0 30.521440222364618 19.333437099136063 0 0 0 0 136.01056758891718 -60.012076409664587 0 -60.012076409664587 26.47940683401248 0 0 0 0 -7.692245418848028 6.4498099808625575 0 6.4498099808625575 10.098244719485933 0 0 0 0 3.6025810147181403 1.7352906458512223 0 1.7352906458512223 -2.0453545226831409 0 0 0 0 13.81267989995122 9.7039672956191083 0 9.7039672956191083 -5.7845617832073799 0 0 0 0 147.72368652561454 101.28189787414158 0 101.28189787414158 53.828519202739699 0 0 0 0 44.94916116317836 -36.472782501543406 0 -36.472782501543406 -35.591721866163425 0 0 0 0 19.373982239175227 16.977035850870095 0 16.977035850870095 0.58732526225287529 0 0 0 0 36.101910588947675 12.617156775197401 0 12.617156775197401 -9.3729207585615537 0 0 0 0 13.474753600996337 12.47303935590935 0 12.47303935590935 1.0857880981347989 0 0 0 0 17.021081510762997 24.627877950981201 0 24.627877950981201 10.391284142737277 0 0 0 0 16.662007542005085 8.3824296116018644 0 8.3824296116018644 -1.9122974257980161 0 0 0 0 6.5137530159720285 33.335743887726949 0 33.335743887726949 24.56128006898588 0 0 0 0 6.2625785271633845 3.5514443080650722 0 3.5514443080650722 -4.0287673283511456 0 0 0 0 116.58137823734614 149.9572139820084 0 149.9572139820084 196.71609615554189 0 0 0 0 46.981154508262676 96.041453415493038 0 96.041453415493038 154.95316928086686 0 0 0 0 228.32676382373938 286.32182961489525 0 286.32182961489525 178.50551811401965 0 0 0 0 127.31321442065564 186.89328953710356 0 186.89328953710356 225.92533968675707 0 0 0 0 161.31701165526101 191.56172502972186 0 191.56172502972186 130.18774209066396 0 0 0 0 160.90976426299858 156.84563605730546 0 156.84563605730546 125.28901563282125 0 0 0 0 98.713351947588308 124.51750325655303 0 124.51750325655303 116.73447209855658 0 0 0 0 202.27911572694939 244.11668798360188 0 244.11668798360188 110.22168506751768 0 0 0 0 275.40443866438909 161.82604997868475 0 161.82604997868475 75.471633028253564 0 0 0 0 265.43566421521609 292.44561335817707 0 292.44561335817707 99.11338801067177 0 0 0 0 335.51858217293011 311.80752157630923 0 311.80752157630923 61.886343248934281 0 0 0 0 265.56991141584672 293.88565834869632 0 293.88565834869632 110.90035476608318 0 0 0 0 521.22860155278977 507.97381960833445 0 507.97381960833445 207.20031473007111 0 0 0 0 318.50236588584357 172.37915140301629 0 172.37915140301629 -9.7404624862247147 0 0 0 0 416.06351524276579 216.46630825914326 0 216.46630825914326 -49.901228336682834 0 0 0 0 493.75972484234114 235.81474353772455 0 235.81474353772455 -83.794907090676134 0 0 0 0 170.34433452561643 632.8949938401056 0 632.8949938401056 1191.9859838073316 0 0 0 0 2.6488210065450666 4.9228493985306159 0 4.9228493985306159 0.10818257674780085 0 0 0 0 883.78402278038629 806.08839936546428 0 806.08839936546428 323.11943912597781 0 0 0 0 131.84896357449543 156.93198443246365 0 156.93198443246365 176.18980412226665 0 0 0 0 93.160952504358647 218.66776138357818 0 218.66776138357818 581.36076738567499 0 0 0 0 -448.75682438542572 -78.014087723044213 0 -78.014087723044213 -21.470456498477233 0 0 0 0 -534.71792275121595 337.1505134170211 0 337.1505134170211 425.13883283369069 0 0 0 0 1100.014241038356 -528.76062248215021 0 -528.76062248215021 -363.57104148315557 0 0 0 0 1095.3583346596115 745.9197023875895 0 745.9197023875895 -1005.1584162183281 0 0 0 0 9.8174323374968786 14.461426382091716 0 14.461426382091716 -28.180730088175949 0 0 0 0 32.454819333636081 24.372268701155804 0 24.372268701155804 14.471898508389131 0 0 0 0 33.159936944880364 43.519773096308768 0 43.519773096308768 37.584951007986092 0 0 0 0 74.892637393807036 48.789090728685551 0 48.789090728685551 31.312881057776394 0 0 0 0 76.511809144098606 34.619891456277401 0 34.619891456277401 73.114829817901409 0 0 0 0 64.093388827091076 52.360789644437318 0 52.360789644437318 43.995986504625762 0 0 0 0 56.844305316931013 59.760154658331885 0 59.760154658331885 41.096323017525719 0 0 0 0 125.71924183589272 98.151663358130463 0 98.151663358130463 61.933991321828216 0 0 0 0 9.3550961692853889 14.802532627712935 0 14.802532627712935 4.0180137111747172 0 0 0 0 -3.3589576494778157 40.218571918550879 0 40.218571918550879 42.832636525228736 0 0 0 0 -10.385217341367024 28.592984410879581 0 28.592984410879581 39.680308378578047 0 0 0 0 -29.173557883584749 15.72960026022821 0 15.72960026022821 7.6990550618664599 0 0 0 0 -26.749220857624255 12.140170155757691 0 12.140170155757691 27.089298294839239 0 0 0 0 -7.2915958970192571 23.074181160981496 0 23.074181160981496 18.169166557102557 0 0 0 0 44.094577293980393 84.898382987577406 0 84.898382987577406 33.960445184098361 0 0 0 0 -1.5320611194177509 15.64689787932258 0 15.64689787932258 14.894513689929681 0 0 0 0 61.662408482885553 44.076759734760344 0 44.076759734760344 22.141607923054835 0 0 0 0 -8.5255492279359739 21.676097951081644 0 21.676097951081644 20.656969913889981 0 0 0 0 -17.8693887804111 25.602835450983548 0 25.602835450983548 50.088951732395799 0 0 0 0 16.421634328295113 13.880612261767965 0 13.880612261767965 7.2082399235423509 0 0 0 0 61.061792336618964 42.242387670121389 0 42.242387670121389 28.885899628780862 0 0 0 0 63.666829895863884 29.827618649200303 0 29.827618649200303 9.4691856601421023 0 0 0 0 78.260653849284154 44.985262023619725 0 44.985262023619725 6.321714582205459 0 0 0 0 27.531526916499949 6.6035263267654898 0 6.6035263267654898 -13.82907329895761 0 0 0 0 2353.4603601533372 307.15959860169824 0 307.15959860169824 153.442712910517 0 0 0 0 318.53329851998024 889.4372257289142 0 889.4372257289142 382.4916150932695 0 0 0 0 104.07113049012423 257.2927631833154 0 257.2927631833154 2012.1088371764199 0 0 0 0 113.432083750598 131.83605579032337 0 131.83605579032337 599.79246340312238 0 0 0 0 -208.39366500198958 113.11881814328081 0 113.11881814328081 787.01786809043551 0 0 0 0 -207.91070724089104 94.507697096500124 0 94.507697096500124 228.87796241184697 0 0 0 0 -92.559124506587068 278.24324929642898 0 278.24324929642898 331.63313987973379 0 0 0 0 29.243515359191292 37.376375553160869 0 37.376375553160869 -368.67156996730046 0 0 0 0 162.34035998886975 406.64306039674557 0 406.64306039674557 -340.82257507677423 0 0 0 0 171.94872993420904 -797.43574676607523 0 -797.43574676607523 3.1269502601790009 0 0 0 0 654.5122787307937 978.00458749004974 0 978.00458749004974 -248.21766270001535 0 0 0 0 -143.55634869129835 140.29807328068273 0 140.29807328068273 46.755402837268775 0 0 0 0 -8.8003019582329216 104.26637790469249 0 104.26637790469249 11.541996104104328 0 0 0 0 -171.08674565879488 220.07717009422049 0 220.07717009422049 17.618912752823235 0 0 0 0 -619.04710107192318 219.3998778686655 0 219.3998778686655 938.74522984874875 0 0 0 0 -182.67402378068755 509.52251246090054 0 509.52251246090054 872.46208790621313 0 0 0 0 -681.20894766216315 -4.6686919093481265 0 -4.6686919093481265 1188.2174473564664 0 0 0 0 -118.00737473023992 -271.27428742894699 0 -271.27428742894699 798.41525319634093 0 0 0 0 2.1791107676576611 1.731690259917233 0 1.731690259917233 18.131515623091502 0 0 0 0 1715.2727706442383 442.93711573271867 0 442.93711573271867 -701.36274739546934 0 0 0 0 590.21733888921426 810.21741760592704 0 810.21741760592704 -663.00980057592096 0 0 0 0 9.2246252207239472 10.574930788722995 0 10.574930788722995 9.3801290321428041 0 0 0 0 645.67549564050751 73.7583829550058 0 73.7583829550058 -570.8507793563258 0 0 0 0 561.82544855581909 664.53777760706726 0 664.53777760706726 -136.59194216113247 0 0 0 0 -159.95612430209258 -139.39417845303251 0 -139.39417845303251 -75.597192852008448 0 0 0 0 374.93708370735521 38.174481013969853 0 38.174481013969853 -160.7459360632929 0 0 0 0 6.3295223639343021 60.117072662127612 0 60.117072662127612 -76.212714897672413 0 0 0 0 -368.84441692198743 173.69790039886539 0 173.69790039886539 -21.421421905703028 0 0 0 0 -212.08181806579637 322.51071148342999 0 322.51071148342999 -226.59725600460661 0 0 0 0 23.529299459144802 20.437738774414612 0 20.437738774414612 14.77926914371659 0 0 0 0 -232.97507326284585 -417.78905202847363 0 -417.78905202847363 -90.380184697161894 0 0 0 0 -323.36642616727477 -125.47866877560955 0 -125.47866877560955 -291.60126590108848 0 0 0 0 39.757847199742173 216.0645913838307 0 216.0645913838307 8.1367847279179841 0 0 0 0 -240.07723428426675 -476.59402747310014 0 -476.59402747310014 862.72295918255986 0 0 0 0 867.04906414322249 -710.32715864254715 0 -710.32715864254715 1040.6893497280544 0 0 0 0 -42.954978656071034 -283.12575979378198 0 -283.12575979378198 -174.86370439440361 0 0 0 0 -134.7700418033819 -21.049760651978431 0 -21.049760651978431 347.29560502296226 0 0 0 0 26.805748237741682 14.645414305035956 0 14.645414305035956 -190.77858388776076 0 0 0 0 -148.76596014860115 -104.1298322434086 0 -104.1298322434086 240.12653667367704 0 0 0 0 -3.0278615535024045 -0.70939069424335344 0 -0.70939069424335344 -1.5387595652004327 0 0 0 0 20.138375518382873 63.208634925729712 0 63.208634925729712 14.703743312551524 0 0 0 0 -106.58421732661859 136.58416343608224 0 136.58416343608224 -64.374989850664861 0 0 0 0 23.920851334763871 18.485018305181484 0 18.485018305181484 13.342282750553466 0 0 0 0 -97.190229185549654 121.55812711934595 0 121.55812711934595 -64.810318104602629 0 0 0 0 -117.35519386480246 127.3176629698828 0 127.3176629698828 -44.903806926740799 0 0 0 0 -103.76834886895176 139.49373311222735 0 139.49373311222735 -163.48248310377494 0 0 0 0 -103.94685003117183 110.35883918067702 0 110.35883918067702 -41.40828635462276 0 0 0 0 -117.41120227184808 127.48087488401507 0 127.48087488401507 -12.829454856619122 0 0 0 0 -112.45949590967621 116.61951354025223 0 116.61951354025223 -6.0701510535400303 0 0 0 0 -24.197106121966897 59.794492299817648 0 59.794492299817648 -12.575233941955958 0 0 0 0 -132.19158564686842 97.847495289475773 0 97.847495289475773 1.8817334808700252 0 0 0 0 172.53805790320678 44.667611229374415 0 44.667611229374415 -57.578997865814017 0 0 0 0 2.9441370951008139 60.3095559184585 0 60.3095559184585 -28.141711288662918 0 0 0 0 -159.50202135035306 137.64149578770594 0 137.64149578770594 -19.856257952473243 0 0 0 0 13.267597819956791 98.398300159809878 0 98.398300159809878 -35.974339880454863 0 0 0 0 -112.85902954570531 145.07080240926643 0 145.07080240926643 -11.495824918165454 0 0 0 0 123.15905734658736 90.954733079996004 0 90.954733079996004 -6.625987182254903 0 0 0 0 13.491795215330967 68.472941011110379 0 68.472941011110379 2.097183353282162 0 0 0 0 43.732614646149614 46.959040886715229 0 46.959040886715229 74.290336514837691 0 0 0 0 5.478883715108168 103.55244346938707 0 103.55244346938707 7.7412664247603971 0 0 0 0 1.7347809126537594 0.053159963105855468 0 0.053159963105855468 -2.1936220032597191 0 0 0 0 92.026757938785522 102.29528740012756 0 102.29528740012756 -9.4509499031719315 0 0 0 0 5.0536328428950128 51.169719462352077 0 51.169719462352077 49.481252064273576 0 0 0 0 97.798087121543631 116.57848358458432 0 116.57848358458432 0.092289528780383989 0 0 0 0 -9.699308272502094 83.833135022119677 0 83.833135022119677 63.741197849805758 0 0 0 0 2.0800409707702414 0.046305247405143746 0 0.046305247405143746 -2.4462312179494745 0 0 0 0 -200.66999606945683 154.63557024392503 0 154.63557024392503 52.523892938756035 0 0 0 0 -198.72304000315145 70.953039403447519 0 70.953039403447519 72.588851563166827 0 0 0 0 -149.50947575836494 140.33038213600594 0 140.33038213600594 77.241652160955709 0 0 0 0 -136.19794511149621 147.20143096683023 0 147.20143096683023 23.833563733100164 0 0 0 0 -131.90940175556682 152.02880549698966 0 152.02880549698966 0.018059799804177601 0 0 0 0 -216.56707157170922 119.58649676293862 0 119.58649676293862 38.930427857892937 0 0 0 0 -338.20081224935421 115.05083316720993 0 115.05083316720993 59.942884441043134 0 0 0 0 -226.21509710159262 159.66261591074908 0 159.66261591074908 -64.943812745303148 0 0 0 0 -356.67413605757974 54.854815634869738 0 54.854815634869738 -0.15383557745371945 0 0 0 0 5.908244081399971 10.250726869882783 0 10.250726869882783 -16.810590551285713 0 0 0 0 -113.9224321634938 -46.566467142307374 0 -46.566467142307374 -26.289281003904762 0 0 0 0 -0.3231685340661814 4.3941324330062912 0 4.3941324330062912 1.7305742322629314 0 0 0 0 47.227887968359482 0.03437278274941491 0 0.03437278274941491 -32.973157796601299 0 0 0 0 -119.20205203615933 28.429628144032904 0 28.429628144032904 44.873506054442259 0 0 0 0 -260.923253866896 -39.16125441895565 0 -39.16125441895565 47.271240494374069 0 0 0 0 -175.76944991573566 69.346427270058484 0 69.346427270058484 41.227708098886069 0 0 0 0 -77.787526907359734 -4.1923095034799189 0 -4.1923095034799189 47.074646339329774 0 0 0 0 -67.876638837356609 27.41399514022487 0 27.41399514022487 25.008566565953515 0 0 0 0 -65.552061002688902 49.358773818341433 0 49.358773818341433 37.118954531637428 0 0 0 0 -3.6661517800821271 8.2752250473364199 0 8.2752250473364199 10.404655491657735 0 0 0 0 49.891528086629933 20.395663254566898 0 20.395663254566898 18.871318824676564 0 0 0 0 3.4848303266558105 28.964191458959249 0 28.964191458959249 19.598752568832424 0 0 0 0 6.6163320981123901 2.0855395273973016 0 2.0855395273973016 0.50662142457792925 0 0 0 0 18.090472089378274 7.0081845873441608 0 7.0081845873441608 -1.1584599567996214 0 0 0 0 13.393045255112156 7.3891607486093562 0 7.3891607486093562 -0.0026721073518274352 0 0 0 0 30.814698975766305 17.333661227816265 0 17.333661227816265 3.3566326282307273 0 0 0 0 12.777014794643049 4.1472788286354216 0 4.1472788286354216 1.3077028374232782 0 0 0 0 14.48505427778764 7.5578476676018909 0 7.5578476676018909 0.023083162403054303 0 0 0 0 14.468247982214905 7.1805288011829589 0 7.1805288011829589 1.6996446924677002 0 0 0 0 12.951120856887428 9.6596661199291702 0 9.6596661199291702 0.0075545189644192715 0 0 0 0 19.006944579729861 7.8767264861817239 0 7.8767264861817239 -7.0293860481688171 0 0 0 0 11.238498229211221 6.8387336597791091 0 6.8387336597791091 -1.1529741873930277 0 0 0 0 9.820474777616667 8.3046339160995561 0 8.3046339160995561 -1.0649435810944965 0 0 0 0 11.425140692060268 13.696651059450232 0 13.696651059450232 8.3631181901109812 0 0 0 0 37.168864676285011 25.199723683297634 0 25.199723683297634 13.836247482184262 0 0 0 0 16.986610702242615 11.418897933042899 0 11.418897933042899 10.731511699894327 0 0 0 0 33.586135402101718 27.899708618668228 0 27.899708618668228 18.563175163581036 0 0 0 0 20.685169675108227 11.839074233033898 0 11.839074233033898 4.8663834282560856 0 0 0 0 -6.2652717997461878 9.7255910603280427 0 9.7255910603280427 -0.53569205448729917 0 0 0 0 5.4053987649931514 51.388539133598897 0 51.388539133598897 -8.4905568475369364 0 0 0 0 9.2342951423548456 15.662131039188608 0 15.662131039188608 9.2459344077017818 0 0 0 0 13.680688277853141 19.33982337915646 0 19.33982337915646 2.0340402406302474 0 0 0 0 11.319273656575547 23.174833691966114 0 23.174833691966114 24.890036495853565 0 0 0 0 5.5697385524272534 3.6495593317428785 0 3.6495593317428785 2.3177165960824198 0 0 0 0 20.003765634215597 26.347014101807872 0 26.347014101807872 13.249846632348635 0 0 0 0 21.282512326042706 15.432417093988988 0 15.432417093988988 4.343455499431002 0 0 0 0 10.534990129296602 7.8557567181669583 0 7.8557567181669583 13.040796311688609 0 0 0 0 34.610822511842684 -3.7517021017288243 0 -3.7517021017288243 27.474163040780695 0 0 0 0 3.5863939693100235 1.0911172534711611 0 1.0911172534711611 0.086053562823224183 0 0 0 0 31.98142783597541 26.448887146376364 0 26.448887146376364 -13.664108019268951 0 0 0 0 36.445285875541231 15.30779150773742 0 15.30779150773742 -12.48590597776456 0 0 0 0 18.006236788481402 15.355526729768826 0 15.355526729768826 12.190323558433761 0 0 0 0 -48.472024570134181 33.766708593060685 0 33.766708593060685 0.81324384112667758 0 0 0 0 23.342474396967191 31.981134939371259 0 31.981134939371259 0.84482320808456279 0 0 0 0 2.3102884723062136 5.5732005293526257 0 5.5732005293526257 8.5512736935187945 0 0 0 0 3.1453916679320457 5.5848107020843969 0 5.5848107020843969 6.7706381162989828 0 0 0 0 10.055646109336521 4.4260228689236101 0 4.4260228689236101 2.3218515759217553 0 0 0 0 1.903258941528911 7.6470732074817107 0 7.6470732074817107 8.8272072702387163 0 0 0 0 3.9408246068759709 1.6489573128895358 0 1.6489573128895358 0.84342766803797531 0 0 0 0 19.262094516328943 9.72464419901371 0 9.72464419901371 -1.7830002997070551 0 0 0 0 -443.773434979179 355.04679380345624 0 355.04679380345624 -106.07019847755146 0 0 0 0 43.40155050753674 -19.232438940682187 0 -19.232438940682187 -301.19570226602082 0 0 0 0 1.870998741063481 9.6122763384113341 0 9.6122763384113341 2.6738543231270171 0 0 0 0 -194.13843513705251 88.285226630052421 0 88.285226630052421 1.9027745267667342 0 0 0 0 19.008687118769018 1.1140217866542343 0 1.1140217866542343 -0.32581419791392818 0 0 0 0 51.740613398984351 36.523553270188131 0 36.523553270188131 0.22245403675333364 0 0 0 0 35.876209736270539 25.68096301002879 0 25.68096301002879 33.663089970650617 0 0 0 0 27.120991987440902 8.3639052462240215 0 8.3639052462240215 -0.054408262709330302 0 0 0 0 207.89560689680729 -238.92766985396884 0 -238.92766985396884 -33.072623404237675 0 0 0 0 519.92971268557812 -145.47240254619828 0 -145.47240254619828 -635.03388718570932 0 0 0 0 -309.0061950989566 253.59406540225609 0 253.59406540225609 -55.849267043086002 0 0 0 0 -1.5503813465547864 357.126825184052 0 357.126825184052 -477.05694107335148 0 0 0 0 152.94464973385948 87.199742294505995 0 87.199742294505995 -130.44290871388512 0 0 0 0 61.434966381406412 49.56219821657578 0 49.56219821657578 -70.806817349337507 0 0 0 0 73.402177067011507 9.4368384207773488 0 9.4368384207773488 1.9770088946534088 0 0 0 0 116.13301008725102 -11.035261294920929 0 -11.035261294920929 -23.930343781190459 0 0 0 0 118.52974728521804 37.846188152820105 0 37.846188152820105 -185.32066620262049 0 0 0 0 57.224901022897029 3.8496866529312683 0 3.8496866529312683 -9.166952919717005 0 0 0 0 36.350778075506433 -0.063282363441146572 0 -0.063282363441146572 -1.7443734605128149 0 0 0 0 47.808548831308144 -78.314086119724379 0 -78.314086119724379 151.78651510366035 0 0 0 0 10.595858792070114 -3.8281795591122574 0 -3.8281795591122574 0.7433223735208685 0 0 0 0 30.762712838610241 11.250757610774599 0 11.250757610774599 -7.1884419429843547 0 0 0 0 26.298288723581209 15.703692137540202 0 15.703692137540202 -0.016266518359770998 0 0 0 0 20.264019931039002 14.515185714488325 0 14.515185714488325 0.10756199280149303 0 0 0 0 6.3208666961180686 0.51573694058607522 0 0.51573694058607522 -0.26188872381990791 0 0 0 0 41.24124249390843 15.04560960966046 0 15.04560960966046 -5.9861803593084915 0 0 0 0 21.366285461846608 8.3659739021467487 0 8.3659739021467487 -3.1994532214967428 0 0 0 0 21.802213403632777 11.208890274574514 0 11.208890274574514 -4.4043841095535754 0 0 0 0 24.016046409600676 6.6670190053391707 0 6.6670190053391707 -0.13605182062019594 0 0 0 0 77.328249008709463 -2.0925040917372826 0 -2.0925040917372826 -15.239691218564985 0 0 0 0 25.876287579878959 11.336548825052439 0 11.336548825052439 -5.661839994877738 0 0 0 0 54.316064182577975 15.153372544897138 0 15.153372544897138 -10.366349992580581 0 0 0 0 8.7960821552405832 50.903507313356386 0 50.903507313356386 -12.514984909445047 0 0 0 0 41.065605425757894 26.164338637801848 0 26.164338637801848 -13.882824487925973 0 0 0 0 11.518932575050925 16.828494636171975 0 16.828494636171975 -0.52220279833528593 0 0 0 0 6.7297166235221084 52.821538150186825 0 52.821538150186825 -6.9472765255632112 0 0 0 0 10.382050173669995 52.573175052464649 0 52.573175052464649 -10.765598347221385 0 0 0 0 16.275127353630978 78.371179725454567 0 78.371179725454567 -14.273280809953576 0 0 0 0 -18.314754010341858 80.522805030152085 0 80.522805030152085 -2.8636488892807392 0 0 0 0 -2.2574072229181184 105.72188172733877 0 105.72188172733877 -46.236203540698625 0 0 0 0 78.7121375685565 68.321604003132961 0 68.321604003132961 -50.603338930566679 0 0 0 0 34.861848198903317 142.03737062891014 0 142.03737062891014 -148.1512195387586 0 0 0 0 -74.520584316203895 153.59806930986815 0 153.59806930986815 -29.830706789245596 0 0 0 0 -85.393706717193709 174.51941006301058 0 174.51941006301058 -68.393529509681684 0 0 0 0 -176.80654155211596 102.94072368757406 0 102.94072368757406 44.976352546713315 0 0 0 0 -3.2707443088097534 101.98754211404503 0 101.98754211404503 -6.0069648088829126 0 0 0 0 -39.76002560217853 51.07773039044605 0 51.07773039044605 59.96253338023962 0 0 0 0 -45.374746204004623 105.11578942425695 0 105.11578942425695 12.872924731964304 0 0 0 0 -19.892663165002887 71.74316808625008 0 71.74316808625008 46.791635543078883 0 0 0 0 -11.301703566648939 65.330349950243544 0 65.330349950243544 57.686511206367868 0 0 0 0 75.13787108384895 9.0968927393696504 0 9.0968927393696504 22.299532884338987 0 0 0 0 19.511573602066093 45.020152641199324 0 45.020152641199324 49.550053478653297 0 0 0 0 -18.890399155762225 -20.944569013990986 0 -20.944569013990986 44.06171520226053 0 0 0 0 -94.955314644515965 12.598768009651394 0 12.598768009651394 52.038029990842915 0 0 0 0 -47.514880055809044 76.901547554429271 0 76.901547554429271 30.584714763768716 0 0 0 0 -19.99498027721711 56.296804774761767 0 56.296804774761767 12.43909168215032 0 0 0 0 14.943875858734929 31.475059645951625 0 31.475059645951625 4.1511518295276062 0 0 0 0 -0.089113638752678526 40.78938044003371 0 40.78938044003371 -28.748379863973241 0 0 0 0 -106.68934496981456 67.673452574788826 0 67.673452574788826 109.35147573889117 0 0 0 0 21.680659369281784 29.468957829438295 0 29.468957829438295 56.244021608985349 0 0 0 0 9.6667157921361166 43.436522275184771 0 43.436522275184771 47.502377418198591 0 0 0 0 -5.7159300211205846 47.971597724819731 0 47.971597724819731 28.740714765299344 0 0 0 0 -9.8870063186368498 51.865456301902668 0 51.865456301902668 68.25424642249709 0 0 0 0 -13.668876372466912 48.373200922287651 0 48.373200922287651 4.29468978408471 0 0 0 0 -3.9427027743942205 34.589057484450706 0 34.589057484450706 4.1503041116568475 0 0 0 0 -23.359211100992979 41.644026704543649 0 41.644026704543649 41.746488616591392 0 0 0 0 -15.659791621224699 26.415425943960514 0 26.415425943960514 -0.43999088771372419 0 0 0 0 -13.557438616720901 44.061247866771737 0 44.061247866771737 39.524372450097871 0 0 0 0 -14.247801290503048 59.201432433615992 0 59.201432433615992 22.093751297099516 0 0 0 0 -17.701540113965166 56.756314308284345 0 56.756314308284345 20.68525058094383 0 0 0 0 -18.161051204744581 40.361552079302783 0 40.361552079302783 -9.198315180584359 0 0 0 0 -27.153043134197773 31.82780019746923 0 31.82780019746923 0.48400924109627486 0 0 0 0 -18.037172150738115 30.249291492246812 0 30.249291492246812 48.543751074976171 0 0 0 0 -29.749077848093293 43.628404290855542 0 43.628404290855542 44.393798091448843 0 0 0 0 -26.359679493889416 29.192975729049067 0 29.192975729049067 21.156682508080848 0 0 0 0 -12.606873341847518 -10.370793510386875 0 -10.370793510386875 52.463094164289942 0 0 0 0 -82.371307081692066 14.188665365229099 0 14.188665365229099 109.1945623939464 0 0 0 0 -53.875081950054664 48.204664913020679 0 48.204664913020679 60.278687443471426 0 0 0 0 -65.401591042781547 47.750171262814547 0 47.750171262814547 79.642612478259252 0 0 0 0 -27.493961089338882 42.917470042591731 0 42.917470042591731 41.315837559923239 0 0 0 0 -7.7840344249507325 66.469708394215559 0 66.469708394215559 32.157779122142529 0 0 0 0 -180.81742123598997 360.60024036628784 0 360.60024036628784 20.607011220145068 0 0 0 0 21.009700766112609 62.707695850976208 0 62.707695850976208 87.527592431165701 0 0 0 0 -48.839130989179466 73.366886566584071 0 73.366886566584071 39.151533811713307 0 0 0 0 37.13775444228029 32.249346668160875 0 32.249346668160875 -120.59664743689706 0 0 0 0 -10.645674252999726 59.911951648510978 0 59.911951648510978 -40.521065086547409 0 0 0 0 -2.1907156851339096 26.572044975707286 0 26.572044975707286 -5.207500828182674 0 0 0 0 -113.44957198330667 -65.603109736017359 0 -65.603109736017359 -252.15269931261719 0 0 0 0 -406.21097750590343 48.084255855268566 0 48.084255855268566 -127.55105650820769 0 0 0 0 -66.523635439763893 62.234694550650602 0 62.234694550650602 -127.10819324060139 0 0 0 0 10.098870673583477 20.416041589977297 0 20.416041589977297 -6.5827020672026038 0 0 0 0 -82.254963385214978 14.085209950833814 0 14.085209950833814 106.26381926796265 0 0 0 0 -8.165636379849456 2.6190064963632409 0 2.6190064963632409 10.949521922268472 0 0 0 0 19.409991861801018 39.350889081595284 0 39.350889081595284 64.489023072884152 0 0 0 0 -103.26843635063688 32.108493303865544 0 32.108493303865544 92.890901609687717 0 0 0 0 49.221752063798249 -8.3115612886467716 0 -8.3115612886467716 16.88911847678537 0 0 0 0 13.279478030388418 23.587212165730307 0 23.587212165730307 31.670780042880324 0 0 0 0 14.763417120769191 0.77366690371127333 0 0.77366690371127333 64.777403329026129 0 0 0 0 7.3941394851863151 28.837601958843152 0 28.837601958843152 30.300751160837535 0 0 0 0 17.783399869307686 4.3978348211530829 0 4.3978348211530829 16.393894771863415 0 0 0 0 7.3668080378203165 18.976990078137064 0 18.976990078137064 22.695240003490085 0 0 0 0 -29.106458411333733 50.77595719805322 0 50.77595719805322 -18.851297959117801 0 0 0 0 -3.5971525245004159 42.195938866349024 0 42.195938866349024 24.645021198510221 0 0 0 0 -0.069934505434671834 26.905424586352126 0 26.905424586352126 -7.8147896808163466 0 0 0 0 2.8023591287413225 19.391994332072642 0 19.391994332072642 14.012694040558841 0 0 0 0 -2.1671077481483394 8.4179547459575552 0 8.4179547459575552 7.7990963489999103 0 0 0 0 -40.937156851668988 32.620767005981179 0 32.620767005981179 62.521370969076884 0 0 0 0 -91.779779755837808 49.118599401261235 0 49.118599401261235 55.856165393372066 0 0 0 0 90.201362642766981 55.789451324206311 0 55.789451324206311 -26.318912077214918 0 0 0 0 -6.4321374736296875 10.384949169211794 0 10.384949169211794 12.49905756973547 0 0 0 0 -31.721394996042363 118.05421460873549 0 118.05421460873549 -13.076054879456933 0 0 0 0 7.2018914976838246 28.132943518672022 0 28.132943518672022 17.209973362592091 0 0 0 0 55.496140713978093 48.271984864433762 0 48.271984864433762 2.2062840856166304 0 0 0 0 66.208873320712883 36.898039678468194 0 36.898039678468194 34.969586862547658 0 0 0 0 78.414982408441574 91.415509054189897 0 91.415509054189897 -44.40728118543484 0 0 0 0 52.039768689006451 84.176291806492372 0 84.176291806492372 18.626134726655437 0 0 0 0 -11.248789038707741 6.6281327470326232 0 6.6281327470326232 -27.370427678033593 0 0 0 0 -41.059502741149117 69.438342365063363 0 69.438342365063363 -12.800891993771074 0 0 0 0 -105.50239957905251 -25.70032664023347 0 -25.70032664023347 135.62820700710654 0 0 0 0 0.50126809054336618 -0.66339678994838636 0 -0.66339678994838636 3.7538283630638318 0 0 0 0 393.90693238647145 124.37904315095511 0 124.37904315095511 20.473859217312565 0 0 0 0 -53.142874341963761 48.113490035902942 0 48.113490035902942 69.536709778963086 0 0 0 0 -125.3468949800772 207.68850567262234 0 207.68850567262234 94.978180615871679 0 0 0 0 20.428915412475977 37.659272664929816 0 37.659272664929816 69.82565083712322 0 0 0 0 81.895204777366416 53.4838224879677 0 53.4838224879677 -18.49611390876089 0 0 0 0 -171.58358211996074 165.17558777106751 0 165.17558777106751 154.65402538628041 0 0 0 0 -108.77845207185237 179.08242266391608 0 179.08242266391608 -36.199181675634463 0 0 0 0 -22.463999517356342 140.30835775275136 0 140.30835775275136 -33.520007271887152 0 0 0 0 -85.010853119654712 -24.911371795282321 0 -24.911371795282321 91.545733722172372 0 0 0 0 -139.32109092065457 76.805026419217029 0 76.805026419217029 118.0301328954738 0 0 0 0 12.848758165119882 40.369202782559974 0 40.369202782559974 69.797050954959815 0 0 0 0 -66.067680873409699 30.406153189415818 0 30.406153189415818 80.980975267397298 0 0 0 0 29.312141377387888 -20.789919361584907 0 -20.789919361584907 -32.950591294727928 0 0 0 0 -32.232455289806701 8.7967246600504723 0 8.7967246600504723 25.060451110425532 0 0 0 0 5.6562244845695204 108.40041734879378 0 108.40041734879378 300.28239417418081 0 0 0 0 72.840281385494563 141.61513117178038 0 141.61513117178038 29.191077371468054 0 0 0 0 -18.239331901263455 -76.459796218447991 0 -76.459796218447991 45.294309509394225 0 0 0 0 -199.66019437079035 69.861418675103778 0 69.861418675103778 87.770655852410528 0 0 0 0 482.52062481364999 -101.40782949978166 0 -101.40782949978166 -252.91054340399569 0 0 0 0 96.32794934843929 250.66602824534993 0 250.66602824534993 172.60022140054934 0 0 0 0 378.6173622966985 585.74123210580365 0 585.74123210580365 518.39578618487576 0 0 0 0 -140.05012816668022 113.38666593013477 0 113.38666593013477 -59.310210466766875 0 0 0 0 -61.558584288766724 -233.2592692608805 0 -233.2592692608805 209.18625705506565 0 0 0 0 2.8194846495334147 27.180349299071374 0 27.180349299071374 60.604102634520558 0 0 0 0 -107.69192910887341 164.30895189786497 0 164.30895189786497 -35.142269951116759 0 0 0 0 22.170912569821695 32.676192849812153 0 32.676192849812153 19.279510318955914 0 0 0 0 -116.11646034258411 134.8620348402801 0 134.8620348402801 -90.313506676531688 0 0 0 0 -37.769050846258096 11.325226526035493 0 11.325226526035493 14.414694668776022 0 0 0 0 6.7524123296295642 4.1591302985861631 0 4.1591302985861631 -0.27452655575126528 0 0 0 0 -5.5959480050869104 3.5066013073937015 0 3.5066013073937015 6.204151130768139 0 0 0 0 -111.07431652820742 72.466058112022438 0 72.466058112022438 -48.32692585505356 0 0 0 0 -143.7550976961611 108.03488043337347 0 108.03488043337347 -12.336607655961416 0 0 0 0 -186.66947153986985 139.29187333907976 0 139.29187333907976 -25.47854462495161 0 0 0 0 1.3237899002971325 1.3323547579019213 0 1.3323547579019213 1.1497251230351537 0 0 0 0 -108.01329972119311 12.360294927559153 0 12.360294927559153 127.46331452435334 0 0 0 0 239.14309994223368 30.203489129868103 0 30.203489129868103 -65.862494017203062 0 0 0 0 -13.265082687099493 84.841871379165241 0 84.841871379165241 -24.992079071067565 0 0 0 0 34.246927044505355 -56.775645183108281 0 -56.775645183108281 -30.727844190292672 0 0 0 0 -14.241722331733399 -88.161556716157065 0 -88.161556716157065 247.04634074415662 0 0 0 0 25.209781125793597 192.53686614280559 0 192.53686614280559 320.35986662183132 0 0 0 0 20.21386760153473 142.35971793160206 0 142.35971793160206 296.82086129292293 0 0 0 0 250.20426288615818 182.07802089935649 0 182.07802089935649 199.79764332669583 0 0 0 0 -16.705287967285585 -23.276838546352337 0 -23.276838546352337 125.07061732884904 0 0 0 0 -207.22299173350075 67.301711726307985 0 67.301711726307985 343.87967947023935 0 0 0 0 18.99084963477361 49.326272827994714 0 49.326272827994714 91.228610331197743 0 0 0 0 -221.32301114946677 202.65757371643122 0 202.65757371643122 92.327510612792821 0 0 0 0 -321.9551418844411 351.30145232947069 0 351.30145232947069 83.760413461332064 0 0 0 0 -173.35213954820574 -3.1561968326932401 0 -3.1561968326932401 202.03067725286837 0 0 0 0 -44.429567042851886 311.95237661595365 0 311.95237661595365 -95.512205370047013 0 0 0 0 225.14981613890427 242.01905783549159 0 242.01905783549159 -159.07008799244068 0 0 0 0 -81.221693643808976 26.632979504925061 0 26.632979504925061 205.2596504889716 0 0 0 0 -37.7700927093465 154.0756747138812 0 154.0756747138812 118.32703721114194 0 0 0 0 -110.7244701605232 141.19058874682196 0 141.19058874682196 376.553575785676 0 0 0 0 -304.41513793631088 38.455443405455867 0 38.455443405455867 861.89596024513594 0 0 0 0 -8.1410906866968489 11.304922165749133 0 11.304922165749133 3.5560364692948312 0 0 0 0 642.3891609886341 284.94541103650772 0 284.94541103650772 -606.12344403578754 0 0 0 0 323.06559873096194 128.78996838806052 0 128.78996838806052 55.652156063850271 0 0 0 0 -33.258157670432411 292.03248952557442 0 292.03248952557442 167.63789411871403 0 0 0 0 14.72931061591953 385.44305406448802 0 385.44305406448802 322.45891909010106 0 0 0 0 -147.45281615966996 305.23173940167271 0 305.23173940167271 168.18843986390857 0 0 0 0 -31.153613177746593 126.43256415447104 0 126.43256415447104 1.1889458431796811 0 0 0 0 -104.97225678587347 120.55228702873137 0 120.55228702873137 79.950867736724831 0 0 0 0 -163.83757136040731 185.25351851125743 0 185.25351851125743 -11.974292145529489 0 0 0 0 -186.98399112635633 41.589406652343541 0 41.589406652343541 -289.33050086198637 0 0 0 0 -181.78458062568296 334.64588298110027 0 334.64588298110027 -85.64621488351986 0 0 0 0 -170.09468418559482 -6.8794000588222843 0 -6.8794000588222843 189.63592272819733 0 0 0 0 9.7002015791207157 39.284328314399701 0 39.284328314399701 77.085606392936342 0 0 0 0 -68.217586092641795 18.382951635045629 0 18.382951635045629 105.68790281340262 0 0 0 0 -196.49435743306458 148.0760051973557 0 148.0760051973557 40.922354837807688 0 0 0 0 -143.53402492858368 81.615794593997634 0 81.615794593997634 -111.66582704090979 0 0 0 0 -183.02314776533422 208.6527230187221 0 208.6527230187221 -49.658636675630987 0 0 0 0 -207.176679246204 64.773501039959228 0 64.773501039959228 203.32288403856046 0 0 0 0 -167.42375491075109 102.95101162461651 0 102.95101162461651 -188.52337220041954 0 0 0 0 -232.47454788854338 233.78250271044499 0 233.78250271044499 -197.47469112188992 0 0 0 0 -8.339781582015064 2.3796208773221679 0 2.3796208773221679 0.49482030916374953 0 0 0 0 -516.81145410631871 595.92876302530203 0 595.92876302530203 -689.84550939298424 0 0 0 0 -262.91338538884156 67.201708122579475 0 67.201708122579475 -19.641478567955346 0 0 0 0 -4.0989645756620803 -0.84689116016082266 0 -0.84689116016082266 -3.1808085800743129 0 0 0 0 -76.689944658959575 222.87266227393047 0 222.87266227393047 -271.7049465156033 0 0 0 0 -26.82589538602042 -59.733251544916129 0 -59.733251544916129 116.35414823086285 0 0 0 0 -22.907654080716213 1.7900402399340578 0 1.7900402399340578 0.86330032597366113 0 0 0 0 -101.47117490102028 280.19303403945923 0 280.19303403945923 -398.1624834274553 0 0 0 0 -35.839848880501847 2.3349765491345522 0 2.3349765491345522 2.1892421708546088 0 0 0 0 -153.07217918921378 43.361682183100129 0 43.361682183100129 121.2742728327139 0 0 0 0 9.3741073521850922 -48.457494658006908 0 -48.457494658006908 -54.321528471766214 0 0 0 0 -149.03409919332898 6.646093953703712 0 6.646093953703712 36.928421588017954 0 0 0 0 0.73099242309164225 0.40272272245621821 0 0.40272272245621821 -2.4279451543571042 0 0 0 0 -109.01540053708595 115.07455066978582 0 115.07455066978582 -72.930822139436714 0 0 0 0 -22.769201046525268 29.993810605530598 0 29.993810605530598 26.636062642312027 0 0 0 0 -27.7346124815449 24.654296609933226 0 24.654296609933226 23.601156430857372 0 0 0 0 -48.292537897132206 30.369914584460275 0 30.369914584460275 113.20575285088489 0 0 0 0 -53.51272677304587 78.207424800548324 0 78.207424800548324 13.058499050934188 0 0 0 0 -13.62050112234283 86.263528084306017 0 86.263528084306017 107.41835649598943 0 0 0 0 -79.445592658266833 8.1304626608289254 0 8.1304626608289254 33.392378700908012 0 0 0 0 -236.9674028866757 -146.5344318112966 0 -146.5344318112966 47.679500016952261 0 0 0 0 -729.77448015604568 303.399748176922 0 303.399748176922 76.49619332803195 0 0 0 0 -16.991068016439385 28.047749962875059 0 28.047749962875059 12.964739536619163 0 0 0 0 -48.324632816795202 0.94248838572093518 0 0.94248838572093518 10.877559071221185 0 0 0 0 -221.0479988142506 12.996748982637655 0 12.996748982637655 147.07533327457713 0 0 0 0 -175.94252506691191 179.03228312067222 0 179.03228312067222 152.52157567816903 0 0 0 0 -194.86315517554613 138.24000616126068 0 138.24000616126068 107.53835866768713 0 0 0 0 -296.2383463251399 306.65516113638751 0 306.65516113638751 135.91098911829613 0 0 0 0 -191.85875121388744 479.40252051532661 0 479.40252051532661 -375.9008541705698 0 0 0 0 -54.733380059102274 275.67595371374955 0 275.67595371374955 -73.354933401671587 0 0 0 0 83.276381423798739 220.61620839419993 0 220.61620839419993 -220.22402451751259 0 0 0 0 -41.450733085126558 280.35226193219933 0 280.35226193219933 -74.729361835237796 0 0 0 0 -103.88291760896391 246.15086128741677 0 246.15086128741677 148.62636229202508 0 0 0 0 -19.955216523576382 225.35775571414433 0 225.35775571414433 41.474658949613513 0 0 0 0 -57.407161266306503 159.69273192474793 0 159.69273192474793 124.47961069245139 0 0 0 0 -100.73757735606159 43.502799899273668 0 43.502799899273668 429.9813608722543 0 0 0 0 -69.564623256494087 110.72544233911321 0 110.72544233911321 106.86202379323367 0 0 0 0 63.896315665027942 34.923906781397818 0 34.923906781397818 18.455160836521827 0 0 0 0 5.6817988778749982 7.3657733136381136 0 7.3657733136381136 13.305892171236593 0 0 0 0 1237.5510320905637 -108.73972385186744 0 -108.73972385186744 -34.330530733641353 0 0 0 0 -56.3652127096193 -24.833754373768897 0 -24.833754373768897 471.32086400975459 0 0 0 0 56.600089827290503 4.3798473290953552 0 4.3798473290953552 -96.418202309287153 0 0 0 0 -53.811869722208939 -47.909285456786165 0 -47.909285456786165 92.529459897596098 0 0 0 0 1446.4528334755305 -57.51560557072662 0 -57.51560557072662 -48.883881916539394 0 0 0 0 -1.4173446865185362 4.6406694566764344 0 4.6406694566764344 5.6448263751409087 0 0 0 0 576.60202221579311 174.00091079752019 0 174.00091079752019 -45.722092406045704 0 0 0 0 -238.97488304883382 -90.463536625467896 0 -90.463536625467896 212.39740358060044 0 0 0 0 12.44626033400124 24.194343808952581 0 24.194343808952581 31.786735215729323 0 0 0 0 148.4524039030257 94.600721286300541 0 94.600721286300541 -106.4370927349737 0 0 0 0 80.708428994228598 147.97842243011837 0 147.97842243011837 -83.073918474568927 0 0 0 0 104.33696903369491 95.504094883133803 0 95.504094883133803 -55.721164961949398 0 0 0 0 97.771236827004032 78.522845164345199 0 78.522845164345199 -98.46559695020278 0 0 0 0 93.87978163882417 152.59939333121679 0 152.59939333121679 -91.056632274230651 0 0 0 0 157.58207294829481 140.63056381146453 0 140.63056381146453 -107.417670648696 0 0 0 0 387.10542283428276 -141.07889754720236 0 -141.07889754720236 -304.15303239945933 0 0 0 0 368.38963475488345 -196.67120591440471 0 -196.67120591440471 -254.35044231246866 0 0 0 0 556.13725358904412 -149.21226953988298 0 -149.21226953988298 -242.53969257188146 0 0 0 0 400.12728217752556 -218.54606476517802 0 -218.54606476517802 -340.92701961459534 0 0 0 0 162.3039785252347 -284.77371921951908 0 -284.77371921951908 -444.37456671646214 0 0 0 0 414.39244201942438 -151.93999970179721 0 -151.93999970179721 -387.22007578278863 0 0 0 0 6.1635376332927265 -2.729869424705015 0 -2.729869424705015 1.3619693258050489 0 0 0 0 -176.93090222919818 689.014137677279 0 689.014137677279 541.63355984531518 0 0 0 0 29.199763138176472 33.078156097296855 0 33.078156097296855 4.6525440136845475 0 0 0 0 206.74882998598878 -234.79431766632115 0 -234.79431766632115 -4.3574906638896209 0 0 0 0 -11.946130821846118 18.025363423116257 0 18.025363423116257 52.029185737929026 0 0 0 0 -195.91155031412927 123.49636340604775 0 123.49636340604775 -45.783490104222437 0 0 0 0 89.353520393480721 109.7020329569732 0 109.7020329569732 -79.374282791526639 0 0 0 0 -373.48438506126513 -154.08090741125216 0 -154.08090741125216 -225.70578850671518 0 0 0 0 57.154434946711262 185.23099846490004 0 185.23099846490004 -565.91379712888192 0 0 0 0 64.479012831761793 128.25670849578819 0 128.25670849578819 -2.2896100861435116 0 0 0 0 80.570788126842672 67.05492987450998 0 67.05492987450998 -139.88578318463442 0 0 0 0 305.208532415636 250.09211517196309 0 250.09211517196309 -12.799162945313583 0 0 0 0 459.71465276604431 337.47200903689736 0 337.47200903689736 36.607346885175502 0 0 0 0 391.57042240713781 28.414692312213447 0 28.414692312213447 -11.827195176496389 0 0 0 0 289.66336575635796 369.70074740136079 0 369.70074740136079 89.857674296315963 0 0 0 0 306.62396875451668 356.49938730213034 0 356.49938730213034 100.77670916484658 0 0 0 0 253.87590014534362 354.9141500754813 0 354.9141500754813 102.00791445574396 0 0 0 0 213.7677166263602 236.47955534857283 0 236.47955534857283 -40.45081658820709 0 0 0 0 189.62066187725577 298.85238581719022 0 298.85238581719022 102.07391588680184 0 0 0 0 160.34694731533091 36.157765982283308 0 36.157765982283308 -39.366485365055269 0 0 0 0 130.63271376286139 226.70999523374849 0 226.70999523374849 32.713187870538604 0 0 0 0 67.381307950665359 79.287666021533369 0 79.287666021533369 -48.235624317287147 0 0 0 0 -15.511656623588351 -34.828339274457903 0 -34.828339274457903 -119.05425764383835 0 0 0 0 -63.431195052922703 -32.060467348097518 0 -32.060467348097518 -16.896700372661144 0 0 0 0 82.07035717726103 14.337141408854222 0 14.337141408854222 -20.340522428940176 0 0 0 0 -29.882733682406979 -21.609813595865035 0 -21.609813595865035 13.402171482000995 0 0 0 0 69.212209243065445 72.925744169564496 0 72.925744169564496 24.140675114758778 0 0 0 0 100.74500145737966 32.048030137679461 0 32.048030137679461 74.665072936215438 0 0 0 0 -41.3939272739226 -14.215982298403105 0 -14.215982298403105 88.019485252290906 0 0 0 0 -4.0575190250528408 -1.1241569871574981 0 -1.1241569871574981 0.38444521941769949 0 0 0 0 106.15710666538507 63.794334113748846 0 63.794334113748846 -10.033535892282998 0 0 0 0 -53.769500544629409 44.383835849610477 0 44.383835849610477 88.958512075182625 0 0 0 0 -44.844143699658161 61.876722195199818 0 61.876722195199818 12.383750991066336 0 0 0 0 239.56843911857868 437.18981784281914 0 437.18981784281914 818.03877876518527 0 0 0 0 59.431874635294662 -12.443012927296877 0 -12.443012927296877 90.926597291283542 0 0 0 0 22.275039309170097 384.14473438497225 0 384.14473438497225 859.65738465408867 0 0 0 0 892.57936878886903 814.53643035966752 0 814.53643035966752 413.48871591099305 0 0 0 0 1001.1387939200213 -108.75818693016845 0 -108.75818693016845 -0.54595949839858804 0 0 0 0 375.74607415535138 412.72401465802614 0 412.72401465802614 125.98615086036328 0 0 0 0 312.61306948828133 369.41026188392061 0 369.41026188392061 125.9759691370673 0 0 0 0 278.22910029351624 465.23906752834409 0 465.23906752834409 317.07283741250285 0 0 0 0 23.262907509189972 337.71965985638599 0 337.71965985638599 441.32543511460244 0 0 0 0 142.91402780310818 276.07525444339626 0 276.07525444339626 156.02637136566773 0 0 0 0 77.19178642652696 223.92653684537072 0 223.92653684537072 263.01935350122221 0 0 0 0 -111.98741960438929 -45.462546054557606 0 -45.462546054557606 33.473459580165581 0 0 0 0 -43.676046790074906 10.675467092361941 0 10.675467092361941 6.9398080111513991 0 0 0 0 -8.5400325405729518 7.5121097961016972 0 7.5121097961016972 -7.5988852668693738 0 0 0 0 -67.707289886995568 4.0266281802323647 0 4.0266281802323647 -3.6082532566033478 0 0 0 0 -53.802213465445675 -4.3818221615874791 0 -4.3818221615874791 -12.740224424302141 0 0 0 0 -44.558467608138841 20.027224102080851 0 20.027224102080851 9.1587846696696431 0 0 0 0 -0.92681651859129488 2.6355055934771201 0 2.6355055934771201 -4.0023983101769289 0 0 0 0 -41.645343932646938 77.968105057873345 0 77.968105057873345 -50.331908871103224 0 0 0 0 -59.767002227396006 -11.836287900096067 0 -11.836287900096067 -8.1298209204760497 0 0 0 0 -346.93753264070256 -268.24473099715033 0 -268.24473099715033 168.95023246503115 0 0 0 0 203.47915801599447 283.5757690160608 0 283.5757690160608 245.69502979127719 0 0 0 0 190.39108289968135 213.08993206976629 0 213.08993206976629 113.54496318662859 0 0 0 0 163.45452888030559 337.4933569705172 0 337.4933569705172 174.91072816009364 0 0 0 0 -3.7540996385287144 9.6065249432867859 0 9.6065249432867859 0.069809755271094787 0 0 0 0 -6.6096979123612982 -0.38678450042789336 0 -0.38678450042789336 0.017978364937221158 0 0 0 0 -0.26888114162633769 2.2935080845681597 0 2.2935080845681597 -4.1679545912071916 0 0 0 0 -5.133033773066245 -8.3655387180051548 0 -8.3655387180051548 51.108632195762766 0 0 0 0 -1.6569727504524323 1.0290449044240262 0 1.0290449044240262 -0.41747457157384815 0 0 0 0 -28.848842460785818 -7.0686828758734919 0 -7.0686828758734919 -9.7746266472458956 0 0 0 0 -52.592466324444104 2.9401501261309022 0 2.9401501261309022 0.64158703800057992 0 0 0 0 -14.460329889538116 5.143836385494069 0 5.143836385494069 -1.4100057155737886 0 0 0 0 -13.947256011055966 -2.4324818552864045 0 -2.4324818552864045 -5.8809472138445074 0 0 0 0 -63.153544846609293 -7.6341621696956281 0 -7.6341621696956281 -1.8864943826829403 0 0 0 0 -5.2276285691623343 5.4433703987306217 0 5.4433703987306217 -7.5018709530195338 0 0 0 0 8.1478534639682039 7.0752162276930903 0 7.0752162276930903 -47.001829465043556 0 0 0 0 2.9072912841584184 -0.15585041073791217 0 -0.15585041073791217 -5.9756207448226633 0 0 0 0 -3.8886631140048848 44.821704317781041 0 44.821704317781041 -4.7017115091618962 0 0 0 0 -22.30033135568695 10.273057175201572 0 10.273057175201572 -1.0600072288032578 0 0 0 0 -4.7148323171895754 53.140920136895147 0 53.140920136895147 -49.789084771134753 0 0 0 0 -23.913196711095225 7.7889618184381106 0 7.7889618184381106 5.6806704741138674 0 0 0 0 -111.04372963945207 -59.384614560767659 0 -59.384614560767659 -774.50554584720521 0 0 0 0 -20.084117370975036 10.849375985600808 0 10.849375985600808 4.6151103247330809 0 0 0 0 -9.3094593837094948 13.067389885051348 0 13.067389885051348 6.9522981782071156 0 0 0 0 -19.515675718505008 468.26697336186135 0 468.26697336186135 34.066290928567469 0 0 0 0 -92.931021911334028 40.123719900511333 0 40.123719900511333 64.897989771263383 0 0 0 0 -3.8066753324892488 -0.088668419433574286 0 -0.088668419433574286 6.9602877219193857 0 0 0 0 -7.4364307268369885 0.11677371854239027 0 0.11677371854239027 -270.90186025372896 0 0 0 0 7.2126402591093211 55.59687527148526 0 55.59687527148526 -60.849369174137792 0 0 0 0 297.94088506800472 369.32475549215087 0 369.32475549215087 73.513134147178789 0 0 0 0 271.53825723969203 335.70814002625411 0 335.70814002625411 84.866708474950428 0 0 0 0 282.74225497441512 370.96895294443311 0 370.96895294443311 151.06666002428392 0 0 0 0 321.60947708724416 313.71989557589404 0 313.71989557589404 11.444449758353585 0 0 0 0 241.22996906262415 133.21748460268645 0 133.21748460268645 -102.80137153587566 0 0 0 0 337.27425795698946 297.65920350958913 0 297.65920350958913 -184.09112263310817 0 0 0 0 268.66736458519881 287.67436976690078 0 287.67436976690078 33.027694832599082 0 0 0 0 816.01646404133498 175.01734081509858 0 175.01734081509858 72.738243165555104 0 0 0 0 440.73614598634595 333.31074451231689 0 333.31074451231689 17.378796850408435 0 0 0 0 292.20926794963452 172.87409802830916 0 172.87409802830916 257.63304461899315 0 0 0 0 239.51569524274964 298.16540388692738 0 298.16540388692738 80.762682628980656 0 0 0 0 261.72016574130976 368.62195919970327 0 368.62195919970327 237.40526415233035 0 0 0 0 358.15433035009119 432.01074061135114 0 432.01074061135114 138.69916806612309 0 0 0 0 248.82010302009076 221.06149439129467 0 221.06149439129467 52.137298337664106 0 0 0 0 241.42822103827348 239.52383665587331 0 239.52383665587331 165.78725999553899 0 0 0 0 455.44437433102939 461.12129214086144 0 461.12129214086144 342.42455956874255 0 0 0 0 181.55769870607037 86.693175412370692 0 86.693175412370692 272.61088164586045 0 0 0 0 474.88244065474282 114.48734864481594 0 114.48734864481594 -53.393530514920712 0 0 0 0 206.15410056894325 128.23521431252266 0 128.23521431252266 -32.033583047101274 0 0 0 0 -122.51363640588534 180.01505355627341 0 180.01505355627341 91.215700411416037 0 0 0 0 -21.316999373637373 365.82366309237841 0 365.82366309237841 361.2233540830639 0 0 0 0 237.2038170447122 506.27614866384283 0 506.27614866384283 189.64007081481395 0 0 0 0 82.055928868063347 330.30701083745953 0 330.30701083745953 76.808039678144269 0 0 0 0 -34.302580257761292 374.30884529711511 0 374.30884529711511 155.0992399153738 0 0 0 0 -6.4188312907281215 277.78860642625204 0 277.78860642625204 127.48304448607269 0 0 0 0 16.932617286533059 280.38835853437922 0 280.38835853437922 67.24524672020857 0 0 0 0 151.49124164080058 227.83883590846835 0 227.83883590846835 -18.845294751348774 0 0 0 0 56.840606389625464 112.65197976326635 0 112.65197976326635 -126.98264389838369 0 0 0 0 -37.437903085665312 150.32064481200541 0 150.32064481200541 100.68950394347985 0 0 0 0 4.4648363634769339 -63.353679076050412 0 -63.353679076050412 -85.162395436916995 0 0 0 0 158.96383410471753 194.90004250327547 0 194.90004250327547 -73.576611204076471 0 0 0 0 192.50095145805244 56.061611588051164 0 56.061611588051164 -377.54035963181195 0 0 0 0 28.880089795430962 51.861082085690015 0 51.861082085690015 -32.806924713040381 0 0 0 0 87.230579675063382 40.618104643865308 0 40.618104643865308 -232.12589042803302 0 0 0 0 -220.81558409832087 -17.984027667057262 0 -17.984027667057262 36.354576611622178 0 0 0 0 305.48678683534672 309.36362077847662 0 309.36362077847662 -145.47566025290325 0 0 0 0 -58.596340334624983 70.000306006288156 0 70.000306006288156 -14.87654112293967 0 0 0 0 39.687091772052838 47.773429694731966 0 47.773429694731966 -31.30600498040134 0 0 0 0 0.12842854465370124 0.2439438024047007 0 0.2439438024047007 -1.9230577362059762 0 0 0 0 -190.21587336156517 220.58308095826942 0 220.58308095826942 1.0798791276101838 0 0 0 0 147.93294381759188 267.7432509374994 0 267.7432509374994 -245.42146442631201 0 0 0 0 87.832081054759328 111.03587793615407 0 111.03587793615407 -38.493278875408578 0 0 0 0 74.838531948887976 80.009732707505464 0 80.009732707505464 -19.585923403359232 0 0 0 0 -89.045836335906642 99.844645033379493 0 99.844645033379493 11.716538496693829 0 0 0 0 23.650268119177781 139.22197276747465 0 139.22197276747465 -77.773176400194643 0 0 0 0 101.69635191398265 54.312991614591738 0 54.312991614591738 -41.936844352410844 0 0 0 0 -6.016045967622631 -80.689532116206919 0 -80.689532116206919 -169.89165718186086 0 0 0 0 39.477553364369669 86.828620308038808 0 86.828620308038808 39.812144615905709 0 0 0 0 49.794870833368947 47.628284824157149 0 47.628284824157149 -29.996391188906571 0 0 0 0 102.58264767624496 -80.077884954158435 0 -80.077884954158435 -353.81603484523475 0 0 0 0 -29.565966860005574 -51.42366566614146 0 -51.42366566614146 -144.75213031578824 0 0 0 0 112.1362628294446 10.133290494849462 0 10.133290494849462 -178.58221693347514 0 0 0 0 64.139500378958473 48.524816030050715 0 48.524816030050715 74.544652684151515 0 0 0 0 72.361748061101935 5.4478401340106757 0 5.4478401340106757 -334.63598311439637 0 0 0 0 63.860785581673554 86.904839479364455 0 86.904839479364455 -16.884993735484386 0 0 0 0 141.78549889367423 221.16733377074706 0 221.16733377074706 116.72816374382001 0 0 0 0 122.23402454212192 87.377468859027431 0 87.377468859027431 -58.69824557398897 0 0 0 0 35.493602409824234 -29.526024144446637 0 -29.526024144446637 -119.91291184157672 0 0 0 0 27.049285229746602 -71.355278805547641 0 -71.355278805547641 -275.56322916619683 0 0 0 0 -210.08719812049821 9.7123552805715008 0 9.7123552805715008 -53.93966779690254 0 0 0 0 -110.94067244163307 -87.420164494064011 0 -87.420164494064011 -138.99003604151585 0 0 0 0 7.5030622967137006 12.085777756662196 0 12.085777756662196 -4.8860637317657307 0 0 0 0 -22.256320622298517 147.59402321314155 0 147.59402321314155 -242.34743753395355 0 0 0 0 -3.3859169330098666 61.466043428012199 0 61.466043428012199 -30.590486376031549 0 0 0 0 11.836655107039405 21.310049145173934 0 21.310049145173934 -23.20270479946339 0 0 0 0 -0.51344755238153539 44.133701080044098 0 44.133701080044098 -18.573818781475971 0 0 0 0 -2.7258746938927843 47.147701918236905 0 47.147701918236905 9.916930662239821 0 0 0 0 34.79017581151129 110.89156477801225 0 110.89156477801225 -3.3935603421487031 0 0 0 0 62.002277191535541 57.36814558903643 0 57.36814558903643 -0.66362841060617939 0 0 0 0 -4.6310736892264686 68.477060047196574 0 68.477060047196574 -0.54239513305765286 0 0 0 0 166.64137064883835 196.68432541067887 0 196.68432541067887 36.272985039147898 0 0 0 0 -9.2919867795082212 27.077186670244743 0 27.077186670244743 -29.856753904073742 0 0 0 0 245.72679286565108 78.240626282684389 0 78.240626282684389 -53.921516017820977 0 0 0 0 80.659841427994252 41.20590727333547 0 41.20590727333547 -41.646003431800636 0 0 0 0 134.58182508883328 142.79572424191429 0 142.79572424191429 -63.836985876230756 0 0 0 0 160.49731253489153 89.027696592376742 0 89.027696592376742 44.998807395394579 0 0 0 0 355.82263630600937 -42.824953543371521 0 -42.824953543371521 -122.18280964329097 0 0 0 0 147.56974301247828 110.39517474720196 0 110.39517474720196 -8.6217660143156536 0 0 0 0 -311.36103183536216 145.65334963217811 0 145.65334963217811 12.360501743038185 0 0 0 0 0.41335189223002189 -0.91325794243921621 0 -0.91325794243921621 0.62092475292320159 0 0 0 0 -141.8445772217965 -10.765025873479317 0 -10.765025873479317 39.935293941802229 0 0 0 0 -12.973331506385875 101.87589236621352 0 101.87589236621352 -47.287541388512182 0 0 0 0 -10.340205992398488 7.5565780312895043 0 7.5565780312895043 0.1576938647017414 0 0 0 0 -139.86546972402357 73.911724013252751 0 73.911724013252751 21.049895340111107 0 0 0 0 -112.02785146093811 142.04872317569971 0 142.04872317569971 7.758308676082379 0 0 0 0 169.28756943979533 123.35388630258967 0 123.35388630258967 -39.821245350601203 0 0 0 0 -38.645356831646012 51.817145197718247 0 51.817145197718247 -26.35246239109307 0 0 0 0 -15.649668974810297 11.040463495416645 0 11.040463495416645 6.775266399669249 0 0 0 0 11.319149870840192 140.15961796725969 0 140.15961796725969 47.549675352652002 0 0 0 0 74.501179547361971 66.182714111306268 0 66.182714111306268 43.33613955808687 0 0 0 0 -3.0474978549609659 141.00373437510279 0 141.00373437510279 -19.987347077122479 0 0 0 0 23.81301143620658 135.94131386113077 0 135.94131386113077 10.55489651805965 0 0 0 0 -4.9244864792251235 20.984451281067066 0 20.984451281067066 -29.669510406782749 0 0 0 0 -29.949014161850585 33.113727755555843 0 33.113727755555843 -1.7991992389519282 0 0 0 0 -1.5714232609919918 75.195367885686494 0 75.195367885686494 -0.96177462811465375 0 0 0 0 7.8971163042660919 40.818290189476102 0 40.818290189476102 -13.915067089246804 0 0 0 0 27.166100801798166 73.745980852407229 0 73.745980852407229 41.018920775582956 0 0 0 0 5.2368178407041341 18.622178769224774 0 18.622178769224774 58.161545052767906 0 0 0 0 2.4506227945625483 23.058479648378594 0 23.058479648378594 -13.310271816907402 0 0 0 0 13.183482967506279 73.856169765538652 0 73.856169765538652 21.482791326263396 0 0 0 0 -8.1434813169808038 33.685894547567045 0 33.685894547567045 -11.959868598254161 0 0 0 0 -23.87837406554172 21.023653761199967 0 21.023653761199967 19.719831672182409 0 0 0 0 102.68773074965065 94.638838658605891 0 94.638838658605891 -112.2367878194782 0 0 0 0 26.044412519582693 57.296274627320599 0 57.296274627320599 2.1198098401764582 0 0 0 0 13.318916775437941 30.493173470358499 0 30.493173470358499 -0.069761143414555971 0 0 0 0 13.391529269560124 60.410196125521907 0 60.410196125521907 -5.4149044156874879 0 0 0 0 32.566603505016829 45.494406067089898 0 45.494406067089898 15.995182670713547 0 0 0 0 -33.666698382065078 132.96008906822317 0 132.96008906822317 -54.881039233572665 0 0 0 0 -25.184845247058547 80.826333171491569 0 80.826333171491569 12.961808621512318 0 0 0 0 16.309615940564271 35.075805965319169 0 35.075805965319169 45.262348554524436 0 0 0 0 5.0454003644328509 34.290364063016682 0 34.290364063016682 22.366906196524099 0 0 0 0 0.61055189004400745 66.587961045956035 0 66.587961045956035 67.906320012378274 0 0 0 0 33.493246526828443 55.298690221654397 0 55.298690221654397 -6.4754447259620065 0 0 0 0 -0.82518536510178819 64.894067682427703 0 64.894067682427703 88.189044952901895 0 0 0 0 8.4370104750123573 83.301331977141672 0 83.301331977141672 42.266380409448175 0 0 0 0 13.93693011761934 90.53943440666626 0 90.53943440666626 58.317124569628504 0 0 0 0 4.7959407894595643 90.054832018136949 0 90.054832018136949 77.836772928887513 0 0 0 0 2.8826466550672194 69.162727141258074 0 69.162727141258074 87.774095440050587 0 0 0 0 1.1594246156892041 64.752495164895663 0 64.752495164895663 80.026604743179632 0 0 0 0 2.8457214600348379 64.835952474619262 0 64.835952474619262 121.86804687776021 0 0 0 0 21.436906276998343 65.042393130788696 0 65.042393130788696 127.51072935466073 0 0 0 0 10.533861656556837 71.291606228514866 0 71.291606228514866 126.38209801568883 0 0 0 0 17.31530615768861 81.374566650905763 0 81.374566650905763 89.748756050059455 0 0 0 0 17.470114336432744 85.429580182782047 0 85.429580182782047 141.97224397171522 0 0 0 0 34.412290278298315 100.48060821321269 0 100.48060821321269 101.01682606052782 0 0 0 0 15.691812239645515 100.72480157249811 0 100.72480157249811 96.950402142916573 0 0 0 0 21.748290972711402 92.202076947512978 0 92.202076947512978 95.710506748437183 0 0 0 0 44.218371503753588 108.69126468551985 0 108.69126468551985 86.720133095092024 0 0 0 0 58.425509628217696 121.5904761308866 0 121.5904761308866 150.03040873556165 0 0 0 0 58.223521590320161 115.44735904605477 0 115.44735904605477 89.978703969100025 0 0 0 0 34.442076989536872 95.536978617150453 0 95.536978617150453 141.14770834866795 0 0 0 0 85.107451639731153 103.40001076804583 0 103.40001076804583 107.20791968007688 0 0 0 0 88.440779981610831 121.27572025349218 0 121.27572025349218 83.663687429681886 0 0 0 0 55.826058249222115 84.461120429506991 0 84.461120429506991 166.65696101468347 0 0 0 0 44.68157101914403 100.71818047344277 0 100.71818047344277 142.74524044274585 0 0 0 0 46.960026702727191 87.250862571323523 0 87.250862571323523 170.37369044392108 0 0 0 0 45.56559122458566 94.460953616115148 0 94.460953616115148 198.67481344132102 0 0 0 0 23.880349174258299 76.962503243274114 0 76.962503243274114 176.98702842084458 0 0 0 0 38.52241491782479 71.993278809793992 0 71.993278809793992 153.45919193031295 0 0 0 0 20.20550515758805 44.847225798032014 0 44.847225798032014 163.8189362492194 0 0 0 0 12.58732541812941 2.7103608307980096 0 2.7103608307980096 0.47149887676937263 0 0 0 0 45.274385046315501 -101.23341265656893 0 -101.23341265656893 -104.16332732128649 0 0 0 0 18.07877877028659 2.3528178279229905 0 2.3528178279229905 217.44593923374487 0 0 0 0 130.88368273781816 37.391127085244079 0 37.391127085244079 -70.390271637428668 0 0 0 0 12.96156499008066 61.461746377633972 0 61.461746377633972 316.73602701681375 0 0 0 0 19.760811966378242 55.147728389132681 0 55.147728389132681 244.76919793238631 0 0 0 0 19.909535681072157 -6.9121991244319361 0 -6.9121991244319361 169.71133679897321 0 0 0 0 67.594935865345178 123.86375172041335 0 123.86375172041335 265.13874902185489 0 0 0 0 -31.845868168893503 102.68350031834416 0 102.68350031834416 -77.573583226025221 0 0 0 0 19.648870941862697 42.172068709907762 0 42.172068709907762 67.287838763622858 0 0 0 0 22.188846505660422 13.847733974448957 0 13.847733974448957 -0.86294450065099992 0 0 0 0 55.67938245885307 141.89270325409598 0 141.89270325409598 -64.758457734889816 0 0 0 0 -1.6496128328581108 65.125250357821642 0 65.125250357821642 90.152490704000229 0 0 0 0 18.033426364010666 3.6735576912615215 0 3.6735576912615215 126.25450823538995 0 0 0 0 19.404345994233154 34.112222053168807 0 34.112222053168807 111.7381542482326 0 0 0 0 18.144863821973559 39.835217853542417 0 39.835217853542417 173.88929662879673 0 0 0 0 -324.29258041536013 -259.89866018548128 0 -259.89866018548128 -127.06647378411435 0 0 0 0 147.62825398916902 29.701179483905435 0 29.701179483905435 -61.765041029750137 0 0 0 0 153.65736081593786 46.662683462342102 0 46.662683462342102 -101.83960066741565 0 0 0 0 -96.195592539006611 -114.0415669788963 0 -114.0415669788963 -133.19951421832502 0 0 0 0 11.259748410697995 55.943427568009739 0 55.943427568009739 -32.937483980847261 0 0 0 0 87.190031589314458 122.21357859955788 0 122.21357859955788 -122.16114467223088 0 0 0 0 90.143048209778499 -153.22217574213573 0 -153.22217574213573 -393.87945348237554 0 0 0 0 37.242848634075017 179.21375442195495 0 179.21375442195495 343.98386570280127 0 0 0 0 67.334866487151885 34.078566746229626 0 34.078566746229626 -20.601658822030004 0 0 0 0 230.04140905916574 319.91055404968665 0 319.91055404968665 239.81359621649608 0 0 0 0 110.59527387090566 197.4650238060276 0 197.4650238060276 366.45765621645114 0 0 0 0 281.84040810941224 195.40873089115848 0 195.40873089115848 60.916190233518137 0 0 0 0 197.37338383037422 273.53841695222945 0 273.53841695222945 271.46648785324578 0 0 0 0 1.255566791791523 1.4220137898391769 0 1.4220137898391769 -1.101380752505321 0 0 0 0 180.8962531817815 24.825117532753211 0 24.825117532753211 -10.915941865852801 0 0 0 0 -54.428516803458479 87.96301356668846 0 87.96301356668846 12.321508192988404 0 0 0 0 263.80452871551825 81.135127393998118 0 81.135127393998118 5.4950967370969011 0 0 0 0 93.778480211123679 -4.1148826754379115 0 -4.1148826754379115 145.60466332823125 0 0 0 0 0.57137626565526034 3.3936068487122242 0 3.3936068487122242 -0.50986670852805105 0 0 0 0 6.0737752378390724 13.3631802663391 0 13.3631802663391 34.842814860101498 0 0 0 0 137.89072126160318 230.45745403399633 0 230.45745403399633 93.873523034053505 0 0 0 0 52.41401852791023 40.274427403943264 0 40.274427403943264 -6.6583652308472665 0 0 0 0 52.41401852791023 40.274427403943264 0 40.274427403943264 -6.6583652308327146 0 0 0 0 16.814368685736554 15.888235143836937 0 15.888235143836937 -42.482075387102668 0 0 0 0 52.414018527964799 40.274427403903246 0 40.274427403903246 -6.6583652308618184 0 0 0 0 21.713087166578219 -0.20068816555891544 0 -0.20068816555891544 -22.987795055883414 0 0 0 0 20.743250144900713 22.127438506111048 0 22.127438506111048 -10.385394676901996 0 0 0 0 19.651396999527094 42.422597600915907 0 42.422597600915907 -57.475333713752008 0 0 0 0 62.527533556509297 138.59224473929498 0 138.59224473929498 -74.394837363521219 0 0 0 0 137.75289907801925 104.64709060835594 0 104.64709060835594 -46.653959614619453 0 0 0 0 68.184368390034479 91.557860398748289 0 91.557860398748289 -48.368970124822226 0 0 0 0 2.9315455263806101 4.9551052679385208 0 4.9551052679385208 -2.5321039723339709 0 0 0 0 344.48461639046582 -489.12134515082289 0 -489.12134515082289 211.90810277760829 0 0 0 0 -314.7634263066675 111.68059053781508 0 111.68059053781508 -32.447126355560613 0 0 0 0 -345.25027755024439 355.20913264043611 0 355.20913264043611 -76.759963828342734 0 0 0 0 25.410488320613979 1.0624174744992132 0 1.0624174744992132 -4.8602147459628755 0 0 0 0 -38.141774994546722 61.230219337187009 0 61.230219337187009 -67.129226605204167 0 0 0 0 -129.90583469672856 72.020889876494039 0 72.020889876494039 -72.613024158854387 0 0 0 0 161.44322182679025 128.11442697573148 0 128.11442697573148 113.61279975189245 0 0 0 0 42.608059348582174 49.573075224863715 0 49.573075224863715 61.70868336292915 0 0 0 0 23.535365649488114 12.173345385723394 0 12.173345385723394 -13.278961497984113 0 0 0 0 -83.112346079215058 -97.694004417018732 0 -97.694004417018732 30.451556057028938 0 0 0 0 314.38067978753497 89.78692427729311 0 89.78692427729311 -1016.093822149669 0 0 0 0 15.341491341176152 428.79333628469612 0 428.79333628469612 967.870745709537 0 0 0 0 8.2230506699430919 -0.021330680638428134 0 -0.021330680638428134 0.45639326961520021 0 0 0 0 56.094764600245981 131.63404844227625 0 131.63404844227625 146.94441016804922 0 0 0 0 58.079554811105481 106.29138040668477 0 106.29138040668477 409.52663141172525 0 0 0 0 0.21173220689121308 0.79222234051253793 0 0.79222234051253793 0.92696255628792068 0 0 0 0 220.60872724255023 161.85753350198866 0 161.85753350198866 -282.11554947617697 0 0 0 0 164.82232276520517 109.2849740490783 0 109.2849740490783 -184.39289895696857 0 0 0 0 106.31516748477588 212.05994403231307 0 212.05994403231307 -175.90677595935631 0 0 0 0 -500.89649613242364 344.47541416555759 0 344.47541416555759 -414.57936629372125 0 0 0 0 330.59723195603874 401.34420469468023 0 401.34420469468023 -277.18619532907906 0 0 0 0 126.28133863561379 284.8534132441855 0 284.8534132441855 -326.30716775537439 0 0 0 0 254.11413970500143 248.46519155803253 0 248.46519155803253 -202.2640830752498 0 0 0 0 145.78162244232954 558.02482480073377 0 558.02482480073377 -263.36355217934761 0 0 0 0 661.92499158010469 304.59773033286911 0 304.59773033286911 -469.93632978876849 0 0 0 0 417.55085001248517 -231.79355877271155 0 -231.79355877271155 -148.49121612989256 0 0 0 0 4.0491838068957406 4.6419744339737292 0 4.6419744339737292 -0.26488836666382554 0 0 0 0 669.0035201081763 -31.183158282776787 0 -31.183158282776787 -91.484217758224986 0 0 0 0 397.7677407926094 169.07251095225365 0 169.07251095225365 162.6136988973667 0 0 0 0 -39.146077829769638 45.302634879633843 0 45.302634879633843 15.085966193175409 0 0 0 0 -18.288864326110343 -62.605797428215737 0 -62.605797428215737 341.21229638433533 0 0 0 0 -98.517310388764599 41.525390290713403 0 41.525390290713403 185.17757389145117 0 0 0 0 -23.311873425569502 7.2853865352262801 0 7.2853865352262801 80.751265601546038 0 0 0 0 19.41774112252773 16.204962247088151 0 16.204962247088151 0.1102925270189985 0 0 0 0 -497.85767188378668 -338.6450221844425 0 -338.6450221844425 -407.21754114126088 0 0 0 0 -22.6438858933532 16.081142115148779 0 16.081142115148779 11.258605380629696 0 0 0 0 557.76216690579895 645.13156263816199 0 645.13156263816199 232.30097857180954 0 0 0 0 565.61240326118423 84.097558561363257 0 84.097558561363257 -653.53034631356422 0 0 0 0 366.96891445372603 1160.5238367878774 0 1160.5238367878774 755.43393131438643 0 0 0 0 939.70393323638564 802.23832905195013 0 802.23832905195013 -11.543332681176253 0 0 0 0 43.944341405580559 13.885262445528056 0 13.885262445528056 -42.375285398251663 0 0 0 0 119.97652290290716 -9.0049336934680468 0 -9.0049336934680468 235.36382554146985 0 0 0 0 70.226610235946282 111.18821398786713 0 111.18821398786713 -6.0417451814428205 0 0 0 0 61.919572682196304 128.04068266461036 0 128.04068266461036 -34.806310146726901 0 0 0 0 33.508016201594728 158.12155618597171 0 158.12155618597171 46.84783376629639 0 0 0 0 23.69749652259452 188.96418949293002 0 188.96418949293002 -37.638750593425357 0 0 0 0 26.031708480471409 19.46565269031062 0 19.46565269031062 -57.454092094705786 0 0 0 0 97.225135429071088 -34.443030176640605 0 -34.443030176640605 0.21792454784736037 0 0 0 0 171.03921734421965 181.18467677209992 0 181.18467677209992 -4.765679544856539 0 0 0 0 452.59616718201141 -529.04952081395459 0 -529.04952081395459 733.29524651962856 0 0 0 0 -26.695277421698847 369.79913595550897 0 369.79913595550897 363.1331982003062 0 0 0 0 -111.1290724195751 368.83103049305646 0 368.83103049305646 1070.7218336983788 0 0 0 0 5.6406778694207986 3.9158063094689339 0 3.9158063094689339 -0.75627666884047073 0 0 0 0 -14.963657732507272 304.51562657371687 0 304.51562657371687 471.38377637755184 0 0 0 0 14.900840576978226 8.7091688995278673 0 8.7091688995278673 686.90058075782144 0 0 0 0 136.35070422148419 225.98399324077764 0 225.98399324077764 -774.76231711709443 0 0 0 0 190.82078192427434 237.44149856206059 0 237.44149856206059 243.11533859682822 0 0 0 0 12.723662192646998 8.7724096037754293 0 8.7724096037754293 -1.6582231347354437 0 0 0 0 36.663866132042585 110.81875720186326 0 110.81875720186326 431.75198981373978 0 0 0 0 131.36357136238075 59.759218931467331 0 59.759218931467331 383.59806164895417 0 0 0 0 226.04620911436905 156.83104637271754 0 156.83104637271754 147.80853894427128 0 0 0 0 43.384491353264821 127.77768501894207 0 127.77768501894207 157.51633222855162 0 0 0 0 59.400770338488655 221.65655680262353 0 221.65655680262353 423.6754170119093 0 0 0 0 32.9153598157136 162.32334519888173 0 162.32334519888173 124.9968677067809 0 0 0 0 131.60559718228615 59.418218608407187 0 59.418218608407187 118.42882427418954 0 0 0 0 1.502590337572542 3.4116031459905685 0 3.4116031459905685 0.57424581873264913 0 0 0 0 -20.089386722698691 -45.520292866131058 0 -45.520292866131058 74.631200781243933 0 0 0 0 19.640043493986013 -11.285498637487763 0 -11.285498637487763 642.20318409151514 0 0 0 0 102.47787945908567 96.699721265020344 0 96.699721265020344 255.90595944420784 0 0 0 0 -47.464063841580355 101.61221064239362 0 101.61221064239362 -185.55589376486023 0 0 0 0 -64.617382563963474 91.572741053634672 0 91.572741053634672 -183.55567407372291 0 0 0 0 -75.791689644178405 25.396545787349169 0 25.396545787349169 -349.66572662751423 0 0 0 0 -96.381709381239489 226.81616027939162 0 226.81616027939162 -180.55859725455957 0 0 0 0 -58.770326899333668 157.76117160670037 0 157.76117160670037 -137.54841355535609 0 0 0 0 -34.204429533303482 90.987061209016247 0 90.987061209016247 -197.75330550727085 0 0 0 0 -93.047327797834441 194.11818319303347 0 194.11818319303347 -92.624277699083905 0 0 0 0 -87.911787449418625 185.74262796298717 0 185.74262796298717 -0.072739692484901752 0 0 0 0 -67.94082726558554 173.48708356069983 0 173.48708356069983 -78.188397050485946 0 0 0 0 -37.041305209466373 218.47627325529174 0 218.47627325529174 -64.224486483100918 0 0 0 0 140.51586005414902 12.479825671873186 0 12.479825671873186 -25.096290111468988 0 0 0 0 -118.95630595220064 202.37890385502214 0 202.37890385502214 -22.254808394776774 0 0 0 0 -26.791390525602765 278.56158693023463 0 278.56158693023463 -474.09484126599273 0 0 0 0 2.9994271756368107 34.316506997631222 0 34.316506997631222 -516.67879012765479 0 0 0 0 464.47929467070207 -89.9286853930098 0 -89.9286853930098 -1263.7939933325997 0 0 0 0 -142.79178515952299 444.71682261857859 0 444.71682261857859 -294.63442061302339 0 0 0 0 484.7674420490257 -250.99467272702896 0 -250.99467272702896 -1090.1663334176774 0 0 0 0 369.50405567145663 233.02111628882813 0 233.02111628882813 -0.055659183395619038 0 0 0 0 175.1390687338062 224.55534424446523 0 224.55534424446523 276.76231264324178 0 0 0 0 10.404049372986766 6.428381265720029 0 6.428381265720029 -3.63988574938017 0 0 0 0 203.71134808741044 -168.0731292539931 0 -168.0731292539931 -664.24537756342033 0 0 0 0 133.40704641971388 98.613756649108836 0 98.613756649108836 -609.84481777305336 0 0 0 0 51.68467909697938 383.33928492727864 0 383.33928492727864 438.55169878219021 0 0 0 0 6.5498303525913428 1.766219303210363 0 1.766219303210363 -0.63522431737113294 0 0 0 0 34.696218569446501 65.472171392064411 0 65.472171392064411 -472.099650872231 0 0 0 0 75.652081460339105 109.31267063431005 0 109.31267063431005 -920.6816705488236 0 0 0 0 57.551395544345723 23.016855573703651 0 23.016855573703651 -31.449297125582234 0 0 0 0 41.465211948554497 117.53485054313023 0 117.53485054313023 -4.0839229630364571 0 0 0 0 29.46038200861949 95.519786988199485 0 95.519786988199485 -13.345960696024122 0 0 0 0 46.170910203007224 102.4422754897605 0 102.4422754897605 35.367372873298336 0 0 0 0 57.602030358628056 53.5506387454015 0 53.5506387454015 50.199036045179255 0 0 0 0 3.2444389202137245 57.039080845926946 0 57.039080845926946 29.452519540500361 0 0 0 0 59.029876292257541 48.141997637550958 0 48.141997637550958 24.776044173457194 0 0 0 0 77.286928393950802 72.651867496068007 0 72.651867496068007 2.5310262176208198 0 0 0 0 60.611993188242195 89.441463380630012 0 89.441463380630012 -12.971750229800818 0 0 0 0 37.611882135385201 54.625348369612979 0 54.625348369612979 46.856074826258329 0 0 0 0 68.222671755662304 94.706410638056695 0 94.706410638056695 22.559246921460726 0 0 0 0 76.938205357893821 74.308445095815841 0 74.308445095815841 23.182819204230327 0 0 0 0 95.911995164351538 74.116739742021309 0 74.116739742021309 -120.69803392959875 0 0 0 0 24.041817471850663 149.87517119719269 0 149.87517119719269 82.034036414792354 0 0 0 0 9.8753272111248975 16.658162182212578 0 16.658162182212578 20.064257351548775 0 0 0 0 -25.320624937565299 130.16183698616078 0 130.16183698616078 -31.235308884264668 0 0 0 0 72.807907232127036 149.35524769340554 0 149.35524769340554 -105.3040457553725 0 0 0 0 3.6544766450529664 25.432692073303471 0 25.432692073303471 13.65406690506058 0 0 0 0 69.565253498032689 55.076954283678788 0 55.076954283678788 -45.659701779668467 0 0 0 0 105.25191307126079 106.6278070374683 0 106.6278070374683 -49.138520364940632 0 0 0 0 108.67888932052301 93.872091791243292 0 93.872091791243292 -43.897688858909532 0 0 0 0 93.640606165688951 115.8586672424135 0 115.8586672424135 -53.60786597817787 0 0 0 0 92.093570758122951 101.15203263438889 0 101.15203263438889 -42.168907939074415 0 0 0 0 63.737351577117806 114.74537840563971 0 114.74537840563971 -2.7831984829099383 0 0 0 0 75.29482808872126 132.09837862948189 0 132.09837862948189 -34.487657423087512 0 0 0 0 62.29982994068996 106.43990136693901 0 106.43990136693901 -26.646021006963565 0 0 0 0 70.830986055603717 131.30196517094009 0 131.30196517094009 9.4562328088504728 0 0 0 0 60.02061295985186 114.68931414245162 0 114.68931414245162 15.165461140481057 0 0 0 0 76.369457834371133 129.23478380490269 0 129.23478380490269 -31.484925220904188 0 0 0 0 96.454655442998046 121.05931664865057 0 121.05931664865057 16.081355985879782 0 0 0 0 63.217901257263293 112.34970664397406 0 112.34970664397406 80.706821858009789 0 0 0 0 67.197192913074105 123.58247483162995 0 123.58247483162995 42.102585324988468 0 0 0 0 57.582386640075129 111.26815622934373 0 111.26815622934373 30.096303780053859 0 0 0 0 44.797791966338082 114.94944818002614 0 114.94944818002614 60.743151700356975 0 0 0 0 58.904426033037453 119.81636039756995 0 119.81636039756995 14.284025592933176 0 0 0 0 36.175042704620864 104.71760610159254 0 104.71760610159254 53.476888264420268 0 0 0 0 47.510170123336138 111.90468130513909 0 111.90468130513909 9.1529842677846318 0 0 0 0 49.389894019404892 115.70154465160067 0 115.70154465160067 -5.8389936829626095 0 0 0 0 33.249575946858386 92.93002195390909 0 92.93002195390909 7.7484792507020757 0 0 0 0 2.7654713643423747 92.378402477690543 0 92.378402477690543 58.868840838105825 0 0 0 0 52.81560559797785 59.270688671650355 0 59.270688671650355 55.45319340769791 0 0 0 0 144.7268769205366 122.21031922895054 0 122.21031922895054 6.8687246457484434 0 0 0 0 140.3210489582234 60.492462984253507 0 60.492462984253507 283.93121955831884 0 0 0 0 4.8156795459362911 101.85269030201016 0 101.85269030201016 46.385496007747861 0 0 0 0 14.256614733396795 8.2685202297478639 0 8.2685202297478639 2.350087996633988 0 0 0 0 -272.28390691516324 29.828272655257024 0 29.828272655257024 195.91708473349718 0 0 0 0 -107.08920208388008 69.708145079013775 0 69.708145079013775 265.48348075620015 0 0 0 0 14.541102285512025 9.6964920586284506 0 9.6964920586284506 -2.4140158803066072 0 0 0 0 10.220856182524585 36.417833811327 0 36.417833811327 -234.71534580934349 0 0 0 0 5.8383373204667066 5.3944207399088668 0 5.3944207399088668 0.40864538991055621 0 0 0 0 21.615262190542126 15.069792902620975 0 15.069792902620975 -5.7071020051225787 0 0 0 0 44.14151942616445 14.948695219267393 0 14.948695219267393 -6.2003080122958636 0 0 0 0 -266.97110025258735 107.80747362819966 0 107.80747362819966 300.41866761467827 0 0 0 0 -51.208711410348769 194.94127596588805 0 194.94127596588805 293.22950598644093 0 0 0 0 -152.30750824892311 183.76369491857258 0 183.76369491857258 318.90089366114989 0 0 0 0 -13.98473785778333 -15.295826114685042 0 -15.295826114685042 -139.66158808447653 0 0 0 0 -27.121668792540731 -3.7202106286713388 0 -3.7202106286713388 -79.769478424277622 0 0 0 0 12.079974028940782 4.2847571974074867 0 4.2847571974074867 2.5652611382809081 0 0 0 0 61.172185013740091 45.235335047254921 0 45.235335047254921 -53.119834485254614 0 0 0 0 -17.360152577748522 1.4043265398941003 0 1.4043265398941003 27.913145511243783 0 0 0 0 15.491758314696 13.35140945902603 0 13.35140945902603 5.0774679684205388 0 0 0 0 -28.924212066391192 92.4322372161987 0 92.4322372161987 225.99454690448329 0 0 0 0 -12.491677331388928 23.240644096891629 0 23.240644096891629 -45.211190609319601 0 0 0 0 98.331317695712642 83.952312714991422 0 83.952312714991422 -30.785172253425117 0 0 0 0 51.048085417038237 47.219127863754693 0 47.219127863754693 -1.0914945152762812 0 0 0 0 24.861615172329039 65.987694671272038 0 65.987694671272038 -106.26769327768125 0 0 0 0 15.001874168228824 85.793723807350034 0 85.793723807350034 -41.635650768954292 0 0 0 0 2.0276948384635034 147.46267828322743 0 147.46267828322743 46.903748944252584 0 0 0 0 -19.574826926538663 107.48306937159214 0 107.48306937159214 -194.94295661490469 0 0 0 0 -29.40826102219944 92.566903327176988 0 92.566903327176988 -66.653275136784941 0 0 0 0 9.97460069724184 40.335756689310074 0 40.335756689310074 -145.82421503559453 0 0 0 0 23.178625446103979 121.68414167247829 0 121.68414167247829 -99.302935576932214 0 0 0 0 -3.1226954144949559 136.02971409464953 0 136.02971409464953 0.60740281456673983 0 0 0 0 -75.243131515357163 175.13444080137015 0 175.13444080137015 -18.629299326130422 0 0 0 0 84.767092907775805 194.06580045557348 0 194.06580045557348 -36.951105826425191 0 0 0 0 1.8459843724220377 0.94693315049102011 0 0.94693315049102011 -2.4182659386866021 0 0 0 0 31.487823857693002 216.15235100424798 0 216.15235100424798 269.83405497162312 0 0 0 0 -6.1783238006028114 17.842761169413279 0 17.842761169413279 0.03410946137527112 0 0 0 0 114.50625337994825 131.54206732840794 0 131.54206732840794 69.663134501170134 0 0 0 0 98.511765219263907 63.64304769490991 0 63.64304769490991 61.291059862334805 0 0 0 0 66.537092297017807 88.963755132514052 0 88.963755132514052 43.763946484221378 0 0 0 0 46.334572048537666 89.057241165122832 0 89.057241165122832 48.938100332568865 0 0 0 0 98.390563388118608 140.96173941507732 0 140.96173941507732 97.141613100742688 0 0 0 0 79.180781626775143 66.439131896576356 0 66.439131896576356 55.635973569030909 0 0 0 0 11.367678411043016 176.04356233467115 0 176.04356233467115 111.69279902677226 0 0 0 0 12.558021787805146 13.538558133503841 0 13.538558133503841 8.724778643410815 0 0 0 0 92.962099334596132 100.90954705403419 0 100.90954705403419 65.165757179129287 0 0 0 0 97.31233323782817 126.05294587771914 0 126.05294587771914 92.604577787002199 0 0 0 0 94.13887661168701 101.36490465313545 0 101.36490465313545 38.885786900424137 0 0 0 0 89.669179820928548 -46.238367123543867 0 -46.238367123543867 7.6360642195340915 0 0 0 0 84.103341465699486 40.469143912829168 0 40.469143912829168 0.080095410579815507 0 0 0 0 -16.988368346489551 46.526006627212155 0 46.526006627212155 30.966696433737525 0 0 0 0 224.39805178825372 76.948387183148952 0 76.948387183148952 -0.11639375114464201 0 0 0 0 16.702834989773692 -98.18918419291731 0 -98.18918419291731 258.02802932148916 0 0 0 0 168.48128906475176 126.25920638341995 0 126.25920638341995 66.907045800850028 0 0 0 0 9.8743100447087215 1.011079425868374 0 1.011079425868374 -1.7492793703084999 0 0 0 0 48.964642625072884 9.4425042280527123 0 9.4425042280527123 23.698617019093945 0 0 0 0 76.274502334046701 -148.71966988274653 0 -148.71966988274653 413.93870566782425 0 0 0 0 147.40837812707468 93.365636524220463 0 93.365636524220463 119.12487210430481 0 0 0 0 105.55959669608092 27.453422761523626 0 27.453422761523626 -34.918034710448282 0 0 0 0 325.86574420012039 -143.91496420378462 0 -143.91496420378462 -45.675270054547582 0 0 0 0 10.059073290761205 7.231766000912188 0 7.231766000912188 2.9501945781377827 0 0 0 0 48.619820901947939 48.170679142485298 0 48.170679142485298 51.291370791461588 0 0 0 0 279.6658911784325 311.04803043961874 0 311.04803043961874 73.128649454563856 0 0 0 0 35.502628034300869 22.432077696139459 0 22.432077696139459 -73.746602354221977 0 0 0 0 105.48786953073062 32.956054373097786 0 32.956054373097786 -22.249094970091249 0 0 0 0 -165.9590306595419 217.57957213924237 0 217.57957213924237 298.73602868708258 0 0 0 0 8.3459632111771498 188.70407302163221 0 188.70407302163221 171.69258103691391 0 0 0 0 11.781979838153347 201.22854443540564 0 201.22854443540564 -375.6677874553061 0 0 0 0 25.806653332459973 139.12610342761764 0 139.12610342761764 118.16874487173482 0 0 0 0 -42.238926462407107 9.5355731548770564 0 9.5355731548770564 428.50854435791553 0 0 0 0 222.03038524278963 -89.502364807056438 0 -89.502364807056438 -162.15560968988552 0 0 0 0 -86.364153321512276 157.30177115050174 0 157.30177115050174 600.92731110285968 0 0 0 0 3.8971005985857516 1.215882848389171 0 1.215882848389171 0.049741366486422134 0 0 0 0 -28.695077556439628 42.056502202579622 0 42.056502202579622 -17.253239451092668 0 0 0 0 897.38033207725675 94.171579522499087 0 94.171579522499087 -88.181411405865219 0 0 0 0 -177.44333711984655 98.899381130137044 0 98.899381130137044 92.860433440509951 0 0 0 0 0.13995307470031548 352.95741719535727 0 352.95741719535727 164.70791459140673 0 0 0 0 501.95062392247564 78.746899009220215 0 78.746899009220215 -158.57221308886074 0 0 0 0 406.55220327303687 275.28609334959037 0 275.28609334959037 -63.45313369257201 0 0 0 0 54.584068545605987 7.1679356186687073 0 7.1679356186687073 -176.18886988279701 0 0 0 0 378.11683765187627 92.544389992042852 0 92.544389992042852 -356.43930192713015 0 0 0 0 297.45060816791374 209.45002532828221 0 209.45002532828221 8.1096137184940744 0 0 0 0 219.14616095118981 112.31193203802104 0 112.31193203802104 0.33782120206888067 0 0 0 0 158.54944923269795 125.10445704852464 0 125.10445704852464 56.815673597193381 0 0 0 0 70.272869183158036 94.063316392246634 0 94.063316392246634 46.062321473174961 0 0 0 0 151.71543821500381 108.11334693448589 0 108.11334693448589 23.223177915810084 0 0 0 0 45.393812720216374 31.530188318380169 0 31.530188318380169 -19.368821796277189 0 0 0 0 180.08236205227149 66.920077344948368 0 66.920077344948368 -10.958934761045384 0 0 0 0 244.43486447782198 104.83058610034641 0 104.83058610034641 -155.62576560446178 0 0 0 0 59.117896657728124 29.153359219424601 0 29.153359219424601 0.37183188770723063 0 0 0 0 52.296858390457942 9.0818581454621778 0 9.0818581454621778 -20.43350530437398 0 0 0 0 75.95699603889625 29.181556094636107 0 29.181556094636107 -1.9213389291180647 0 0 0 0 74.324466616351856 42.785566992090025 0 42.785566992090025 19.842264798731776 0 0 0 0 80.458502902925829 15.005010359880544 0 15.005010359880544 12.556807758725881 0 0 0 0 78.906209582723022 52.457942231047127 0 52.457942231047127 45.833164364696131 0 0 0 0 81.765189800353255 43.523644615575904 0 43.523644615575904 49.073356471089937 0 0 0 0 18.391074347881428 15.414966871379647 0 15.414966871379647 -4.5580793147440772 0 0 0 0 54.515870983404454 11.145979302117127 0 11.145979302117127 -22.208473838555818 0 0 0 0 136.92483008390991 46.860788888236129 0 46.860788888236129 8.6445252493067528 0 0 0 0 69.360714555625378 10.176299137465861 0 10.176299137465861 -17.079402527028776 0 0 0 0 72.656811732435017 55.585768232107512 0 55.585768232107512 69.506129956251243 0 0 0 0 51.667375248503959 115.95738375718429 0 115.95738375718429 88.680155413574539 0 0 0 0 129.90701549206642 96.128535860440024 0 96.128535860440024 91.538873969628185 0 0 0 0 57.58494725725177 62.263082854966342 0 62.263082854966342 187.16885009095131 0 0 0 0 115.82076562169823 -2.7381393808827852 0 -2.7381393808827852 -35.689360351832875 0 0 0 0 187.93745729095099 256.16751405281684 0 256.16751405281684 65.595961317674664 0 0 0 0 190.38740599152516 142.68619847556693 0 142.68619847556693 -49.33742825214631 0 0 0 0 402.02503843503655 -55.183526388569589 0 -55.183526388569589 -0.93799788787146099 0 0 0 0 75.028519211831735 227.76573911166997 0 227.76573911166997 250.34362512743974 0 0 0 0 7.0109466911773382 4.8592383034275599 0 4.8592383034275599 2.6081663263515935 0 0 0 0 36.026467906725884 -5.8673616700034472 0 -5.8673616700034472 70.266118791216286 0 0 0 0 7.4186841602531786 -6.7528041229961673 0 -6.7528041229961673 -0.049221519424463622 0 0 0 0 9.4744768504282462 3.5370403812840436 0 3.5370403812840436 0.45633739010696672 0 0 0 0 29.626076992790331 14.151466138679098 0 14.151466138679098 -4.7246370735374512 0 0 0 0 75.379510919519817 -26.125635552467429 0 -26.125635552467429 -37.4865275384509 0 0 0 0 67.691190281359013 -9.8137106802896596 0 -9.8137106802896596 0.14748270146083087 0 0 0 0 19.748580836720066 40.948419236010523 0 40.948419236010523 31.575998991211236 0 0 0 0 211.42087505220115 72.476568927901099 0 72.476568927901099 -0.276278898025339 0 0 0 0 2.3875024045340609 -0.18300641266827711 0 -0.18300641266827711 -0.30642534579374114 0 0 0 0 77.686410471316776 27.397934741493373 0 27.397934741493373 -35.912705793794885 0 0 0 0 54.82456887579491 13.259075985577425 0 13.259075985577425 -15.172576888996616 0 0 0 0 146.37404659327876 28.178163098666118 0 28.178163098666118 -32.692542539007263 0 0 0 0 48.372016327106394 40.748370167988469 0 40.748370167988469 70.385873044739128 0 0 0 0 -12.435170531794526 9.0074698723402946 0 9.0074698723402946 25.622956323430742 0 0 0 0 102.95045329036657 62.435108044744993 0 62.435108044744993 22.182555600782507 0 0 0 0 49.406057757670595 11.818178804376743 0 11.818178804376743 -8.1472965411146419 0 0 0 0 452.47931741423599 355.64681788549751 0 355.64681788549751 271.53977239973028 0 0 0 0 1107.1320174872089 514.78970233592918 0 514.78970233592918 0.13566592329516425 0 0 0 0 367.95112087525922 224.47772292684385 0 224.47772292684385 273.31638957828193 0 0 0 0 27.007484380670533 6.849729136771515 0 6.849729136771515 1.132755520776243 0 0 0 0 894.36307265591313 523.6353169865215 0 523.6353169865215 395.87287648317579 0 0 0 0 -371.95212075990275 475.77414723581751 0 475.77414723581751 -329.95938451655456 0 0 0 0 98.488818415132783 -17.276487915843234 0 -17.276487915843234 -1.2317945170856319 0 0 0 0 -339.72512894515239 754.12068786140298 0 754.12068786140298 710.79955849720864 0 0 0 0 42.288066529303251 67.852148218912589 0 67.852148218912589 33.961392227487522 0 0 0 0 27.999125466607438 15.578618197154356 0 15.578618197154356 37.849380308238324 0 0 0 0 -14.862115656584109 34.385091381726625 0 34.385091381726625 -7.3634246529982192 0 0 0 0 64.191061648540199 93.797417194116861 0 93.797417194116861 98.92787902519558 0 0 0 0 100.21701317191764 73.566893256655021 0 73.566893256655021 -5.9821049061174563 0 0 0 0 970.98305238914327 -984.01957707798283 0 -984.01957707798283 669.09104364779341 0 0 0 0 3389.8775743555598 -1193.7967723325419 0 -1193.7967723325419 0.61897731859789928 0 0 0 0 -4.5226581124935876 14.335985009042844 0 14.335985009042844 31.30287653131623 0 0 0 0 58.556031908130819 14.261246750687292 0 14.261246750687292 -19.5437003272135 0 0 0 0 141.58819630691869 90.328752420457022 0 90.328752420457022 61.114548640820431 0 0 0 0 110.74727364380669 95.793337918141333 0 95.793337918141333 42.047968165177736 0 0 0 0 83.391851387656061 39.302547216611856 0 39.302547216611856 52.677024986602191 0 0 0 0 135.93857735643542 103.93592481255109 0 103.93592481255109 224.95775841231807 0 0 0 0 56.062473016654053 15.475319061581672 0 15.475319061581672 -16.853741494290702 0 0 0 0 64.310191584241693 60.819418155573658 0 60.819418155573658 70.1295619768498 0 0 0 0 14.222963741049909 33.113578212594575 0 33.113578212594575 46.820029581742574 0 0 0 0 43.342377354173777 16.984488169090838 0 16.984488169090838 -22.350674831461163 0 0 0 0 43.222859343208256 32.823574595720856 0 32.823574595720856 -44.28539356811234 0 0 0 0 70.460231196018867 56.167297664651414 0 56.167297664651414 70.62773827262572 0 0 0 0 56.2350367116087 16.280387013641302 0 16.280387013641302 -42.832253933825996 0 0 0 0 58.158329774538288 75.956136480286659 0 75.956136480286659 -51.060078235094807 0 0 0 0 67.74819799875695 58.057019616098842 0 58.057019616098842 -163.68958754475898 0 0 0 0 55.37441622147162 26.458290447029867 0 26.458290447029867 -50.30045681844058 0 0 0 0 5.240201266564128 12.98482005648151 0 12.98482005648151 -4.7219370864860934 0 0 0 0 42.557513189036399 -23.193869301787345 0 -23.193869301787345 -203.31050615567074 0 0 0 0 116.01835354004288 156.08773085391658 0 156.08773085391658 -333.33796013694518 0 0 0 0 177.32951799421426 61.37174938620592 0 61.37174938620592 -194.054033992732 0 0 0 0 25.560440099648986 197.64446716434759 0 197.64446716434759 18.442485354491509 0 0 0 0 54.449278617859818 160.41941943598067 0 160.41941943598067 -90.212424990080763 0 0 0 0 -17.310434984378503 7.24518033757073 0 7.24518033757073 35.358243060935877 0 0 0 0 34.680104272171405 16.636382591535096 0 16.636382591535096 -24.067369823982233 0 0 0 0 16.492735179392184 58.561138070650486 0 58.561138070650486 119.74232482229127 0 0 0 0 332.42836295156667 -175.57561262699346 0 -175.57561262699346 -74.039723248337395 0 0 0 0 150.00289459450869 211.47934165093102 0 211.47934165093102 -282.03171641069639 0 0 0 0 -126.06118637358304 351.25944392904057 0 351.25944392904057 137.45599497209332 0 0 0 0 6.4638365613606936 4.0804669935200195 0 4.0804669935200195 5.0318123822128342 0 0 0 0 68.135199220734648 -6.8360579276486533 0 -6.8360579276486533 46.8816574858065 0 0 0 0 105.36306405101277 -27.500694536853189 0 -27.500694536853189 26.608830194629263 0 0 0 0 211.1954178115484 183.2453712126553 0 183.2453712126553 -318.36496250884375 0 0 0 0 318.46714845696988 494.70107638066111 0 494.70107638066111 -578.73290250220271 0 0 0 0 -0.72755600403556286 2.1313702631611022 0 2.1313702631611022 -3.6254535314265297 0 0 0 0 4.9350275305114337 -272.34526123116666 0 -272.34526123116666 -819.09461564689991 0 0 0 0 -22.777318209555233 183.5239077226579 0 183.5239077226579 -121.8110657412908 0 0 0 0 53.796173038663255 402.13281083822949 0 402.13281083822949 -420.6701688538451 0 0 0 0 329.83968855401326 145.65056195286161 0 145.65056195286161 -867.09110735714057 0 0 0 0 350.71733470769686 40.056832735277567 0 40.056832735277567 -448.2508879370871 0 0 0 0 486.27980955895327 270.10770909530038 0 270.10770909530038 -159.80225624786544 0 0 0 0 47.632973068291903 -174.78857145196162 0 -174.78857145196162 -544.66334954777267 0 0 0 0 911.95707167447836 78.5364527122656 0 78.5364527122656 -83.572657391756366 0 0 0 0 536.1591802869807 590.96418487360461 0 590.96418487360461 271.42914758382176 0 0 0 0 538.56072823663271 -50.296298416797072 0 -50.296298416797072 532.78155900681304 0 0 0 0 -181.39744939942466 479.41308957099682 0 479.41308957099682 81.270777431582246 0 0 0 0 -352.94409565737442 211.18598312612085 0 211.18598312612085 36.544709561698255 0 0 0 0 249.40956326950982 432.71182766562561 0 432.71182766562561 -216.93505314869981 0 0 0 0 138.04874819701217 405.14235396363074 0 405.14235396363074 98.26894413541595 0 0 0 0 752.73395842789614 593.28902059216489 0 593.28902059216489 25.874391089248093 0 0 0 0 0.1297803517376046 2.607874078537094 0 2.607874078537094 2.1892528124161288 0 0 0 0 -1009.4965737995299 226.68176252110061 0 226.68176252110061 109.5544994698721 0 0 0 0 -328.30796018667024 155.15033604925702 0 155.15033604925702 -46.523767905313434 0 0 0 0 -176.2178816022315 -19.922908740529238 0 -19.922908740529238 14.138881046164897 0 0 0 0 1068.841624496963 107.05807763622579 0 107.05807763622579 -5.5672319482910098 0 0 0 0 5.5549141890514875 78.793399838259575 0 78.793399838259575 -25.747725846318644 0 0 0 0 1058.8116351603458 -39.530645502938569 0 -39.530645502938569 308.82920536273014 0 0 0 0 -0.072522915230486262 3.9957696109754295 0 3.9957696109754295 3.2863957910133763 0 0 0 0 637.90816922637168 25.258334612910403 0 25.258334612910403 27.956130473310623 0 0 0 0 -0.049601145587530482 1.4997710535448334 0 1.4997710535448334 1.0657033159590696 0 0 0 0 -203.97001854631526 35.85554322275857 0 35.85554322275857 -31.521144413702132 0 0 0 0 49.933089945177926 125.41248998931769 0 125.41248998931769 -145.83676616045705 0 0 0 0 9.7605504469393054 107.70168537594145 0 107.70168537594145 -49.464292437740369 0 0 0 0 -194.7947776318324 105.74370844681107 0 105.74370844681107 -12.173352142726799 0 0 0 0 104.57241159952537 -33.357518300275842 0 -33.357518300275842 -258.64480807053769 0 0 0 0 -150.77195279351145 99.66725359029806 0 99.66725359029806 -95.629149621043325 0 0 0 0 3.4006685670733674 9.4693660165613096 0 9.4693660165613096 3.9039252036247944 0 0 0 0 -473.55070273503225 193.01239106253706 0 193.01239106253706 -62.742304883744509 0 0 0 0 -139.56521033606714 167.89036526247992 0 167.89036526247992 -355.18914675115957 0 0 0 0 -745.18555528220895 432.53778832692296 0 432.53778832692296 1008.9937205266615 0 0 0 0 -161.74873241290334 259.03591982369107 0 259.03591982369107 854.041450805777 0 0 0 0 -269.0283829496766 65.324506326247501 0 65.324506326247501 -17.934518566871702 0 0 0 0 3.5059227576380465 3.0591068830286616 0 3.0591068830286616 0.63239472691464815 0 0 0 0 -693.01223390440282 -287.22148206462589 0 -287.22148206462589 -310.88823954706004 0 0 0 0 139.42532898110221 109.71147119098896 0 109.71147119098896 190.62531244081038 0 0 0 0 129.40542162338716 61.85376674148938 0 61.85376674148938 298.74506254590233 0 0 0 0 159.21045370899083 159.72850677546376 0 159.72850677546376 51.508664895285619 0 0 0 0 146.06961473716365 191.55042825824421 0 191.55042825824421 219.69389349951234 0 0 0 0 103.45013151058811 154.87395572669629 0 154.87395572669629 194.34067754909211 0 0 0 0 -519.43680080946069 724.87345438443663 0 724.87345438443663 287.96973705032724 0 0 0 0 142.89702929502528 242.29060900450349 0 242.29060900450349 1.1344298837211682 0 0 0 0 279.39240428153425 403.11807755287373 0 403.11807755287373 112.98966154812661 0 0 0 0 803.58457951017772 358.39747907123819 0 358.39747907123819 -217.43601496351039 0 0 0 0 136.96449404864688 44.482390153851156 0 44.482390153851156 -13.303956757739797 0 0 0 0 -3.0201465677574859 4.2102109215612984 0 4.2102109215612984 1.0894269747952876 0 0 0 0 895.4056853042639 703.91654655762068 0 703.91654655762068 944.34289308093139 0 0 0 0 61.249251929653838 63.814368632505648 0 63.814368632505648 -3.6453122033271939 0 0 0 0 31.703323443114641 87.422188898977765 0 87.422188898977765 -20.606028248141229 0 0 0 0 75.606808930300758 44.623191377453622 0 44.623191377453622 -26.411941141195712 0 0 0 0 -61.089061934471829 124.06505324071259 0 124.06505324071259 4.7796180215664208 0 0 0 0 -25.602113573040697 44.314253327623192 0 44.314253327623192 29.518738875631243 0 0 0 0 68.399328656563739 4.4165721381168623 0 4.4165721381168623 9.6362694429553812 0 0 0 0 1.4914965699225178 2.6784065623878774 0 2.6784065623878774 1.7999500211672625 0 0 0 0 2011.5024343269579 -35.180612724439015 0 -35.180612724439015 -724.36458806380688 0 0 0 0 6.6965903966311089 10.25678286626345 0 10.25678286626345 10.495722798801467 0 0 0 0 -4.3963764585641911 2048.1421781348763 0 2048.1421781348763 3435.6401428325698 0 0 0 0 461.14595802877011 402.34046118241531 0 402.34046118241531 485.49840977684653 0 0 0 0 -286.70155466673896 -971.45858195432811 0 -971.45858195432811 2670.5147657629423 0 0 0 0 532.72622985854105 -536.50094736659958 0 -536.50094736659958 1828.8599659570173 0 0 0 0 -76.142920399659488 -174.17932364164881 0 -174.17932364164881 1972.8963567833416 0 0 0 0 -273.15513593106516 -502.42012357050407 0 -502.42012357050407 2114.7407908234018 0 0 0 0 -251.67578201538709 980.47897679982361 0 980.47897679982361 548.40967450758035 0 0 0 0 -337.71215570152708 1083.7475446007993 0 1083.7475446007993 3696.4736990767415 0 0 0 0 0.15972038300901659 5.5170043641275015 0 5.5170043641275015 6.027717446063356 0 0 0 0 -1.6699223506471861 2231.5527407683098 0 2231.5527407683098 1409.26092607584 0 0 0 0 479.40036376398348 1848.4103389082575 0 1848.4103389082575 1.3912329321974539 0 0 0 0 1.2863893813337199 1291.662609268551 0 1291.662609268551 830.54542513550678 0 0 0 0 -176.29341085851775 1159.2090297633913 0 1159.2090297633913 805.73041979269965 0 0 0 0 245.77144022845459 1129.5671406417132 0 1129.5671406417132 619.77524048773921 0 0 0 0 -66.694605948425306 1029.3210675741102 0 1029.3210675741102 626.45359420943714 0 0 0 0 -190.73666357279581 1144.2154262826225 0 1144.2154262826225 474.96684698112222 0 0 0 0 -140.81474312101818 944.32902949437721 0 944.32902949437721 536.61409476175322 0 0 0 0 124.71449419220153 951.23517718195217 0 951.23517718195217 509.87747646315256 0 0 0 0 -51.826294296704873 1006.3334687125389 0 1006.3334687125389 532.56590190583665 0 0 0 0 -313.71145941109717 41.420322691814363 0 41.420322691814363 2666.8375766718455 0 0 0 0 0.073439114763743873 5.7977135813261782 0 5.7977135813261782 4.7498888624537727 0 0 0 0 -32.708036433141388 1170.3603562093413 0 1170.3603562093413 314.88391855267037 0 0 0 0 54.524439384942525 431.1594622411867 0 431.1594622411867 523.45235189956293 0 0 0 0 42.610426378785633 868.92972177254705 0 868.92972177254705 1909.5907602670486 0 0 0 0 34.038113465763331 15.810469411846128 0 15.810469411846128 -8.8648021919365263 0 0 0 0 -7.3765684688696638 776.17675883354241 0 776.17675883354241 708.12973400838382 0 0 0 0 -84.757629841245944 609.97108956288139 0 609.97108956288139 356.50559357298334 0 0 0 0 47.563026198201783 12.12443404934757 0 12.12443404934757 -8.3117440309780761 0 0 0 0 528.85434610121592 402.40099563968397 0 402.40099563968397 266.42065710990573 0 0 0 0 48.939468039076019 1325.6490897763106 0 1325.6490897763106 -1614.7463691492594 0 0 0 0 384.08353627495671 841.95395554451898 0 841.95395554451898 327.53198293090918 0 0 0 0 709.2800304192242 896.07160803345687 0 896.07160803345687 0.56514849242012133 0 0 0 0 113.77031828033978 935.43255757133738 0 935.43255757133738 553.39749279924581 0 0 0 0 197.42468376465513 975.81397588294931 0 975.81397588294931 536.99455562747607 0 0 0 0 174.77336681748238 595.89719304872415 0 595.89719304872415 584.34144123511214 0 0 0 0 1841.0733743106393 130.11666337682618 0 130.11666337682618 404.92186695522378 0 0 0 0 2102.3167771571825 908.19689495060084 0 908.19689495060084 149.82220589359349 0 0 0 0 828.61502915331948 626.87847756598421 0 626.87847756598421 620.20267156788759 0 0 0 0 3080.6999812874783 2069.9061562057977 0 2069.9061562057977 1479.0806670986276 0 0 0 0 33.3921954029245 -9.7439676332464842 0 -9.7439676332464842 3.4614996469662174 0 0 0 0 2062.3757877240423 -790.08154505147104 0 -790.08154505147104 -2322.3657920125734 0 0 0 0 3235.5706087279032 -932.59273562635644 0 -932.59273562635644 995.54976539227937 0 0 0 0 -1961.2134716852452 515.76265559779858 0 515.76265559779858 1181.3822514943231 0 0 0 0 622.68202906957595 918.15808293745067 0 918.15808293745067 1524.7445106129671 0 0 0 0 24.497165630511176 0.94347697423123122 0 0.94347697423123122 -2.5490876505620719 0 0 0 0 5526.2768154901205 -2012.6847875480307 0 -2012.6847875480307 -4589.3128327285085 0 0 0 0 1586.845521860203 2367.3641033170388 0 2367.3641033170388 2827.2785102728521 0 0 0 0 4060.2037839221011 1593.5964617877689 0 1593.5964617877689 412.97471589109773 0 0 0 0 1744.1905485691386 920.29144052609627 0 920.29144052609627 -10.373525777977193 0 0 0 0 1833.4668742140348 837.7931117018743 0 837.7931117018743 -93.993117185804294 0 0 0 0 1853.0525261017028 960.1163783101365 0 960.1163783101365 4.1564676500420319 0 0 0 0 1.4223152028733921 1.8606288817874201 0 1.8606288817874201 4.9845472252489884 0 0 0 0 2330.4973105480312 852.30278150377853 0 852.30278150377853 -1875.6337491918384 0 0 0 0 1948.3359247267654 881.04885521194956 0 881.04885521194956 -77.715931473459932 0 0 0 0 1127.2215565612842 1562.311497072913 0 1562.311497072913 -23.041891654778738 0 0 0 0 1462.0950926704099 1058.8807767806502 0 1058.8807767806502 707.8253457724968 0 0 0 0 2033.141483693631 1202.8441840820124 0 1202.8441840820124 -188.36979717217037 0 0 0 0 1828.6452548207126 1582.1681133586135 0 1582.1681133586135 823.04719595315692 0 0 0 0 1002.7600429584309 966.78594627740495 0 966.78594627740495 474.71827128545556 0 0 0 0 340.02054265911283 373.3567542440469 0 373.3567542440469 727.46659737899608 0 0 0 0 1757.9995402474015 960.02091011063749 0 960.02091011063749 101.98548315193329 0 0 0 0 1059.947078390207 896.7887478242119 0 896.7887478242119 211.9907716246671 0 0 0 0 1153.6054786897694 737.67560101717208 0 737.67560101717208 20.276609122796799 0 0 0 0 1167.3508692077885 769.35529858204427 0 769.35529858204427 51.395361452930956 0 0 0 0 793.04317495165742 519.90834460271435 0 519.90834460271435 -71.012290306520299 0 0 0 0 1972.2375323045999 614.50985121566919 0 614.50985121566919 -428.11352862516605 0 0 0 0 11.822098160875612 -480.3528273994707 0 -480.3528273994707 -813.99669334990904 0 0 0 0 2126.77851986936 916.77959772374743 0 916.77959772374743 -271.79967392692924 0 0 0 0 2069.7350030913367 855.63303043527412 0 855.63303043527412 372.74480881889758 0 0 0 0 6.5493797395843387 7.4264700305809868 0 7.4264700305809868 4.5942019127476783 0 0 0 0 420.67421700652994 -174.56314410968685 0 -174.56314410968685 -87.367893672810169 0 0 0 0 843.06529996349127 45.107089590088435 0 45.107089590088435 -466.95348789192053 0 0 0 0 840.02334805369901 70.568772125152464 0 70.568772125152464 -621.11553516296772 0 0 0 0 590.89028859541577 27.022603565837926 0 27.022603565837926 -13.363168870220761 0 0 0 0 598.80251040629082 94.210039621958458 0 94.210039621958458 216.08277553719381 0 0 0 0 565.90256288573437 180.38505823572268 0 180.38505823572268 -7.4810430332472606 0 0 0 0 1058.9753394199433 378.83553672835478 0 378.83553672835478 -37.228710375784431 0 0 0 0 783.34625149419298 251.62395654472493 0 251.62395654472493 -94.902352563341992 0 0 0 0 814.90551751898602 593.09625270406832 0 593.09625270406832 170.36666427979344 0 0 0 0 658.00320622263098 425.13339107425872 0 425.13339107425872 195.03479777604662 0 0 0 0 519.54524375736946 509.11159779578156 0 509.11159779578156 -66.933819770260016 0 0 0 0 768.30343405119493 381.71530799517495 0 381.71530799517495 -12.15003319871721 0 0 0 0 382.6643512685514 841.88821806505075 0 841.88821806505075 -93.804174525088456 0 0 0 0 605.27423803238344 -4.08355384650622 0 -4.08355384650622 -37.025996874304838 0 0 0 0 849.47921096607752 591.79339652270573 0 591.79339652270573 128.4105206296299 0 0 0 0 637.78383760534052 745.3993361681205 0 745.3993361681205 341.15090471407893 0 0 0 0 668.75263746087012 484.0601283620756 0 484.0601283620756 70.771065163215098 0 0 0 0 -14.780130203231238 280.35571559516757 0 280.35571559516757 344.46055745079502 0 0 0 0 314.46306039899355 -43.891856688074768 0 -43.891856688074768 -137.42935710562597 0 0 0 0 -49.576189403887838 -15.968068082056561 0 -15.968068082056561 80.063276567721914 0 0 0 0 16.393680259007823 5.0860975429267476 0 5.0860975429267476 -5.2642891055732264 0 0 0 0 -53.491585646625026 6.0258047353113398 0 6.0258047353113398 -27.127733434121183 0 0 0 0 244.10814911527268 68.877113562339218 0 68.877113562339218 1254.4765165680619 0 0 0 0 14.568194303735794 20.422818829060134 0 20.422818829060134 -3.7091583781095991 0 0 0 0 -15.068392013286939 -64.425015799279208 0 -64.425015799279208 1891.25926504979 0 0 0 0 -229.77837293152697 617.87480599556147 0 617.87480599556147 -766.25397810649338 0 0 0 0 -152.0067424368026 390.74604748985075 0 390.74604748985075 -830.81774347581813 0 0 0 0 6.7511388102313958 2.3348617659141233 0 2.3348617659141233 -0.28183155480905953 0 0 0 0 -250.41308977930748 697.08794681193831 0 697.08794681193831 -17.266620628717646 0 0 0 0 -84.83377815924905 536.47368944308619 0 536.47368944308619 17.390559387822577 0 0 0 0 -198.60745802854944 601.00279700001192 0 601.00279700001192 -5.0294579371548025 0 0 0 0 -336.47810679748909 294.89054222999675 0 294.89054222999675 -291.69797475972155 0 0 0 0 -172.98987503758053 382.51792181490146 0 382.51792181490146 -289.50839896175603 0 0 0 0 -168.47982769768714 489.35721665660458 0 489.35721665660458 -37.863036570277472 0 0 0 0 -66.34720291191843 374.63472575360629 0 374.63472575360629 -294.75113706056436 0 0 0 0 -0.17572368007677142 518.50468572425052 0 518.50468572425052 -112.30131483048172 0 0 0 0 -125.90687507770781 416.9672031575501 0 416.9672031575501 -315.29575749360083 0 0 0 0 0.082543055179464572 398.27035715337109 0 398.27035715337109 -595.83223449911748 0 0 0 0 -109.13927927292389 379.17620606458877 0 379.17620606458877 -623.22953903436428 0 0 0 0 -215.04420594472322 440.60795525880894 0 440.60795525880894 -309.72621881375017 0 0 0 0 -261.54977028106805 449.3826192189299 0 449.3826192189299 -621.36664528671463 0 0 0 0 -304.3649087678059 342.11225690691936 0 342.11225690691936 -641.20329120480164 0 0 0 0 -92.29423137914273 395.1156872740321 0 395.1156872740321 -659.8851106443617 0 0 0 0 -370.45968603668734 442.39467789229093 0 442.39467789229093 -585.95813019218622 0 0 0 0 -344.65542077820282 407.3480679262575 0 407.3480679262575 -843.37815266870894 0 0 0 0 -168.8639981617016 398.66382101021009 0 398.66382101021009 601.66648490715306 0 0 0 0 15.034843001956659 26.214886366036836 0 26.214886366036836 7.3649290061459851 0 0 0 0 -162.34046378836501 313.03552323504846 0 313.03552323504846 -657.86298273163266 0 0 0 0 -44.338305812707404 367.27466376003576 0 367.27466376003576 -602.0362272433922 0 0 0 0 -0.41308155855230605 368.16412228566412 0 368.16412228566412 -676.15811338367348 0 0 0 0 -36.06170195620507 343.21946388810466 0 343.21946388810466 -657.13703481505217 0 0 0 0 -74.396194682834903 314.38744170293648 0 314.38744170293648 -691.92986532871146 0 0 0 0 628.96266784684121 579.01688559473769 0 579.01688559473769 213.56738115916801 0 0 0 0 0.26364229340833845 304.25432327255294 0 304.25432327255294 233.47852127596343 0 0 0 0 -1.6923710658886506 4.0392347135782245 0 4.0392347135782245 1.1231986782146066 0 0 0 0 -73.409972658664628 538.33240993543586 0 538.33240993543586 218.8221620389013 0 0 0 0 0.054960178112195869 567.5209813729723 0 567.5209813729723 77.635090906151163 0 0 0 0 -87.755275788542349 473.364545307566 0 473.364545307566 40.552122399378277 0 0 0 0 -43.255105071009893 542.15424549280942 0 542.15424549280942 -56.923283657430147 0 0 0 0 8.3999648590470315 593.12926593692828 0 593.12926593692828 100.63844993638213 0 0 0 0 -98.146595260801405 536.83539079400543 0 536.83539079400543 86.231357920503797 0 0 0 0 226.29292507611535 553.01301968536791 0 553.01301968536791 51.905827850263449 0 0 0 0 15.835031860675372 683.89151370700711 0 683.89151370700711 73.251150076565864 0 0 0 0 21.38889830574044 592.09665164002399 0 592.09665164002399 79.244361221608415 0 0 0 0 27.914032241504174 597.21885827611732 0 597.21885827611732 62.773689186004049 0 0 0 0 -757.18573462183849 177.0016070598449 0 177.0016070598449 129.72941671355511 0 0 0 0 -384.55866840092131 559.74891911142731 0 559.74891911142731 108.28902895104693 0 0 0 0 29.321563597586646 543.58549941901583 0 543.58549941901583 -18.447807742461009 0 0 0 0 152.15027696785546 526.37934119075362 0 526.37934119075362 2.3711418968059661 0 0 0 0 202.06720610893535 433.24929565154707 0 433.24929565154707 43.967485529938131 0 0 0 0 243.10735467997438 458.75471481472778 0 458.75471481472778 13.876213144287362 0 0 0 0 249.10033352590108 501.55313957588078 0 501.55313957588078 35.116088937902532 0 0 0 0 363.58556901347038 389.30461079301676 0 389.30461079301676 16.069804430691875 0 0 0 0 185.64953198884905 432.22976405940062 0 432.22976405940062 15.03445583954408 0 0 0 0 221.86220984621832 543.53324874674036 0 543.53324874674036 47.765337831740908 0 0 0 0 627.52895486294437 254.60605109973858 0 254.60605109973858 79.397534277770319 0 0 0 0 409.74457020799309 406.99197766042926 0 406.99197766042926 37.173158817662625 0 0 0 0 431.56048231410387 427.20461191273716 0 427.20461191273716 32.64400920207845 0 0 0 0 505.33164594163827 311.43504936070531 0 311.43504936070531 67.305133344634669 0 0 0 0 499.95795714911947 335.96864331181496 0 335.96864331181496 194.94440658969188 0 0 0 0 633.10667520786228 242.65815219747674 0 242.65815219747674 97.650507245729386 0 0 0 0 484.26665497489375 317.71760461657595 0 317.71760461657595 23.865577093449247 0 0 0 0 470.90868225056875 297.69550307186546 0 297.69550307186546 104.88696860334312 0 0 0 0 370.33596767727431 407.78841006266157 0 407.78841006266157 66.257266779243167 0 0 0 0 310.85211708513089 352.52964687406711 0 352.52964687406711 22.89597367260285 0 0 0 0 354.19429991974903 372.9106525438292 0 372.9106525438292 4.9546740072855755 0 0 0 0 391.94300221163758 244.21710497868207 0 244.21710497868207 -3.1706698154957849 0 0 0 0 259.76112192826986 322.18087182485033 0 322.18087182485033 16.319080544366443 0 0 0 0 220.04777993115931 238.81448951152288 0 238.81448951152288 35.998111423978116 0 0 0 0 201.50454832531977 373.88317925071169 0 373.88317925071169 18.923342776899517 0 0 0 0 134.08790217648493 308.58698472221658 0 308.58698472221658 19.080486459803069 0 0 0 0 185.98981263452151 365.67226635032785 0 365.67226635032785 32.406318077883043 0 0 0 0 148.31106240169538 376.54618564203611 0 376.54618564203611 30.628947078235797 0 0 0 0 66.186712399445241 288.10635991665185 0 288.10635991665185 -17.028398034155543 0 0 0 0 188.60780109565894 292.99277037103002 0 292.99277037103002 -17.276311011934013 0 0 0 0 72.391802570535219 242.21158216874392 0 242.21158216874392 -116.21553998019226 0 0 0 0 75.60457100487838 312.78534037034478 0 312.78534037034478 -108.13303909946626 0 0 0 0 67.785369948847801 320.79035667178141 0 320.79035667178141 11.548258060199259 0 0 0 0 111.98828323303314 275.28560919086704 0 275.28560919086704 -79.775755854683666 0 0 0 0 100.75418410204293 340.1742180183428 0 340.1742180183428 2.8311061550866725 0 0 0 0 83.022474768309621 398.78672688884399 0 398.78672688884399 84.099689883259998 0 0 0 0 75.163725506812625 314.34235645708759 0 314.34235645708759 -27.444188000492431 0 0 0 0 35.025503053475404 337.22106943074868 0 337.22106943074868 80.372933522252424 0 0 0 0 39.364723828432034 306.62488180543369 0 306.62488180543369 23.008324013722813 0 0 0 0 43.544109955744716 360.30457745580804 0 360.30457745580804 120.20541314235015 0 0 0 0 47.607259613885617 404.53346885541123 0 404.53346885541123 180.94915334875259 0 0 0 0 61.153227355593117 379.58272122731796 0 379.58272122731796 67.509153992567008 0 0 0 0 94.226583485671654 465.28113537410218 0 465.28113537410218 90.74857350403181 0 0 0 0 105.82008399015467 430.72039975700318 0 430.72039975700318 74.116583555499346 0 0 0 0 146.62232610516367 445.99374378311404 0 445.99374378311404 41.06639921542228 0 0 0 0 58.031895770145638 484.99268129561096 0 484.99268129561096 86.971976938606531 0 0 0 0 -105.29150083430068 421.01964910787683 0 421.01964910787683 149.68750147995161 0 0 0 0 101.75280422333162 214.35953443738254 0 214.35953443738254 34.352968543636962 0 0 0 0 52.669262323601288 429.23573251610105 0 429.23573251610105 219.25895882121404 0 0 0 0 169.5254106385546 363.49565662218811 0 363.49565662218811 161.7202269935442 0 0 0 0 63.701563077862374 472.25867768349235 0 472.25867768349235 123.09301979562952 0 0 0 0 76.819466103668674 354.87153083252269 0 354.87153083252269 112.390005866102 0 0 0 0 258.62336992748169 523.78346481353765 0 523.78346481353765 132.81478043393145 0 0 0 0 195.46315952490841 342.56846115662483 0 342.56846115662483 125.7627136486808 0 0 0 0 282.83510965750611 426.85399604402119 0 426.85399604402119 161.5616895475905 0 0 0 0 79.289690765697287 400.57217494649171 0 400.57217494649171 231.52110166072816 0 0 0 0 347.95383683384171 241.15648037774326 0 241.15648037774326 195.43343900840409 0 0 0 0 906.07666295258969 592.63881186758044 0 592.63881186758044 73.084621991833046 0 0 0 0 -1.3160982060787418 4.1532920888741387 0 4.1532920888741387 0.65705955779776559 0 0 0 0 172.14655871578725 583.74460795153209 0 583.74460795153209 152.66774449848162 0 0 0 0 94.097512483727769 578.58859482718981 0 578.58859482718981 179.07517271893448 0 0 0 0 -0.24215048822225071 610.21122442252818 0 610.21122442252818 -6.8866851073653379 0 0 0 0 73.42607394575316 445.08349170513247 0 445.08349170513247 152.39027579455433 0 0 0 0 -508.85519929960719 297.66904899428664 0 297.66904899428664 76.467281762685161 0 0 0 0 -0.098988841476966627 194.81875522759037 0 194.81875522759037 93.787051697130664 0 0 0 0 142.37267859494023 308.47921135174329 0 308.47921135174329 233.59957087590738 0 0 0 0 -2.3587821440508492 6.5155224613969835 0 6.5155224613969835 0.96590102643085629 0 0 0 0 181.99273723981059 349.81860634355871 0 349.81860634355871 217.34084969885225 0 0 0 0 214.19177948153083 346.92230809942703 0 346.92230809942703 121.28799014211472 0 0 0 0 360.69115134696767 110.61913964316409 0 110.61913964316409 155.76836476888275 0 0 0 0 180.09044763003476 272.82096757564432 0 272.82096757564432 34.71848220773245 0 0 0 0 458.64873287481169 241.85412934968372 0 241.85412934968372 27.161266414594138 0 0 0 0 -13.32694306737497 22.951232332921336 0 22.951232332921336 10.243613249776729 0 0 0 0 333.31330416691344 194.37099458012563 0 194.37099458012563 99.692590861712233 0 0 0 0 347.13258957658036 185.45624634243177 0 185.45624634243177 -77.219040361131192 0 0 0 0 -302.31143499104655 123.36220711024362 0 123.36220711024362 74.164420806482667 0 0 0 0 -190.23883785585349 255.48549389198888 0 255.48549389198888 24.110470924570109 0 0 0 0 62.7044251619227 142.64152411420218 0 142.64152411420218 -34.093247420925763 0 0 0 0 55.782827350791194 152.6187595631709 0 152.6187595631709 149.38105577332317 0 0 0 0 223.06635450272006 315.42379435552721 0 315.42379435552721 -10.862283005175414 0 0 0 0 52.66624264595157 203.76043727403157 0 203.76043727403157 8.8612645353423432 0 0 0 0 -151.45006552629638 273.20504757964954 0 273.20504757964954 62.4047608227811 0 0 0 0 393.49748230403929 334.98475287832844 0 334.98475287832844 -89.695793494138343 0 0 0 0 -93.197582135238918 6.740049538158928 0 6.740049538158928 -110.5435476961502 0 0 0 0 242.98228092568752 473.42687870474765 0 473.42687870474765 163.97562628332525 0 0 0 0 37.745687866583467 -108.37503858126729 0 -108.37503858126729 -56.174108673250885 0 0 0 0 7.8585950288740491 -1.0278815888904091 0 -1.0278815888904091 -8.674011882940448 0 0 0 0 120.43780791640165 -169.46451404632171 0 -169.46451404632171 -12.565379456835217 0 0 0 0 1.4078904756065072 3.6163030352634635 0 3.6163030352634635 -11.647441787307969 0 0 0 0 184.22363176202634 253.2111628895218 0 253.2111628895218 288.40954250028881 0 0 0 0 -12.167645949936826 44.83295780668837 0 44.83295780668837 -74.362860956796297 0 0 0 0 -41.824928398491465 37.447814099918105 0 37.447814099918105 -96.770017404851387 0 0 0 0 -31.249445668567205 23.774842822771461 0 23.774842822771461 -84.967082150204078 0 0 0 0 -4.7903059632444638 24.12204535486012 0 24.12204535486012 -127.00181863218313 0 0 0 0 -4.3452327187842457 20.951809087529909 0 20.951809087529909 -114.02220911898257 0 0 0 0 -11.279702439205721 31.794212420147232 0 31.794212420147232 -127.84049670159584 0 0 0 0 9.462544517009519 2.7287701957793615 0 2.7287701957793615 -98.147593625413947 0 0 0 0 19.667435801173269 0.064782918285345659 0 0.064782918285345659 -168.2539750029282 0 0 0 0 8.2807479441348164 32.827129476118245 0 32.827129476118245 -37.592679261603323 0 0 0 0 30.696271075343248 59.169039871476343 0 59.169039871476343 -183.63065959057349 0 0 0 0 17.247914278159442 45.698719069941944 0 45.698719069941944 -119.62782775302912 0 0 0 0 9.0474618533886542 41.597136531168545 0 41.597136531168545 -75.285636145408404 0 0 0 0 -4.9105317278008442 28.265685390215367 0 28.265685390215367 -126.69810672914628 0 0 0 0 84.727063004742377 117.44735421278165 0 117.44735421278165 -7.8464694464928471 0 0 0 0 -27.443232981459005 132.20060596563417 0 132.20060596563417 93.344393058607238 0 0 0 0 -5.0327824367705034 28.692152750081732 0 28.692152750081732 -128.1259261058658 0 0 0 0 5.6755284974702533 6.1784804808417277 0 6.1784804808417277 -23.141698377430544 0 0 0 0 89.921219615411246 121.63858438003808 0 121.63858438003808 439.02765238928259 0 0 0 0 64.535772740375251 -64.579827372392174 0 -64.579827372392174 -73.201899586121726 0 0 0 0 52.444106279708649 272.66709657039246 0 272.66709657039246 16.601996763783973 0 0 0 0 -37.746312627452426 -98.594347793376073 0 -98.594347793376073 81.171418563622865 0 0 0 0 -7.5278963423620269 13.202512583028891 0 13.202512583028891 4.6221622750840083 0 0 0 0 399.10954829413095 120.61628895151807 0 120.61628895151807 -12.907274020311888 0 0 0 0 -27.871578856458655 -70.875002817461791 0 -70.875002817461791 169.11182257645123 0 0 0 0 -76.69361310187378 52.319180610749754 0 52.319180610749754 -119.95770353556145 0 0 0 0 83.220271987505839 97.997989543579024 0 97.997989543579024 -70.442819235060597 0 0 0 0 -370.91721400080132 -51.876183237429359 0 -51.876183237429359 16.829946801612095 0 0 0 0 -319.02931942127179 120.69608765866724 0 120.69608765866724 115.65584280013354 0 0 0 0 -3.0864146627734286 -1.1102742607869374 0 -1.1102742607869374 0.16720009038277794 0 0 0 0 -234.34043697514426 47.47972895219209 0 47.47972895219209 66.999379012122517 0 0 0 0 451.14517095327028 70.931369065889157 0 70.931369065889157 28.779905824718298 0 0 0 0 -32.357123032677919 324.04084078754386 0 324.04084078754386 168.02379917792859 0 0 0 0 20.315653183346512 67.785233349582541 0 67.785233349582541 -1.813947737806302 0 0 0 0 -15.354249215081353 26.355202468930344 0 26.355202468930344 -21.090469043513792 0 0 0 0 209.35550390622302 123.03170937696996 0 123.03170937696996 -50.311381852152408 0 0 0 0 -9.9882549774338258 13.758035041828407 0 13.758035041828407 199.40185492048477 0 0 0 0 -72.848482699206215 151.71423509891974 0 151.71423509891974 -83.910198278303142 0 0 0 0 -191.36226780257857 9.2670750176439469 0 9.2670750176439469 21.161240593537514 0 0 0 0 16.908065578390961 87.721332095032267 0 87.721332095032267 3.1043313701229636 0 0 0 0 586.23033240114091 81.78108223669642 0 81.78108223669642 17.454115729429759 0 0 0 0 -244.16857029815583 121.07123647335175 0 121.07123647335175 -39.710361640987685 0 0 0 0 0.80328194023327626 12.851699524545978 0 12.851699524545978 5.5642800252467168 0 0 0 0 -265.90581877957447 105.12220451737085 0 105.12220451737085 4.9456002417100535 0 0 0 0 502.74822011587094 33.203113190793374 0 33.203113190793374 15.682377418444958 0 0 0 0 3.4685226951379207 1.8243056589309674 0 1.8243056589309674 0.2494720284958305 0 0 0 0 384.18382621880301 257.26098546084722 0 257.26098546084722 -43.304911787592573 0 0 0 0 828.03397503680026 197.31530948319414 0 197.31530948319414 -36.112012435492943 0 0 0 0 521.98254712804192 92.308627586235161 0 92.308627586235161 -20.681811419766746 0 0 0 0 98.798905284296779 165.39009399620772 0 165.39009399620772 61.631681703052891 0 0 0 0 432.90477684565121 162.55809107171081 0 162.55809107171081 -66.645809489258681 0 0 0 0 300.25760012245155 96.070347326705814 0 96.070347326705814 -27.547560113704094 0 0 0 0 313.61014625720418 179.03705217087918 0 179.03705217087918 -14.294695903168758 0 0 0 0 395.68071964819683 117.62910893135995 0 117.62910893135995 21.146455389171024 0 0 0 0 101.77103082372469 152.27891865745642 0 152.27891865745642 -113.99977553127974 0 0 0 0 -329.64088601931871 307.28768923133975 0 307.28768923133975 10.79024378130589 0 0 0 0 -416.96683424540242 102.33452297376425 0 102.33452297376425 -7.8726334402890643 0 0 0 0 -763.84004361266852 190.16637043056107 0 190.16637043056107 40.120103199747973 0 0 0 0 -420.89463972742669 131.07198847834161 0 131.07198847834161 -156.71701642387779 0 0 0 0 0.030999138600588338 5.405149763789467 0 5.405149763789467 3.5071616324988781 0 0 0 0 -31.356902575887943 68.91596260811275 0 68.91596260811275 326.68366725325905 0 0 0 0 99.470658263220685 6.6031108809056605 0 6.6031108809056605 -12.018169461429352 0 0 0 0 -443.50762479261903 -18.117028375341761 0 -18.117028375341761 -44.63164207720547 0 0 0 0 -320.35800804902101 183.67438582973409 0 183.67438582973409 -95.674528376815942 0 0 0 0 844.80170678765717 528.04755729413228 0 528.04755729413228 478.19295775345336 0 0 0 0 7.0735529360910618 5.5234980610639042 0 5.5234980610639042 4.6182057336625633 0 0 0 0 1137.7599814457353 -56.02262023840558 0 -56.02262023840558 -28.186851102545916 0 0 0 0 457.8359429629345 -89.2127763206081 0 -89.2127763206081 -29.682297399703202 0 0 0 0 752.34769089156907 42.517912603743753 0 42.517912603743753 -115.7441736749679 0 0 0 0 616.0779417467711 302.22436746416861 0 302.22436746416861 11.839558629886596 0 0 0 0 461.38886040908983 101.63084650314522 0 101.63084650314522 -49.251912635008921 0 0 0 0 236.91523590903671 -60.823463306598569 0 -60.823463306598569 51.116900387525675 0 0 0 0 397.28691497535328 65.490795989022445 0 65.490795989022445 -55.809862125723157 0 0 0 0 351.5504856264597 39.874967028255924 0 39.874967028255924 38.710351891313621 0 0 0 0 394.28007545202854 92.76061123477848 0 92.76061123477848 26.156037602286233 0 0 0 0 352.9230757906189 258.07818282285552 0 258.07818282285552 1.8392516037929454 0 0 0 0 3.4933205127542237 9.5311457643519333 0 9.5311457643519333 -0.43781272142447847 0 0 0 0 -579.76178253940452 159.36104807217271 0 159.36104807217271 72.595151791269018 0 0 0 0 -363.26551054410811 11.649634047587824 0 11.649634047587824 -7.4261301907972666 0 0 0 0 7.7887015786821507 15.320526880808941 0 15.320526880808941 17.018502496607226 0 0 0 0 165.14910849402622 101.75451576609703 0 101.75451576609703 -5.1350676736037713 0 0 0 0 5.7770489757385803 52.636031163820007 0 52.636031163820007 -16.509443606799778 0 0 0 0 136.40973419901275 -15.188162686055875 0 -15.188162686055875 -30.410260269745777 0 0 0 0 363.82520342546923 100.79526965534023 0 100.79526965534023 -41.748651958594564 0 0 0 0 -459.72669507664978 347.27396406923071 0 347.27396406923071 25.875062828672526 0 0 0 0 -8.2606623493272764 -0.10294236896398701 0 -0.10294236896398701 0.6267504419654415 0 0 0 0 -187.99216712636553 155.25889912194634 0 155.25889912194634 -138.14698439974745 0 0 0 0 5.7712463652552444 26.434791219408936 0 26.434791219408936 24.505193561306129 0 0 0 0 -149.65694879346847 -36.547012266924867 0 -36.547012266924867 51.730717903112236 0 0 0 0 -174.20038917259808 61.66896567036747 0 61.66896567036747 153.53283086416923 0 0 0 0 -244.47775665104564 26.868037693682709 0 26.868037693682709 19.678801804824616 0 0 0 0 11.345178078132449 160.21905372833862 0 160.21905372833862 123.18985954699747 0 0 0 0 1.9419298933680977 2.4985423220405636 0 2.4985423220405636 0.44844833336961187 0 0 0 0 -24.717449393749121 -28.41408139631676 0 -28.41408139631676 26.320259773077851 0 0 0 0 -161.74826145575025 97.437895868531086 0 97.437895868531086 103.51217572744645 0 0 0 0 4.3882654856436467 24.467990994074356 0 24.467990994074356 20.144284816288575 0 0 0 0 -100.77646506491874 14.035780458789304 0 14.035780458789304 22.948986004528706 0 0 0 0 -51.039059789734893 118.48025124265041 0 118.48025124265041 12.713737286423566 0 0 0 0 348.80262534054054 82.183849521723459 0 82.183849521723459 97.30637715784178 0 0 0 0 401.9074097666853 52.54602223330312 0 52.54602223330312 -11.784444631950464 0 0 0 0 210.46358116081683 184.82995471049799 0 184.82995471049799 66.878691614771014 0 0 0 0 275.62250593084173 218.57271116422635 0 218.57271116422635 8.9238164311936998 0 0 0 0 84.294032745849108 234.29053930219015 0 234.29053930219015 0.13722546734061325 0 0 0 0 123.00865220240667 206.90798246629947 0 206.90798246629947 16.906956574821379 0 0 0 0 131.1983453110588 228.49537024477468 0 228.49537024477468 -40.835027642126079 0 0 0 0 95.668638469316647 66.347304397971129 0 66.347304397971129 -1.0957348142401315 0 0 0 0 157.18038290741242 162.24982949582409 0 162.24982949582409 -26.876291776250582 0 0 0 0 117.27620315625973 67.929223405481025 0 67.929223405481025 -9.6681593935963974 0 0 0 0 75.725423829338979 77.564830288760277 0 77.564830288760277 -7.3907187594377319 0 0 0 0 -18.37145329125633 60.346740032004163 0 60.346740032004163 4.988587225885567 0 0 0 0 19.281141100742389 167.53207407649097 0 167.53207407649097 -38.771473594300915 0 0 0 0 27.342675883221091 280.5507201724613 0 280.5507201724613 -60.224971652844033 0 0 0 0 16.543051268250565 160.871378750453 0 160.871378750453 -24.366146563994334 0 0 0 0 10.967003807671063 97.045093329389147 0 97.045093329389147 18.089072770351777 0 0 0 0 42.961352358615841 -27.986928327205533 0 -27.986928327205533 -38.747216397243392 0 0 0 0 152.80485414261057 17.234663524573079 0 17.234663524573079 -11.422932483132172 0 0 0 0 3.2897750575509122 4.4145578869319166 0 4.4145578869319166 3.7663825935501052 0 0 0 0 -60.817799679483869 20.36816304315289 0 20.36816304315289 17.183250222282368 0 0 0 0 56.877011444274103 9.6740302348662226 0 9.6740302348662226 -1.5922893249044137 0 0 0 0 20.122084812639514 27.653084468103771 0 27.653084468103771 4.4261123998257972 0 0 0 0 17.449433467409108 23.213637428616494 0 23.213637428616494 1.5955859383466304 0 0 0 0 -2.1631776719876115 7.7222967716977848 0 7.7222967716977848 6.6718932629946295 0 0 0 0 -1.0171637070785948 26.483033688392169 0 26.483033688392169 12.597201421797706 0 0 0 0 16.114782585624198 28.500258636858689 0 28.500258636858689 9.0466897826408967 0 0 0 0 -57.444576883630361 32.451272854170384 0 32.451272854170384 3.4879800345224794 0 0 0 0 -58.856677302144817 27.721944057049768 0 27.721944057049768 -5.6837387404011679 0 0 0 0 -1.6966481784359644 19.890028536171144 0 19.890028536171144 -27.446057804377716 0 0 0 0 28.529934712831164 38.031461940932786 0 38.031461940932786 -9.0682820655565592 0 0 0 0 47.669607153336983 54.110325033951085 0 54.110325033951085 -30.348633216035523 0 0 0 0 13.429564159087022 37.533383399659215 0 37.533383399659215 -31.707032508842531 0 0 0 0 27.950169053001446 43.273961260227225 0 43.273961260227225 -36.030311368718685 0 0 0 0 12.278463155991631 54.063321617402835 0 54.063321617402835 -36.631879991353344 0 0 0 0 -19.939435613414389 49.245727020541381 0 49.245727020541381 -34.58208337294127 0 0 0 0 0.47268326888297452 54.37584392361714 0 54.37584392361714 -50.254532527455012 0 0 0 0 -6.9087500209861901 45.197756916291837 0 45.197756916291837 -23.05529145959008 0 0 0 0 -18.890446414487087 62.201677082659444 0 62.201677082659444 -39.50208400329393 0 0 0 0 -35.181908056765678 54.412337051002396 0 54.412337051002396 -18.087890673145012 0 0 0 0 -2.9559402398444945 55.072766520628647 0 55.072766520628647 -28.55272385803255 0 0 0 0 -29.012786472725566 42.981698787292771 0 42.981698787292771 -24.787739063478512 0 0 0 0 -37.997519219712558 55.542106280061489 0 55.542106280061489 -18.078128231434675 0 0 0 0 34.035457998004858 34.489003444503396 0 34.489003444503396 -30.485148515777837 0 0 0 0 2.9318033876188565 43.014880389247992 0 43.014880389247992 -16.851458747139986 0 0 0 0 142.87840911909734 197.17986046963597 0 197.17986046963597 21.021830485478858 0 0 0 0 -14.423944322779263 26.198579006554468 0 26.198579006554468 -45.463164037328582 0 0 0 0 8.6275089264236158 57.477329202571127 0 57.477329202571127 -29.680743793473084 0 0 0 0 -62.217850711618667 148.23975108095328 0 148.23975108095328 116.01482273862348 0 0 0 0 2.4291852805617964 45.847144029478841 0 45.847144029478841 -36.638657670198882 0 0 0 0 -28.807237575529143 32.564951898795698 0 32.564951898795698 -41.565071291483036 0 0 0 0 -28.432665452983201 46.665277771470755 0 46.665277771470755 -58.461205241372227 0 0 0 0 -31.182873893005308 43.94939531374439 0 43.94939531374439 -49.011883092214703 0 0 0 0 -14.494388862548746 28.596379554301308 0 28.596379554301308 -65.770878113414426 0 0 0 0 298.52054247535852 147.54687088491846 0 147.54687088491846 -341.9794252749125 0 0 0 0 -16.141180677950615 270.02493557840353 0 270.02493557840353 -141.7424585558947 0 0 0 0 -141.88887726872781 -104.66340669127749 0 -104.66340669127749 -16.463870567677077 0 0 0 0 200.23515280763968 60.29386085537044 0 60.29386085537044 -35.855363090042374 0 0 0 0 -16.259517658156255 -8.1554883293738385 0 -8.1554883293738385 -33.486218979338446 0 0 0 0 -10.812357347167563 19.661415246380784 0 19.661415246380784 -100.14734453860365 0 0 0 0 -16.366493994984637 -2.5138025585755486 0 -2.5138025585755486 -15.581761554911324 0 0 0 0 -16.338437693542801 13.979916626809427 0 13.979916626809427 -86.534842491540985 0 0 0 0 -54.112104441868723 36.654056101084279 0 36.654056101084279 -20.919222971526324 0 0 0 0 -27.535362606902709 36.112038498771653 0 36.112038498771653 -57.179863470322744 0 0 0 0 -53.766994532154058 38.75457005588396 0 38.75457005588396 -9.3560716413085174 0 0 0 0 -36.61392450083622 2.4768017639123627 0 2.4768017639123627 -35.124704420573835 0 0 0 0 -9.0352738119872527 -5.1852570167414207 0 -5.1852570167414207 -0.35130567964702664 0 0 0 0 -60.217249901601463 41.622627453254609 0 41.622627453254609 -10.310487720962556 0 0 0 0 -28.112242805636924 0.68575376914759545 0 0.68575376914759545 30.242155703243043 0 0 0 0 -56.014819964511844 46.6298840540112 0 46.6298840540112 -5.0914749677831423 0 0 0 0 -48.531658389023505 46.269433976645814 0 46.269433976645814 -16.046218267665608 0 0 0 0 -63.463827808081987 57.920697779667535 0 57.920697779667535 0.55587726989870134 0 0 0 0 -56.893566547587398 74.062640485495649 0 74.062640485495649 -33.867747226911888 0 0 0 0 -46.267701014789054 60.930384350351233 0 60.930384350351233 -65.634310137455032 0 0 0 0 -41.669747975469363 80.211367265818808 0 80.211367265818808 -76.649380234026466 0 0 0 0 -21.901570078232908 57.535125815818901 0 57.535125815818901 -55.442729164267803 0 0 0 0 -76.884113660620642 44.614730788456654 0 44.614730788456654 3.8607266909602913 0 0 0 0 -85.832637107436312 96.229504107770481 0 96.229504107770481 -39.21448586286715 0 0 0 0 -125.61599540118186 118.32349952976074 0 118.32349952976074 -10.838895943334137 0 0 0 0 -71.186133083872846 147.42903130547711 0 147.42903130547711 -143.62209779580007 0 0 0 0 0.19184239892638288 73.333932052559248 0 73.333932052559248 -219.31917803804754 0 0 0 0 -5.0063441814918406 6.2752184297666531 0 6.2752184297666531 3.2165177878974136 0 0 0 0 -5.3393712055403739 17.686023169990222 0 17.686023169990222 -105.59442088657306 0 0 0 0 -5.339371205518546 17.686023170062072 0 17.686023170062072 -105.59442088654032 0 0 0 0 -5.3393712056276854 17.686023169997497 0 17.686023169997497 -105.59442088655487 0 0 0 0 92.67209489873494 119.77262419965155 0 119.77262419965155 120.10200174279555 0 0 0 0 6.050209497090691 21.695941074306575 0 21.695941074306575 60.945094288203109 0 0 0 0 64.271416616575152 127.27529466649867 0 127.27529466649867 140.36140448110746 0 0 0 0 229.57059404143365 291.52389828527976 0 291.52389828527976 191.41525300859212 0 0 0 0 372.10808734225429 326.29034057022545 0 326.29034057022545 -40.821134826714115 0 0 0 0 140.64932819414025 133.70735244544903 0 133.70735244544903 32.46723716863562 0 0 0 0 128.35027197873205 145.82027278847363 0 145.82027278847363 32.624831900047866 0 0 0 0 145.04958077571791 144.68433772895514 0 144.68433772895514 28.017046638091415 0 0 0 0 364.38083253147488 179.07978019309667 0 179.07978019309667 -30.298776525369249 0 0 0 0 334.72613195628946 239.31390993028162 0 239.31390993028162 -99.144363607127161 0 0 0 0 370.98347869289864 285.32212894329496 0 285.32212894329496 -40.998646416732399 0 0 0 0 -16.691764171991963 83.894769972666836 0 83.894769972666836 23.947524191316916 0 0 0 0 71.225291413473315 69.988937810467178 0 69.988937810467178 36.243100289974336 0 0 0 0 62.025809991260758 23.50979754706168 0 23.50979754706168 22.613625090036749 0 0 0 0 153.89257292662296 132.94766226819229 0 132.94766226819229 26.661686291045044 0 0 0 0 -6.3302835976638505 16.747980722351372 0 16.747980722351372 3.132209430776129 0 0 0 0 20.781055726387422 40.918150999274076 0 40.918150999274076 9.8568906217187759 0 0 0 0 5.4489099260285911 30.483624903795672 0 30.483624903795672 15.475129931380749 0 0 0 0 32.98071146683651 62.528335878612779 0 62.528335878612779 -18.99496010060102 0 0 0 0 20.305954030351131 16.602011754675914 0 16.602011754675914 -0.48761691708932631 0 0 0 0 -2.65267132572626 36.388302196341101 0 36.388302196341101 1.2395605790734407 0 0 0 0 2.3787240826059133 25.919263718278671 0 25.919263718278671 21.545912013107227 0 0 0 0 -1.7561749327287544 23.584039607059822 0 23.584039607059822 -0.61250609965645708 0 0 0 0 -12.759590567648004 8.9289704074486167 0 8.9289704074486167 8.0777608240767051 0 0 0 0 27.416245464199164 30.408672370846034 0 30.408672370846034 10.091223185569106 0 0 0 0 -3.6328414809759124 30.376539394268548 0 30.376539394268548 -50.373483290270087 0 0 0 0 15.872421049065821 13.622064340557671 0 13.622064340557671 -1.1079302966119413 0 0 0 0 15.316750101716025 25.495286443332589 0 25.495286443332589 -53.783120468150628 0 0 0 0 16.743500727123489 17.073017960471077 0 17.073017960471077 -1.5895495895536935 0 0 0 0 12.628765209497942 26.299573537090509 0 26.299573537090509 -9.2913277320367342 0 0 0 0 27.390208002529107 30.033302089730569 0 30.033302089730569 -13.238878125310293 0 0 0 0 15.864625118631011 21.155754890017761 0 21.155754890017761 -19.645525001440546 0 0 0 0 42.363576150484732 25.910558025676437 0 25.910558025676437 -17.325192353320745 0 0 0 0 13.338533912037292 25.134586432289012 0 25.134586432289012 -2.2628416969334211 0 0 0 0 -2.0963261570817409 24.317099323328989 0 24.317099323328989 0.97559049863045288 0 0 0 0 11.058024422669405 20.613869661183344 0 20.613869661183344 -2.4332930583914276 0 0 0 0 11.101445688211243 14.739671292310959 0 14.739671292310959 -2.4005414494498609 0 0 0 0 8.0358254566672258 21.91247323663265 0 21.91247323663265 2.0583759826351979 0 0 0 0 4.2693901720899703 34.881686892944629 0 34.881686892944629 -0.56321047995426099 0 0 0 0 -16.569061909358425 -1.1683644465374527 0 -1.1683644465374527 4.5356420832322328 0 0 0 0 28.907551916461671 18.446723556291545 0 18.446723556291545 20.421026814401785 0 0 0 0 0.20167497085640207 13.28219886723673 0 13.28219886723673 0.15356944155132624 0 0 0 0 9.6219217111103035 18.215925786633676 0 18.215925786633676 -0.51592326016420786 0 0 0 0 -5.3806554815491126 17.90313900771875 0 17.90313900771875 -3.9943068006851803 0 0 0 0 4.4266422824807137 14.79887193475173 0 14.79887193475173 2.5795171368437622 0 0 0 0 18.676965746184578 33.479144155513495 0 33.479144155513495 16.297707204983453 0 0 0 0 9.2339420314528979 30.078983939762111 0 30.078983939762111 36.024884691943498 0 0 0 0 -2.8014608736382911 1.0786847830976569 0 1.0786847830976569 0.40340289370732574 0 0 0 0 29.691562617835189 44.814367337469321 0 44.814367337469321 8.8399642609292641 0 0 0 0 28.761053332516894 36.99103589446986 0 36.99103589446986 14.458555417935713 0 0 0 0 -204.10803811100777 312.89863303478069 0 312.89863303478069 -237.78707750574176 0 0 0 0 -284.23716822877759 51.933727976875161 0 51.933727976875161 -5.660326719829385 0 0 0 0 -0.35766898898324939 3.5630035220608249 0 3.5630035220608249 0.38584110957982887 0 0 0 0 12.329472655974314 10.143872423190714 0 10.143872423190714 -35.242756739819015 0 0 0 0 14.482034633023432 -4.4938192281042575 0 -4.4938192281042575 18.219503443135181 0 0 0 0 14.254142822372302 25.243478481815174 0 25.243478481815174 3.9156565568529658 0 0 0 0 78.08365867100656 -5.6183971927239327 0 -5.6183971927239327 -18.261028526670998 0 0 0 0 88.832764119899366 12.983329359209165 0 12.983329359209165 14.807584085181588 0 0 0 0 11.176314919244515 1.3398091543318742 0 1.3398091543318742 -0.15115828825513233 0 0 0 0 21.641390456876252 -12.450886204809649 0 -12.450886204809649 10.8257972904903 0 0 0 0 6.7913402877497617 16.095228510162386 0 16.095228510162386 1.559120577040062 0 0 0 0 21.541017060450944 14.635100628545089 0 14.635100628545089 -9.8259563042589946 0 0 0 0 35.518659018911421 -6.8253377932378498 0 -6.8253377932378498 10.122760756494245 0 0 0 0 -12.324998900996434 309.08340692425827 0 309.08340692425827 -153.36793296602264 0 0 0 0 4.1121318060722842 288.76640197723009 0 288.76640197723009 -249.07195582503482 0 0 0 0 -101.19212068369961 61.601633224450779 0 61.601633224450779 146.76624299940249 0 0 0 0 -1.3670540126976221 -2.1623445066157956 0 -2.1623445066157956 0.018517654663668726 0 0 0 0 -217.85577152087353 257.25168956891139 0 257.25168956891139 -14.150926626709406 0 0 0 0 -214.94418370258063 334.84870328624311 0 334.84870328624311 -280.06067261711536 0 0 0 0 -212.48402893602906 348.70704865725565 0 348.70704865725565 -230.2721175538245 0 0 0 0 17.453139669160009 324.07280469906709 0 324.07280469906709 -312.00052100411631 0 0 0 0 17.687922849265306 291.16932406197611 0 291.16932406197611 -312.43731505360483 0 0 0 0 -99.985670581067097 239.76733098046316 0 239.76733098046316 -236.94915559214951 0 0 0 0 -254.30923654625076 318.47375293417826 0 318.47375293417826 -180.41503106946766 0 0 0 0 -263.76203145284671 357.116391282103 0 357.116391282103 -230.15502623079101 0 0 0 0 -65.007761036540614 448.85766568279178 0 448.85766568279178 -378.65057633113611 0 0 0 0 -156.53849750263907 622.02444267968258 0 622.02444267968258 -573.76520585212711 0 0 0 0 22.802685443588416 351.42468305249713 0 351.42468305249713 -405.27420787310393 0 0 0 0 -294.92813818572904 384.05617158447603 0 384.05617158447603 -572.20573143220827 0 0 0 0 -482.8933093471278 573.17670487353098 0 573.17670487353098 -421.15747643153372 0 0 0 0 294.34322060317936 396.24264896067507 0 396.24264896067507 -412.36879389664136 0 0 0 0 30.75969604459533 366.98312150080619 0 366.98312150080619 -375.29105854956651 0 0 0 0 -58.732925074320519 224.352271501426 0 224.352271501426 -186.02817970797787 0 0 0 0 -26.734254739276366 84.451619318522717 0 84.451619318522717 -14.359504779196868 0 0 0 0 3.8720770291984081 94.16944141152635 0 94.16944141152635 -43.271603280722047 0 0 0 0 110.72391413398145 7.8116082179240038 0 7.8116082179240038 -41.766434601580841 0 0 0 0 -3.8142411367152818 29.366157266551454 0 29.366157266551454 20.520660309106461 0 0 0 0 18.152466277144413 61.703312076650946 0 61.703312076650946 -156.09293635200447 0 0 0 0 -675.8195639380283 487.9375358446523 0 487.9375358446523 -237.82752721775432 0 0 0 0 -605.04887028950179 238.23376280855291 0 238.23376280855291 134.10022515275341 0 0 0 0 -1456.9721813310971 1027.6802149578707 0 1027.6802149578707 -509.91444214207149 0 0 0 0 -707.23757529037539 287.43502653639371 0 287.43502653639371 -488.83847600161971 0 0 0 0 -14.351956969694584 34.807548260143449 0 34.807548260143449 53.973968239144597 0 0 0 0 -30.94959781585203 -64.490512624453913 0 -64.490512624453913 163.60144401793059 0 0 0 0 -200.85277094817138 38.167500527211814 0 38.167500527211814 224.59037970390818 0 0 0 0 -23.302598976501031 106.22133274464795 0 106.22133274464795 -19.171618953357211 0 0 0 0 -1099.7116042232083 1395.0054631142993 0 1395.0054631142993 -901.42565182526596 0 0 0 0 -8.535155713361064 -1.5386519303228852 0 -1.5386519303228852 0.99029394506799662 0 0 0 0 -2434.3388610432157 1182.6905412821416 0 1182.6905412821416 -1184.9148466463084 0 0 0 0 -3.4220152935589567 2.8247993968252274 0 2.8247993968252274 2.9449980665691413 0 0 0 0 -837.01350273482967 1104.4081101339252 0 1104.4081101339252 -1185.4972708824216 0 0 0 0 -730.990744553681 826.47716616785692 0 826.47716616785692 -1615.7636806228584 0 0 0 0 -782.4265042738989 700.22702093435146 0 700.22702093435146 -673.32173466186214 0 0 0 0 -337.93217465101043 747.28529525119666 0 747.28529525119666 -672.90043779951156 0 0 0 0 -539.33897388784681 784.23990445675008 0 784.23990445675008 -343.33258600132831 0 0 0 0 -216.74432956661622 854.3434798812159 0 854.3434798812159 -652.56063449999783 0 0 0 0 -410.71361381281167 633.63592262713792 0 633.63592262713792 -875.22081332949642 0 0 0 0 -984.18596459410037 1166.7671526364866 0 1166.7671526364866 -887.21386851551506 0 0 0 0 -337.84696222667117 254.54848455237789 0 254.54848455237789 -359.74443863486522 0 0 0 0 -297.49645697731466 541.52010774399969 0 541.52010774399969 90.268666931058704 0 0 0 0 -197.45427750463568 546.06213264759754 0 546.06213264759754 -826.94186918956257 0 0 0 0 -829.15340544574428 992.0894261988069 0 992.0894261988069 -196.56647774404337 0 0 0 0 -1313.6524605000195 583.7892140865315 0 583.7892140865315 -539.0743066614159 0 0 0 0 495.85478440380757 -24.353445596166239 0 -24.353445596166239 -227.13119244791596 0 0 0 0 1.5498964816797525 235.75932188234401 0 235.75932188234401 -628.75988939850231 0 0 0 0 69.140360375920864 391.12640744194687 0 391.12640744194687 -301.72207354017883 0 0 0 0 836.48038997915864 -205.65834008426646 0 -205.65834008426646 -57.301093826936267 0 0 0 0 358.62868542262004 124.83864408518457 0 124.83864408518457 413.49534670113644 0 0 0 0 198.08402525745623 -340.52714257483603 0 -340.52714257483603 1295.3039272647711 0 0 0 0 1176.9301040410937 161.39998190866754 0 161.39998190866754 99.868520540846418 0 0 0 0 1.3260520837261538 -4.2912999333327662 0 -4.2912999333327662 13.733042559785602 0 0 0 0 -49.863714839993918 -893.86071685390152 0 -893.86071685390152 246.86372634580039 0 0 0 0 1076.3704052916437 960.94657069792265 0 960.94657069792265 923.04857968158649 0 0 0 0 307.9972085217014 560.34301637153658 0 560.34301637153658 1503.1191690774122 0 0 0 0 356.51702988722536 254.01836849354754 0 254.01836849354754 620.68581657860341 0 0 0 0 -630.19736632451531 287.95225125865727 0 287.95225125865727 96.567298362769179 0 0 0 0 -846.62391812750138 683.72114374521971 0 683.72114374521971 -39.951100686848804 0 0 0 0 -717.94715795511729 383.53530685063561 0 383.53530685063561 1110.2308550398157 0 0 0 0 -118.44481550324417 -349.54687319166806 0 -349.54687319166806 856.95404443823645 0 0 0 0 157.95401880403006 -381.38311475892533 0 -381.38311475892533 558.96059770743159 0 0 0 0 138.23684885265538 -265.0057049272873 0 -265.0057049272873 534.67053703216698 0 0 0 0 -56.929984799411613 -96.581929123211012 0 -96.581929123211012 633.10528681991855 0 0 0 0 -592.57001238811063 -78.541504985711072 0 -78.541504985711072 753.28662302579323 0 0 0 0 -611.64231888452196 109.89369247451395 0 109.89369247451395 410.67930991281173 0 0 0 0 -589.72871896442666 196.20012159513135 0 196.20012159513135 597.69608233072358 0 0 0 0 -791.53883307373326 142.72726804748527 0 142.72726804748527 671.32167506305996 0 0 0 0 -753.94101717215381 316.53212423427613 0 316.53212423427613 622.05496343778213 0 0 0 0 -731.29171577008674 261.90857847108055 0 261.90857847108055 465.87940182234888 0 0 0 0 -984.34873328029062 269.72087659017416 0 269.72087659017416 480.03453710211761 0 0 0 0 -861.01131387379428 282.12981174096421 0 282.12981174096421 519.50201571127764 0 0 0 0 -962.97928589604271 839.68459954552782 0 839.68459954552782 -454.87469964342131 0 0 0 0 -663.2421529332205 430.01139810910354 0 430.01139810910354 -488.54544654726124 0 0 0 0 -879.09257330077526 575.65926978885 0 575.65926978885 -0.84157194000727031 0 0 0 0 -1.0665580041823546 11.74323797198106 0 11.74323797198106 16.518304058703151 0 0 0 0 1.314821972724431 1.8135454362223982 0 1.8135454362223982 2.7876721555365833 0 0 0 0 -1002.652181512778 428.43007164277969 0 428.43007164277969 506.7993684298126 0 0 0 0 -821.91579598854878 196.07365126443256 0 196.07365126443256 -102.80995986437483 0 0 0 0 4.3769061649488776 8.6811850695025541 0 8.6811850695025541 8.3305497194186273 0 0 0 0 545.64378819071862 688.97690748375135 0 688.97690748375135 831.89043458405285 0 0 0 0 392.61305417629774 461.69064833374796 0 461.69064833374796 947.85880119862122 0 0 0 0 1315.3866121915344 823.44780040516707 0 823.44780040516707 561.38714007981616 0 0 0 0 546.14953040205 270.33810229639494 0 270.33810229639494 474.50210922058614 0 0 0 0 556.18399569253961 452.26584496458963 0 452.26584496458963 1803.0240462521178 0 0 0 0 977.30325714201899 446.22580691722214 0 446.22580691722214 173.09384850134666 0 0 0 0 1006.2382387502912 293.33122131952132 0 293.33122131952132 -81.011600500940403 0 0 0 0 631.18259003707499 413.0125323148859 0 413.0125323148859 170.23400172606216 0 0 0 0 1544.9164974607411 -65.258894726026483 0 -65.258894726026483 35.899697829638171 0 0 0 0 741.49625381625083 -188.63029301411734 0 -188.63029301411734 17.559062927665764 0 0 0 0 301.28696580894757 -81.254760182162499 0 -81.254760182162499 48.401069582974742 0 0 0 0 665.30013330587099 123.07399111301129 0 123.07399111301129 -105.52811580794878 0 0 0 0 546.60047741547169 198.62952296726507 0 198.62952296726507 -96.013296101776177 0 0 0 0 618.08773661065061 293.71180384836589 0 293.71180384836589 -88.86025973399228 0 0 0 0 506.88784384826067 232.67570945955231 0 232.67570945955231 -98.895989343189285 0 0 0 0 422.92421720106358 280.02855894919594 0 280.02855894919594 -88.854813549602113 0 0 0 0 295.56426158890099 140.13096903051337 0 140.13096903051337 -52.236380962916883 0 0 0 0 406.82446166389491 112.06073588338222 0 112.06073588338222 -105.43145029941297 0 0 0 0 234.78502773159198 -37.171845727220898 0 -37.171845727220898 -5.8264277130074333 0 0 0 0 4.4858288592814404 21.026086674710626 0 21.026086674710626 14.66993565851682 0 0 0 0 -8.3691600215242943 33.873776711296159 0 33.873776711296159 11.60988956455185 0 0 0 0 -12.284955570222877 24.041914866254871 0 24.041914866254871 10.470964114006478 0 0 0 0 -747.63927098301792 1013.0428072346176 0 1013.0428072346176 -1334.6461251512665 0 0 0 0 -1125.1772288519696 1244.5117033980459 0 1244.5117033980459 -786.1203295598134 0 0 0 0 -15.492743252587388 24.363149891556532 0 24.363149891556532 7.6979048383163899 0 0 0 0 4.6833752077988322 17.175264755147424 0 17.175264755147424 15.178842289535162 0 0 0 0 -729.77212781037088 545.36285527199834 0 545.36285527199834 -571.38341327076341 0 0 0 0 214.76351525220161 49.584710082775018 0 49.584710082775018 -7.4501435276179109 0 0 0 0 15.278987077897213 18.370512648910292 0 18.370512648910292 5.98028004282871 0 0 0 0 -28.941099477524403 38.429708738205591 0 38.429708738205591 -1.0486142805748386 0 0 0 0 103.29497126973001 72.980663753085537 0 72.980663753085537 38.060115483818663 0 0 0 0 0.35495703793202438 -2.2545943013230385 0 -2.2545943013230385 -0.73987712602049882 0 0 0 0 -0.68607407001525189 -0.6178189440987687 0 -0.6178189440987687 1.336895349167218 0 0 0 0 4.9224357071036025 6.781128784931667 0 6.781128784931667 4.7365493085285806 0 0 0 0 -33.753655691500171 5.2289406581912772 0 5.2289406581912772 11.80937747660937 0 0 0 0 -10.21515829981945 117.02868110860436 0 117.02868110860436 -140.86075771265769 0 0 0 0 6.4470162009383785 -48.516420088877567 0 -48.516420088877567 -24.460575608944055 0 0 0 0 -46.979744248521456 92.110046509307722 0 92.110046509307722 -145.25003583605576 0 0 0 0 237.890453907341 -2.1052056743283174 0 -2.1052056743283174 -46.76932110834241 0 0 0 0 0.31548312544327928 117.57481597872902 0 117.57481597872902 104.59489322196896 0 0 0 0 159.25187500492029 296.82675835423652 0 296.82675835423652 279.16024558607023 0 0 0 0 371.03275793406647 485.19289282803948 0 485.19289282803948 413.39074102606537 0 0 0 0 407.34802754726843 178.20937452842554 0 178.20937452842554 117.06408825746257 0 0 0 0 231.10716846025025 486.81208440793489 0 486.81208440793489 163.43007804804802 0 0 0 0 0.23786924538580934 394.15536762221745 0 394.15536762221745 626.67514427292917 0 0 0 0 174.60376236496813 599.2586235073768 0 599.2586235073768 225.0183085762983 0 0 0 0 119.49679406767063 497.67884761631944 0 497.67884761631944 131.97375189232116 0 0 0 0 124.35388637255528 557.37142397025673 0 557.37142397025673 192.67576823420677 0 0 0 0 -84.598657760234346 322.3302374804216 0 322.3302374804216 133.38985889240575 0 0 0 0 -226.92571703519206 189.05408643690134 0 189.05408643690134 301.40138154431042 0 0 0 0 -31.591500099835685 516.18137665335598 0 516.18137665335598 469.58703434806375 0 0 0 0 2.8293685704409341 2.9480391860620898 0 2.9480391860620898 1.4191505974102796 0 0 0 0 -39.926062228172668 131.29386507194067 0 131.29386507194067 8.9597126036715053 0 0 0 0 -29.106683994774357 261.96964047050642 0 261.96964047050642 85.438983715481299 0 0 0 0 -7.9098757942701923 290.72801873015123 0 290.72801873015123 103.2035972780559 0 0 0 0 41.747546984639484 441.43017769707876 0 441.43017769707876 233.23655136727029 0 0 0 0 14.088449503920856 355.04483218184396 0 355.04483218184396 151.3646133415059 0 0 0 0 55.977873327843554 328.90447850774262 0 328.90447850774262 54.942095294798492 0 0 0 0 -0.82736315079091582 279.2411479140319 0 279.2411479140319 89.501397799480401 0 0 0 0 47.922928943433362 298.15237275072559 0 298.15237275072559 22.183991072517529 0 0 0 0 -64.302106229413766 247.88572861659486 0 247.88572861659486 41.734418286301661 0 0 0 0 -0.025632705532188993 262.03003471886859 0 262.03003471886859 -102.68757072721928 0 0 0 0 -66.539987556650885 265.48952707572244 0 265.48952707572244 -329.49648213465116 0 0 0 0 -2.0192402451357339 140.39370207533466 0 140.39370207533466 -94.319183824346965 0 0 0 0 8.9439196547536994 152.43518680355464 0 152.43518680355464 -161.00812321185367 0 0 0 0 -3.4966747032449348 89.242615737372034 0 89.242615737372034 -214.57732990767545 0 0 0 0 -14.189028054002847 8.861990613875605 0 8.861990613875605 -60.288935655789828 0 0 0 0 4.672546963331456 3.424804041529061 0 3.424804041529061 1.2679482802550659 0 0 0 0 1.2845700154220694 3.1840549931145006 0 3.1840549931145006 -1.6762890076695527 0 0 0 0 28.516627173754387 -60.28579865149004 0 -60.28579865149004 -291.08242859584743 0 0 0 0 -65.363175281745498 128.87668422927345 0 128.87668422927345 -196.04967726361792 0 0 0 0 -174.1440689656647 243.10382539196507 0 243.10382539196507 -314.77213879963529 0 0 0 0 52.112232905397832 130.08667643192894 0 130.08667643192894 -344.9987585584222 0 0 0 0 50.421664165776747 86.189044334529171 0 86.189044334529171 -326.62154850250772 0 0 0 0 54.435951502891839 121.79346923371122 0 121.79346923371122 -284.84025045075759 0 0 0 0 -172.1410043462165 59.698238257314188 0 59.698238257314188 -200.25059748536296 0 0 0 0 13.377468250982929 103.43712011148455 0 103.43712011148455 -292.95390976533599 0 0 0 0 15.239287026139209 107.41983738004274 0 107.41983738004274 -459.58753239047292 0 0 0 0 -12.858086142063257 182.51560658842573 0 182.51560658842573 -101.86180653996053 0 0 0 0 -34.546259609414847 191.69381940944731 0 191.69381940944731 -105.4724836349742 0 0 0 0 -40.286573970646714 108.47653021307451 0 108.47653021307451 -183.48434281980735 0 0 0 0 53.823804448082228 199.03911082132618 0 199.03911082132618 -121.49651598077617 0 0 0 0 39.515335393618443 258.41888601328355 0 258.41888601328355 -25.516151501688 0 0 0 0 -24.82612786507525 206.01009431910825 0 206.01009431910825 -23.432178415554517 0 0 0 0 37.60893516636861 284.71303597947553 0 284.71303597947553 33.690945992477282 0 0 0 0 92.923538857430685 239.16257617898555 0 239.16257617898555 -107.93351656530649 0 0 0 0 35.729616171176303 229.15519752964411 0 229.15519752964411 -77.218215530629095 0 0 0 0 44.237223228628864 151.40586585082201 0 151.40586585082201 -208.78578867215401 0 0 0 0 64.571640524067334 150.61933787556336 0 150.61933787556336 -209.59018561834091 0 0 0 0 120.6424551604141 252.04321645533855 0 252.04321645533855 -286.76127326984715 0 0 0 0 188.09941059545963 175.53519841449997 0 175.53519841449997 -318.91149997579669 0 0 0 0 73.591485816214117 230.52749445998415 0 230.52749445998415 -145.09590733797086 0 0 0 0 93.638461202675671 216.46689520619617 0 216.46689520619617 -212.01409717760544 0 0 0 0 100.53085300997191 260.75533732075928 0 260.75533732075928 -267.9070114048227 0 0 0 0 100.45559045653499 267.5090762739037 0 267.5090762739037 -219.53316870228809 0 0 0 0 200.72716020280495 211.56310925360958 0 211.56310925360958 -428.09967448927273 0 0 0 0 229.11756056455488 333.66690289837061 0 333.66690289837061 -416.05414161747467 0 0 0 0 149.67224344356509 110.60135834851644 0 110.60135834851644 -320.67372538798372 0 0 0 0 284.4547302620158 -32.823183135419185 0 -32.823183135419185 -371.24528575756267 0 0 0 0 481.86788849566074 196.25097964902125 0 196.25097964902125 -461.36468809605412 0 0 0 0 2.9587817488757082 -0.87833344501718003 0 -0.87833344501718003 -0.43095268627670613 0 0 0 0 139.37592452338868 182.90962700969794 0 182.90962700969794 115.53853671173056 0 0 0 0 378.78893569617503 98.678802419223757 0 98.678802419223757 108.21407497905966 0 0 0 0 213.74107612255466 196.76555840341098 0 196.76555840341098 175.70558844783227 0 0 0 0 355.24290534143802 72.708027544615106 0 72.708027544615106 130.14061603175242 0 0 0 0 381.07012039084657 90.481417979130129 0 90.481417979130129 124.95392719597294 0 0 0 0 270.256040157401 267.84401194789461 0 267.84401194789461 642.73575236540455 0 0 0 0 345.6653295143642 -103.25123987482198 0 -103.25123987482198 532.62995403898822 0 0 0 0 253.63312317010423 316.99636555804318 0 316.99636555804318 720.74356024977715 0 0 0 0 214.95590993390942 179.68055711479519 0 179.68055711479519 559.76010800281801 0 0 0 0 267.6253837723707 340.55159036667828 0 340.55159036667828 534.30400761574856 0 0 0 0 188.80092267668806 313.43135077816078 0 313.43135077816078 450.59565418889633 0 0 0 0 192.55657917499775 291.92187455872408 0 291.92187455872408 527.63966251175589 0 0 0 0 158.11203334196762 229.51802934043371 0 229.51802934043371 478.58689431448511 0 0 0 0 306.79616046724914 47.603342832608632 0 47.603342832608632 393.8909274996804 0 0 0 0 212.96882452203135 247.0268222557861 0 247.0268222557861 401.16270999226617 0 0 0 0 151.43871613581723 246.43188216728595 0 246.43188216728595 316.75344221615887 0 0 0 0 170.67340987921853 217.41449786529665 0 217.41449786529665 344.82499791730879 0 0 0 0 133.62030060921825 308.9993695182975 0 308.9993695182975 459.42299732290849 0 0 0 0 154.66376441993634 292.05331368482621 0 292.05331368482621 477.02834228692154 0 0 0 0 152.66038268766715 317.54586148131057 0 317.54586148131057 407.2876346192661 0 0 0 0 335.76509488080046 385.4272103695148 0 385.4272103695148 448.98524895481751 0 0 0 0 186.36487084059627 265.53907899430487 0 265.53907899430487 353.28358346078494 0 0 0 0 145.31613471079618 287.4664834469113 0 287.4664834469113 342.27612582248003 0 0 0 0 220.80080341095527 186.9062397825146 0 186.9062397825146 49.067963271641929 0 0 0 0 148.69787699467634 160.45261917910403 0 160.45261917910403 135.01448696953594 0 0 0 0 128.19818724614743 160.14778636131268 0 160.14778636131268 147.52877986552267 0 0 0 0 67.916139355835185 -22.82314481041476 0 -22.82314481041476 -36.624308144295355 0 0 0 0 41.998559706007654 1.0622176175038476 0 1.0622176175038476 62.955539246722765 0 0 0 0 28.140749299505842 32.902918480772314 0 32.902918480772314 -7.3288533376435225 0 0 0 0 119.63828305870993 123.61034996590752 0 123.61034996590752 136.74933071649139 0 0 0 0 156.67846489710792 81.411580123667591 0 81.411580123667591 184.49252698682176 0 0 0 0 1.0796723162347917 -44.872043062703597 0 -44.872043062703597 73.501869989106126 0 0 0 0 -43.374631314363796 -43.342126649742568 0 -43.342126649742568 4.9265730929582787 0 0 0 0 44.030283344378404 -17.76548262027336 0 -17.76548262027336 -66.792272208967916 0 0 0 0 6.0458880000870181 0.16535201605074334 0 0.16535201605074334 -0.77801092397243643 0 0 0 0 6.8873849751980742 3.2483271685232467 0 3.2483271685232467 -0.51635691658520955 0 0 0 0 1.1543858723770448 3.448454981345634 0 3.448454981345634 1.2857505316812308 0 0 0 0 1.4620840662100818 5.4346124361418333 0 5.4346124361418333 1.7798891853058194 0 0 0 0 -66.502122088597389 96.759996063572544 0 96.759996063572544 -75.893579697578389 0 0 0 0 4.4256613016071356 4.3474074314210895 0 4.3474074314210895 0.089644241035514938 0 0 0 0 -164.22375774764078 118.13279879237143 0 118.13279879237143 -23.765277543208867 0 0 0 0 -77.515081298923178 105.43593050700474 0 105.43593050700474 -74.587885171709786 0 0 0 0 -133.43296221670607 -23.734991904135313 0 -23.734991904135313 74.306741263993899 0 0 0 0 0.017015488354928721 3.258430381457913 0 3.258430381457913 1.3820281418784788 0 0 0 0 2.9829387121295383 3.9911782063496304 0 3.9911782063496304 2.2787511330065371 0 0 0 0 2.0776006418454926 7.6633721333964786 0 7.6633721333964786 0.63952473844119595 0 0 0 0 -0.19661816639589347 4.4987499888308378 0 4.4987499888308378 3.9346035442987954 0 0 0 0 1.3261044945869571 1.6253262736366025 0 1.6253262736366025 -0.24012917580681403 0 0 0 0 -309.95854086000782 98.029637401523587 0 98.029637401523587 20.928785411648278 0 0 0 0 -556.39713218568068 -39.434669129968825 0 -39.434669129968825 231.37148160574725 0 0 0 0 -0.0028130347636761144 -22.138588539404736 0 -22.138588539404736 141.07814511259494 0 0 0 0 -0.47262524266045958 2.4634012970176684 0 2.4634012970176684 2.2192087673325176 0 0 0 0 342.75931111414684 391.95795018231183 0 391.95795018231183 256.54398352363296 0 0 0 0 -156.01974601473921 115.19287531953842 0 115.19287531953842 138.97495270308355 0 0 0 0 -154.41754267839133 104.65056607543738 0 104.65056607543738 -3.1932078783847828 0 0 0 0 -120.20123352018709 115.9526138986912 0 115.9526138986912 -30.661941947011655 0 0 0 0 -116.10495874976186 126.32469293757276 0 126.32469293757276 -4.4101405141009309 0 0 0 0 -37.987261601228965 153.02719393503776 0 153.02719393503776 3.0669391450528565 0 0 0 0 -0.032894857627979945 186.1972192778785 0 186.1972192778785 107.21968691104939 0 0 0 0 -50.898668702450777 103.28950167393509 0 103.28950167393509 19.598422043029132 0 0 0 0 -0.029997328754689079 159.18047557936188 0 159.18047557936188 -33.59903692313128 0 0 0 0 -29.754232118917571 112.00885195707087 0 112.00885195707087 -98.009953891465557 0 0 0 0 -39.339851415104931 141.53926488888465 0 141.53926488888465 -53.356881846599208 0 0 0 0 -42.825178938743193 84.778155006239103 0 84.778155006239103 -110.76800555739965 0 0 0 0 -33.451182328972209 104.48848895132505 0 104.48848895132505 -95.993760262288561 0 0 0 0 0.0022326207181322388 119.62034450884767 0 119.62034450884767 -215.06023307390933 0 0 0 0 -16.073705793758563 242.66969349801184 0 242.66969349801184 383.36058611622138 0 0 0 0 -7.3741803101293044 267.76602785491195 0 267.76602785491195 359.02568389389307 0 0 0 0 -41.062125438125804 253.46687085612848 0 253.46687085612848 352.96930408007574 0 0 0 0 -0.035844871876179241 249.85458667360172 0 249.85458667360172 345.89925793030307 0 0 0 0 -42.169728189954185 216.16082598081357 0 216.16082598081357 325.19805035106765 0 0 0 0 -0.063157261358398331 222.7466914649504 0 222.7466914649504 282.32946082615854 0 0 0 0 -60.923214069793175 130.09375513613031 0 130.09375513613031 187.8778413417167 0 0 0 0 -88.908617449553276 195.71035437049295 0 195.71035437049295 311.23299471441351 0 0 0 0 -44.048156850699797 254.95357223369359 0 254.95357223369359 353.3106303369932 0 0 0 0 -63.019377998760319 203.65761272137661 0 203.65761272137661 300.41278509850781 0 0 0 0 19.720471671942505 314.29624583536861 0 314.29624583536861 372.89393917531743 0 0 0 0 -122.3086582593096 269.95459819603138 0 269.95459819603138 401.0057553179322 0 0 0 0 -253.44835880901883 249.41809405756567 0 249.41809405756567 483.85325039933741 0 0 0 0 38.133429927998804 338.01467906784455 0 338.01467906784455 401.31943018295533 0 0 0 0 -107.10928151951521 109.93211662254726 0 109.93211662254726 137.7077797958807 0 0 0 0 69.49371425985737 283.46399571469465 0 283.46399571469465 446.60513013300988 0 0 0 0 479.38454329572778 550.08611499924291 0 550.08611499924291 436.06611442554276 0 0 0 0 157.03391906063189 406.48831329788845 0 406.48831329788845 603.87408602353753 0 0 0 0 148.56553082329629 332.44008164852858 0 332.44008164852858 366.09729378339398 0 0 0 0 65.111836543728714 323.20638208534001 0 323.20638208534001 368.53625428403029 0 0 0 0 148.45356253891077 316.32554976903521 0 316.32554976903521 332.98443773536019 0 0 0 0 77.353620202906313 290.19474807161714 0 290.19474807161714 324.33764324066578 0 0 0 0 70.488970969541697 307.00178452026466 0 307.00178452026466 350.13705818602239 0 0 0 0 41.703876185005356 293.28542287545042 0 293.28542287545042 354.62190370750977 0 0 0 0 -33.226937927596737 297.07553645699591 0 297.07553645699591 379.65941733633554 0 0 0 0 25.98334387903742 274.97052878502836 0 274.97052878502836 345.66348983791613 0 0 0 0 1.5029610816563945 269.84962332397185 0 269.84962332397185 333.06425355802639 0 0 0 0 7.4610060491395416 278.7396493493261 0 278.7396493493261 345.69172046254954 0 0 0 0 63.986698074673768 224.51980795197778 0 224.51980795197778 303.33369602537095 0 0 0 0 97.926925621417467 269.4978740201218 0 269.4978740201218 301.92550796137584 0 0 0 0 147.88180916970305 284.08010595152882 0 284.08010595152882 306.07800342888731 0 0 0 0 201.84656377925421 272.0868714301705 0 272.0868714301705 272.80658242430218 0 0 0 0 168.02822410684894 248.13174914424599 0 248.13174914424599 287.472238977909 0 0 0 0 167.81204540171893 262.67318289273226 0 262.67318289273226 270.70378910368527 0 0 0 0 218.94812061759876 278.33670806408099 0 278.33670806408099 210.86761725849647 0 0 0 0 206.32525166172127 276.71642080325546 0 276.71642080325546 227.19604523504495 0 0 0 0 178.89391242720012 310.36598608628037 0 310.36598608628037 302.48172157632871 0 0 0 0 198.56578852430539 333.23294853605194 0 333.23294853605194 248.14537244738858 0 0 0 0 181.49001933548425 308.0222741918169 0 308.0222741918169 318.23627971451606 0 0 0 0 183.46143407381533 315.09146879851119 0 315.09146879851119 299.79605511878981 0 0 0 0 148.43310791553813 285.14591811369064 0 285.14591811369064 282.1328292977305 0 0 0 0 144.96556828200119 299.66383697009587 0 299.66383697009587 336.29443164811528 0 0 0 0 172.2773089617549 319.72701296786545 0 319.72701296786545 348.05791117881381 0 0 0 0 140.09241493754234 289.76275532118598 0 289.76275532118598 403.11985185445519 0 0 0 0 185.8619711107749 307.68995328355231 0 307.68995328355231 445.8784366773798 0 0 0 0 166.29337039013626 325.28435484299007 0 325.28435484299007 431.77768353066313 0 0 0 0 153.54625514597137 300.78431974553496 0 300.78431974553496 442.55548551037646 0 0 0 0 165.51445763268566 316.14213662916245 0 316.14213662916245 449.61978848579383 0 0 0 0 160.59822460288706 314.4472239609222 0 314.4472239609222 484.66592985907118 0 0 0 0 172.46928823007329 336.79744377747738 0 336.79744377747738 477.09878660581307 0 0 0 0 153.02984115559957 307.96587956617259 0 307.96587956617259 459.37301117362119 0 0 0 0 151.96641153979726 311.22040234939413 0 311.22040234939413 449.77845296334999 0 0 0 0 165.59495097358013 326.86616504485028 0 326.86616504485028 448.41832785125098 0 0 0 0 196.64950573822716 324.75965894202272 0 324.75965894202272 389.51888809395678 0 0 0 0 166.90541728321114 318.63441417493777 0 318.63441417493777 394.03171611672587 0 0 0 0 165.85267868968367 308.93726370240029 0 308.93726370240029 390.29981617732119 0 0 0 0 186.65348759981862 330.41551650174006 0 330.41551650174006 324.50352935501814 0 0 0 0 180.81086132849305 323.1139826440035 0 323.1139826440035 389.36593038011051 0 0 0 0 234.31305202185467 294.95344861528974 0 294.95344861528974 318.4999394805327 0 0 0 0 274.897374654327 328.6686875194855 0 328.6686875194855 381.13423535546826 0 0 0 0 218.05439620237303 361.81278247313548 0 361.81278247313548 453.59704609162509 0 0 0 0 193.26095031993464 321.02561512108332 0 321.02561512108332 457.41267602030871 0 0 0 0 256.48448532638577 386.15380666405872 0 386.15380666405872 516.50848979186048 0 0 0 0 371.24422635944211 415.95073070518811 0 415.95073070518811 458.28277399101626 0 0 0 0 453.80325108699617 479.37130516135221 0 479.37130516135221 576.95765054543517 0 0 0 0 299.94233817113854 354.94048337073218 0 354.94048337073218 477.6271312313329 0 0 0 0 537.21105167655332 354.12165748473126 0 354.12165748473126 309.47278873653704 0 0 0 0 329.78516792312439 359.29315789320026 0 359.29315789320026 361.74492158995508 0 0 0 0 375.09614169793349 272.53464231773114 0 272.53464231773114 268.44020906852893 0 0 0 0 14.081585330714006 -29.926892115043302 0 -29.926892115043302 106.69836848674458 0 0 0 0 340.91018548647116 281.05570972768737 0 281.05570972768737 267.54004274110412 0 0 0 0 335.19871399574913 250.34654563828553 0 250.34654563828553 233.70709024317694 0 0 0 0 -1.8694918762454904 -9.4686446993871414 0 -9.4686446993871414 43.698673797883288 0 0 0 0 -5.5537527388154899 23.511159693847986 0 23.511159693847986 -27.718290126596351 0 0 0 0 221.12136165227275 320.33104214614286 0 320.33104214614286 301.20978007808844 0 0 0 0 229.03856129795895 344.52982815451469 0 344.52982815451469 314.82596588409433 0 0 0 0 226.35578968265327 300.62010019010631 0 300.62010019010631 217.1012465663116 0 0 0 0 146.51627106875253 251.95781068476916 0 251.95781068476916 247.20013396411014 0 0 0 0 147.80335734618711 380.84568142715034 0 380.84568142715034 184.59854100817029 0 0 0 0 208.71406848034894 225.96851286012543 0 225.96851286012543 -22.799889322326635 0 0 0 0 -9.2066318206489086 50.100406840596406 0 50.100406840596406 154.88306760235901 0 0 0 0 -161.09153780790803 259.64529070114259 0 259.64529070114259 296.1834191738526 0 0 0 0 96.201758233917644 284.09467737372233 0 284.09467737372233 -119.13527574920954 0 0 0 0 -5.1926678945310414 59.066019485229845 0 59.066019485229845 435.45943364607592 0 0 0 0 71.400976568140322 431.02408280511554 0 431.02408280511554 1006.420359284235 0 0 0 0 2.1225707493835557 5.80514535440755 0 5.80514535440755 -6.0027727582086401 0 0 0 0 215.01686677851831 18.292083254411409 0 18.292083254411409 46.360948400559209 0 0 0 0 408.92610969973612 421.36764911511636 0 421.36764911511636 300.85865906952677 0 0 0 0 -58.961538928822847 -53.694514101496679 0 -53.694514101496679 167.4688617341526 0 0 0 0 78.302886587698595 -75.324656247941675 0 -75.324656247941675 -387.89103581470408 0 0 0 0 -148.86485543794697 -354.68799622185725 0 -354.68799622185725 -113.35688446851752 0 0 0 0 -3.7841610652482416 3.8376208594002179 0 3.8376208594002179 11.475667770132269 0 0 0 0 -67.042715723466245 29.395098213292727 0 29.395098213292727 166.12252613511549 0 0 0 0 -22.6321522689245 20.576263131092958 0 20.576263131092958 -11.487721606822539 0 0 0 0 258.5773898876796 379.72615089893588 0 379.72615089893588 412.71952263394269 0 0 0 0 -112.99389340676134 -71.779989212953751 0 -71.779989212953751 160.01819761579972 0 0 0 0 65.174324588064337 445.79082542565357 0 445.79082542565357 437.32158426806114 0 0 0 0 161.52625735275797 191.15735796818444 0 191.15735796818444 310.44631944946104 0 0 0 0 9.2016831193759572 131.2333558304008 0 131.2333558304008 444.65482819591307 0 0 0 0 114.65692101520835 301.09859413084905 0 301.09859413084905 511.83090832654398 0 0 0 0 143.81268564735365 221.38658270299038 0 221.38658270299038 316.19329527194532 0 0 0 0 -16.531034201982749 15.865831958637628 0 15.865831958637628 -11.963673493049757 0 0 0 0 13.437660366551427 144.30774453610121 0 144.30774453610121 -120.37129429968195 0 0 0 0 44.411196276167175 169.77986534644026 0 169.77986534644026 -378.73741414002143 0 0 0 0 58.353282430791296 11.914209342644199 0 11.914209342644199 -185.17719426171152 0 0 0 0 5.7749749229697045 66.183328008910166 0 66.183328008910166 -172.63863462578422 0 0 0 0 -169.60492587881163 40.853571594037703 0 40.853571594037703 -167.61950259399805 0 0 0 0 -32.171786641338258 -39.785196387703877 0 -39.785196387703877 54.656376689161789 0 0 0 0 -2.3308508459906534 1.1753997337605071 0 1.1753997337605071 -0.47812647268307817 0 0 0 0 -89.981811181445664 136.52490505857349 0 136.52490505857349 -250.81038495220764 0 0 0 0 -38.469269242545124 63.349553367373659 0 63.349553367373659 -319.98225767715235 0 0 0 0 -105.71442090830533 66.588185933400837 0 66.588185933400837 -165.44783736254612 0 0 0 0 -103.73091238867346 52.996948178157538 0 52.996948178157538 -101.12886781451289 0 0 0 0 -144.01635731304123 131.61780589390264 0 131.61780589390264 -102.78895445143257 0 0 0 0 -129.90878851565139 105.90670680197562 0 105.90670680197562 -76.867703601216817 0 0 0 0 -128.06062198621839 121.53515980600176 0 121.53515980600176 -131.61820459927549 0 0 0 0 -117.88087481186449 74.873729600306945 0 74.873729600306945 -131.44370179744919 0 0 0 0 -57.262795698923583 66.625456828852521 0 66.625456828852521 -133.20561173990018 0 0 0 0 -104.49023177867639 116.74593096726335 0 116.74593096726335 -143.53421979453208 0 0 0 0 -84.675655719009228 121.02151896324767 0 121.02151896324767 -132.60890917069719 0 0 0 0 -71.931767348956782 89.675829762499234 0 89.675829762499234 -149.53813618935817 0 0 0 0 -110.65134808723815 142.28057094896144 0 142.28057094896144 -149.9452157442006 0 0 0 0 -104.1068173442909 184.2506492204684 0 184.2506492204684 -295.2290967172089 0 0 0 0 -19.131377442041412 58.33447986301735 0 58.33447986301735 -290.71328161453675 0 0 0 0 -108.71330031454272 340.01421495527421 0 340.01421495527421 369.32518790935671 0 0 0 0 -6.5963133586638207 1.3924344985346622 0 1.3924344985346622 -0.54627374320346989 0 0 0 0 -25.042041085514938 41.107657134435613 0 41.107657134435613 -245.67618277947508 0 0 0 0 -10.380928642814979 64.603298931399351 0 64.603298931399351 17.314865112733514 0 0 0 0 35.107792267142941 2.0295810334273199 0 2.0295810334273199 23.542781773076683 0 0 0 0 -18.072713259643109 7.4031273900571293 0 7.4031273900571293 0.099198012285138581 0 0 0 0 -28.695050917944172 10.253988393263171 0 10.253988393263171 17.411256497724025 0 0 0 0 -14.9557391596245 -23.949999760024696 0 -23.949999760024696 -36.997051221038873 0 0 0 0 -18.104202550879563 21.016583092233986 0 21.016583092233986 -7.8652267753551541 0 0 0 0 -1.9527614573380561 61.795028579800089 0 61.795028579800089 8.1865777980547136 0 0 0 0 -4.500850453885505 85.551371333907923 0 85.551371333907923 -141.37126575651359 0 0 0 0 146.60709993357887 101.41219204082358 0 101.41219204082358 -165.15826985068065 0 0 0 0 -9.76435968754231 43.89176751635307 0 43.89176751635307 -183.6331205946808 0 0 0 0 41.527177119904081 -4.4167461380528721 0 -4.4167461380528721 -41.029420710172644 0 0 0 0 159.89567078888649 -35.123468965832444 0 -35.123468965832444 -226.95893878620893 0 0 0 0 271.62753005834384 191.36895212760413 0 191.36895212760413 -82.653742317852675 0 0 0 0 -2.9537113379214759 1.8631717727394204 0 1.8631717727394204 3.2148601276109172 0 0 0 0 94.314890863242908 362.61685985100075 0 362.61685985100075 -169.94844282569284 0 0 0 0 -44.834893841238227 196.4637980306735 0 196.4637980306735 344.43653225463851 0 0 0 0 98.583442752933479 41.112252521289975 0 41.112252521289975 -316.96869266565932 0 0 0 0 -189.87208189473313 -157.40905141872963 0 -157.40905141872963 -217.28526221586117 0 0 0 0 186.65298429222821 340.82565924426376 0 340.82565924426376 459.06378294751448 0 0 0 0 149.04316354150069 234.55416026961666 0 234.55416026961666 428.10346074780182 0 0 0 0 -9.5299661081180318 9.2851960278753154 0 9.2851960278753154 -6.9982467311827232 0 0 0 0 73.549739724854589 -156.88111747983442 0 -156.88111747983442 -388.21223924594108 0 0 0 0 -4.911038495003595 -48.211531240386535 0 -48.211531240386535 -196.19633044418583 0 0 0 0 169.69405860111874 218.80083617501214 0 218.80083617501214 348.95047693171 0 0 0 0 178.16973812310607 176.37363723676935 0 176.37363723676935 215.61904036639885 0 0 0 0 178.9205786049497 239.39159893838519 0 239.39159893838519 338.76648501329691 0 0 0 0 185.63958555184217 226.9641096516018 0 226.9641096516018 304.91574246243181 0 0 0 0 167.73376319232921 282.65533314232653 0 282.65533314232653 349.99708025178552 0 0 0 0 167.97422609183553 244.85726594372727 0 244.85726594372727 315.1131217912698 0 0 0 0 55.857593423745129 297.97902213473617 0 297.97902213473617 328.8971046749266 0 0 0 0 111.4522893428657 258.55082581298484 0 258.55082581298484 317.38910804064199 0 0 0 0 110.8738336095812 249.66029197531836 0 249.66029197531836 277.8115102318061 0 0 0 0 70.871974150006281 246.51230665038815 0 246.51230665038815 26.130159730761989 0 0 0 0 -0.028443096770843113 -1.2498357682827947 0 -1.2498357682827947 0.48084990464668786 0 0 0 0 78.867415086191613 253.38360356699195 0 253.38360356699195 393.35109619390278 0 0 0 0 177.21220979773534 233.54982919431225 0 233.54982919431225 392.56970022521637 0 0 0 0 26.906468866829528 -297.9055064945552 0 -297.9055064945552 -747.14018155860413 0 0 0 0 -3.706347728122239 2.4760198652895866 0 2.4760198652895866 -1.6497914210311349 0 0 0 0 33.225055068513029 339.47885239905827 0 339.47885239905827 558.7758645399615 0 0 0 0 170.64119845304594 147.36611367545964 0 147.36611367545964 -615.45735722805284 0 0 0 0 -165.72355592282838 129.60804078668252 0 129.60804078668252 516.86793081387987 0 0 0 0 109.22565874514839 56.277446843670305 0 56.277446843670305 21.650454526774411 0 0 0 0 -26.639275298453867 445.88472634735228 0 445.88472634735228 578.55879022411727 0 0 0 0 108.94635275073233 202.96766298979037 0 202.96766298979037 -21.837504412519365 0 0 0 0 109.1352949508946 201.91503610888094 0 201.91503610888094 -17.455921076918457 0 0 0 0 79.794672543825072 15.908546420333536 0 15.908546420333536 208.53213893228713 0 0 0 0 0.14623324455169495 224.77784861078248 0 224.77784861078248 138.28809404887795 0 0 0 0 -31.453834140476829 207.99906823618676 0 207.99906823618676 534.84373901168101 0 0 0 0 -0.028588571979412336 -1.2421875279459513 0 -1.2421875279459513 0.55078066196275444 0 0 0 0 -31.0417105000015 184.0810519227598 0 184.0810519227598 320.44096419542529 0 0 0 0 0.09044758037032094 260.3446765519663 0 260.3446765519663 390.40041844478947 0 0 0 0 -94.086030620426754 277.73815810202359 0 277.73815810202359 -177.84694432184162 0 0 0 0 -17.092993435653625 241.24643315449066 0 241.24643315449066 -236.96614647087699 0 0 0 0 -79.678931886010105 300.92265422041237 0 300.92265422041237 -193.5062281713399 0 0 0 0 6.6862161547178403 288.50807790161343 0 288.50807790161343 -193.2951160598368 0 0 0 0 -47.465454256045632 395.24658391960475 0 395.24658391960475 52.820124557896634 0 0 0 0 -222.7935525381763 210.12372573129687 0 210.12372573129687 72.260706573324569 0 0 0 0 -77.11579411913408 288.08973821441396 0 288.08973821441396 -177.87201365750568 0 0 0 0 -73.372664991407817 30.657699539960674 0 30.657699539960674 41.074746755119122 0 0 0 0 -15.899656950641656 32.280508399760492 0 32.280508399760492 0.032896034973532551 0 0 0 0 -0.96805540598973039 51.314934375330971 0 51.314934375330971 50.751605077726879 0 0 0 0 -40.492767693125643 25.16922792965488 0 25.16922792965488 87.957551963419689 0 0 0 0 -64.119717375666369 117.51219175950973 0 117.51219175950973 87.444185024965918 0 0 0 0 -72.816619275074061 119.52134174519281 0 119.52134174519281 90.172952239108781 0 0 0 0 -39.788139666697447 27.64507035077408 0 27.64507035077408 13.746704980556053 0 0 0 0 -41.127639867263497 189.48882678365771 0 189.48882678365771 -335.14020903111668 0 0 0 0 -32.642964700127948 56.863105645432981 0 56.863105645432981 13.082731679932468 0 0 0 0 -27.945553612691583 131.3013401516364 0 131.3013401516364 -259.30620271401131 0 0 0 0 -42.650506693782518 71.817122866026693 0 71.817122866026693 -9.1090995341141934 0 0 0 0 -13.418779775393034 36.250115510954537 0 36.250115510954537 -10.814821360666642 0 0 0 0 -31.3300082820939 50.926293836216921 0 50.926293836216921 -20.729044846073251 0 0 0 0 -22.525361247797264 61.659472914790967 0 61.659472914790967 26.911961963743579 0 0 0 0 -29.512386504112897 39.846693952388392 0 39.846693952388392 -11.55715736349204 0 0 0 0 -39.397381015815789 52.448308309169228 0 52.448308309169228 7.033880371506946 0 0 0 0 118.97090962502989 72.83468857666594 0 72.83468857666594 -549.46038789972135 0 0 0 0 -38.810041698932764 63.242944068066208 0 63.242944068066208 -27.970588111769757 0 0 0 0 -166.53873150999607 170.68839257184158 0 170.68839257184158 -534.97975316405791 0 0 0 0 -25.448357133951504 303.72170576450299 0 303.72170576450299 -462.97388526918076 0 0 0 0 76.153027762600686 -66.44644299542415 0 -66.44644299542415 -667.36313543158758 0 0 0 0 -5.4893848848050961 26.579056324615479 0 26.579056324615479 -0.4252337692074093 0 0 0 0 -20.185696458036546 86.846605048522633 0 86.846605048522633 -141.06956074072104 0 0 0 0 -75.404306292410183 126.42699245780204 0 126.42699245780204 -405.51002338138642 0 0 0 0 115.02288908854987 -37.139145232659921 0 -37.139145232659921 -270.87576494804671 0 0 0 0 -58.299712889915099 319.31339191831285 0 319.31339191831285 -275.30499157115992 0 0 0 0 -7.1180100019992096 64.659528861840954 0 64.659528861840954 -471.32768325213328 0 0 0 0 115.92503227677662 237.49321932378007 0 237.49321932378007 -286.68049521809007 0 0 0 0 106.69590694684848 171.32287837500462 0 171.32287837500462 -175.74518006789731 0 0 0 0 77.41358325263991 418.6594351959111 0 418.6594351959111 -7.5078580521803815 0 0 0 0 386.63134617513424 411.3119654787115 0 411.3119654787115 30.077769478222763 0 0 0 0 262.45801802412461 426.59887313822401 0 426.59887313822401 -14.231619905804109 0 0 0 0 258.15766932247789 410.99723365127647 0 410.99723365127647 176.48573589065927 0 0 0 0 343.82086755539058 337.94394805345655 0 337.94394805345655 -95.656296418474085 0 0 0 0 186.46608477692644 328.86570942895196 0 328.86570942895196 105.35098858654965 0 0 0 0 526.16919187166786 97.888944166166766 0 97.888944166166766 -260.17125483702239 0 0 0 0 150.21284527531679 -58.918386604051193 0 -58.918386604051193 193.14141262631165 0 0 0 0 764.67826290512312 -277.09488678215712 0 -277.09488678215712 728.46243174326082 0 0 0 0 717.36761683031727 -112.13115198480773 0 -112.13115198480773 197.57893055090972 0 0 0 0 203.3609847449261 183.82976573241467 0 183.82976573241467 787.88553421314282 0 0 0 0 1345.1963360805712 670.77241715608761 0 670.77241715608761 391.78697044413275 0 0 0 0 585.40517148069921 293.71162758232458 0 293.71162758232458 214.55877816138127 0 0 0 0 395.33933400487331 1094.5623110569031 0 1094.5623110569031 651.88931484475324 0 0 0 0 -624.44368679480976 750.32408775939257 0 750.32408775939257 772.68209956706414 0 0 0 0 -909.40499664653908 418.36391446821654 0 418.36391446821654 762.9035312399501 0 0 0 0 -425.65725368107087 674.68113097261084 0 674.68113097261084 849.46271356265606 0 0 0 0 -254.8166741435416 472.69300905543423 0 472.69300905543423 533.90062016029697 0 0 0 0 -641.3824113044393 414.0664055700363 0 414.0664055700363 587.33333687797131 0 0 0 0 -173.79133367117902 601.68243508131491 0 601.68243508131491 415.35173865543038 0 0 0 0 -258.66861326401704 502.36930554745413 0 502.36930554745413 347.43858013694262 0 0 0 0 -20.160869628365617 553.50874490472779 0 553.50874490472779 294.41299212514423 0 0 0 0 -198.34863057106122 359.88263672504581 0 359.88263672504581 84.748069434077479 0 0 0 0 -228.02181095803462 226.14573131918587 0 226.14573131918587 119.56343719138385 0 0 0 0 -215.4297054776689 354.19528281882776 0 354.19528281882776 277.89602064150677 0 0 0 0 -402.36560033881688 291.40118617343978 0 291.40118617343978 325.7604714843801 0 0 0 0 -347.04353531346715 185.75997147261842 0 185.75997147261842 525.35825652585481 0 0 0 0 -578.50952566333581 210.06215095311381 0 210.06215095311381 523.10397657284193 0 0 0 0 -491.79324469214771 111.36509799254054 0 111.36509799254054 634.84414600634682 0 0 0 0 -532.87814406568941 279.50095965261426 0 279.50095965261426 626.48591223817493 0 0 0 0 -676.80841934584896 180.8505205274414 0 180.8505205274414 630.63961341211689 0 0 0 0 -574.03041209306684 0.18768655230815057 0 0.18768655230815057 690.14808655843808 0 0 0 0 -395.63982755719917 29.528389655719366 0 29.528389655719366 618.2643632323452 0 0 0 0 -516.76383520547097 54.424366665921298 0 54.424366665921298 635.79253397308639 0 0 0 0 -78.724879872635938 -8.8106976406270405 0 -8.8106976406270405 626.23060627570521 0 0 0 0 -385.31028595671069 -118.22544904147639 0 -118.22544904147639 738.09355036479246 0 0 0 0 -9.852092149463715 -35.062681809606147 0 -35.062681809606147 683.10201916792721 0 0 0 0 224.20368833772955 -185.21736197631253 0 -185.21736197631253 627.28600795876082 0 0 0 0 235.497360440786 -139.97707664821064 0 -139.97707664821064 654.49284361486934 0 0 0 0 277.60198647483776 -23.118591241656759 0 -23.118591241656759 978.08250589888485 0 0 0 0 156.18585977033945 -372.77247607379104 0 -372.77247607379104 977.39997830543143 0 0 0 0 0.75953646707708344 6.2711183689755998 0 6.2711183689755998 -5.1816337332749782 0 0 0 0 58.737378650472237 -200.27894670553087 0 -200.27894670553087 977.21550704191031 0 0 0 0 43.785713012617634 -247.19173677580784 0 -247.19173677580784 1115.0074697064556 0 0 0 0 -2.9918933905299525 1.1784021906717612 0 1.1784021906717612 12.161982765004907 0 0 0 0 151.59343452027679 -72.821784230653066 0 -72.821784230653066 98.515871812072874 0 0 0 0 -6.6947321665594757 31.920035601706459 0 31.920035601706459 49.029801477801193 0 0 0 0 -18.179285220325255 106.08704105134939 0 106.08704105134939 -38.862250115607821 0 0 0 0 -154.13006627427239 -77.986046248002822 0 -77.986046248002822 417.88041650010564 0 0 0 0 -262.70116412735661 92.670267531208083 0 92.670267531208083 164.68197241755479 0 0 0 0 -137.49125592489145 -198.31962414501322 0 -198.31962414501322 589.11644430805154 0 0 0 0 585.62149345109356 483.77862138865748 0 483.77862138865748 426.45052552689504 0 0 0 0 0.39654315772392579 -9.6789110095330386 0 -9.6789110095330386 33.118681463482162 0 0 0 0 498.64152942613146 442.58995156923083 0 442.58995156923083 459.20322842874157 0 0 0 0 -801.60203851253755 -49.067896166041464 0 -49.067896166041464 290.02436327936084 0 0 0 0 720.64896797461552 188.85742393169494 0 188.85742393169494 97.178503831451962 0 0 0 0 905.59008990647271 -554.76756332190416 0 -554.76756332190416 -240.26964036250502 0 0 0 0 -235.05541081170668 675.34124323531432 0 675.34124323531432 242.97388329591195 0 0 0 0 -30.320817631698446 379.14320990266424 0 379.14320990266424 63.551692030263439 0 0 0 0 -10.099400802720737 33.038854539612018 0 33.038854539612018 -30.414785988887488 0 0 0 0 1.6552195197036781 58.072377476328484 0 58.072377476328484 -46.597307858964996 0 0 0 0 24.299418370617786 97.393576376194687 0 97.393576376194687 -38.650941726607471 0 0 0 0 182.0779141436833 -139.2489381191649 0 -139.2489381191649 47.163646132787107 0 0 0 0 57.106546622788301 -29.096085118025258 0 -29.096085118025258 -139.88699013494261 0 0 0 0 -131.56997188167588 262.70421618513865 0 262.70421618513865 140.79129004304559 0 0 0 0 -6.417189018409772 26.239714884099811 0 26.239714884099811 -35.873505144162081 0 0 0 0 160.83324776336667 167.66776825661145 0 167.66776825661145 -106.61014125664542 0 0 0 0 24.025661883497378 115.35307760554406 0 115.35307760554406 65.717747312181928 0 0 0 0 25.191572403113241 74.877198642007897 0 74.877198642007897 48.48935869151137 0 0 0 0 -2.5939585651576635 93.486590465325207 0 93.486590465325207 36.268044278767775 0 0 0 0 14.374296001391485 59.137651545408517 0 59.137651545408517 19.217512073237231 0 0 0 0 -50.523743046273012 96.512104929164707 0 96.512104929164707 339.80664739446729 0 0 0 0 -21.196069937401376 20.387522273323199 0 20.387522273323199 -5.2228216559230267 0 0 0 0 39.654867932840716 19.866921430406364 0 19.866921430406364 209.17331409339477 0 0 0 0 -6.143030666935374 98.501995750151764 0 98.501995750151764 166.24909679616394 0 0 0 0 19.970936603931477 145.91080137905738 0 145.91080137905738 232.59103829132437 0 0 0 0 -29.700036367139546 8.9067874606680562 0 8.9067874606680562 329.04409822891648 0 0 0 0 28.528893159942527 93.111659730033352 0 93.111659730033352 188.74285415319537 0 0 0 0 58.025711137219332 175.08051893059928 0 175.08051893059928 243.12763910564263 0 0 0 0 101.39064590350608 130.81959810794797 0 130.81959810794797 197.7859155430524 0 0 0 0 104.13398530508857 331.75333019307982 0 331.75333019307982 673.01895295133181 0 0 0 0 -5.6583663151665746 -2.8822352537987825 0 -2.8822352537987825 9.569387248973527 0 0 0 0 204.20955648374638 308.59956838937217 0 308.59956838937217 462.30771114194067 0 0 0 0 127.58391255879542 215.24959394589678 0 215.24959394589678 545.86110769538027 0 0 0 0 -22.386077683895564 199.88815764944434 0 199.88815764944434 137.94539690806414 0 0 0 0 188.74036244375748 112.76802718167528 0 112.76802718167528 169.55022792036107 0 0 0 0 51.542215213034069 148.83851523699013 0 148.83851523699013 555.10282535391707 0 0 0 0 -36.193986372949439 146.10671881027338 0 146.10671881027338 -50.342746852116761 0 0 0 0 0.069512870469452537 34.769134771425868 0 34.769134771425868 63.276603380967281 0 0 0 0 -78.969794490119966 85.49022840532416 0 85.49022840532416 59.815137864577991 0 0 0 0 -27.478722786559956 86.23905185356125 0 86.23905185356125 46.148157049239671 0 0 0 0 -9.4584937463514507 61.571599402939682 0 61.571599402939682 -30.633635317455628 0 0 0 0 -0.74057160762095009 105.21355130647407 0 105.21355130647407 35.279861849350709 0 0 0 0 21.579201993066818 84.770672259839557 0 84.770672259839557 40.159646949912258 0 0 0 0 -47.35368555081368 80.276398078944112 0 80.276398078944112 142.45795378026742 0 0 0 0 -10.862982966966229 36.503325785981133 0 36.503325785981133 0.9685744166081065 0 0 0 0 -3.1471813981297601 102.30823731458486 0 102.30823731458486 148.26668571966547 0 0 0 0 -14.94046183660879 21.728261085989168 0 21.728261085989168 -4.9740959249949483 0 0 0 0 -68.496985952573596 62.770277413417716 0 62.770277413417716 209.32934677883895 0 0 0 0 -49.867491587603581 13.737166329536194 0 13.737166329536194 160.05695146699873 0 0 0 0 46.672197886393405 63.057107785702101 0 63.057107785702101 182.1890448450431 0 0 0 0 48.941916144365678 64.962537421379238 0 64.962537421379238 49.839547876546931 0 0 0 0 -6.4015016614206246 7.2517633670108239 0 7.2517633670108239 5.750121272032537 0 0 0 0 -19.230774340700009 19.789019730542407 0 19.789019730542407 23.296314079515014 0 0 0 0 -20.668451042431826 12.877129525987584 0 12.877129525987584 10.008372089071363 0 0 0 0 -2.8886012158181984 47.694725856950186 0 47.694725856950186 -69.380543060921397 0 0 0 0 -23.959010671562282 41.843343206190639 0 41.843343206190639 40.062855636622544 0 0 0 0 -12.349663380434265 7.8205319907666819 0 7.8205319907666819 -1.7973692708787696 0 0 0 0 -37.893171689385781 45.731932819788653 0 45.731932819788653 28.123116953212275 0 0 0 0 7.2747393286554143 37.449151293628802 0 37.449151293628802 28.564763797625432 0 0 0 0 -28.404612507787533 90.305005428306458 0 90.305005428306458 -91.133209047205469 0 0 0 0 -13.470957055600593 47.122233288371149 0 47.122233288371149 -68.207778695680531 0 0 0 0 -38.181745983471046 -0.4980199348443648 0 -0.4980199348443648 -159.67745225298444 0 0 0 0 0.12461417565646116 42.952088218180052 0 42.952088218180052 -69.105952770236968 0 0 0 0 -30.331671507490682 91.724396579925155 0 91.724396579925155 -4.671224023752643 0 0 0 0 3.4696948142518522 46.870501148230119 0 46.870501148230119 -71.858355805532028 0 0 0 0 -29.631473602108599 50.20779187762264 0 50.20779187762264 14.858466232397404 0 0 0 0 -24.701914295979904 26.035869950318983 0 26.035869950318983 -16.657274837870336 0 0 0 0 -90.424533386933035 202.57475016324679 0 202.57475016324679 204.10199496812493 0 0 0 0 -25.374746682916566 32.130813224351932 0 32.130813224351932 -31.419103664950292 0 0 0 0 -12.498487241129624 1.9302071810272992 0 1.9302071810272992 87.693868580036337 0 0 0 0 -37.381914580051671 30.45660779431239 0 30.45660779431239 73.565068816016719 0 0 0 0 -11.307805794902379 55.373882051514329 0 55.373882051514329 30.095672988053138 0 0 0 0 5.6686964730033651 30.853122812675338 0 30.853122812675338 39.625625367034672 0 0 0 0 -7.9645911608830033 1.9307775896208952 0 1.9307775896208952 -0.52802118613630089 0 0 0 0 11.753221619874239 16.823877790169036 0 16.823877790169036 -7.2771877887702772 0 0 0 0 -20.762872375678853 25.879834972606091 0 25.879834972606091 86.192552638347365 0 0 0 0 -29.39942270420579 -7.2590597601597437 0 -7.2590597601597437 40.553797503464693 0 0 0 0 -4.7898185662324977 -14.29841305063357 0 -14.29841305063357 41.21999836087457 0 0 0 0 49.039173928365926 -31.732792019272438 0 -31.732792019272438 -163.02298957397926 0 0 0 0 389.53179875302885 -22.432481078302544 0 -22.432481078302544 -169.48845544076016 0 0 0 0 160.19392599544517 101.86187197078299 0 101.86187197078299 -138.45271718877976 0 0 0 0 -73.94136797801184 25.571604934109814 0 25.571604934109814 -246.78120842627163 0 0 0 0 -42.842275676011923 -3.9480182215751256 0 -3.9480182215751256 -39.273322293757701 0 0 0 0 -52.149014106849791 -35.355684950263424 0 -35.355684950263424 -78.070389532478657 0 0 0 0 -148.85463753709337 138.9906750418146 0 138.9906750418146 -105.51047418719594 0 0 0 0 -136.59933355357498 189.35530724627552 0 189.35530724627552 -124.9935069948981 0 0 0 0 -167.26274708722485 256.1175738869747 0 256.1175738869747 -236.01134879471465 0 0 0 0 -165.51034520610847 132.78046699502841 0 132.78046699502841 -43.4062986536469 0 0 0 0 -67.265610343631124 49.139366642694995 0 49.139366642694995 5.896568212035163 0 0 0 0 -379.30522046500118 383.15467177277151 0 383.15467177277151 -76.068512977877845 0 0 0 0 -287.35551451542415 209.99700921217527 0 209.99700921217527 83.375724388174149 0 0 0 0 -117.00579902781828 41.41371724654968 0 41.41371724654968 21.883596793873949 0 0 0 0 -18.572618562873686 38.175660522420003 0 38.175660522420003 -51.138331008018213 0 0 0 0 -4.5062060838926854 3.3886156495160265 0 3.3886156495160265 0.72345963394338852 0 0 0 0 278.66782162659365 -163.3514611647521 0 -163.3514611647521 -38.506668605906725 0 0 0 0 -104.26411909238414 -186.92464233440745 0 -186.92464233440745 277.53467510854398 0 0 0 0 -350.84397266060114 100.22466255704489 0 100.22466255704489 392.32178197876192 0 0 0 0 -28.008188941709761 28.206391580182597 0 28.206391580182597 -24.258827632118212 0 0 0 0 -31.731096179883025 36.120340128254611 0 36.120340128254611 -31.450954365795042 0 0 0 0 58.598738039418095 8.9422193646365358 0 8.9422193646365358 -67.355609399087143 0 0 0 0 -7.908599158576088 24.965080889969244 0 24.965080889969244 -37.009563763472542 0 0 0 0 39.661593963566702 18.842245891249604 0 18.842245891249604 -50.241716802424605 0 0 0 0 3.9220603685136552 2.8698336269011406 0 2.8698336269011406 -8.1030211269764401 0 0 0 0 -29.043090885679703 160.99753929658891 0 160.99753929658891 -404.10807620629521 0 0 0 0 796.12161031400319 -339.29937033067745 0 -339.29937033067745 513.0654966684699 0 0 0 0 -1366.4743993117008 1303.6742030306505 0 1303.6742030306505 -480.35171421255473 0 0 0 0 -2.8314331106557802 2.3162877219744189 0 2.3162877219744189 -48.573750222832473 0 0 0 0 -2.6495541114056209 -0.31359648498364834 0 -0.31359648498364834 1.4219791502807464 0 0 0 0 0.56167113351693843 1.4692213796851092 0 1.4692213796851092 -225.59355704611511 0 0 0 0 -184.21545984919067 376.48230609696088 0 376.48230609696088 -300.25002104944087 0 0 0 0 310.1265369544999 332.25493292266128 0 332.25493292266128 -230.96850868516776 0 0 0 0 -534.85052248858119 310.69136280747989 0 310.69136280747989 59.939488458112464 0 0 0 0 85.584514140522515 96.240327039652584 0 96.240327039652584 195.34815655012062 0 0 0 0 -182.7897684253403 300.95283519411896 0 300.95283519411896 58.812595949208571 0 0 0 0 -22.146593363308213 33.440787833266327 0 33.440787833266327 -34.594141354902291 0 0 0 0 -1.236804567539366 44.504380175016195 0 44.504380175016195 -27.281870852207248 0 0 0 0 -18.581624582535966 29.132028195793374 0 29.132028195793374 -30.760942315658522 0 0 0 0 163.6025518079623 -83.229217079271621 0 -83.229217079271621 -104.47847357831779 0 0 0 0 460.14305779989809 208.22234927610043 0 208.22234927610043 -18.932872344637872 0 0 0 0 -17.643787398694876 29.277227558371152 0 29.277227558371152 -40.054074323575541 0 0 0 0 -13.242334772461618 40.581927780487604 0 40.581927780487604 -41.710097255707296 0 0 0 0 8.9672169107882667 -3.1888706092106958 0 -3.1888706092106958 -3.5654717046927544 0 0 0 0 -16.057487701888022 30.621573678086861 0 30.621573678086861 -29.257264061423484 0 0 0 0 521.29920919585129 -204.96649809673818 0 -204.96649809673818 -150.73658375470404 0 0 0 0 469.69422591713374 106.77570101931269 0 106.77570101931269 6.0352561305626296 0 0 0 0 257.06414790652707 639.03163095860782 0 639.03163095860782 -609.78038150617067 0 0 0 0 -291.77076796756592 -477.53404950120967 0 -477.53404950120967 2.7147087223747803 0 0 0 0 -99.29087967197745 85.988858195437643 0 85.988858195437643 0.90140735189561383 0 0 0 0 -85.292830154270632 205.90003157263527 0 205.90003157263527 -448.49815408932409 0 0 0 0 -651.77963483120038 296.24984795630462 0 296.24984795630462 -19.982364561954455 0 0 0 0 -28.338794862371287 67.297214400699886 0 67.297214400699886 -172.86432041521493 0 0 0 0 -45.888390908596193 9.4872847164042469 0 9.4872847164042469 -14.937059458228759 0 0 0 0 -127.85794418835576 197.86935861731945 0 197.86935861731945 -200.55626968996148 0 0 0 0 -24.722359540855905 -13.698274998350371 0 -13.698274998350371 -5.033001752995915 0 0 0 0 -4.1985364148453925 12.456366688114429 0 12.456366688114429 -8.3149266669270432 0 0 0 0 -2.3695174281892832 29.565802216158772 0 29.565802216158772 -4.2361659185207827 0 0 0 0 -19.734515943652553 17.560881746381447 0 17.560881746381447 3.9446425010056529 0 0 0 0 -6.2529371122946031 39.922982580981625 0 39.922982580981625 101.13882083646604 0 0 0 0 -309.22003119329747 -29.962395822298276 0 -29.962395822298276 -11.096533979976812 0 0 0 0 -1.3872705746471752 1.960374694089964 0 1.960374694089964 -2.0233354827108485 0 0 0 0 -98.513851392868673 -29.636201946359506 0 -29.636201946359506 -11.112482712482517 0 0 0 0 -8.738782072008803 4.1059267031102902 0 4.1059267031102902 -1.0029554129993414 0 0 0 0 73.300398402585415 76.479835782354712 0 76.479835782354712 91.124251351237035 0 0 0 0 -35.31028857790443 63.500679093036524 0 63.500679093036524 64.886893338210939 0 0 0 0 -15.201628587972664 31.509443398063013 0 31.509443398063013 115.72175100755339 0 0 0 0 -14.617488677630007 25.554513232578184 0 25.554513232578184 -9.6286896847710892 0 0 0 0 -34.018262752826558 65.929534729575607 0 65.929534729575607 121.23885796829063 0 0 0 0 -19.797916500603606 58.564910162233446 0 58.564910162233446 56.716324453246671 0 0 0 0 -20.305095670899959 26.58902139394603 0 26.58902139394603 -7.6562312646428126 0 0 0 0 -32.062058315510512 51.510043458338373 0 51.510043458338373 -14.196271573602644 0 0 0 0 15.982544423401123 43.632829183694412 0 43.632829183694412 5.8949216181499651 0 0 0 0 -24.809959292525406 26.927494158312562 0 26.927494158312562 -8.4485371371606597 0 0 0 0 -33.525042322715308 33.916544849862703 0 33.916544849862703 17.030640311571005 0 0 0 0 4.8433378536865348 33.341235710505316 0 33.341235710505316 -7.7622008537446163 0 0 0 0 -23.393699331223615 58.329442350448517 0 58.329442350448517 -3.5641610608263363 0 0 0 0 -24.052319518746799 10.985548840551296 0 10.985548840551296 -6.738818958599496 0 0 0 0 -32.712676023860695 78.631637358941589 0 78.631637358941589 64.238323539795374 0 0 0 0 -39.98870991023432 127.56915747458879 0 127.56915747458879 70.272042711156132 0 0 0 0 -15.730466131135472 39.979269832980208 0 39.979269832980208 15.70609414255614 0 0 0 0 -10.642717165704568 5.5169586319731891 0 5.5169586319731891 1.7756615079179934 0 0 0 0 -37.663702898076735 115.42553899728864 0 115.42553899728864 6.7283360294013619 0 0 0 0 -50.925156711251475 -4.3605544744059443 0 -4.3605544744059443 -42.955737559283079 0 0 0 0 -18.099131478355009 37.753489627975085 0 37.753489627975085 -8.9674633668359327 0 0 0 0 -11.78581958528153 57.87511686544542 0 57.87511686544542 -2.4158038313409982 0 0 0 0 -11.093197673617397 29.566762721238774 0 29.566762721238774 -0.29292735577109852 0 0 0 0 -30.948229795847908 55.731046326628885 0 55.731046326628885 10.457363168898979 0 0 0 0 -32.696013079790021 81.917674588011423 0 81.917674588011423 -23.880265698314361 0 0 0 0 -8.9071564230545093 28.225537566199776 0 28.225537566199776 51.240888185720053 0 0 0 0 -50.20325579175551 43.865852077397221 0 43.865852077397221 146.99157579416942 0 0 0 0 -56.083761278270686 54.977383693220872 0 54.977383693220872 103.15467660802096 0 0 0 0 -17.41176264499299 51.638326593378792 0 51.638326593378792 -34.152063229261771 0 0 0 0 -4.087172517174622 56.345647845221265 0 56.345647845221265 109.91886851569598 0 0 0 0 -4.9881690975453239 77.839791062160657 0 77.839791062160657 123.51845007893462 0 0 0 0 -56.909079319399098 27.036972395579141 0 27.036972395579141 -54.773388605248329 0 0 0 0 -26.088987962619285 47.892218814849912 0 47.892218814849912 -43.718405941506717 0 0 0 0 -0.7578533750724683 24.465640805666496 0 24.465640805666496 -22.982892863596049 0 0 0 0 -83.703966397173645 80.00525011812897 0 80.00525011812897 -100.5987871382822 0 0 0 0 12.53352489767677 15.337719451639714 0 15.337719451639714 4.2170593408809864 0 0 0 0 3.7978639310986169 0.69830570316555907 0 0.69830570316555907 -30.302719775862386 0 0 0 0 39.468497035033501 45.460156025548102 0 45.460156025548102 -50.528624233178562 0 0 0 0 -51.577102331601054 77.286403063499165 0 77.286403063499165 -61.785093733700705 0 0 0 0 -79.177206531679985 35.051953724545911 0 35.051953724545911 -2.3109401792644348 0 0 0 0 276.78869839846084 336.75248562131537 0 336.75248562131537 112.23606153604123 0 0 0 0 150.67172578067039 108.65863198763509 0 108.65863198763509 47.036367468066601 0 0 0 0 102.43888458244328 150.90197553399594 0 150.90197553399594 13.307721933251742 0 0 0 0 49.726830954539764 40.176528725547541 0 40.176528725547541 -27.323553836104111 0 0 0 0 -61.07218120799007 21.418332847656529 0 21.418332847656529 -11.52176407576917 0 0 0 0 -282.92305876233877 494.59284451535677 0 494.59284451535677 -311.09776526997302 0 0 0 0 396.87205961934887 183.80807103711959 0 183.80807103711959 -368.76282136439113 0 0 0 0 153.85223362839315 548.80045984343815 0 548.80045984343815 -639.10028835563571 0 0 0 0 -784.19128686098702 1562.1967126615345 0 1562.1967126615345 -1301.9099973743141 0 0 0 0 229.74621776482218 266.67293635105671 0 266.67293635105671 95.283000698276737 0 0 0 0 -5.2773197205741269 10.597084417569432 0 10.597084417569432 -15.224295856869205 0 0 0 0 585.20029291660239 -288.45083587982162 0 -288.45083587982162 -27.117541294319381 0 0 0 0 674.05177950811412 184.67786612161945 0 184.67786612161945 -516.50063210627195 0 0 0 0 227.83054356806679 97.513418695600194 0 97.513418695600194 -23.402307613050652 0 0 0 0 77.192259431125422 181.21852814110389 0 181.21852814110389 5.7782775862287963 0 0 0 0 118.69402188836102 108.67409973880058 0 108.67409973880058 121.33445732951486 0 0 0 0 93.757900923679699 288.24002089734131 0 288.24002089734131 181.30896162636054 0 0 0 0 160.88028243858935 138.60510120743311 0 138.60510120743311 -42.457236273538001 0 0 0 0 -25.587455833279407 52.988352413114271 0 52.988352413114271 -40.426820633785596 0 0 0 0 132.5819325839766 179.33646402897102 0 179.33646402897102 -73.820115175723913 0 0 0 0 144.84211994585712 288.40112156650321 0 288.40112156650321 309.76491060516128 0 0 0 0 43.838541481321954 24.338208122640935 0 24.338208122640935 -106.27151723694442 0 0 0 0 -22.802669001143016 50.964173098712308 0 50.964173098712308 -38.650196805600118 0 0 0 0 -47.112241432245355 133.36113305706385 0 133.36113305706385 290.88680798388395 0 0 0 0 -5.149565671417804 29.797716985764055 0 29.797716985764055 18.429348788625816 0 0 0 0 -62.955398956299177 -18.510985387655182 0 -18.510985387655182 219.30371793546965 0 0 0 0 -47.484997213541646 392.83650255951898 0 392.83650255951898 178.52618825228092 0 0 0 0 21.847214357272605 10.598176526232578 0 10.598176526232578 161.61817542531753 0 0 0 0 -293.24372480699094 -0.2920082083237503 0 -0.2920082083237503 166.17683724335302 0 0 0 0 7.2230346206488321 57.199675951259906 0 57.199675951259906 101.5689082029603 0 0 0 0 13.724483642770792 134.00042325782692 0 134.00042325782692 91.373673754686024 0 0 0 0 -27.219268982458743 45.736457305663862 0 45.736457305663862 144.51903516816355 0 0 0 0 -129.11189622566053 -11.931410358050016 0 -11.931410358050016 -140.47855398332467 0 0 0 0 -31.060394187744322 57.838216608750756 0 57.838216608750756 -23.218827772588078 0 0 0 0 -7.5079317973201398 3.5258766954743765 0 3.5258766954743765 -0.65631776675934095 0 0 0 0 -48.852601427031914 -27.711527810517509 0 -27.711527810517509 59.310430922253545 0 0 0 0 -43.958921368481242 49.706165049936317 0 49.706165049936317 48.531899802021144 0 0 0 0 -35.031699958894961 42.4668956446002 0 42.4668956446002 -19.664388974691519 0 0 0 0 60.353327039203577 -259.83927201399865 0 -259.83927201399865 -532.70188375562793 0 0 0 0 -44.059145620717203 44.327997650071509 0 44.327997650071509 -40.992367048813669 0 0 0 0 -11.662430782209412 76.401258857710218 0 76.401258857710218 -3.4508206999216782 0 0 0 0 365.80926277162507 266.56996923947736 0 266.56996923947736 -605.02444883336193 0 0 0 0 -855.14411122568708 -485.28951109596255 0 -485.28951109596255 -276.67144722130615 0 0 0 0 -552.22553057401092 502.64021981390351 0 502.64021981390351 212.0858244353476 0 0 0 0 86.684035484402557 130.08386841556421 0 130.08386841556421 74.269296842681797 0 0 0 0 -28.015546553114916 52.252561868650979 0 52.252561868650979 -15.288660269404669 0 0 0 0 -103.10050342611066 47.13273081728039 0 47.13273081728039 99.952440940701308 0 0 0 0 -3.5454623214382366 2.1138716461533562 0 2.1138716461533562 12.370291503418095 0 0 0 0 10.966418512754899 138.11976305338703 0 138.11976305338703 76.628468550152775 0 0 0 0 77.167077270903974 57.637233027804996 0 57.637233027804996 5.5388362208159378 0 0 0 0 80.245599993577343 179.88205415176526 0 179.88205415176526 203.35451070019917 0 0 0 0 69.159800134345915 85.76406349220872 0 85.76406349220872 72.69609240751015 0 0 0 0 -27.812512225887986 170.24990699278578 0 170.24990699278578 99.037641181414074 0 0 0 0 98.106147378392052 137.51714209679085 0 137.51714209679085 27.473363402059249 0 0 0 0 -11.100031904233489 40.580039978221485 0 40.580039978221485 -55.488448262740903 0 0 0 0 1.4458845633991473 7.1575649136800221 0 7.1575649136800221 -11.985169182947551 0 0 0 0 -40.877647774628713 64.612498623684587 0 64.612498623684587 30.300925914346863 0 0 0 0 31.771517165907426 66.080200372656691 0 66.080200372656691 2.1895746444733959 0 0 0 0 -26.725393608037848 40.890223060232529 0 40.890223060232529 -3.5277105348272784 0 0 0 0 -59.269967225178334 97.581931566233379 0 97.581931566233379 -7.0163657724187942 0 0 0 0 -15.495996666053543 74.976778812735574 0 74.976778812735574 -28.878198349735612 0 0 0 0 -60.93272689213336 130.21428908122743 0 130.21428908122743 -73.648938726000779 0 0 0 0 -51.427859834107096 60.139448051951057 0 60.139448051951057 -37.642540987646427 0 0 0 0 -265.49587109708955 -75.272230073243691 0 -75.272230073243691 -113.9842333709712 0 0 0 0 -269.12203654991254 -38.681187909496316 0 -38.681187909496316 89.300612474253285 0 0 0 0 45.844605785576277 62.800560055100505 0 62.800560055100505 199.82692748602585 0 0 0 0 -180.20508750510635 -129.87923496443545 0 -129.87923496443545 248.12452533858414 0 0 0 0 74.510931662014627 -52.116500533586986 0 -52.116500533586986 489.65204015850031 0 0 0 0 238.89832818195646 -138.05704386725483 0 -138.05704386725483 -184.34786350445211 0 0 0 0 -161.48148280248279 15.710393611268955 0 15.710393611268955 -243.17325648688711 0 0 0 0 -93.835946191058611 -113.01566191988786 0 -113.01566191988786 -243.78202991909711 0 0 0 0 -193.52897831198061 -377.27061125120963 0 -377.27061125120963 -307.86800299111928 0 0 0 0 -12.01059975971657 65.156865120544353 0 65.156865120544353 44.953605161090991 0 0 0 0 97.889556385428932 68.200276603588463 0 68.200276603588463 18.338224505424478 0 0 0 0 38.118388569028866 149.14342702502995 0 149.14342702502995 -47.457494238069557 0 0 0 0 4.4923189702867603 109.32882181455534 0 109.32882181455534 -71.645742660320593 0 0 0 0 -44.019098197184576 292.02832828006467 0 292.02832828006467 -246.25318058860637 0 0 0 0 52.329038513598789 36.895023461539949 0 36.895023461539949 -5.537187377133705 0 0 0 0 -76.572470324469577 316.81173282370764 0 316.81173282370764 -239.74191467963465 0 0 0 0 16.199521798823106 9.3441679574722691 0 9.3441679574722691 -7.5029265754653949 0 0 0 0 -71.479680330428891 136.88767012361495 0 136.88767012361495 4.4783621946996277 0 0 0 0 -20.238253187023421 60.685805785258346 0 60.685805785258346 -32.954078442831367 0 0 0 0 95.695334935437131 131.04160129201591 0 131.04160129201591 -2.6416185940306605 0 0 0 0 67.540392000068096 94.810947066731842 0 94.810947066731842 -33.019924588983031 0 0 0 0 37.801302936273714 112.43367791445598 0 112.43367791445598 -30.384951880228982 0 0 0 0 66.227858378289966 69.008100774090053 0 69.008100774090053 -57.735979668344953 0 0 0 0 39.435560145474867 34.738027324065541 0 34.738027324065541 -51.522081358056504 0 0 0 0 218.00032180674316 -0.93317677247068787 0 -0.93317677247068787 -217.68245115411992 0 0 0 0 -294.88131236520712 -30.657069497789053 0 -30.657069497789053 156.6262326948472 0 0 0 0 -1.9224637318010345 21.424516542217944 0 21.424516542217944 -8.5621149946942197 0 0 0 0 71.174324420134326 62.33010075708512 0 62.33010075708512 25.427962578693496 0 0 0 0 13.006498482505535 32.14888851889981 0 32.14888851889981 -60.380414399594564 0 0 0 0 -22.304776205018328 38.766555363484294 0 38.766555363484294 14.422794987788919 0 0 0 0 88.553837561892578 114.17639741865332 0 114.17639741865332 38.643655292358744 0 0 0 0 66.423520688048029 95.849018047145137 0 95.849018047145137 93.028397503787346 0 0 0 0 -19.878979993761352 46.879815858527493 0 46.879815858527493 21.48587596664283 0 0 0 0 68.44863781017375 57.115148301494287 0 57.115148301494287 32.270929666937946 0 0 0 0 -46.896514462525374 102.6714453323043 0 102.6714453323043 53.068262310042883 0 0 0 0 72.022201707804925 81.087085759209003 0 81.087085759209003 21.807088660920726 0 0 0 0 49.655345685721841 163.84321115197872 0 163.84321115197872 36.153715149832351 0 0 0 0 40.140488168432057 134.84184152045236 0 134.84184152045236 11.508922125745812 0 0 0 0 -24.228663019244763 59.98904526954594 0 59.98904526954594 -34.122709671173652 0 0 0 0 -3.3649785972446438 29.92722107233152 0 29.92722107233152 18.98399649178198 0 0 0 0 -280.08159503496063 249.35760497833326 0 249.35760497833326 1899.5193275443453 0 0 0 0 -19.129791493127414 44.407858956990822 0 44.407858956990822 934.04817858441675 0 0 0 0 241.03596378188558 786.48275070506952 0 786.48275070506952 552.94476192755974 0 0 0 0 66.058378854901093 210.44344925149198 0 210.44344925149198 186.39591372087125 0 0 0 0 51.415913562236312 49.454635602150759 0 49.454635602150759 -47.802869096480634 0 0 0 0 -33.819914491774398 91.850483260339388 0 91.850483260339388 241.74122572094348 0 0 0 0 110.90916227791877 131.051316862965 0 131.051316862965 194.39880076952977 0 0 0 0 77.344010935694314 95.533131416452989 0 95.533131416452989 53.390108886844814 0 0 0 0 90.75400490327138 92.65564503157475 0 92.65564503157475 126.79463880754338 0 0 0 0 45.489693018562974 44.726095626754741 0 44.726095626754741 -45.364055137971398 0 0 0 0 26.04349535053916 154.74141749661794 0 154.74141749661794 241.01597591621612 0 0 0 0 23.391433189640338 116.54083897938835 0 116.54083897938835 131.86990459653862 0 0 0 0 24.568130073599605 10.398628427766198 0 10.398628427766198 78.062756883635302 0 0 0 0 17.704576812955565 -6.047826160733166 0 -6.047826160733166 -1.1590082038710534 0 0 0 0 -5.7566912282690907 -5.0020955930711892 0 -5.0020955930711892 4.4629264987874109 0 0 0 0 -5.0339254355764638 -0.83253774636212086 0 -0.83253774636212086 9.4490390085706366 0 0 0 0 24.265892294111836 -35.335510201646684 0 -35.335510201646684 46.290963638792164 0 0 0 0 81.93775374501638 -74.490733002127854 0 -74.490733002127854 -58.577373713098496 0 0 0 0 -81.828197053579061 149.77137674133883 0 149.77137674133883 153.5665813746291 0 0 0 0 6.0166184298972567 15.890069206478785 0 15.890069206478785 31.575960500127863 0 0 0 0 -44.208003555406322 75.058923825659804 0 75.058923825659804 -70.431124356895452 0 0 0 0 -21.283557151751666 -14.034848167348173 0 -14.034848167348173 151.98775647295042 0 0 0 0 2.5431784920336469 0.65156192819722492 0 0.65156192819722492 -0.43306421187894273 0 0 0 0 -33.62171881544964 53.793897838991597 0 53.793897838991597 88.273054277982737 0 0 0 0 173.31304148713389 570.97610050562434 0 570.97610050562434 -502.62937545532623 0 0 0 0 -72.144532607700967 343.68384699685703 0 343.68384699685703 337.57444836659852 0 0 0 0 -149.43239755626564 463.28201171712863 0 463.28201171712863 1098.5619408755156 0 0 0 0 39.906955877362634 1107.1740704495896 0 1107.1740704495896 194.37880485635105 0 0 0 0 2.195055286767456 -23.629392700933749 0 -23.629392700933749 387.95851447306313 0 0 0 0 145.97801996608086 -155.74794801954158 0 -155.74794801954158 -240.65065137335478 0 0 0 0 -0.16708527521725358 2.4193221734216905 0 2.4193221734216905 8.3535941701787522 0 0 0 0 -72.615026384572047 190.87347096039775 0 190.87347096039775 -295.09016302302189 0 0 0 0 -288.83621243113157 322.76048811320288 0 322.76048811320288 -102.23116535020381 0 0 0 0 -275.56775515540357 317.99519582714129 0 317.99519582714129 221.64581913485381 0 0 0 0 -0.18281595291138331 4.17228852229821 0 4.17228852229821 6.444644362020945 0 0 0 0 -2.892028647317531 5.3360122864737694 0 5.3360122864737694 -7.2231504933112376 0 0 0 0 226.80878767903323 115.5024576272715 0 115.5024576272715 -318.76989112378214 0 0 0 0 -160.13323926252997 536.04096629263222 0 536.04096629263222 100.77315608721256 0 0 0 0 -196.79960812711943 -64.386463875678601 0 -64.386463875678601 647.48257633511821 0 0 0 0 -398.43739880895191 271.48272093201376 0 271.48272093201376 146.6026259327773 0 0 0 0 -215.36313621781665 182.93202855749496 0 182.93202855749496 125.32538847656542 0 0 0 0 -222.85398705853731 80.596339241012174 0 80.596339241012174 242.79941003430395 0 0 0 0 -299.0953499557927 212.63281884784101 0 212.63281884784101 59.301403567616944 0 0 0 0 -325.32360940256149 259.97465827002634 0 259.97465827002634 75.064447691343958 0 0 0 0 84.349856066033681 226.98118219597745 0 226.98118219597745 -265.327917283641 0 0 0 0 152.15654876625194 108.71422207036449 0 108.71422207036449 -212.84558693376312 0 0 0 0 179.39292552365077 84.687483017878549 0 84.687483017878549 -311.46732202216299 0 0 0 0 -16.201836996104248 72.680704715041429 0 72.680704715041429 -22.764091153489971 0 0 0 0 -2.9042829753384467 24.976703711979553 0 24.976703711979553 54.562470719465637 0 0 0 0 26.805728359548084 -57.524901572493036 0 -57.524901572493036 -2.0943822238477878 0 0 0 0 -347.26792942310203 181.54964924619344 0 181.54964924619344 126.76758270099663 0 0 0 0 -156.82500468765284 -102.02813559226252 0 -102.02813559226252 155.56501319476229 0 0 0 0 9.1385474465084116 18.245602244436448 0 18.245602244436448 35.471156164456815 0 0 0 0 -233.30129650273375 206.08796025641095 0 206.08796025641095 124.81891092184378 0 0 0 0 23.008474272464809 39.928559396481432 0 39.928559396481432 14.009473576281152 0 0 0 0 32.02679792336221 61.488488354121273 0 61.488488354121273 17.304674777409673 0 0 0 0 1.4249740490686236 20.769353112918907 0 20.769353112918907 49.79471827346606 0 0 0 0 1.913674002251355 7.7368614650149539 0 7.7368614650149539 129.23059630152602 0 0 0 0 -63.173080019269946 56.471888099037187 0 56.471888099037187 289.02259256231991 0 0 0 0 -29.16121710510015 87.835277713154937 0 87.835277713154937 54.178806698173503 0 0 0 0 90.904247125010443 53.398424807946867 0 53.398424807946867 15.523160437096521 0 0 0 0 6.7399705932120613 8.55526867898379 0 8.55526867898379 0.13029397235419538 0 0 0 0 355.59465771050236 22.251999638498091 0 22.251999638498091 -76.264526578915479 0 0 0 0 -139.76738694284177 -156.09621074757888 0 -156.09621074757888 -86.599944351537488 0 0 0 0 -17.26230499823901 14.933403087185887 0 14.933403087185887 0.68492593764585052 0 0 0 0 12.593641404267316 26.683103776010284 0 26.683103776010284 -76.313398268761375 0 0 0 0 379.42580668944538 767.96429391027141 0 767.96429391027141 -126.79623989581523 0 0 0 0 -348.5979127972987 222.05064257898812 0 222.05064257898812 209.58496075503353 0 0 0 0 -7.0706239351559717 -0.13486827276600621 0 -0.13486827276600621 -0.013370058845595167 0 0 0 0 -124.98202166676947 42.429160749535185 0 42.429160749535185 291.89453811535714 0 0 0 0 -52.697520193824857 -42.904137314276795 0 -42.904137314276795 106.55628899778094 0 0 0 0 104.31011067983491 140.57672638043732 0 140.57672638043732 166.75791685228614 0 0 0 0 6.4773663561452821 -0.022892782038866244 0 -0.022892782038866244 3.6182555580803637 0 0 0 0 119.1181837718741 27.320546903163631 0 27.320546903163631 9.2335002831168822 0 0 0 0 185.65077425533309 83.431784943995808 0 83.431784943995808 56.28391655057203 0 0 0 0 13.044498555564132 74.054733977434807 0 74.054733977434807 119.71460220803056 0 0 0 0 -2.3198910584501391 30.515199611369098 0 30.515199611369098 98.267544565231219 0 0 0 0 1.228689762425347 3.7942609119654662 0 3.7942609119654662 61.520471470272696 0 0 0 0 17.669624297163743 -4.9782252000731688 0 -4.9782252000731688 1.2628505364492035 0 0 0 0 21.693291179636617 -52.315990532593787 0 -52.315990532593787 -33.162143035868212 0 0 0 0 63.509736309524669 2.6355141127933166 0 2.6355141127933166 35.377746448470134 0 0 0 0 34.207673420351227 -4.0903856173650652 0 -4.0903856173650652 0.91578480148415053 0 0 0 0 73.175268532680889 0.14473981685068793 0 0.14473981685068793 -8.537161962587561 0 0 0 0 11.439554290657341 18.652884217867523 0 18.652884217867523 20.348344477469468 0 0 0 0 18.67479277251914 16.123254540176276 0 16.123254540176276 22.335294838219852 0 0 0 0 12.798249567540552 24.361498295451383 0 24.361498295451383 37.589125106736901 0 0 0 0 17.499245558237817 27.586387580766313 0 27.586387580766313 22.668608927535388 0 0 0 0 71.349989399193873 -82.165857725674869 0 -82.165857725674869 151.53926836084611 0 0 0 0 25.767440439046368 -17.14924451787283 0 -17.14924451787283 61.766511424506461 0 0 0 0 8.1644771861046337 2.9167050016941758 0 2.9167050016941758 2.1404098735086006 0 0 0 0 -30.511838392545542 126.36737949581584 0 126.36737949581584 34.661909920552716 0 0 0 0 -63.874920356825896 201.1984664319134 0 201.1984664319134 69.667825078605347 0 0 0 0 57.94693880421255 158.7303896593512 0 158.7303896593512 82.473143143599373 0 0 0 0 130.91156460103048 183.84469110222381 0 183.84469110222381 223.16864274706313 0 0 0 0 28.420925390833872 180.69942611734405 0 180.69942611734405 243.55044919230568 0 0 0 0 -35.41536852390891 113.62021665820976 0 113.62021665820976 252.38626993816433 0 0 0 0 -55.018911490649771 85.617875934456606 0 85.617875934456606 201.36464091118251 0 0 0 0 -13.881459390417149 128.34744072272224 0 128.34744072272224 129.48474196939787 0 0 0 0 1.8047709545389807 115.65825577286705 0 115.65825577286705 238.67123769906175 0 0 0 0 -60.121309240974369 132.79528449159989 0 132.79528449159989 236.36224400576612 0 0 0 0 -103.08624649498233 112.38208584392851 0 112.38208584392851 259.91558068395534 0 0 0 0 -47.118510465446889 85.436592242433107 0 85.436592242433107 202.37353382362926 0 0 0 0 -115.90287724954396 109.17171138831327 0 109.17171138831327 194.3721171422585 0 0 0 0 -51.198502239483787 106.55508393087621 0 106.55508393087621 119.15036253737344 0 0 0 0 -104.61935593534872 98.619564299919148 0 98.619564299919148 69.000294370011943 0 0 0 0 -91.965824951191053 70.47423145451512 0 70.47423145451512 115.9035925889475 0 0 0 0 -95.303093885617272 142.48936418814264 0 142.48936418814264 128.23443000939369 0 0 0 0 -142.94948991063939 0.87090008213635883 0 0.87090008213635883 16.795576427226479 0 0 0 0 -182.75836454395676 226.10401835833136 0 226.10401835833136 -228.52378179433435 0 0 0 0 -101.69556805635875 64.931433010266119 0 64.931433010266119 -22.530546639824024 0 0 0 0 -152.20594666964098 98.398634918414245 0 98.398634918414245 118.32770668184094 0 0 0 0 -158.90755921729942 117.1542566605458 0 117.1542566605458 115.81728959346219 0 0 0 0 -116.20301492302679 61.977519849478995 0 61.977519849478995 185.03240413300227 0 0 0 0 -186.69399904613965 100.20543023262144 0 100.20543023262144 230.88301179467453 0 0 0 0 -92.668733775765304 50.458408577499995 0 50.458408577499995 255.39061998996476 0 0 0 0 -175.66389065944895 18.166425868435908 0 18.166425868435908 285.4108630470364 0 0 0 0 -170.1349962627437 19.465676289703424 0 19.465676289703424 284.93228676885337 0 0 0 0 -306.92429117494612 92.463014915778331 0 92.463014915778331 246.34474229599437 0 0 0 0 -278.70952543809653 6.2840165085472108 0 6.2840165085472108 420.97562461382768 0 0 0 0 753.75952001060796 -650.09250586861526 0 -650.09250586861526 72.19708635717825 0 0 0 0 -596.86778177216911 23.339109070420818 0 23.339109070420818 595.65164251161241 0 0 0 0 -561.68437781081593 273.35463728588911 0 273.35463728588911 234.92473058554606 0 0 0 0 -327.87266936495143 -75.558796127803362 0 -75.558796127803362 312.18576150759327 0 0 0 0 -171.16734395980893 -88.80128200649051 0 -88.80128200649051 262.54917255330656 0 0 0 0 -276.18512472619659 -235.16950756195001 0 -235.16950756195001 486.2027284325668 0 0 0 0 -33.15258849419115 -2.2540308720763278 0 -2.2540308720763278 134.41504900485961 0 0 0 0 -38.277796936559753 -43.975009452929953 0 -43.975009452929953 -89.639920250413525 0 0 0 0 15.923452965849719 73.811970455357368 0 73.811970455357368 140.50174530611548 0 0 0 0 5.4443823230524231 -53.086734336053837 0 -53.086734336053837 96.310698028399202 0 0 0 0 38.586122687893294 177.82505406116161 0 177.82505406116161 -397.82034641062637 0 0 0 0 -169.96022145097231 -33.843684254385153 0 -33.843684254385153 178.44976402754128 0 0 0 0 -364.24529106117916 81.247205037107051 0 81.247205037107051 259.84564492722438 0 0 0 0 4.8778204585104987 -2.0966034711080397 0 -2.0966034711080397 0.77457531326741957 0 0 0 0 13.009630642944103 -243.42977156801135 0 -243.42977156801135 -907.1215016688584 0 0 0 0 -273.05991686738753 42.010699000122258 0 42.010699000122258 134.64949607472226 0 0 0 0 -166.50871630972688 -21.732614229920728 0 -21.732614229920728 143.01250664300733 0 0 0 0 -119.52994371633758 4.074220872924343 0 4.074220872924343 77.852911741967546 0 0 0 0 -140.06637139016311 -13.385237817970847 0 -13.385237817970847 76.002377011569479 0 0 0 0 -193.56245519076037 52.431011262942775 0 52.431011262942775 52.742499827684696 0 0 0 0 -157.26196168987008 15.893660883666598 0 15.893660883666598 77.321640893358563 0 0 0 0 -151.46917481459377 184.62084659664242 0 184.62084659664242 6.6078574721104815 0 0 0 0 -314.39947578320425 87.159687854524236 0 87.159687854524236 144.22884558330043 0 0 0 0 -221.79025471552268 48.567111338337781 0 48.567111338337781 64.075651195365936 0 0 0 0 -263.92314000195984 680.41797685975689 0 680.41797685975689 -876.1649457345884 0 0 0 0 -273.16357844354206 44.952140864066223 0 44.952140864066223 184.85158376685285 0 0 0 0 -1120.3363095131299 574.73449479460578 0 574.73449479460578 289.80416879079712 0 0 0 0 -371.98764028728078 382.23237391568864 0 382.23237391568864 -144.90842444498412 0 0 0 0 -20.133652204798636 242.63761754089137 0 242.63761754089137 -227.8246221175541 0 0 0 0 -3.517223019614903 271.31954054138259 0 271.31954054138259 -274.15405789816759 0 0 0 0 -79.204825824432191 183.53019614048208 0 183.53019614048208 -17.102438705253007 0 0 0 0 -83.922827289303314 281.08262102733715 0 281.08262102733715 -118.37148738138421 0 0 0 0 -8.6433814229403652 30.26461919076246 0 30.26461919076246 15.294164334715788 0 0 0 0 4.8520313299546913 24.458773048921149 0 24.458773048921149 0.87445085919119236 0 0 0 0 3.4264505404490002 31.1891491667241 0 31.1891491667241 25.724730302759752 0 0 0 0 33.369540351307933 96.740067854733979 0 96.740067854733979 -336.90440024093186 0 0 0 0 -36.913069855399954 37.179982538098557 0 37.179982538098557 26.997934206352511 0 0 0 0 -654.8731204711321 571.75557136310454 0 571.75557136310454 -489.07329022601334 0 0 0 0 56.576524301211975 -29.115234714385224 0 -29.115234714385224 -681.80922967476636 0 0 0 0 -3.9408107577088316 7.238540343796581 0 7.238540343796581 -4.5574010499981625 0 0 0 0 6.1822386423027638 69.008468299535707 0 69.008468299535707 -21.063235390847694 0 0 0 0 -11.531505615739942 18.52819731644567 0 18.52819731644567 13.875842423223133 0 0 0 0 -4.9238905801544988 0.44628865141570273 0 0.44628865141570273 0.14565821311335192 0 0 0 0 -596.08704882429811 336.95878600096057 0 336.95878600096057 -76.671428196601482 0 0 0 0 -331.85443259871863 -73.173913117018856 0 -73.173913117018856 58.375187858737263 0 0 0 0 -437.09734256026059 598.78916750232929 0 598.78916750232929 -725.6024082293543 0 0 0 0 -376.79586578829742 41.651278287426976 0 41.651278287426976 -376.95226887604804 0 0 0 0 25.371723249009108 -88.73324671830801 0 -88.73324671830801 -133.17798803956248 0 0 0 0 -113.45673422146319 241.65725291372382 0 241.65725291372382 -201.95218407325592 0 0 0 0 -205.05592411810358 459.44049047846056 0 459.44049047846056 -656.34026050995726 0 0 0 0 -91.864309729480738 271.02122693650608 0 271.02122693650608 -147.37625489659331 0 0 0 0 -205.14643820114372 364.33443200118109 0 364.33443200118109 -192.74794267259858 0 0 0 0 -150.92998897644702 178.7921638867864 0 178.7921638867864 230.9687148496414 0 0 0 0 -66.792604773703715 85.232577014133767 0 85.232577014133767 -133.622068700971 0 0 0 0 -96.291214369852241 102.46182575774537 0 102.46182575774537 -8.179516991794344 0 0 0 0 5.9489737643188434 1.5251817245172568 0 1.5251817245172568 -3.0344356232770995 0 0 0 0 -241.88916767037426 120.26013564497282 0 120.26013564497282 53.793951856972853 0 0 0 0 -166.82800381704328 110.13357238376602 0 110.13357238376602 -5.2647252397136981 0 0 0 0 0.12809971128321962 5.0653304369888303 0 5.0653304369888303 5.1548418430540472 0 0 0 0 -72.828445539863424 -28.127228757830153 0 -28.127228757830153 -1.1368264315678971 0 0 0 0 -32.506053842054826 8.4231322545365401 0 8.4231322545365401 63.201030302707295 0 0 0 0 -21.470657365904593 20.321806649855787 0 20.321806649855787 19.686255532304546 0 0 0 0 -18.393174738609105 49.460486985139823 0 49.460486985139823 43.586621185077092 0 0 0 0 9.208375233677998 45.212281175148007 0 45.212281175148007 43.745618345843241 0 0 0 0 27.219184805404439 81.810948634141823 0 81.810948634141823 116.64767986184415 0 0 0 0 51.047328629880461 28.910927844756316 0 28.910927844756316 -8.8541315075726743 0 0 0 0 11.867038873437044 39.593028798470669 0 39.593028798470669 65.740922519848425 0 0 0 0 15.073250651832495 81.391267261758912 0 81.391267261758912 160.17315606881311 0 0 0 0 25.910825798559472 22.785672061410878 0 22.785672061410878 70.581541405583266 0 0 0 0 -6.3598004188934283 73.675699825256743 0 73.675699825256743 156.93255727888027 0 0 0 0 22.213297806691116 16.668202300972553 0 16.668202300972553 6.4012958328694367 0 0 0 0 -0.030297894938705383 2.8304367784064333 0 2.8304367784064333 12.535853017262085 0 0 0 0 6.3837437229314347 9.4246428424004023 0 9.4246428424004023 15.590523977382819 0 0 0 0 131.79589124973609 73.264457280798524 0 73.264457280798524 76.148653921249206 0 0 0 0 70.356294073244499 45.584683258576661 0 45.584683258576661 -101.36785214674092 0 0 0 0 106.27025466299892 -9.3344058734746795 0 -9.3344058734746795 -18.238566651954898 0 0 0 0 -5.8011998831570963 44.234412299338146 0 44.234412299338146 119.18362320388042 0 0 0 0 -32.179121028904774 261.76298357668747 0 261.76298357668747 -336.45031254960486 0 0 0 0 -49.174696516178301 121.37047718650319 0 121.37047718650319 -13.853000010902178 0 0 0 0 3.9141563971452342 158.35522828081139 0 158.35522828081139 -65.146769381412014 0 0 0 0 -21.477168670267929 278.88803514508072 0 278.88803514508072 -225.80250975308081 0 0 0 0 35.943998927923531 21.917087427566003 0 21.917087427566003 102.19094825691354 0 0 0 0 -70.990973886237043 215.39720661745741 0 215.39720661745741 69.674961627706125 0 0 0 0 83.145086741553314 127.29454411619554 0 127.29454411619554 -7.8464395256924035 0 0 0 0 -99.016961985326816 440.24620597683861 0 440.24620597683861 -376.21737042627865 0 0 0 0 -271.20989026010466 298.18460824998692 0 298.18460824998692 -55.042409370652194 0 0 0 0 -58.124801903999469 346.0341995064673 0 346.0341995064673 -197.13580432560548 0 0 0 0 -119.1568542571672 155.387495975403 0 155.387495975403 202.58892111549449 0 0 0 0 -220.65103143673605 466.73719145019277 0 466.73719145019277 -355.34614686517443 0 0 0 0 -122.31495651426485 -94.065415530779319 0 -94.065415530779319 -354.66125022842562 0 0 0 0 -451.88621551330925 714.54333746415523 0 714.54333746415523 -710.90530716854937 0 0 0 0 103.7679001752349 -219.55916415828983 0 -219.55916415828983 661.40820403457747 0 0 0 0 983.55422688844465 613.90569699531261 0 613.90569699531261 -950.85186198625524 0 0 0 0 -662.32902075889797 289.05284625150307 0 289.05284625150307 1249.4824113832856 0 0 0 0 190.59864346624636 162.12338875721707 0 162.12338875721707 -921.01670492069479 0 0 0 0 11.321709096266204 10.06707793547792 0 10.06707793547792 -14.791551505357958 0 0 0 0 -0.77208522116739697 8.7260912714632113 0 8.7260912714632113 10.465271774596612 0 0 0 0 -121.44193364024494 42.505395579604283 0 42.505395579604283 110.31115920216507 0 0 0 0 47.824957092223826 47.707534732286483 0 47.707534732286483 -40.063875039655279 0 0 0 0 42.661481895604084 160.31244864668952 0 160.31244864668952 19.790997489575602 0 0 0 0 246.07186144309617 23.937720686287093 0 23.937720686287093 -139.04806885066409 0 0 0 0 93.853274511409381 242.93628333796914 0 242.93628333796914 -11.987938923446563 0 0 0 0 14.335969894937989 482.17886659283431 0 482.17886659283431 -691.46906940191911 0 0 0 0 -567.4024381856882 1157.7002663718376 0 1157.7002663718376 -67.842264732782496 0 0 0 0 -107.23830596028029 -77.069123563036555 0 -77.069123563036555 4.9916257033055444 0 0 0 0 -2.4453310313592134 0.30882095172989743 0 0.30882095172989743 3.2792720621436064 0 0 0 0 -210.74527897177632 524.53773227453439 0 524.53773227453439 91.742474876441975 0 0 0 0 -45.44543966520439 11.833429233540869 0 11.833429233540869 40.643679079108551 0 0 0 0 -54.002394022819317 224.88915051509321 0 224.88915051509321 607.04616178446486 0 0 0 0 -24.992450886549793 17.245425901669687 0 17.245425901669687 26.482261675997748 0 0 0 0 -46.992387369624339 20.056825088695405 0 20.056825088695405 -26.403954016480384 0 0 0 0 -26.249387860261777 38.07076739990498 0 38.07076739990498 -11.990444308929 0 0 0 0 -27.900077334738668 41.047739282677533 0 41.047739282677533 -25.507210373020758 0 0 0 0 -9.1621811202348908 16.413644267930067 0 16.413644267930067 -18.13249014197936 0 0 0 0 -26.234363650233206 26.350671743102136 0 26.350671743102136 13.726361959641444 0 0 0 0 -28.932745274121693 57.847473139292092 0 57.847473139292092 -58.145256630862008 0 0 0 0 -126.71683721236695 84.560298838150402 0 84.560298838150402 -33.037550802517217 0 0 0 0 -42.535924501640693 28.800755990914695 0 28.800755990914695 -6.466856704347947 0 0 0 0 -2.1720676747402692 8.783408428973603 0 8.783408428973603 -22.100649865238747 0 0 0 0 -35.051562792040613 62.274045919566532 0 62.274045919566532 -39.347195579991421 0 0 0 0 259.47060692851119 288.86942713549661 0 288.86942713549661 250.96602479190079 0 0 0 0 -30.242498143130945 19.341189179619853 0 19.341189179619853 -0.71994222902282345 0 0 0 0 -4.7815293884841701 5.226368531445706 0 5.226368531445706 4.9378999333458466 0 0 0 0 239.97570555369293 -677.97168210193468 0 -677.97168210193468 1393.4852601895805 0 0 0 0 574.27489885731165 427.00466410318404 0 427.00466410318404 276.99807030311422 0 0 0 0 -117.31502839640507 106.98158501376929 0 106.98158501376929 418.08653123420345 0 0 0 0 160.77183377037818 529.89345410731585 0 529.89345410731585 588.69394023255427 0 0 0 0 -0.46019082583279669 411.89767542563209 0 411.89767542563209 503.77611178356551 0 0 0 0 -10.115251482895474 159.881919530495 0 159.881919530495 202.65548287871735 0 0 0 0 -155.50488949723149 130.55645718031815 0 130.55645718031815 355.97654146089235 0 0 0 0 -40.634052760105078 313.80737060648266 0 313.80737060648266 568.43028275096458 0 0 0 0 62.446509751293888 169.04804078128848 0 169.04804078128848 336.63403314094558 0 0 0 0 26.06700866304891 56.226306841870837 0 56.226306841870837 -198.59512447528368 0 0 0 0 -18.168034737062928 11.090514518642781 0 11.090514518642781 -6.7947156727114049 0 0 0 0 86.944479697025599 14.56694870598767 0 14.56694870598767 -375.17391800831138 0 0 0 0 119.05526813470715 15.063830871258233 0 15.063830871258233 -180.70928824859539 0 0 0 0 -9.8691861212910226 330.71712301377215 0 330.71712301377215 133.14181506845398 0 0 0 0 111.24562959034483 315.0251576086871 0 315.0251576086871 -406.00979009581715 0 0 0 0 -92.769881597329004 66.77790897586965 0 66.77790897586965 -192.35744194743211 0 0 0 0 -252.11541790073079 329.33435490069519 0 329.33435490069519 499.8936968335056 0 0 0 0 78.498160679071589 189.23153469903991 0 189.23153469903991 -96.931187255686382 0 0 0 0 -59.455686034893006 222.27289089596889 0 222.27289089596889 119.48820615481054 0 0 0 0 -32.723401822875012 62.920440281165561 0 62.920440281165561 -61.863834011050585 0 0 0 0 -1.6884714757579786 7.119970212901535 0 7.119970212901535 -91.292920123207296 0 0 0 0 5.9056181093110354 173.18102207768243 0 173.18102207768243 -176.51878285660555 0 0 0 0 -180.0039999291148 77.34853231805937 0 77.34853231805937 68.978279435053992 0 0 0 0 -149.19333658146752 70.672413162570592 0 70.672413162570592 15.194451224961085 0 0 0 0 -117.39768418576932 96.536255433817132 0 96.536255433817132 -95.372334876642981 0 0 0 0 -123.08349372384328 103.17227110064414 0 103.17227110064414 23.835430464955152 0 0 0 0 -104.1742449016092 73.8614263241343 0 73.8614263241343 15.419066444781492 0 0 0 0 -91.536059868574739 225.92358829526802 0 225.92358829526802 -114.22252914211475 0 0 0 0 -38.60911153556264 67.122027375414504 0 67.122027375414504 -52.071763590045641 0 0 0 0 -105.82000326054049 166.05656003241256 0 166.05656003241256 83.88893122853915 0 0 0 0 2.3887140600891144 110.04992245119797 0 110.04992245119797 28.911508229226911 0 0 0 0 -47.607013497734442 45.445591390242839 0 45.445591390242839 43.123295594827709 0 0 0 0 -6.7497696594364243 67.734724085293777 0 67.734724085293777 54.328568142258518 0 0 0 0 -17.054790814020635 -50.03905461981185 0 -50.03905461981185 335.69584155663233 0 0 0 0 19.267350792319121 142.21020738323142 0 142.21020738323142 -149.09533479750962 0 0 0 0 -39.855643996577783 253.90248494358559 0 253.90248494358559 209.60260061470535 0 0 0 0 -59.945717941882322 400.50291864317512 0 400.50291864317512 -184.35389314093663 0 0 0 0 -119.90517832317528 56.098405170187107 0 56.098405170187107 321.61321431384226 0 0 0 0 -7.6072621419348181 2.4854760377625578 0 2.4854760377625578 -1.0069367870245003 0 0 0 0 -130.08486934264147 37.494954060079976 0 37.494954060079976 417.54909073333556 0 0 0 0 -210.84064318670789 128.62908449226279 0 128.62908449226279 379.13227909804129 0 0 0 0 -80.285324857328305 722.07725291343604 0 722.07725291343604 -470.39446302908254 0 0 0 0 124.79140660772828 -150.54685081819321 0 -150.54685081819321 -1181.5647619117735 0 0 0 0 51.389194384770235 167.72724783366721 0 167.72724783366721 -29.918746911702328 0 0 0 0 -124.00646270158541 -354.36036457260616 0 -354.36036457260616 621.49050458490342 0 0 0 0 -25.374095629907345 56.823450722807458 0 56.823450722807458 -58.430596983489316 0 0 0 0 -80.091577909901389 -140.66268285086426 0 -140.66268285086426 871.18858296169105 0 0 0 0 9.0621409814755935 4.1908899724816404 0 4.1908899724816404 2.6266141662779816 0 0 0 0 27.062640525917232 734.43086767417026 0 734.43086767417026 533.66947790076938 0 0 0 0 139.19667580664827 132.21709375131468 0 132.21709375131468 -460.10021571740117 0 0 0 0 -115.87511631688159 -288.15912372684983 0 -288.15912372684983 -28.461213233619674 0 0 0 0 148.82292969362697 69.197045177994298 0 69.197045177994298 -115.1964908755217 0 0 0 0 28.678071552162848 13.331143035771463 0 13.331143035771463 7.2819504435928861 0 0 0 0 97.805492230640084 -107.06040162924364 0 -107.06040162924364 312.33877826378557 0 0 0 0 -7.2931479095295799 21.944484152198811 0 21.944484152198811 267.35674489696703 0 0 0 0 -84.035434578752756 -37.239970258578069 0 -37.239970258578069 334.23414278002565 0 0 0 0 -114.91850474607418 91.183096567157918 0 91.183096567157918 283.84759953919934 0 0 0 0 5.8162145195055928 42.270737655599987 0 42.270737655599987 244.78392523838193 0 0 0 0 5.5752790795686451 37.378545804913301 0 37.378545804913301 146.5344173657104 0 0 0 0 -49.380105081607326 109.86671402499849 0 109.86671402499849 -145.77788249319747 0 0 0 0 -9.5626737399102879 25.625272481987224 0 25.625272481987224 -16.556383468385064 0 0 0 0 4.8056054594731208 37.99886941626032 0 37.99886941626032 -21.758469785975159 0 0 0 0 23.70155219219032 69.712827762832603 0 69.712827762832603 -18.781105266676605 0 0 0 0 27.947095795800124 -11.735404105549605 0 -11.735404105549605 -297.99386764680105 0 0 0 0 -22.192736007693384 129.37886304749441 0 129.37886304749441 272.10177990272314 0 0 0 0 -4.2988291456614434 6.278043050707133 0 6.278043050707133 1.412103430590784 0 0 0 0 -30.489528996290574 92.539900420314552 0 92.539900420314552 -108.01796515653587 0 0 0 0 -3.1003060680403394 51.224613354910637 0 51.224613354910637 -41.298460334155131 0 0 0 0 1.9215099260939041 12.668962752416235 0 12.668962752416235 -17.810067634968405 0 0 0 0 43.907836377620697 184.11534409807064 0 184.11534409807064 85.522396817868866 0 0 0 0 26.244876131051569 175.04268671198588 0 175.04268671198588 81.085741189865075 0 0 0 0 50.602981227260898 39.755668451922247 0 39.755668451922247 -178.72642484828066 0 0 0 0 20.148766507300024 138.2381755940587 0 138.2381755940587 159.60978355522093 0 0 0 0 20.453900657332269 -5.5857419870690137 0 -5.5857419870690137 -227.56963668471963 0 0 0 0 -10.721019843105601 8.4101882614453363 0 8.4101882614453363 -20.304309356952114 0 0 0 0 -4.9486212700785401 46.340328072778931 0 46.340328072778931 -48.686004896131919 0 0 0 0 236.69808857458884 125.48889360591647 0 125.48889360591647 -103.12497076978889 0 0 0 0 -52.730496423282602 142.27115266703186 0 142.27115266703186 -19.921201297358948 0 0 0 0 -139.17625357280122 32.322701141336438 0 32.322701141336438 -9.4490233294418431 0 0 0 0 49.844974824247402 159.93318240469853 0 159.93318240469853 -220.29701645918976 0 0 0 0 -51.278800469508496 -41.57287339391587 0 -41.57287339391587 -188.12907412578352 0 0 0 0 71.716174169585429 83.380090248130728 0 83.380090248130728 -185.61073440511245 0 0 0 0 23.100861176237231 96.33302133273537 0 96.33302133273537 96.41013276976355 0 0 0 0 1.6906421748986986 5.9306357974382991 0 5.9306357974382991 -35.573336337953918 0 0 0 0 1.9304792973406535 9.4469425484495559 0 9.4469425484495559 0.38602563882145802 0 0 0 0 -49.069033047380799 156.91612611882374 0 156.91612611882374 514.42153120948569 0 0 0 0 121.37331761020687 44.998909828969772 0 44.998909828969772 -372.2647902703502 0 0 0 0 5.5772846732361359 90.708695610224822 0 90.708695610224822 401.71193751446845 0 0 0 0 -27.537294539525647 134.13664105433963 0 134.13664105433963 379.65951847498945 0 0 0 0 -17.505537028137041 212.45269254079312 0 212.45269254079312 289.12498444309313 0 0 0 0 -72.544242199493738 254.64951380175194 0 254.64951380175194 252.78639016157103 0 0 0 0 -48.726879829715472 212.9107488300142 0 212.9107488300142 296.55511683356599 0 0 0 0 -83.208844694336221 149.90951301931636 0 149.90951301931636 280.21098495998012 0 0 0 0 -151.73391956792352 134.50188916674324 0 134.50188916674324 184.59283991567645 0 0 0 0 -166.17526258814269 269.50733560765684 0 269.50733560765684 215.68280971291097 0 0 0 0 -104.82344944153738 231.3218216311725 0 231.3218216311725 237.6290390582617 0 0 0 0 -102.64455555169479 299.64494480823851 0 299.64494480823851 251.00851237147799 0 0 0 0 -103.84158735582605 301.12234560124853 0 301.12234560124853 224.1552265559003 0 0 0 0 -139.08113115876949 247.50560834735006 0 247.50560834735006 223.19913842638198 0 0 0 0 -90.451225418231502 295.64624156952539 0 295.64624156952539 250.81973501908215 0 0 0 0 -43.376968643373402 288.72025261175804 0 288.72025261175804 228.14903871945353 0 0 0 0 5.8943707217526935 265.55543473110356 0 265.55543473110356 237.76049426109239 0 0 0 0 108.53051872833021 497.20830053685131 0 497.20830053685131 169.61657884024498 0 0 0 0 9.2292973847320354 262.20193882313879 0 262.20193882313879 28.370007798686856 0 0 0 0 -95.516781726769523 371.95563732410301 0 371.95563732410301 353.16998275293008 0 0 0 0 -150.74110538590139 269.66548635709478 0 269.66548635709478 303.18258024482202 0 0 0 0 -178.72136999959184 263.18199643562184 0 263.18199643562184 392.8324866893563 0 0 0 0 -190.79679345829754 197.26505219456158 0 197.26505219456158 818.55227439632654 0 0 0 0 685.31789816899982 1005.9570060682768 0 1005.9570060682768 255.1091587695264 0 0 0 0 38.662063415031298 -37.7730793338269 0 -37.7730793338269 -400.52268364913471 0 0 0 0 213.18471836185927 316.29619427019497 0 316.29619427019497 -413.63062612093609 0 0 0 0 0.19194033047372727 2.8603642206046516 0 2.8603642206046516 -0.21297077010092913 0 0 0 0 -172.92306812169045 89.851570403039659 0 89.851570403039659 895.48333034340794 0 0 0 0 -166.28322784401826 289.79165265607116 0 289.79165265607116 319.22981071060349 0 0 0 0 -260.01974872777828 19.292599068336131 0 19.292599068336131 -67.964072800357826 0 0 0 0 -203.99151150374382 134.47247188871825 0 134.47247188871825 9.2661546793715388 0 0 0 0 -241.30816349523229 193.03635098886298 0 193.03635098886298 -80.568196703070953 0 0 0 0 -37.777188258502065 181.57494364494869 0 181.57494364494869 -717.65194529724613 0 0 0 0 -91.528095584311814 24.000210007558053 0 24.000210007558053 -174.93295580129839 0 0 0 0 -47.753302734829049 143.59955734157847 0 143.59955734157847 -237.30610621565211 0 0 0 0 -71.311436487783794 9.7010021287678683 0 9.7010021287678683 -154.60459889595859 0 0 0 0 69.669654935525614 15.194505893437963 0 15.194505893437963 -513.24031229625325 0 0 0 0 60.156187643675366 67.722347941577027 0 67.722347941577027 396.88888584486267 0 0 0 0 42.310694094678183 177.44162416740437 0 177.44162416740437 404.99256519201299 0 0 0 0 -40.906010799855721 144.0059588394397 0 144.0059588394397 704.96762560273146 0 0 0 0 103.68630305555052 101.4415181836157 0 101.4415181836157 358.90801884789107 0 0 0 0 1.0188512680544477 6.9373957368215002 0 6.9373957368215002 -0.89079079408749884 0 0 0 0 -56.397963367802731 75.846475737109358 0 75.846475737109358 364.69268680886307 0 0 0 0 13.578237532550872 32.594508667447826 0 32.594508667447826 224.18931035751302 0 0 0 0 -52.726653099980467 107.48911164985475 0 107.48911164985475 405.92183513311829 0 0 0 0 11.878633219825133 153.06255168946882 0 153.06255168946882 282.92793007121509 0 0 0 0 -10.142491698989033 189.08082218933487 0 189.08082218933487 301.13756365699737 0 0 0 0 -70.227886292050243 193.38283324441363 0 193.38283324441363 223.33879040402826 0 0 0 0 -117.69908519901492 72.289420096460162 0 72.289420096460162 240.57295690427418 0 0 0 0 -29.857263617166609 71.33032214544437 0 71.33032214544437 161.5232580688953 0 0 0 0 -87.725478522015692 41.517622963117901 0 41.517622963117901 223.48315609636484 0 0 0 0 -147.20364734301256 19.026215609261271 0 19.026215609261271 196.59604122651945 0 0 0 0 -33.801203284800067 18.973314667516206 0 18.973314667516206 113.93190398571096 0 0 0 0 -0.83429624059863272 40.133682321331435 0 40.133682321331435 189.1880989556812 0 0 0 0 -207.28014427556627 -60.553146630605625 0 -60.553146630605625 297.70462261205193 0 0 0 0 -425.51705135673728 176.01839143155848 0 176.01839143155848 242.0612363979526 0 0 0 0 -73.124937116299407 126.33402093625773 0 126.33402093625773 223.57172370050102 0 0 0 0 -21.509271710921894 72.407650137760356 0 72.407650137760356 109.24752562203503 0 0 0 0 -150.22858569040181 77.254133591039135 0 77.254133591039135 201.28097844230069 0 0 0 0 45.455574444647937 40.900512542164506 0 40.900512542164506 209.27956137190631 0 0 0 0 76.052606995363021 121.19526039624543 0 121.19526039624543 130.5696486544839 0 0 0 0 139.4252542367467 54.045805811994796 0 54.045805811994796 0.22615572492941283 0 0 0 0 114.73442469988368 214.37927034367749 0 214.37927034367749 132.2683043134748 0 0 0 0 5.3006749813794158 130.94888721140524 0 130.94888721140524 388.87725865542598 0 0 0 0 -64.09683650381703 -9.4627684375227545 0 -9.4627684375227545 -1.5825757224301924 0 0 0 0 -51.844252224822412 -8.7459784763377684 0 -8.7459784763377684 -2.1359465142122644 0 0 0 0 -2.5751934779624861 2.2072883238109711 0 2.2072883238109711 -0.22709918920084249 0 0 0 0 91.148978604351214 136.98445762239362 0 136.98445762239362 187.92935024381586 0 0 0 0 -1.5209864999192213 0.30395576465917884 0 0.30395576465917884 -0.40551097540011938 0 0 0 0 309.83587014633576 101.67825100282789 0 101.67825100282789 127.69010616953165 0 0 0 0 -0.30837715554774547 0.85389831415844242 0 0.85389831415844242 2.6197549673492802 0 0 0 0 741.97501172349803 421.35357666305208 0 421.35357666305208 97.422014013947773 0 0 0 0 -759.18636940796569 -85.655898552318831 0 -85.655898552318831 311.52857446570124 0 0 0 0 160.98173260249314 491.00050226604435 0 491.00050226604435 426.09051171726787 0 0 0 0 245.14848087438077 255.27336619578455 0 255.27336619578455 149.12428962027479 0 0 0 0 303.54281905329117 184.71576114426352 0 184.71576114426352 109.94824997043088 0 0 0 0 405.62647844849016 140.65633065981274 0 140.65633065981274 118.12057224182354 0 0 0 0 280.91357368334684 144.18073613584966 0 144.18073613584966 100.78966658710851 0 0 0 0 273.58748945115076 198.88665610753378 0 198.88665610753378 135.44030984843994 0 0 0 0 171.50486953711516 134.5282964262733 0 134.5282964262733 123.85816609542053 0 0 0 0 -5.8625849868691944 0.90787013443600628 0 0.90787013443600628 2.2535557069450221 0 0 0 0 -3.8542062640947918 3.6077108291763551 0 3.6077108291763551 7.8280937563587116 0 0 0 0 -253.95296472994232 76.418290677163895 0 76.418290677163895 -9.8378907012956915 0 0 0 0 -43.562392367217399 72.141651911006193 0 72.141651911006193 -4.8687971536655823 0 0 0 0 -72.218579566566405 91.890444764832864 0 91.890444764832864 93.331243275330053 0 0 0 0 98.758614095937446 222.68923300963525 0 222.68923300963525 146.22025430882786 0 0 0 0 178.15369272783573 211.76644210688755 0 211.76644210688755 127.71842390926031 0 0 0 0 -0.99680154840581281 0.64565415267091453 0 0.64565415267091453 0.26580473210556477 0 0 0 0 184.74958063371014 171.9678007948969 0 171.9678007948969 144.87592201262487 0 0 0 0 -167.35694327715692 22.114101172659502 0 22.114101172659502 28.88579776242841 0 0 0 0 -123.34143603328448 47.4976996388732 0 47.4976996388732 24.76928406679508 0 0 0 0 -76.241832831303327 -4.4006560401048773 0 -4.4006560401048773 1.494500322456588 0 0 0 0 -64.735665054573474 -13.684680617789127 0 -13.684680617789127 11.580370418323582 0 0 0 0 -155.89193409453947 -68.873569463116155 0 -68.873569463116155 -21.398115295771277 0 0 0 0 -78.94783237099 -4.051574564125076 0 -4.051574564125076 5.1948191082192352 0 0 0 0 -55.014456407564552 21.892410095471647 0 21.892410095471647 6.7607454225496753 0 0 0 0 -85.341664362185838 13.31630589321685 0 13.31630589321685 21.479388497245964 0 0 0 0 41.871554805678898 -121.15326874741368 0 -121.15326874741368 168.14071341970907 0 0 0 0 -10.807142838491274 17.949405018411994 0 17.949405018411994 -10.901474929945536 0 0 0 0 -29.608761235149359 42.784599836412781 0 42.784599836412781 -2.0261036484407668 0 0 0 0 1481.3389870975443 708.34107642088566 0 708.34107642088566 186.27324731147564 0 0 0 0 -1.3080252629683713 3.6901088491974861 0 3.6901088491974861 10.557165062052462 0 0 0 0 -81.679735328878451 8.0134376791502291 0 8.0134376791502291 445.29023702616178 0 0 0 0 39.553050405926115 4.6427381419744052 0 4.6427381419744052 -17.513862726154912 0 0 0 0 -8.5031179125525753 27.252863784454661 0 27.252863784454661 3.9535635015774204 0 0 0 0 7.2467223525704014 2.0260034005623737 0 2.0260034005623737 1.590020473677356 0 0 0 0 -7.8639113056342467 28.555388118147675 0 28.555388118147675 1.4359937872404771 0 0 0 0 -42.355788610274033 34.502813550316745 0 34.502813550316745 3.9834055111564624 0 0 0 0 -74.153881263484209 70.602640997021439 0 70.602640997021439 18.13799848844792 0 0 0 0 -0.77621323672596532 2.0395649259041164 0 2.0395649259041164 -0.40511064485314985 0 0 0 0 180.50617168061581 131.24809006340183 0 131.24809006340183 -585.01416047353996 0 0 0 0 308.17837733542547 507.04200224623492 0 507.04200224623492 728.1160310972457 0 0 0 0 488.32207586674485 696.57722511699831 0 696.57722511699831 242.29300202924605 0 0 0 0 655.59391492893337 287.23816187209741 0 287.23816187209741 187.71573633680964 0 0 0 0 678.51434285084542 493.40351110608208 0 493.40351110608208 393.74109734770536 0 0 0 0 670.15914286042243 571.21055347183574 0 571.21055347183574 298.74027191082678 0 0 0 0 170.21968868408294 370.84313404360364 0 370.84313404360364 602.44998674108865 0 0 0 0 481.98140583589702 276.43563902295318 0 276.43563902295318 154.22407270938129 0 0 0 0 398.12123829171469 455.7618730306167 0 455.7618730306167 136.47125981779391 0 0 0 0 365.69680639918079 308.83105503376646 0 308.83105503376646 -58.298206235620455 0 0 0 0 534.28076441432859 320.8028168778219 0 320.8028168778219 -181.69230499376135 0 0 0 0 356.65021381273255 324.54137743047613 0 324.54137743047613 -71.348160059300426 0 0 0 0 208.48403437726665 102.11754113830466 0 102.11754113830466 -214.90093495641258 0 0 0 0 375.59491795299255 289.63987829936741 0 289.63987829936741 -121.15025453072303 0 0 0 0 -128.46429880399592 54.420025718702163 0 54.420025718702163 16.209299935947001 0 0 0 0 51.508470856446365 109.09013848750328 0 109.09013848750328 -129.39839631781433 0 0 0 0 13.645333674359193 65.327666537464935 0 65.327666537464935 12.189647111453596 0 0 0 0 125.35075019775832 79.331832554307766 0 79.331832554307766 -35.322222896969834 0 0 0 0 17.831207328414166 9.8237947382774422 0 9.8237947382774422 -1.4089299057593792 0 0 0 0 94.014617624725361 193.28213343060452 0 193.28213343060452 -39.064642537112377 0 0 0 0 -64.351106839429121 166.77339006156762 0 166.77339006156762 -33.386973369876614 0 0 0 0 -238.60356370916998 252.79956343551021 0 252.79956343551021 44.840656843054603 0 0 0 0 22.968692699083029 65.978807920360822 0 65.978807920360822 12.311056714496189 0 0 0 0 -256.46154670192482 85.445683602706595 0 85.445683602706595 70.124523799495364 0 0 0 0 -42.221648337152146 193.18106371139584 0 193.18106371139584 -16.04606860736385 0 0 0 0 -93.029578042343928 264.01839782610841 0 264.01839782610841 -35.26567807255924 0 0 0 0 -221.16268696681072 96.558416213892997 0 96.558416213892997 -11.736405025965269 0 0 0 0 429.89065689199197 306.4830246108213 0 306.4830246108213 -101.47729337798228 0 0 0 0 281.02256807408412 257.83497076820277 0 257.83497076820277 -100.27393535845295 0 0 0 0 225.14614492333203 272.99263429340499 0 272.99263429340499 -48.885385721665443 0 0 0 0 180.64143109616998 307.42350717338923 0 307.42350717338923 -42.888783469024929 0 0 0 0 162.2632871256792 252.85390449449915 0 252.85390449449915 -41.599745137718855 0 0 0 0 104.74326863564784 327.64539527919624 0 327.64539527919624 26.30424037946068 0 0 0 0 76.772218670361326 230.73656142672189 0 230.73656142672189 10.662376311739081 0 0 0 0 149.72089566032082 365.51617623808124 0 365.51617623808124 164.76089963368941 0 0 0 0 260.1565772861577 331.61283734094377 0 331.61283734094377 -13.08656443261134 0 0 0 0 389.77187162282644 331.99236218544684 0 331.99236218544684 -19.16127841548041 0 0 0 0 405.80007089721039 370.06693239899869 0 370.06693239899869 47.991759731397906 0 0 0 0 263.3450740244225 440.79725590752605 0 440.79725590752605 434.46174932971189 0 0 0 0 211.34536702030164 279.57000186336518 0 279.57000186336518 117.83270244535743 0 0 0 0 628.06553265595721 391.383694112581 0 391.383694112581 49.112984107487136 0 0 0 0 -25.072913522739327 291.15121745225497 0 291.15121745225497 349.07390835572733 0 0 0 0 -59.841698296773757 146.58554962797825 0 146.58554962797825 64.410396284045419 0 0 0 0 -167.33803493337837 69.369347726615615 0 69.369347726615615 414.10882844749722 0 0 0 0 -152.15323806225206 -8.5162523840135691 0 -8.5162523840135691 39.877364102419961 0 0 0 0 49.935384273121599 138.33272361395211 0 138.33272361395211 227.67828772184293 0 0 0 0 370.8275095605859 306.93816402037714 0 306.93816402037714 321.1550138358798 0 0 0 0 91.987004701280966 317.10068332319133 0 317.10068332319133 587.75322514022992 0 0 0 0 -184.80740056032118 247.62035572858849 0 247.62035572858849 163.15041410993581 0 0 0 0 21.718253426222695 63.269217989319387 0 63.269217989319387 9.4267454502458889 0 0 0 0 -452.95784844100854 202.80082599857997 0 202.80082599857997 124.77803935247721 0 0 0 0 -101.72404219800228 284.2079720512902 0 284.2079720512902 145.8809469070693 0 0 0 0 -267.81172531590437 58.254157853934885 0 58.254157853934885 -29.2022810532726 0 0 0 0 -259.74576634619734 120.37215200567152 0 120.37215200567152 246.17581030498695 0 0 0 0 -364.81517477345915 50.973441165653639 0 50.973441165653639 57.657172870189243 0 0 0 0 16.770916431872777 68.810710665806312 0 68.810710665806312 -2.0049635052755264 0 0 0 0 81.921042863683397 95.01504689997455 0 95.01504689997455 -99.63692750014161 0 0 0 0 143.18011238157851 129.3800356019492 0 129.3800356019492 -102.49472281039607 0 0 0 0 102.42504391819602 43.707389334689651 0 43.707389334689651 -121.68412807677669 0 0 0 0 4.5765810351913387 55.161354398032927 0 55.161354398032927 -89.706863003259059 0 0 0 0 79.588433892948387 68.734155997780817 0 68.734155997780817 -103.19589979110606 0 0 0 0 21.640980772339461 43.550722324523477 0 43.550722324523477 -61.339389893989036 0 0 0 0 139.79242227289205 -59.635180810852717 0 -59.635180810852717 -9.5688213630801329 0 0 0 0 -240.35113874875242 588.16229112281508 0 588.16229112281508 -198.70598720398038 0 0 0 0 -16.749264430192191 50.531386883790347 0 50.531386883790347 -60.139480220202891 0 0 0 0 18.584982132279038 -122.91723509279927 0 -122.91723509279927 145.82106086419481 0 0 0 0 -263.45056153305541 129.19057839916377 0 129.19057839916377 -26.473171473862749 0 0 0 0 43.361521645307221 257.21169763243233 0 257.21169763243233 -251.3176146214189 0 0 0 0 -28.146116026372511 339.33321050672566 0 339.33321050672566 -309.8934796377107 0 0 0 0 337.83973473242258 128.02363355318994 0 128.02363355318994 -366.16887362003399 0 0 0 0 -13.232078847073353 56.090283632622231 0 56.090283632622231 -46.708081672293702 0 0 0 0 -28.578372296001362 45.334619803762052 0 45.334619803762052 -18.440643430463751 0 0 0 0 -88.367969415356811 102.46499569796799 0 102.46499569796799 281.64270554163704 0 0 0 0 -38.066189630089781 49.028966724048978 0 49.028966724048978 -33.33720296187154 0 0 0 0 -18.399564146510919 30.228841218304915 0 30.228841218304915 -8.2035778849375482 0 0 0 0 -12.952591574881271 40.616875123734381 0 40.616875123734381 -57.444617551530115 0 0 0 0 -10.88808011713445 65.487325562280603 0 65.487325562280603 -24.972821787617249 0 0 0 0 -9.0951276432504145 18.203233807779995 0 18.203233807779995 -11.297616912033945 0 0 0 0 98.25505481205164 149.69872487339762 0 149.69872487339762 77.554040241797338 0 0 0 0 -20.382539236907178 30.943431426081588 0 30.943431426081588 -16.368229136623995 0 0 0 0 -28.655542997679731 41.772832925689727 0 41.772832925689727 -27.60150399407712 0 0 0 0 -12.473382511398597 23.349715053498468 0 23.349715053498468 7.6171768899683627 0 0 0 0 -96.008356090622328 14.580404075639308 0 14.580404075639308 5.1476707149558933 0 0 0 0 -10.178870973868698 2.9204841378513571 0 2.9204841378513571 18.654274772817757 0 0 0 0 72.133610906011199 62.588479408054809 0 62.588479408054809 33.164949579608219 0 0 0 0 381.36467126190109 94.970392029696086 0 94.970392029696086 -54.934969952519168 0 0 0 0 212.467260625177 236.92110035423684 0 236.92110035423684 86.668247538771539 0 0 0 0 149.37075087694893 169.2116580248844 0 169.2116580248844 25.106158640868671 0 0 0 0 146.14300450620794 182.48803456270252 0 182.48803456270252 44.567606897340738 0 0 0 0 -49.441830415977165 4.8575871456341702 0 4.8575871456341702 -7.3677610104932683 0 0 0 0 102.49578780040611 183.18516478416132 0 183.18516478416132 47.931925796085125 0 0 0 0 167.85765953659575 244.05288799094342 0 244.05288799094342 10.325377011715318 0 0 0 0 194.71289026075101 58.514809925352893 0 58.514809925352893 -50.119914781131229 0 0 0 0 2.7194603498564049 5.2540816630571001 0 5.2540816630571001 -7.7120068379300584 0 0 0 0 97.358573455892838 203.33059408523332 0 203.33059408523332 213.09950806355482 0 0 0 0 
</DataArray>
<DataArray type="Float64" Name="cross_section_updated" format="ascii">
1 0.0098366181675532058 1 1 0.0098371514044882438 1 1 1 1 1 1 1 1 1 1 1 1 1 1 0.0095833398633818363 1 1 1 1 1 1 1 0.0089779223310773211 1 1 1 0.0072607648981116348 1 1 1 1 1 0.0095845266370186682 1 1 1 1 1 1 1 1 1 1 0.010086033028249758 1 0.0041948748448250358 1 1 1 1 0.0088517401423975697 0.0036301326766690952 1 1 1 1 1 0.009600189158768908 1 1 1 1 0.009903239493858379 0.0083493940155883427 1 1 1 1 1 0.012254667461568933 1 1 1 1 1 0.011314928389511661 1 1 1 1 1 1 1 1 1 0.010426667227333555 1 1 1 1 1 1 1 1 1 1 1 1 1 0.0076522605428495233 1 1 1 0.0099110683583264816 1 1 1 1 1 1 1 1 1 1 1 1 1 0.010185243544359131 1 0.010602034202623629 1 1 1 1 0.011086394795244009 1 0.0091093056173121491 1 1 1 0.0094974063070469919 1 1 1 1 1 1 1 1 1 1 1 0.0098411993011529083 1 1 1 1 1 1 1 1 1 0.0062582815358517511 1 1 1 1 1 1 1 1 0.005872955161257111 0.0098888923353504868 1 1 0.013978994695711025 0.0081732008992298003 1 1 1 1 1 1 1 1 1 1 1 1 1 1 0.0028292154400520932 1 1 0.0010913939420884762 1 0.0097061311440754909 1 1 1 1 0.008085348111039798 1 0.011145839291528993 1 0.0077552971817112844 1 1 1 0.010191828596397416 1 1 1 1 1 0.010904513144938812 1 1 1 1 0.010269516719180477 1 1 1 1 1 1 1 1 1 1 1 1 0.0093212192555683464 1 1 1 1 1 1 1 1 0.008266923484777507 1 1 1 1 1 1 1 1 1 1 1 1 1 0.0013398458687438192 1 1 1 1 1 1 1 1 0.0090672410339229913 1 1 1 1 1 0.0076932955946559436 1 1 1 1 1 0.0019731349495403158 1 1 1 1 1 0.010117118448905737 1 1 1 7.8670660264013037e-11 1 1 0.0095867611044999253 0.002977905331669254 1 1 1 1 1 1 1 0.0075456990390612363 1 1 1 1 0.00018197651234787282 1 1 0.0084264017695817629 1 1 1 1 0.0099222217243759361 1 1 1 1 1 1 1 1 1 0.0097919416052206967 1 1 1 0.01020434129926363 1 1 1 0.010452192034081181 1 0.0089258136075813857 0.0092178014307521417 1 1 1 1 1 1 1 1 1 1 1 1 1 1 1 1 0.010970489378910743 1 1 1 1 1 1 1 1 1 1 1 1 1 1 1 1 1 1 1 1 1 1 1 0.010455059897963585 1 1 1 1 1 1 1 1 1 1 1 1 1 1 1 1 1 1 1 1 1 1 1 0.009757910730213426 1 1 0.0098075691113559092 1 1 1 1 1 1 1 1 1 1 1 0.0098638848364496282 1 1 0.0098002842918293691 1 1 0.0097869462941459866 1 1 1 1 1 1 1 0.0087883263989168708 1 0.0094038439348438502 1 1 1 0.010239120052955349 1 1 1 1 1 1 1 1 0.010815240937349844 0.0084516179567410907 1 1 1 0.0083065259680979893 1 1 1 1 1 1 1 1 0.010281416264523072 1 1 1 1 1 1 1 1 1 0.0091690701024175342 1 1 1 1 0.010332011870735503 0.0092887365456438692 1 1 1 1 1 1 1 1 1 1 1 1 1 0.01001117395077317 1 1 1 1 1 1 1 1 1 0.010016842307235096 1 1 1 0.010005696770121975 1 1 1 1 1 1 1 1 1 1 1 1 1 1 0.010393560360645877 1 1 1 1 1 1 1 1 1 0.0089733804036369047 1 1 1 0.011563113523272711 1 1 1 0.0097449985934062594 1 1 1 0.0095504416753112269 1 1 1 1 1 1 1 0.0065200393476962624 1 1 1 0.010483431348254997 1 1 1 1 0.0071921216146150499 1 1 1 1 1 1 0.0081116770243275481 1 1 1 1 1 0.0060607725638203132 1 1 0.015810248388226172 1 1 0.0039178987001555789 1 0.015974530296125784 1 1 1 1 1 1 1 1 1 1 1 1 1 0.0086053022412305221 1 1 1 1 1 1 1 1 1 1 1 1 1 1 1 1 1 1 1 1 1 1 1 1 1 1 1 1 1 1 1 1 1 0.0096059674710751511 1 1 0.011272489211071886 1 1 1 1 1 1 1 1 1 1 1 1 1 0.010435001440217015 1 1 0.0087087723958477366 1 1 1 1 1 1 1 1 1 1 1 1 0.01033403749395341 1 1 1 1 1 1 1 1 1 1 1 0.010118226831272462 1 1 1 1 1 0.010849466974900576 1 1 1 1 1 1 0.0094397983578620795 1 1 1 1 0.0085522325457092763 1 1 1 0.008815999326753721 1 1 1 0.010001342719031843 1 1 1 1 1 1 1 1 1 1 1 1 1 1 1 1 1 1 1 1 1 1 1 1 0.0095606899751815907 1 1 1 1 1 1 1 1 1 1 1 1 1 0.0098564671261412301 1 1 1 1 1 1 0.010000219346420855 1 1 1 1 0.0091258665384473178 1 1 1 1 1 1 1 1 0.0083288069747523043 1 0.0071119297549083879 1 1 1 1 1 1 0.011779596863613462 0.012495011922090175 1 1 1 0.0085219868380268828 1 1 1 1 1 1 1 1 1 1 1 0.0098191802548177141 1 1 1 1 1 0.0043960242125703165 1 1 1 0.0097529623649935237 1 1 0.015510667335257577 1 1 1 0.015228240330076546 1 1 0.0083851117328754155 1 1 0.010791922999476242 1 1 0.010281182685289124 1 1 1 1 1 1 1 1 1 1 1 1 1 1 1 1 1 1 1 1 1 1 1 1 1 1 1 1 1 1 0.015745993060104074 1 1 1 1 1 1 0.0099222514781548941 0.0089732984864909614 1 1 1 0.011271965375159957 1 1 0.0050852169506217671 1 1 1 1 1 1 1 0.0096675933755501226 1 1 1 0.01007358444920891 1 0.009949622620608712 1 1 1 1 0.017163013713818082 1 1 1 1 1 0.0097380326945786973 1 0.0091595472642599617 1 1 1 1 1 1 1 0.0094123344210209868 1 1 1 1 1 1 1 1 1 1 1 1 1 1 1 0.0082019550968453741 1 1 1 0.0090523900359877549 1 1 0.0077624257059342346 1 1 1 1 0.011452262640510807 0.011453558368504412 0.0085884354296277624 1 1 1 1 0.0097339086935747179 0.014334491771668472 1 1 1 1 1 1 1 1 0.010228589534553733 1 1 1 1 1 1 1 0.01000777907551351 1 1 0.0061565641213473972 1 1 1 1 1 1 1 0.0054781611702811595 0.010567588668532029 1 1 1 0.0077770415142101642 0.004242465922052463 0.010959378723089917 1 0.011450568919981006 0.0077887154664725913 1 1 1 0.0079317238039220903 1 1 1 1 1 1 0.010065781807877145 1 1 1 1 0.0084586335671128759 1 0.010203857917950797 1 1 1 1 1 0.0085868248378412181 1 1 1 1 0.0080553480696158378 1 0.0049419262823627115 0.0088477735900413853 1 1 1 0.0090251295314927749 1 0.01009881643338565 1 1 1 1 0.0097997311915042698 1 1 1 1 1 0.0099122876303597025 1 1 1 0.0099129474811573016 1 1 1 0.009939388387333891 1 1 0.0098503072798607864 1 1 1 1 1 0.010053433333317105 1 1 1 1 1 1 1 1 1 1 1 1 1 1 1 1 0.0093186341345776347 1 1 1 1 1 0.011646528545027301 1 1 0.0096229390073015592 0.0099674246134374197 1 1 1 1 1 1 1 1 0.0095074927188672168 1 1 1 1 1 1 0.010045750393166028 1 1 1 1 0.0104260089710035 1 1 0.006565992767897981 1 1 0.01456142561166914 1 1 1 1 1 0.006453525713963815 0.008960002328988902 1 1 1 1 1 1 1 1 1 1 1 1 1 1 1 1 1 1 0.0093437891231835987 1 1 1 1 1 1 1 1 1 0.010410133591180308 -5.222655363734674e-10 1 1 1 1 1 1 0.0039695871323715895 0.006340833204984987 1 1 1 0.0098921766017547111 0.014006813031204282 1 0.0073589082267044859 1 1 1 1 1 1 1 1 1 1 1 1 1 1 1 1 1 1 1 1 1 0.0046032557065243587 1 1 1 0.0034747796840042967 1 1 0.005882616141813575 1 1 1 1 1 1 1 1 1 1 1 1 1 1 1 1 1 0.0015267240898396758 1 1 1 1 1 1 0.010030318605320847 1 1 1 1 1 1 1 1 1 0.0098030762459517702 1 0.01248949182998331 1 1 1 0.0097063258707824653 1 0.0059523859220905733 1 1 1 1 1 1 1 1 1 1 1 1 1 1 1 1 0.0082310945006560093 1 1 1 1 1 1 0.0012012460962497417 1 1 1 0.010092927968412019 1 1 1 1 1 1 1 1 1 1 0.010955227195075554 1 1 1 1 1 1 1 1 1 1 1 1 1 1 1 1 0.012931456931632522 1 0.01000763091053752 1 1 1 1 1 1 1 1 1 1 1 1 1 0.0037046479128318884 0.009558058343080782 1 1 1 1 1 1 1 1 0.015625969033297837 0.0083313102740161914 1 0.010981683032470397 1 1 1 1 1 0.010019754451490216 1 1 1 1 1 1 1 1 1 1 1 1 0.010044805645466318 1 1 0.011311349403826425 1 1 1 0.012723823717516698 1 1 0.015248213524521076 1 1 0.010366350766271388 1 1 1 1 1 1 1 1 1 1 1 1 1 1 1 0.0086391958012931071 1 1 1 1 1 1 0.0059040470808309799 1 1 1 1 1 1 1 1 1 1 1 1 1 1 1 1 1 0.010827768972084966 1 1 1 1 0.0089204365461768697 1 1 0.0060616973865629704 1 1 1 1 1 0.0086524104323888497 1 1 1 1 0.0099744178101338621 1 1 1 1 1 1 0.0099446030897902653 1 1 1 0.0083320448314880332 1 1 0.0089628465752235667 1 1 1 1 0.006411299039670788 1 1 1 1 0.0098142044438746835 0.0099497277707140518 1 1 1 1 1 1 1 1 0.016698569397280254 1 1 1 1 0.00812854479399399 1 1 1 0.013192909089049442 1 0.016106830570020443 1 1 0.013918616123785872 1 0.00967931206739929 1 0.019044426730068918 1 1 1 1 0.0084119192275681643 1 1 1 1 1 1 0.024427268370455529 1 1 1 1 1 1 1 1 1 1 1 1 1 1 0.0032091379696217309 1 1 1 1 1 1 0.00074622155669212126 1 1 0.01279154486422506 1 0.013403007006169912 1 0.0098446301979294715 1 1 1 1 0.0075746595402459704 1 0.0074500156382774681 1 0.011359518335324649 1 1 1 1 0.0099901339248314354 1 1 1 1 1 1 1 1 1 1 1 1 1 1 1 1 1 0.0075797731649060521 1 1 0.00818401862369658 1 1 1 1 1 1 1 0.0067282121114226566 1 1 1 0.0070265677560227349 0.010222348201593697 1 0.0062348482041245639 1 1 1 1 1 1 1 0.0092080292452207113 1 1 1 1 0.010483146222825465 1 1 1 1 1 1 1 1 1 0.011477177205636884 0.010236510255460608 1 1 0.011949515260181204 1 1 0.0078670744900807849 1 1 1 0.0068242405297904273 1 0.0096354583551807177 1 0.012742732963183604 0.011588555428863308 1 0.011313539014391161 1 0.0080377139020566101 1 0.0092674175792465813 1 0.010005334403638877 1 1 1 0.0099915701537347038 1 1 1 1 0.0097648195961471708 1 1 1 1 1 1 1 1 1 1 1 0.0097116596155047974 1 1 1 1 1 0.0092768361787705228 1 1 1 1 1 1 1 1 1 1 1 1 1 1 1 1 1 1 1 1 0.0076220923915799842 0.011341444925658537 1 1 1 1 1 1 1 1 1 0.0085726602577674196 1 1 0.0085255492155927697 0.0057876702645556291 1 1 1 0.010303132473169085 0.0090504231134191093 0.010141646517432932 1 1 1 1 1 1 0.010100584622474705 1 1 1 1 1 0.0019686461496596919 1 1 1 1 0.009228151991853055 1 1 1 1 1 1 1 1 1 1 1 1 1 1 1 1 1 0.010423823677412616 1 1 1 1 1 1 1 0.00807483556663534 1 1 1 1 1 1 1 1 1 1 1 1 1 1 1 0.0097292334911115979 1 1 1 0.013725181698280832 1 1 1 1 1 1 1 1 1 1 1 1 1 1 1 1 1 1 1 1 1 1 1 0.0098805979600674939 1 1 0.0099941032573417719 1 0.0091681115236801163 1 1 0.0091067174953624944 1 0.0092339739942495658 1 1 1 1 1 1 1 1 1 1 1 1 1 1 1 1 1 1 1 1 0.0098328175974414303 1 1 1 1 1 1 1 1 1 1 0.0096853945643841088 1 1 1 1 0.0099344726921307899 1 1 1 1 1 1 1 1 1 1 1 1 1 1 1 1 1 1 1 1 1 1 1 1 1 1 1 1 1 1 1 1 1 1 1 1 1 1 0.0097954814336308829 1 1 0.0099429044666882009 1 1 1 1 1 1 1 1 1 0.0017258523881636227 1 1 1 1 1 0.0039422309818223106 1 1 1 1 1 1 1 1 1 1 1 1 1 1 1 1 1 1 1 1 1 1 1 1 1 0.010281089585704683 1 1 1 1 1 1 1 1 0.0095719212267693036 1 1 1 1 1 1 1 1 1 1 1 0.0097932249498705708 1 1 1 1 1 1 1 1 1 1 1 1 1 1 0.0097703011176237461 1 1 1 1 1 0.009988496580483926 0.0089027730546697558 1 1 1 1 1 1 1 1 1 1 1 1 1 1 1 1 1 1 1 1 1 1 0.0082977173530717797 1 1 1 1 1 0.0078241569777238416 1 1 1 0.0081421197465878711 1 1 1 0.0094008087857140425 1 0.010292123842713372 0.0095311612023543622 1 1 0.0095527861144265661 1 0.010072114602988383 1 1 1 0.0098724649445998611 1 0.010324849471707656 1 1 1 1 1 0.010275529546842428 1 1 1 0.0088256266192587272 1 1 0.0099187216776987601 0.009719083228128313 1 1 1 1 1 1 0.0099996511333560762 1 1 1 1 1 1 1 1 1 1 1 1 1 1 1 1 1 1 1 1 1 1 1 0.0094095954841686199 1 1 1 1 1 1 0.011195445244945262 1 1 1 1 1 1 1 1 1 1 0.0096395574126141668 1 1 1 1 1 1 0.010073511387618141 1 1 1 1 1 1 1 1 1 1 1 1 1 1 1 1 1 1 1 1 1 0.010208888119994599 1 1 1 1 1 0.010081867194735993 1 1 1 1 1 0.0085387116443869267 0.0087953232682634677 1 0.011477291182060713 1 1 1 1 0.010926762859117979 1 1 1 1 0.0103028140432455 1 1 1 1 1 1 1 1 1 1 1 1 1 1 0.010289331910814242 1 1 1 1 1 0.012316259702987787 1 1 1 0.0077796793290579348 0.0084895701316859019 1 0.012402903519976678 1 1 0.01102644911381182 1 0.0097502389493259421 1 1 0.0099955452930406627 1 1 1 1 1 1 1 1 1 1 1 1 1 1 1 0.011833730768215606 1 1 1 1 1 1 1 1 0.013469788061974753 1 1 1 1 0.010498168565164705 0.0092090733113907239 1 1 1 1 1 1 1 1 1 1 1 0.0101814449433426 0.010438876358123454 1 1 1 1 1 0.010313790072032194 1 0.0095211142272671745 1 1 1 0.0099929363508156586 1 1 1 1 1 1 1 1 1 1 1 1 1 1 1 1 1 1 1 0.011835187393545592 1 1 1 0.014528070854609217 1 1 1 1 1 1 1 1 1 1 1 0.0044246034223277639 1 1 1 0.011855030532190933 1 1 1 1 1 0.0025986011266859663 1 1 0.01111927864217269 1 1 1 1 1 1 1 1 1 1 0.011274791539013 1 1 0.011490403450979771 1 0.012534353466235106 1 1 1 0.0082912322061980612 1 1 1 1 1 1 1 1 0.012333856943017326 1 1 1 1 1 1 1 1 1 1 0.013897943221368742 1 1 1 1 1 1 1 1 1 1 1 1 1 1 1 1 1 1 1 1 1 1 1 0.0035592581511918169 1 1 1 0.0050672831388407849 1 1 1 1 1 1 1 0.0098199293336709518 1 1 1 0.0098007487907808295 1 1 1 1 1 8.4734299438116167e-11 1 1 1 1 1 1 1 0.0087703744127060612 1 1 1 1 0.0079808589850712958 1 1 0.009904870213030794 1 1 0.0062208613393053488 1 1 1 1 1 1 1 1 0.010813536688241077 1 1 1 1 1 1 1 1 1 0.0031240132591580823 1 1 1 1 0.0055951561388768757 1 1 1 1 1 1 1 1 1 1 1 1 1 1 1 1 0.0089333256894416867 1 0.013473331268611994 1 1 1 1 1 1 1 1 0.010294318948140414 1 1 1 1 1 1 1 1 1 1 1 1 1 1 1 1 1 1 1 1 1 1 1 0.010849763034361585 1 1 1 1 1 1 0.005352452102732606 1 1 1 1 1.8934759606148779e-05 1 1 1 0.0084396168858763086 0.0025681648265599155 1 0.012748234910704787 1 1 0.010003227140214163 1 1 1 1 0.010895220077733664 1 1 1 0.0062622972597731058 1 1 1 0.0042758629049187702 1 1 -1.002333632760255e-12 1 1 1 1 1 1 1 0.0053465459563255529 0.0016857665178731801 1 1 1 1 1 0.0013471600655598709 1 0.0099253200118129062 1 1 1 1 1 1 1 1 1 1 1 1 1 1 1 1 1 1 0.01020819579489899 1 1 1 0.010280501319527652 1 1 1 1 1 1 1 1 1 1 0.010067097657175391 1 1 1 1 1 1 1 1 1 1 1 1 0.008766745423461909 1 1 0.006464097957461409 1 1 1 1 1 1 1 1 1 1 1 1 1 1 1 1 1 1 1 1 0.0099947921325467329 1 0.010232534166778738 1 1 1 1 0.010132886968281234 1 1 1 1 1 1 1 0.010099892670204971 1 1 0.010387990522645836 1 1 1 1 1 1 1 1 1 1 1 1 1 0.010959807241670345 1 1 1 0.010375829393582538 1 1 1 1 1 1 1 1 1 1 1 1 1 1 1 1 1 1 1 1 1 1 1 1 1 1 1 1 1 1 1 1 1 1 1 1 1 1 1 1 1 1 1 1 1 1 1 1 1 1 1 1 1 1 1 1 1 1 1 1 1 1 1 1 1 1 1 1 1 1 1 1 1 1 1 1 1 1 1 1 1 1 1 1 0.010171028698581178 1 1 1 1 1 1 1 1 1 1 1 1 1 1 1 1 1 1 1 1 1 1 1 1 1 1 1 0.0096738789164619622 1 1 1 1 0.0096996192635257633 1 0.0084528691136754146 1 0.0072083525330726879 1 1 1 0.010087658741578721 1 1 1 1 0.0081781322238191848 1 1 0.0093347070892976815 1 1 1 1 1 1 1 1 1 1 1 1 1 1 1 1 1 1 0.013716169547775735 0.0099611949533423595 1 0.010270186915144905 1 1 1 0.011745853995953593 1 1 1 1 1 1 1 1 1 1 1 0.0091536923846524294 1 1 1 1 1 1 1 0.011436019696177848 1 1 1 1 1 1 1 1 1 1 1 1 1 0.010381253695120716 1 1 1 1 1 1 1 0.0074115669518417422 1 1 1 1 1 1 1 1 1 1 1 0.011260214636948523 1 1 1 1 1 1 0.0098014230392355645 1 1 1 1 1 1 1 1 1 1 0.0098365627341494444 1 0.0053348123948599984 1 1 1 1 1 1 1 1 0.0098168152910191389 1 1 1 1 1 0.0079819965750413599 0.013086831372588854 1 1 0.008830675348675994 1 1 1 0.0082249943451299934 1 0.010008352213947219 1 1 1 1 1 1 1 1 1 0.0076915821467717152 1 1 0.011819171809631969 1 1 0.010870016424659103 0.0070494014380131625 1 1 0.01059189613725163 0.012051402621906604 1 1 1 0.011127380266431503 1 0.0096948453211895703 1 1 1 1 1 0.011339691213381211 1 1 1 1 1 0.0095328968892106347 0.009827687659774053 1 1 1 0.01057845207138387 1 1 0.01174354443518719 1 1 1 1 0.010740195313777977 1 1 1 1 1 1 0.012339612997147795 1 1 0.010848965427176657 1 1 1 1 1 1 1 1 1 1 1 1 1 1 1 1 1 1 0.0098509693709131138 1 0.017945198219256338 1 1 1 1 1 1 1 1 1 1 1 1 1 1 1 1 1 1 1 1 1 1 0.012013958821281298 1 1 1 1 1 0.01027000507819039 1 1 1 1 1 1 1 1 1 0.010185497652173574 1 1 1 1 0.013726484832568333 1 1 1 0.010099656079827912 1 1 0.012036927445133147 1 1 0.0071964982489848353 1 1 1 0.010833121110819202 1 0.0078154678069405105 1 1 1 1 0.010384199216892121 1 1 1 1 1 1 1 1 1 1 1 1 1 1 1 1 1 1 1 1 1 1 1 1 1 0.010026421180334786 0.01122887664993558 1 1 1 1 0.011734502383434032 1 1 1 0.017670144353341702 1 1 1 1 0.0097936814695636972 1 0.0099993724524165203 1 1 1 1 1 1 1 1 1 1 1 1 1 1 0.011450002223100211 1 1 0.01235571979053343 1 0.0091759706659790795 1 1 0.010483061010781577 1 1 1 1 1 1 1 1 1 1 1 1 1 1 1 1 1 1 1 1 1 1 1 1 1 1 1 1 0.011546663241986832 1 1 1 0.013826612420398338 1 1 1 0.010242414246091527 1 1 1 1 1 1 1 1 1 1 1 1 1 1 1 1 0.010963125252327755 1 1 1 1 1 0.010399275735461753 1 1 1 0.01047066128297211 1 1 1 1 1 1 1 1 1 1 1 1 1 1 1 1 1 1 1 1 1 1 1 1 1 1 1 1 1 1 1 1 1 1 1 1 1 1 1 1 0.010278130911696362 1 1 0.01138849043680825 1 1 1 0.011359430809791869 1 1 1 1 1 1 1 0.0092123311605839739 1 1 1 1 0.0095450358060700374 1 0.015068614073145144 1 1 1 1 1 1 1 1 0.01010297845401705 1 1 1 1 1 1 0.010530302683281013 1 1 1 1 1 1 1 1 1 0.0096558393241675602 1 1 1 1 1 1 1 1 1 1 0.010531072983927539 1 1 1 1 1 1 1 1 1 0.011203025913656772 1 1 1 1 1 0.012476046802864856 1 1 0.011275686791414928 1 1 1 1 1 1 1 1 1 1 1 1 0.01274835606333416 0.011134779648132323 1 1 1 1 1 1 1 1 0.011614848444275587 1 1 1 1 1 1 1 1 1 1 1 1 1 1 1 1 1 1 1 1 1 1 1 1 1 1 1 1 1 1 1 1 1 1 1 1 1 1 1 1 1 1 1 1 1 1 1 1 1 1 1 1 1 1 1 0.0067301554558616 1 0.0054428652725462962 1 0.011099832065335366 1 0.0099361356106908785 1 1 1 1 1 0.016110094875853114 1 1 1 1 1 1 0.015942444649884587 1 1 0.010778912164942211 1 1 0.010387343466447457 1 1 1 1 1 0.0081171308607136776 1 1 1 1 0.0094200577638751982 1 1 1 1 1 1 1 1 0.010437708464057159 1 1 1 1 1 1 1 1 1 1 0.0092396312727809453 1 1 1 1 0.0090206105470839668 1 1 1 1 0.0094606763762809555 1 1 1 1 1 1 1 1 1 1 0.010134009010734564 1 1 1 1 1 1 1 1 0.0093552234597090653 0.0097559662913169615 1 1 1 1 1 1 1 1 1 1 1 1 1 1 1 1 1 1 1 1 1 1 1 1 1 0.010338146390032596 1 1 1 1 0.010200879804787759 1 1 1 0.01019525534966176 1 1 1 1 1 1 1 1 1 1 1 1 1 1 1 1 1 1 1 1 1 1 1 1 1 1 1 1 1 1 1 1 1 1 1 1 1 1 1 1 0.012997970845557521 0.011086389254110263 1 1 1 1 1 1 1 1 1 1 1 1 1 1 0.014201376383720545 1 1 1 1 1 1 1 1 1 1 1 1 1 1 1 1 1 1 1 1 0.010416479196525275 1 1 0.012610917053608645 1 0.01208981124930214 1 0.013970527540044927 0.0098770230704628564 1 1 1 1 1 1 1 1 0.010543465004764 1 0.0089691377673207159 1 1 1 1 1 1 1 1 1 1 1 1 0.013980853360210398 1 1 1 0.010519290367225046 1 1 1 1 1 1 1 1 1 0.011894783586266226 1 1 1 0.0096630416811639905 1 1 1 0.010249679494948098 1 1 0.014977673195852938 1 1 1 1 1 1 0.010051513813225346 1 1 1 1 1 1 1 1 0.010052101729054016 1 1 1 1 1 1 0.0094705629329717295 1 1 1 1 1 1 0.0098142710016076301 1 1 1 1 1 0.0096967273277994599 1 1 1 1 1 0.0089891747139014058 1 1 1 1 1 1 1 1 1 1 0.010100717716119955 1 1 1 1 1 0.010253407037795301 1 1 1 1 1 1 0.010346753148677891 1 0.015770668387723945 1 0.009966152235663911 0.010082681211664571 1 1 1 1 1 1 0.013173470341239299 1 1 1 1 1 1 1 1 1 1 1 1 1 1 1 1 1 1 1 1 1 1 0.010755892361390223 1 0.022303988945108329 1 1 1 1 0.014750708293880806 1 1 0.016686931839712996 1 1 1 1 1 1 1 0.014135511821952076 1 1 1 0.010033936282575297 1 1 1 1 1 0.011354721142387296 1 1 1 1 1 1 0.014010625999812891 1 1 1 1 1 1 1 1 1 1 1 1 1 1 1 0.010229518516913913 1 1 1 1 1 1 1 1 1 1 1 1 1 1 1 1 1 1 1 1 1 1 1 1 1 1 1 1 1 1 1 1 1 1 1 1 1 1 1 1 1 1 1 1 1 1 1 1 1 1 1 1 1 1 1 1 1 1 1 1 1 1 1 1 1 1 1 1 1 1 1 1 1 1 1 1 1 1 1 1 1 1 1 1 1 1 1 1 1 1 1 1 1 1 1 1 1 0.015515387687369982 1 0.016561212908984185 1 1 1 1 1 1 1 0.0081749916285703654 1 0.010553531519176833 1 1 0.020348148061254331 0.007047032999108898 0.0098790156307471746 1 1 1 1 1 1 1 1 1 1 1 0.016231565334348337 1 1 1 1 1 0.01561618412490345 1 1 1 1 1 1 1 1 1 1 1 0.010331969511947495 1 1 1 1 1 0.0067403330883064015 1 1 0.019598277781220464 1 1 1 1 1 1 1 1 1 1 0.0099365286847442162 1 1 0.010037613085813251 0.0090809218657699406 1 1 1 1 1 0.012845021653060378 1 1 1 1 1 1 1 0.018736322257093992 1 1 1 1 1 1 1 1 0.011000783451085209 1 1 0.018241017940858008 1 1 1 1 1 0.010931961534351397 1 1 1 1 1 1 1 1 1 1 1 1 1 1 1 1 1 1 1 1 1 1 1 1 1 1 1 1 0.017556901347567815 1 1 1 1 1 1 0.010357161482019834 1 0.010072413990491774 1 1 1 1 0.016239818393136863 1 1 1 1 1 1 1 1 1 1 1 1 1 1 1 1 1 1 1 1 1 0.0083118678244076677 1 1 0.011594824269557829 1 1 1 0.0089774273633829275 1 1 1 1 1 1 1 1 1 1 1 0.010142891040370828 1 1 1 1 1 1 1 1 0.0094509110552820561 1 1 1 1 1 1 1 1 1 1 0.010672802438030426 1 1 1 1 1 1 0.010361782388627359 1 1 1 1 1 1 1 1 0.011693734545101933 1 1 1 1 1 1 1 1 1 1 1 1 1 1 1 1 1 1 1 1 1 0.0089196151466059224 1 1 1 1 0.0098647334282344259 1 1 1 1 1 0.0074503472857907604 0.010048392004802127 1 0.0081715404849806682 1 0.013998394061601086 0.0059249638410080428 1 0.012262405832822039 1 0.012290898289188314 1 1 0.012872590511869101 1 0.013846314611303069 1 0.0088430602065518674 1 1 0.010942715356030757 1 1 0.015294181005960927 1 0.009978074132557066 1 1 1 1 1 1 1 1 1 1 1 0.0099224093210466113 1 1 0.010167286464162446 0.015505711322256734 1 1 1 1 1 1 1 0.014705740037146687 1 0.0096533609574972253 1 1 1 1 0.0077769229031390674 0.013234954623889603 0.013327127625074157 1 1 1 0.011790626689917301 1 1 1 1 1 0.010022695589153478 1 1 0.019115744852241347 1 1 1 1 1 1 1 1 1 1 1 1 0.019299229953754708 1 0.0079879366096037643 1 1 0.013832637003215024 0.011477161712198931 0.0099359329873386845 0.011315479853611528 1 1 1 1 0.010256409711783539 1 1 1 1 1 1 1 1 1 1 1 1 1 1 0.016606064943415613 1 0.0081416535930550725 0.016171048707728897 1 1 0.013518055719026437 1 1 1 1 1 0.012443208606284334 0.010040963733216585 1 1 1 1 0.009997770159218539 1 1 1 1 1 1 1 0.010098081947760464 1 1 1 1 1 0.0076471257643213626 1 1 1 1 1 1 1 1 0.0100096646858857 1 1 1 1 1 0.0070142003183425779 0.011506228619263202 1 0.010761345116124518 1 1 1 1 1 0.011342445988595243 1 0.0077080244888619934 0.012953647545028629 1 1 1 0.0086577635605511252 1 1 1 1 0.0092901071153944099 0.0099640193636614839 1 1 0.014335870371721696 1 1 0.0088077309129556518 1 0.008626343779961047 1 0.012034490080115305 1 1 0.012582456981529336 1 1 0.0085584644609835846 0.0092554718732000846 1 0.013183807072566125 1 1 1 1 1 0.010011331658891117 1 1 1 1 1 0.0099510550410283859 1 1 1 0.012740442553914107 1 1 1 0.013785575244094496 0.010357350397685556 1 0.006963804727874839 1 0.010044372624014756 0.010407737527340106 1 0.0094790937055482041 1 1 1 0.0082550893412841816 1 1 1 1 1 0.0098288602784609366 1 1 1 0.010099951025536565 0.0098312930468065739 1 1 1 1 1 1 0.0079946482960752061 1 1 0.014420842746488874 0.010901395957996322 1 1 1 1 1 0.0092421284719727305 1 0.0099990443093606277 0.0099024335232478881 1 0.009042492830916956 1 0.010402400748811597 1 0.0096410752967590035 1 0.012459929409936531 0.012409276501035373 1 0.010905301703058158 1 0.0091557781004661318 0.010943797888711734 1 1 0.0088464835052037699 0.013821882544319944 1 1 1 1 0.019553257204387761 0.0099618120603032663 0.011095867300474982 1 1 1 1 1 1 1 1 1 1 1 1 1 1 1 1 1 1 1 1 1 1 1 1 1 0.010123759354559947 1 1 1 1 1 1 1 0.0099883412836559698 1 1 1 1 0.014168372649279268 1 1 1 0.010004493427358943 1 1 1 1 0.0091498146143478287 1 1 1 1 0.011739140386548247 1 1 1 1 1 1 0.010464101739442693 1 1 1 0.0085348975237375946 0.0099990954920057638 0.013577348116849927 1 0.012513511254656459 1 1 0.010451321554782761 1 0.007355177932459725 1 1 0.0077175692889895481 1 0.0093522689227558443 1 1 1 0.011129348817542874 0.0072669999178590731 1 1 1 0.011367391829986567 1 1 1 1 1 0.011199497165901035 1 0.0091514210837867239 0.0097809936569131836 1 1 0.010036047214131972 1 1 1 1 0.010087207063415513 1 1 1 1 1 0.010327007749799328 1 1 1 1 1 1 1 1 1 1 1 0.010081070520162723 0.011600387752516921 1 1 0.011184295353848293 1 1 0.010022737463470918 1 1 1 1 1 1 1 0.009961010632948436 1 1 1 1 1 1 0.0098988374801486749 1 1 1 1 0.010000439098408503 0.010718055392219733 1 1 1 1 1 0.011457663886400567 1 1 1 1 1 1 1 0.010544954573194947 1 1 1 1 1 1 1 1 1 1 1 1 1 1 1 1 1 1 1 1 1 1 1 1 1 1 1 1 1 1 1 1 1 1 1 1 1 0.0096644986763644442 1 1 1 1 1 1 1 1 1 1 1 1 1 0.0088917131418916433 1 1 1 1 1 0.0092083857788243517 1 1 0.0094354325735880405 1 1 1 1 1 1 1 0.0084177877828574901 1 0.010775415086954386 1 1 1 0.0093870923488381455 1 1 1 1 1 1 1 1 1 1 1 1 1 1 1 1 1 0.011982087784744543 1 1 1 0.011160507972695421 1 1 1 1 1 1 1 1 1 1 1 1 1 1 1 1 1 1 1 1 1 0.011536200609942886 1 1 1 1 0.012049209454730465 1 1 1 1 1 1 1 0.010589660552966215 1 1 1 1 1 1 1 1 1 1 1 1 1 1 1 1 1 1 1 1 1 1 1 1 1 1 1 1 1 1 1 1 1 1 1 1 1 1 0.0097747485410024006 1 1 1 1 1 1 0.010393318491018584 1 1 1 1 1 1 1 1 1 1 0.011859464114813402 1 1 1 0.007467062478359314 1 1 0.010002947459427352 0.01108071789731755 1 1 1 1 1 1 1 1 1 1 1 1 1 1 1 1 1 1 1 1 1 1 1 1 1 1 1 1 1 1 1 1 1 0.010058830507115823 1 1 1 1 1 1 0.012178674985388011 1 0.010178901463337166 1 1 1 1 0.0092913946106106746 0.010001701589037848 0.0092810680799439819 0.012717740714780134 1 1 0.0073766531927880706 0.0093043483852087473 1 1 0.0097094159062905833 1 1 1 1 1 0.0070242118619988636 1 1 1 1 1 1 0.010070628061757538 1 1 1 1 1 1 1 1 0.015227318037946974 1 0.013131124379709315 0.0067613248773655422 0.013139676412420162 1 1 0.0099781771324648633 1 1 1 1 0.0098014423163367143 1 1 0.010177619853742938 1 1 1 1 1 1 1 1 0.01883753321380844 1 1 1 1 0.010846074574622881 1 1 1 1 1 1 1 1 1 1 0.014285338145749671 0.010346863761043211 0.013179757440466964 1 1 1 1 0.014377515227567583 1 1 1 0.0094030104954707268 1 1 0.016791301893738703 0.0070375405682610824 1 1 1 1 1 1 1 1 1 1 1 1 1 1 1 1 1 1 1 0.0094089798605282628 1 1 0.0081978380952216125 1 1 1 1 1 1 1 1 1 1 1 0.011114258771203759 1 1 1 1 1 1 1 1 1 1 1 1 1 1 1 1 1 1 1 1 0.0099369872358923451 1 1 0.015839316147233461 1 1 1 1 1 1 1 1 1 1 1 1 0.013950024063111282 0.013583310610822729 1 0.010303546307759846 1 0.010286902759047525 1 1 1 1 1 1 0.016776446604390961 1 0.010597614039546552 1 0.022199269500772431 1 1 0.0084814867909986241 1 1 1 0.0095444518599077151 1 0.020196831217622859 1 1 1 1 1 1 1 1 1 1 0.0050130742286430587 1 1 1 1 1 0.0098121344847452024 1 1 0.0021777915444884458 1 1 1 1 0.020449019590375393 0.024149514357996636 1 1 1 5.5603716687768583e-05 1 0.0014675914312438157 1 1 1 1 1 1 1 1 1 0.021828366870170583 1 1 1 1 1 1 0.010559001069214978 1 1 1 1 1 1 1 1 1 1 1 1 1 1 1 1 1 1 0.010020107264922178 1 1 1 1 0.011755534584023309 1 1 1 1 1 1 0.0099241267977321981 0.011516183285050283 1 1 1 1 1 1 0.0098915454711281294 1 1 1 1 1 1 0.010610270640620856 1 1 0.011622014877138492 1 1 1 1 0.012286949287641645 1 1 1 0.00054356782106440051 1 1 1 0.014849587654232107 1 1 0.0061528170485424831 1 0.0071162806657447735 1 0.014233508531458385 1 1 1 1 1 0.00036213714637408669 1 1 0.010005793171199533 1 0.00073060174812084565 1 1 1 0.001172905072750547 1 0.00031760913334112585 1 1 1 1 1 1 1 1 1 1 1 1 1 1 1 1 1 1 1 1 0.0087271271582512761 1 1 1 1 1 1 0.0095147175596097845 1 1 1 1 1 1 1 0.010948996802692332 1 1 1 1 1 1 1 1 1 1 0.012858395894387134 1 1 1 0.014695032209067198 1 1 0.0081595690776790561 1 1 1 1 1 0.014482744191385564 1 1 0.017370271744519973 1 1 1 1 0.010195686970335519 0.019797409502434526 1 1 0.0098838849211582546 1 1 1 0.0093252335850241078 1 1 0.014976620653047217 0.0085756575525800828 1 1 1 0.0083030519092374619 1 1 1 1 1 1 1 1 1 1 0.010218586422103031 1 1 1 1 1 1 1 1 1 1 0.0097862335075036815 1 1 1 1 1 1 0.011743460509976631 1 1 0.010493598359693717 1 0.010091285317780132 1 1 0.012723897641320422 1 1 1 0.010000818060772944 1 1 0.010005294361671557 1 1 1 1 0.009238041535697886 1 1 1 1 1 1 1 1 1 1 1 1 1 1 1 1 1 1 1 1 1 1 1 1 1 0.011300567555061952 0.013747745306219956 1 1 1 1 0.015751539364978553 1 1 1 1 0.016971987411689329 0.0099905433544295631 0.017017569296244324 1 1 0.0097482186435229462 1 1 0.014007994892582799 1 1 1 1 1 0.015856042690795352 1 1 1 1 1 1 1 1 1 0.0085093572689656522 1 1 1 1 1 1 1 1 0.0097452773813662512 1 1 1 1 1 1 0.0098503434830632015 1 1 1 1 1 1 1 1 1 1 1 1 1 1 1 1 1 1 1 1 1 0.0099947763561228538 1 1 1 1 0.016666699023633651 1 1 1 1 1 1 1 1 1 1 1 1 0.008001842127328641 1 0.010157934841312107 1 0.0094862432832964645 1 1 1 1 1 0.0045354699754765731 1 0.0019864825433454011 1 0.013173251927000498 1 1 1 1 0.01003685362896772 1 0.0099356513926449151 1 1 1 1 0.0084343537252779821 1 0.012680953053923309 1 1 1 0.017022054317341464 1 1 1 1 0.011009469095955118 1 1 0.014331557111936183 1 1 0.012416443212154344 1 1 1 1 1 1 0.0099987235223165469 0.011051401954056624 1 1 1 0.0073929035359918223 0.0082550512110161674 1 1 1 1 1 1 1 1 1 1 1 1 0.0063815954871348788 1 1 0.012135733411720008 1 1 0.012225049159641312 0.0058844152125308198 1 1 0.011315812654620873 1 0.0069791560626651147 1 0.0087055045833833236 0.007076247761447595 1 1 0.012121764550869206 1 1 0.011329165122890917 1 1 1 0.01387225401324481 1 1 0.0099983854865552859 1 0.011867418484445566 1 1 1 1 1 0.01213255779133254 1 1 1 1 1 1 0.0095457962905414039 1 0.011180357397148545 1 1 1 1 0.011930482877616224 1 1 1 1 0.012558721381153118 1 1 1 0.0099993104912371299 1 1 1 1 1 1 1 1 0.015610526653094368 1 1 0.010243994887138765 1 1 1 0.011234620871129787 1 1 1 1 1 1 1 1 1 1 1 0.011308431150400351 1 1 1 1 1 1 1 1 1 1 1 1 1 0.010082771669817716 1 1 1 1 1 1 1 1 1 1 1 1 1 1 1 1 0.010106728444951401 1 0.015416572873674159 1 1 1 0.0051379168197474533 1 1 1 0.010213646617835418 1 0.0063386901174651393 1 1 1 1 0.010060243091635029 1 1 1 0.010811052655605689 1 1 1 1 1 1 0.010112094647794881 1 1 1 0.010854734330382329 1 1 1 1 1 1 1 1 1 1 1 1 1 1 1 1 1 1 1 0.010233513784115581 1 1 0.010780475363202296 1 1 1 1 1 1 1 0.012334311713582801 1 1 1 1 0.0071596907927152422 1 1 0.0073572439329020467 1 1 0.012162475124692025 1 1 0.0070130371887332024 0.010007900952541284 1 0.01069228142232841 1 1 1 1 0.0085201388303111046 1 0.0074897869353294094 1 1 0.01189616734681611 1 1 1 1 1 1 1 1 1 1 1 1 1 1 1 1 1 1 1 0.0083647176582199098 1 1 1 0.009930127456753271 1 1 1 1 0.0099507837766939639 0.01204633868668919 1 1 1 0.0047543777848113658 1 1 0.005735174217684923 1 0.0071162784218766076 1 0.0099880318323826052 0.010562192922659887 1 1 1 0.007314021302931433 1 1 1 1 1 1 1 1 0.0064632656534703717 0.011179337812602859 0.010004244089285259 1 1 1 1 0.0068286322128914591 0.0070750710578625781 1 1 1 0.0049965480691679578 1 0.0072739956105483134 1 1 0.0091716766918744433 1 1 1 0.0091436238766220146 1 1 1 1 0.0075500655467150377 1 1 1 1 1 1 1 1 1 1 0.010131112595609476 1 1 1 0.0097278586640505236 0.011414208309942817 1 1 1 1 1 0.012877444050170448 1 1 0.009056409378637666 1 0.006515495199759554 1 0.0061165421125614064 0.0055257273652783538 1 1 1 1 1 1 0.010255892826097707 1 1 1 1 1 1 1 1 1 1 0.0064471649781393092 1 1 1 1 1 1 1 1 1 1 1 1 1 1 1 1 1 1 1 1 1 1 1 1 1 1 1 1 1 0.01105176056619217 1 1 1 1 0.011890287013966064 1 1 1 1 0.013432110972955387 1 1 1 1 1 1 1 0.010088719568356127 1 0.010117405711415089 1 0.011231823284491611 1 1 0.012117627961977134 1 1 0.0093999334998614761 1 1 1 1 1 1 0.0113965547657071 1 1 1 0.012636047379475846 1 1 1 1 0.0057527074137653979 1 1 0.0097294697793144716 1 1 1 1 0.0069088602848548612 1 1 0.008852736145537882 1 1 0.0098460641990965742 1 1 1 1 1 0.0080439137799127383 1 1 1 1 1 1 1 1 1 0.011025298406410285 1 1 1 1 1 1 1 1 1 1 1 1 1 1 1 1 0.015995754183638262 1 0.011832536730816398 1 1 0.0099413223835139244 1 1 1 1 0.0068021336561198209 1 0.0085683862407097775 1 1 1 1 0.011692493178675191 1 1 1 0.014826318142301374 1 0.0099886908426700047 0.0085843173473099752 1 1 1 1 1 1 0.012510620341479123 1 1 0.0078826283903546852 0.0071231697686763469 1 1 1 1 1 1 1 1 1 0.0098294497936213393 1 1 1 1 1 0.0096350671889997783 1 1 0.0091714390996891094 1 1 1 0.0085334906991184015 1 1 1 1 1 1 0.012315354923269272 1 1 1 1 0.01011742346372476 1 1 1 1 1 0.010535842588686695 1 1 1 1 1 1 1 0.0093567069101235939 1 1 1 1 1 1 1 1 1 1 1 1 1 1 1 1 1 1 1 1 1 1 1 1 0.0082113384323175866 1 1 1 1 1 1 1 1 1 1 1 1 0.0073069707662382962 1 1 1 0.0065856341685276779 1 1 1 1 1 1 1 1 0.0099013364566990468 1 0.011136320011871547 1 1 1 1 0.0090640260043154033 1 1 1 1 0.0094096723812330252 1 1 1 1 1 1 1 1 1 0.010227471711568384 1 0.0095198468503692596 0.0099996195579358724 1 1 0.0099143419322279269 1 1 1 1 1 1 1 1 1 1 1 1 1 1 1 0.009671733634667461 1 1 1 1 1 1 1 1 1 1 0.0098604249334304939 1 1 1 1 0.0096867798917518559 1 1 1 1 1 1 1 1 1 1 1 1 1 1 1 1 1 1 1 1 1 1 1 1 1 1 0.0099435831359041289 1 1 1 1 1 1 1 1 1 1 1 1 1 1 1 1 1 0.010199868973671124 1 1 1 1 0.0099961748720009333 1 1 1 1 1 1 1 1 1 1 0.010303925569715031 0.010549532184950319 1 1 1 1 1 1 1 1 1 1 1 1 1 0.018146746930879122 1 1 1 1 1 1 1 0.010245606615235284 1 1 1 1 1 1 1 0.010224884303304517 1 1 1 1 0.0099922965235376207 0.0066818607475995079 1 0.011270936810877312 1 1 1 0.010463682457181961 1 1 1 1 1 1 1 1 1 1 1 1 1 1 1 1 1 0.0081550686532623467 1 1 1 1 0.0068817920756427085 1 1 1 1 1 1 1 0.0093908477006658282 1 1 1 1 1 1 0.0053925380779862031 1 1 1 1 1 1 1 1 1 1 1 1 1 1 1 1 1 0.0088564410878375251 1 1 1 1 1 1 0.0081018371585391807 1 1 1 1 1 1 1 1 1 0.0095945922972440253 1 1 1 1 0.0093409038680631381 1 1 1 1 1 1 1 1 1 1 0.010185347710028551 1 1 1 0.0093742205788947368 1 1 1 1 1 1 0.0092381145269286435 1 1 0.004975959567488376 1 0.011334651901153056 1 1 1 1 1 1 0.012411052203155127 1 1 1 0.013163459270064144 1 0.0099870745092061532 1 1 1 1 0.0085594063073396731 1 1 1 1 1 1 0.0089482949943055848 1 1 0.009488635397691644 1 1 1 1 0.01138996447934176 1 1 1 1 0.012160374686297147 0.010515636729743757 1 1 0.011993880709704119 1 1 0.0086243517817827416 0.0099984335931885271 1 1 1 1 1 1 1 1 1 1 1 1 0.008395896245318956 1 1 1 1 1 1 1 0.0096128042070165107 1 0.010091944199582148 1 1 0.008418871077364375 1 0.010023123449677152 0.010696903087675192 1 1 1 1 0.0084767646586882787 1 1 1 1 0.010219479359721305 1 1 1 1 1 1 1 1 1 1 1 1 1 1 1 1 1 1 1 1 0.0095633977004178396 1 1 1 1 1 0.0092104030733125477 1 1 1 1 1 1 1 1 1 1 1 1 1 1 1 1 1 1 0.011724531525711384 1 1 0.010653712065530226 1 0.0078705380788767591 1 1 0.0092890258253687553 1 1 1 1 1 1 1 1 1 1 1 1 1 1 1 1 1 1 1 1 1 1 0.010727996707216704 1 1 1 1 1 0.0098961957867292148 1 1 1 1 0.010719408992288496 1 1 1 1 0.010425988294988352 1 1 1 1 1 1 1 1 1 1 1 1 1 1 1 0.010293420697300147 1 1 1 1 0.011630749260858634 1 1 1 0.01148343557285076 1 1 1 1 1 1 1 0.011101914420471098 1 1 1 1 1 1 1 1 1 1 1 1 1 1 1 1 1 1 1 1 1 1 1 1 1 1 0.0098040505639663648 1 1 1 1 1 1 0.0099776418187817045 1 1 1 1 0.010531233438797073 1 1 0.0085476697491566923 1 1 0.0093373613377423122 1 1 1 1 1 1 1 1 0.01051071705671737 1 1 1 1 1 1 0.010221381275498358 1 1 1 1 1 1 1 0.0099702476366885905 1 1 1 1 1 1 1 1 1 1 1 1 1 1 1 1 1 0.010194768722686941 1 1 1 0.0097047198444602384 1 1 1 1 0.009970193724336128 1 1 1 1 1 1 1 1 1 1 0.0089478086850099513 1 1 1 0.0094976772723652878 1 1 0.0090844610978788876 1 1 1 1 1 1 1 1 0.010667148207651415 1 1 1 0.0079042653487220206 1 1 0.010383144355417593 1 1 1 1 1 1 1 1 1 1 1 1 1 1 1 0.0085535522039902889 1 1 1 1 0.010007011673791685 1 0.0084145048573515437 1 1 1 1 0.010495246829286903 0.0099014956464352523 1 1 1 1 1 1 0.010765434064973416 1 1 1 1 1 1 0.0048027825741347903 1 0.0097285833538261115 1 1 0.0054158115729098233 1 1 1 0.0062768287499098026 1 1 0.0071094428959734349 1 1 1 0.0076122069595493409 1 1 0.008166891171850571 1 1 1 1 0.0099043472668019841 1 1 1 1 1 1 1 1 1 1 1 1 1 1 1 1 1 1 1 1 1 1 1 1 0.0097477227654471383 1 1 1 1 1 1 1 1 1 1 1 1 1 1 1 1 1 1 1 1 0.008533548691125218 1 1 0.0099869389336460571 1 1 1 1 1 1 1 0.0041451686529709181 1 1 1 1 1 1 1 0.0076218893308832294 1 1 1 1 1 1 1 1 1 1 1 1 1 0.0079472558423350076 1 1 0.0099881230467464971 1 1 1 1 1 1 1 1 1 1 1 0.009556062831504156 1 1 1 1 1 1 1 0.0069144280988898228 1 1 1 1 1 1 1 0.010003574633145107 1 1 1 1 1 1 1 1 1 1 1 0.012534351173876421 1 1 1 0.0065247645520125708 1 1 1 1 1 1 0.006558854393990626 1 1 0.0099361187820966087 1 0.012513696210648484 0.0077403693272395848 1 1 0.0087477288667039167 1 1 1 0.012848373548665536 1 1 1 1 0.0096039045404360292 1 1 1 1 1 1 1 1 1 0.0062427331893488737 1 1 1 1 1 1 1 0.0091285344292459571 1 1 1 0.0051468447624042658 1 0.00972121531104881 1 1 1 1 1 0.010257124025336359 1 1 0.0046890815618519967 1 1 1 1 1 1 1 1 1 1 1 1 0.015890258994526292 0.0090222015196671466 1 1 1 0.015482038431785024 1 1 0.0069995003546458046 0.0086716445767416033 1 1 1 0.015615098998479312 1 1 0.0088091760661092085 0.0091430421991094257 1 1 1 1 1 1 1 1 0.0064089851338027769 0.0093534431652420747 1 1 0.0094297589444798709 1 1 1 1 1 1 1 1 1 1 1 0.011065635733284092 1 1 0.013719792263239473 0.010031687406870203 1 1 0.0081930437271008506 1 1 1 1 1 1 1 1 1 1 1 1 0.0044905528193783101 1 1 1 1 1 1 1 0.0046386054369235794 1 1 1 1 0.011682260208707163 0.0051814530622918634 1 1 1 1 0.010648279719093705 1 1 1 1 1 1 1 0.0099351010145050187 0.0094629146750228269 1 1 1 1 1 0.010031246582352391 1 1 1 0.0094244189420558608 1 1 1 1 1 1 1 1 0.0097763707138062463 1 1 0.0094905973395173256 1 1 1 1 1 1 1 1 1 1 1 1 1 1 0.010098874756000409 1 1 1 0.010064192031911223 1 1 1 1 1 1 1 1 1 1 1 1 1 0.0098714502367574578 1 1 1 1 1 1 1 1 1 1 1 1 1 0.0097064142326254051 1 0.0099934130033515773 0.0072342782270416964 0.0073543582453286984 1 1 0.0080121930659414163 1 1 1 0.0099958605589555299 1 1 1 1 1 1 1 1 0.0016833312400060738 1 1 1 1 1 1 1 1 1 1 0.01220448840823915 0.0096264554828797196 1 0.0011502168426774338 0.0099962694139865797 1 1 1 1 0.0054298194520719448 1 0.0057712923074449592 1 1 1 1 1 1 1 1 1 1 1 1 1 1 1 1 1 1 1 1 1 1 1 1 1 1 1 1 1 1 1 1 0.0098864742302566255 1 0.012155294340585134 1 1 1 1 1 0.012716447083382425 1 1 1 1 0.0099926965422813645 1 1 1 1 1 1 1 0.01098146306197394 0.011653656475313842 1 1 1 1 1 1 1 0.009559800067062002 1 0.0083810147603296196 0.0080961513059388725 1 1 1 1 1 1 1 1 1 1 1 1 1 1 1 1 1 1 1 1 1 1 0.010147428490113276 1 1 1 0.01014692885872804 1 1 1 0.010497328112571896 1 1 1 0.011031853605684719 1 1 1 1 0.009715013472909928 1 1 1 1 0.010378711810505779 1 1 1 1 1 0.010912688749980998 1 1 1 1 1 0.0099383129817225847 1 1 1 1 0.010171832576885359 0.0092739892698432361 1 1 1 0.0099325193782511308 1 1 1 0.011577431428433441 1 1 0.010402877103378444 1 1 1 1 1 1 0.011358816105617306 1 1 1 0.010678655262631257 0.010016592425688791 1 1 1 1 1 1 1 1 1 1 0.0048341858906997479 1 1 1 0.01601579459727262 1 1 0.010003358365592187 1 1 1 1 1 0.012223294759018788 1 1 1 1 0.0083098738432794556 1 1 1 1 1 1 1 1 1 1 1 1 1 1 1 0.012937925076707227 1 1 1 0.011061038384071964 1 1 1 1 1 1 0.011975313218721658 1 1 0.0099899328725621128 1 0.013676827092971376 1 1 1 1 0.012441800836351585 1 0.012513616799820637 1 1 1 0.01026464530178788 0.012874541332548907 1 1 0.015877928973696286 1 1 1 1 1 0.0093350722533070314 1 1 0.0097535972389856101 1 1 1 1 1 1 1 1 1 1 0.016264176432480591 1 0.009998269886639816 0.010009261504508558 1 1 1 1 1 1 1 1 1 1 1 1 1 1 1 1 1 1 1 1 1 1 1 1 0.012873055544912472 1 1 1 1 1 1 0.011773800166930554 1 1 1 1 1 1 0.01039570903041665 0.0074030332633873933 1 0.0075978530764567644 1 1 0.0085320319082831456 1 0.0096385258247606142 1 0.0090182492737042961 1 0.0072844668423204615 1 1 1 0.007784503760724976 1 0.011129810244313308 1 1 1 1 0.01249599553349762 1 1 0.014012397968940533 1 0.0030569496994357426 1 1 1 0.0099178713770255306 1 1 1 1 1 1 1 1 0.010346383985368418 1 1 0.010869892507487197 1 1 0.010176944976959758 1 1 1 1 1 1 1 1 1 1 1 1 1 1 1 1 0.002870554460692884 1 1 1 1 1 1 1 1 1 0.0084590755068992378 1 1 1 1 1 1 1 1 1 1 1 1 1 1 0.010339596616764644 1 1 1 1 1 1 1 1 1 1 1 1 1 1 1 1 1 1 1 1 1 1 1 1 0.0091376100972038465 1 0.0096998173894739873 1 1 1 1 1 1 1 0.0015358760867122912 1 1 1 1 0.0019224491116622468 1 1 1 1 1 1 0.012093926556484412 1 1 0.0099955975257248267 0.010552168584883389 1 1 0.0070395196780249306 1 1 1 1 1 1 1 1 1 1 1 1 1 1 1 1 1 0.0045260214348325032 1 1 1 1 1 1 1 0.011032543829862801 1 1 0.0081096712903732642 1 0.013165748689550283 0.012085488650589593 1 1 1 1 1 1 1 1 1 0.0024734418290917465 1 1 1 1 1 0.010639146389386818 1 1 1 1 1 1 1 1 1 1 1 1 1 0.0079895999976419239 1 1 1 1 1 1 0.0093480077392242289 1 1 0.0093897264257549063 1 1 1 1 1 0.0095692835990622248 1 1 1 1 1 1 1 1 1 1 0.0084645582034461979 1 1 1 0.0095631432699442177 1 1 1 0.010136193823338715 1 1 1 1 1 1 1 1 1 1 1 1 1 1 1 1 0.0098644304973039901 1 0.010861704522965657 1 1 1 0.0098712935707927097 1 1 1 1 1 1 1 1 1 1 1 1 0.010350573691916505 1 1 0.010744326034358563 1 1 1 0.0095198760540461305 1 1 1 1 1 1 1 1 1 1 0.0099251544805940388 1 1 1 0.009766672789441027 0.010262254160848555 1 1 1 1 0.010000788921391928 0.0094986913855771953 1 1 1 1 1 1 1 1 0.010083300323368939 1 1 1 1 1 1 1 1 1 1 1 1 1 1 1 1 1 0.0096762811589004641 1 1 1 1 1 1 1 1 1 1 1 0.0099829379781384928 1 1 1 0.0090939939742899628 0.01001197587633536 1 1 1 1 1 1 1 0.0099632682068670781 1 1 1 1 1 0.0099803002574609442 1 1 1 1 1 1 1 1 1 1 1 1 1 1 1 1 1 1 1 1 1 1 1 1 1 1 1 1 1 1 1 1 1 1 1 1 0.010183721334462346 1 1 1 1 1 0.010471152915262995 1 1 1 0.009284928258931447 1 1 1 1 1 1 1 0.010610539197439468 0.010016224455178151 0.0098433773312562155 1 1 0.0097321731237585002 0.013516872606999507 1 1 0.010284747307931724 0.010421571740751286 0.010600294945527958 1 1 1 1 1 1 1 1 1 1 1 1 1 1 1 1 1 0.010230314834647664 1 1 1 1 1 1 1 0.0084067345681541252 1 1 1 1 1 1 1 1 1 1 0.006529698565559728 0.01240468375553589 0.01060505849901403 0.0098429741407530143 0.0106724319131382 1 0.011592851396984098 1 1 1 1 1 0.010804186885739878 1 1 1 1 1 1 1 1 1 1 1 1 1 1 1 1 1 1 0.011828399903321851 1 1 0.011897072597917264 1 1 1 1 1 1 1 0.013964290371129947 1 1 1 1 1 1 1 1 1 0.0096977399429486206 1 1 0.013769342054292999 1 1 1 1 1 1 1 1 1 1 1 1 1 1 1 1 1 0.0099360627233756257 1 1 1 1 0.0099359256762212769 1 1 1 1 1 1 1 1 1 1 1 0.0098775628356507876 1 1 1 1 1 1 1 0.010552887626238211 1 1 0.010023157578476027 0.011640124158714928 1 1 0.010001753576956471 1 1 1 1 0.010966159790538881 0.010153745873215117 1 1 1 1 1 1 1 0.01232177887052808 0.01078083299029476 1 0.0099969173004736921 1 1 1 1 0.0099776690479373917 1 1 0.013034097867739371 1 1 0.010546902116851962 0.010101781968875784 1 0.01109539664559453 0.010019091985666926 1 1 1 0.0092708057590735141 1 0.011855815660038115 1 1 1 1 1 1 1 1 1 1 1 1 1 0.013593804514711996 1 0.010002967406006381 1 1 1 0.010002308403331175 1 0.011933202423669411 1 1 1 0.011310325317113779 1 1 1 0.01177959871999024 1 1 1 1 1 1 1 1 1 1 1 1 1 1 1 1 0.016702316444721962 1 1 1 1 0.011782829062571581 1 1 1 0.016395396516533912 1 1 1 0.0095801878955593649 1 0.008414527053090589 1 1 1 1 0.0072612204208793137 1 1 1 1 1 1 1 1 1 1 0.022135515117838251 1 -8.7326743059001899e-12 0.0055230615099856918 1 1 1 1 0.012064365379378265 1 0.0091815276366813726 0.018723770113928829 1 1 1 1 1 1 0.013542408156134647 1 1 0.0100041725092748 0.0093435502373674303 0.010999843853952968 1 1 1 0.010009555439719738 1 0.010699419427821134 1 1 1 1 1 1 1 0.01034961742932697 1 1 1 0.018988074983787157 1 1 1 1 1 1 0.019019907332225111 1 1 0.0081654200790682446 1 1 1 1 1 1 1 1 1 0.01630225498919341 1 0.014705123551702995 1 0.0071644031484456687 0.009993409999901167 0.010650372345316876 1 1 1 0.010229453621684453 1 1 1 1 1 1 1 1 1 1 0.020941591995147106 1 1 1 1 1 1 1 1 1 0.010775967269390955 1 1 1 1 1 1 1 1 1 1 1 0.018740312749526974 1 1 1 1 1 1 1 0.0092697562813529692 1 1 0.0097205999072191782 1 1 0.0078355871167437134 1 0.0066006445380887412 1 1 1 0.0098371893358106012 1 1 1 1 1 1 1 1 1 1 1 1 1 1 1 1 1 1 1 1 1 1 1 1 1 0.011773419801049012 1 1 1 1 1 0.010724343375745725 1 1 0.014759464146727496 1 1 1 1 1 1 1 1 1 1 1 1 0.010732066209783933 1 0.013755168318144974 1 0.01427841524053677 1 1 1 1 1 1 1 1 1 1 1 1 1 1 1 1 1 1 1 1 1 1 1 1 0.0096513435238927102 1 1 1 1 1 1 1 1 1 1 1 1 1 1 1 1 0.0084404838664207619 1 1 0.0062214272690218949 0.0095031037433179547 1 1 1 1 1 1 1 1 0.0095078288761944237 1 0.0099950572007753632 1 1 1 0.0092763634224808933 1 1 1 1 1 0.0078023583734487291 1 1 1 0.0084205830299950903 0.011164472588908202 1 1 0.010645731496762047 1 1 1 1 1 1 1 1 1 1 1 1 1 1 1 1 1 1 1 1 1 1 1 1 1 1 1 1 1 1 1 1 1 1 0.0096602868099884536 1 1 1 1 0.010887074432941445 0.0098346579494979856 1 1 1 1 1 1 1 1 1 0.011838301897794518 1 1 1 1 1 1 1 1 1 1 1 1 0.0097454539491546102 1 1 1 0.0074651336865812837 0.011852253307078267 1 1 1 1 0.0055188530846607894 1 1 1 1 1 1 1 0.010045033489419456 1 1 0.010146396906095928 1 1 1 0.0015347219025726756 0.0099753564746859705 1 1 1 1 0.0063802524240132441 0.0079759942633592096 1 1 1 1 0.0072947830122404647 1 0.0071454165586544091 1 1 1 0.011433840539650342 1 0.017013983435584877 1 1 0.016410282276066602 0.010406300941045455 1 1 1 1 1 1 1 1 1 1 1 1 1 1 1 1 1 1 1 1 1 1 1 1 1 1 1 1 1 0.011267486516333802 1 1 1 1 1 1 1 1 1 0.012264704333112331 1 1 1 1 1 1 1 1 1 0.007815013579871348 1 1 1 1 1 1 1 1 0.010161752394871496 1 1 1 1 0.0096876716331801439 1 1 1 1 1 1 0.012169376504178795 0.012981701895597542 0.0044902941960619676 1 1 1 0.0094552448493662334 1 1 1 0.012543761570305057 1 1 1 1 0.0084980520849984222 1 1 1 0.010822014780900915 1 1 0.01002058893765871 1 1 1 1 1 1 1 1 1 1 0.010614595259203174 1 1 1 1 1 1 0.012428640994520207 1 0.0077237776297408717 1 1 1 1 0.0093503203907785871 1 1 1 1 1 0.0071278036317677963 1 1 1 1 1 0.010504995644326044 1 1 1 1 0.011140003417454173 1 1 1 1 1 1 1 0.010161241127654432 1 1 1 1 1 1 1 1 1 1 1 1 1 1 1 1 1 1 1 1 1 1 0.0099697602877942253 1 1 1 0.010609800505499549 1 1 1 1 1 1 0.020753881921238254 1 1 1 1 0.012987397848824005 1 1 1 1 0.011150966696888344 1 1 0.010008090183992209 1 1 1 1 1 1 1 1 1 1 1 1 1 1 1 1 1 1 1 1 1 1 0.021292006289582825 1 1 1 0.0099013611444415707 1 1 0.011307264258742386 1 0.010601095487572007 1 1 1 1 1 1 1 0.011221572927362759 1 1 0.011353579140737037 1 1 1 1 1 1 1 1 1 1 1 1 1 1 0.010034801239176293 1 1 1 1 1 1 1 0.023471413318884554 1 0.010145267895085242 1 1 1 1 1 1 1 1 1 0.0098247684388900226 1 1 1 0.015908961466429589 1 0.010264332152813247 0.01350835129518653 1 1 0.015708484721271031 1 1 1 1 1 1 1 0.010393532515756223 1 1 1 1 1 1 1 1 1 1 1 1 1 1 1 1 1 0.013218489458533395 1 1 1 1 1 0.0090942444810918968 0.012915471294660787 1 0.014593258828656155 1 1 1 1 1 1 1 1 1 0.010371337500399529 1 1 0.0099759032691261948 1 1 1 1 1 0.010050623439052934 1 0.014022121046611307 1 1 0.010727525442396951 1 0.013685729705983985 1 1 1 0.01015510800755505 1 1 0.019905930005928718 1 1 1 0.0061301587519336717 1 1 1 1 0.010882157590152812 0.0130357695671484 1 1 1 1 0.012797001057501721 1 0.010851217010957814 0.011842200952878412 1 1 1 1 1 1 0.0086432998858381946 1 1 1 1 1 0.011632271045515223 0.010864017800522298 1 1 1 1 0.010306679184219347 1 1 1 1 0.0095265588824492015 1 1 1 1 1 1 1 1 1 1 1 1 1 1 1 0.01026393769547976 1 1 1 1 1 1 0.010185138465531299 1 0.010053128482232077 1 1 1 1 1 1 0.010643477049967215 1 1 1 1 1 0.010360776797124134 1 1 1 1 1 1 1 1 1 1 1 0.0099560937382846184 1 1 1 1 1 1 1 0.010251275489240892 1 0.011727991403192903 1 1 1 1 1 1 1 1 0.010291953888115473 1 1 1 1 1 1 1 1 1 1 1 0.010289593692713497 1 1 1 0.012522407561250441 1 1 0.013970212472650023 1 1 1 1 1 1 1 1 1 1 1 0.013625762070375427 1 1 1 1 0.012279693291567861 1 1 1 1 1 1 0.010065637860740703 1 1 1 1 1 1 1 1 1 1 1 1 1 1 1 1 1 0.0098696446840802823 1 1 1 1 1 1 1 1 1 1 1 1 1 1 1 1 1 1 1 1 0.011449902831901365 1 1 0.010441849476993056 1 1 1 0.01067641161924352 1 1 1 1 1 1 1 1 1 1 1 1 1 1 1 1 1 1 0.013681119007097942 1 1 1 1 1 1 1 0.0099198139642248957 1 1 1 1 1 1 1 1 1 1 1 1 1 1 1 1 1 1 1 1 1 1 1 1 1 1 1 1 1 1 1 1 1 1 1 1 1 1 1 1 1 1 1 1 1 1 1 1 1 1 1 1 1 1 1 1 1 1 1 1 1 1 1 1 1 1 1 1 0.0098724861408815423 1 1 1 1 1 1 1 0.0097923001051064464 1 1 1 1 1 0.0090055359920695986 1 1 1 1 1 1 1 1 1 1 1 1 1 0.01018436274266922 1 0.010003192601007743 1 0.00028539395979840579 1 1 1 1 1 1 1 0.0087327934705069901 1 1 0.0032050337572370538 1 1 1 1 0.010018888619434632 1 1 1 1 0.0093225763911297388 1 1 1 1 1 1 0.0099809760378516462 1 1 1 1 0.0056146726559552357 1 1 1 1 1 1 1 0.010892438510416326 1 1 0.0099428285753392423 1 1 1 1 1 1 1 1 1 1 1 1 1 0.010444649802817937 1 1 1 1 1 0.011052265899442529 1 1 1 1 1 1 1 1 1 1 0.010129978697727481 1 1 0.012834416011057722 1 1 1 1 1 0.0097732214763969205 1 0.012908518290601483 1 1 1 1 0.010222163509801823 1 1 0.012439630298839963 1 1 1 1 1 1 1 1 1 1 1 1 1 1 1 1 1 1 1 1 0.010653806386498287 1 1 1 1 0.011059244770006726 0.011722715767279384 1 1 1 0.0062162632926535729 1 1 1 1 1 1 1 1 1 1 1 1 1 1 1 1 0.0040407043136712791 1 1 1 1 1 1 0.0021482577169363026 1 1 1 1 1 1 0.0081494658110830426 1 1 1 1 1 0.0089190797485464157 1 1 1 1 1 1 1 1 1 1 1 1 1 1 0.0094831720318392775 1 1 1 1 1 1 1 1 1 1 1 1 1 1 1 1 1 1 0.0086137258253149891 1 0.013383323006196129 1 1 1 1 1 0.0094999822234399234 1 1 0.01155149963198715 1 0.011629602712135971 1 1 1 1 0.00820000230075703 0.010530300663981147 1 1 1 0.010336068796138256 1 1 1 0.010914608921239577 0.010730956197121328 0.0092184651322882432 1 1 0.0097171006502765195 1 1 1 1 0.0097700343831643357 1 1 0.012127975327889898 1 1 0.01001800891442048 1 0.011247279164898115 0.0093046638500694778 1 1 1 1 0.0098689461138886173 1 1 1 1 1 1 1 1 1 1 1 1 1 1 1 1 1 1 1 1 1 1 1 1 1 1 1 1 1 1 0.0094645479195858175 1 0.0098864893565045308 1 1 1 1 1 1 1 1 1 1 1 1 1 1 1 1 1 1 1 1 0.011425552791330493 1 1 1 1 1 1 1 1 1 1 1 1 1 1 1 1 1 1 1 1 1 1 0.011938831209099795 0.010377821106416472 1 1 0.011501649481790846 1 1 1 1 1 1 1 1 1 1 1 1 1 1 1 1 1 1 1 0.012695339915320018 1 0.0083741249099869384 1 1 1 0.012705772485401671 1 1 0.01188225533481967 1 1 0.0099793639504649496 0.0099194565360260136 0.01105478686531243 1 1 1 1 1 1 1 1 1 1 1 1 1 1 1 1 1 0.010426064522798534 1 1 1 1 1 1 1 1 1 1 1 1 1 1 1 0.010545004109927749 0.0097783796477450228 1 1 1 1 1 1 1 1 1 1 1 1 1 1 1 1 1 1 1 1 1 1 1 1 1 1 1 1 1 1 1 0.010269615494231187 1 1 1 1 1 1 1 1 1 1 1 1 1 1 1 1 1 1 1 1 1 1 1 1 1 1 1 1 1 1 1 1 1 1 0.010598464932712067 1 0.010067467905456116 1 1 0.010481470460961834 1 1 1 0.010079484406972528 0.01058400914859184 1 0.010310619207735402 0.01015133909953723 1 1 1 0.010176220334009967 1 1 1 1 1 1 1 1 1 1 1 1 1 1 1 1 1 1 1 1 1 1 1 1 1 1 1 1 1 1 1 1 1 1 1 1 1 1 1 1 1 1 1 1 1 1 1 1 1 1 1 1 1 1 1 1 1 1 1 1 1 1 1 1 1 1 1 1 1 1 1 1 1 1 1 1 1 1 1 1 1 1 1 1 1 1 0.014059482025409489 0.006408444584666325 1 1 1 1 1 1 1 1 1 1 1 0.010106096907078012 1 1 1 1 1 0.0097957739858307025 1 0.006251122700765388 1 1 1 1 1 1 1 0.0071059830120397335 1 1 1 1 1 1 0.0097361948918032008 1 1 1 1 1 1 1 1 1 1 1 1 1 1 1 1 0.0093098599176265201 1 1 1 0.0079665998289884001 1 1 1 1 1 1 1 1 1 1 0.010110633316510813 1 1 1 1 1 1 0.008317435146924089 1 1 1 1 1 1 1 1 1 1 1 1 0.0099980378563609765 1 1 1 0.0094675376165113227 1 1 1 1 1 1 1 1 1 1 0.0099980180015465762 1 1 1 1 1 1 1 1 1 1 1 0.017242008863841519 1 1 1 0.0055846763811464445 1 0.0057896450052677129 1 1 0.012365840997954214 0.0059969936283022322 1 0.0040500402494944247 0.010719101207588715 1 1 1 1 1 0.0099654436837049928 1 1 1 1 1 1 1 1 1 1 1 1 1 1 1 1 1 1 1 1 1 1 1 1 1 1 1 1 1 1 1 1 1 1 1 1 1 1 1 1 1 1 1 1 1 1 1 1 0.010439232864821417 1 1 0.010125703066526704 1 0.014920504309639071 1 1 1 1 1 0.013305512755039809 1 1 1 1 1 1 0.0051077788983224445 1 1 1 1 1 0.0058022949556000916 1 1 1 1 1 1 0.0075408808676877895 1 1 1 1 1 1 1 1 0.01003993565365438 1 1 1 1 1 1 0.016205046276050745 1 1 1 1 1 1 1 1 0.0081388313171388421 1 1 1 1 0.010006436551133115 1 0.0098967331102608035 1 1 0.0085566364164023322 1 1 1 1 1 1 1 1 1 0.0066623740264864801 1 0.0045337512758543801 1 1 1 1 0.0091629828061105395 1 1 1 1 1 1 1 1 1 1 1 1 1 1 1 1 1 1 1 0.0099926166889362129 1 1 1 0.0048534757998468497 1 1 0.0057921612145014675 1 0.0098447986506331776 1 1 1 1 0.0098634842394357738 1 1 1 1 1 1 0.0046296982865861001 1 0.0053196961247574132 1 1 0.0044411517003841777 1 0.010557764404033122 1 1 1 1 1 1 1 1 1 1 1 1 0.010542516029893735 1 0.0071307612123229693 1 1 0.010013009542839008 1 0.0089490444232052224 1 1 1 0.0077160786169063744 1 1 0.0059851096414736231 1 1 0.0067564283769501344 1 1 1 0.0073849896032863339 1 1 1 0.010023167796192287 1 1 0.0091145698199482476 0.0040501276450188185 1 0.014233043965116127 1 0.01513253710496879 1 1 0.0043536620434236478 1 1 1 1 0.0077090503199889401 1 0.012361204679504665 0.0069699450311728472 1 1 1 1 1 1 1 1 1 1 1 1 1 0.0078560103932685393 1 1 1 1 1 1 1 0.0034684129122793828 1 1 1 0.003875476745026734 1 1 1 1 1 1 1 1 1 1 0.0059027315850569903 0.0091599723667770867 1 1 0.0032071375547638968 1 0.0018373559849775151 1 1 1 1 1 0.0063071671338496629 1 0.010180273647011179 1 1 1 1 1 1 0.002760032529655421 0.010011141456229739 1 1 1 1 1 1 4.4424811815324539e-09 1 1 1 1 1 1 1 1 1 1 1 1 1 1 1 1 0.0095767187276684582 1 0.0036832737718604839 1 1 1 1 0.0086762100478474432 1 1 0.0098868113753068521 1 0.0046533070118003955 0.0091951014389283423 1 1 0.0094526698987098257 1 1 1 1 1 0.0031810410892972232 0.010206066008685321 1 1 1 1 0.01017734689307895 1 1 1 1 0.01004286778141316 1 1 1 1 0.010004270789009362 0.0098312863130596024 1 1 1 0.013896159290215968 1 1 0.01023088536752218 1 1 1 1 1 1 1 0.010833007426954889 1 1 1 0.0097802928837792107 0.0089355738470916594 1 1 1 1 1 1 1 1 1 1 1 1 1 1 1 1 0.014469949010556205 1 1 1 1 1 1 1 1 0.0099437799989715824 1 1 0.0074424725629931568 1 1 1 0.0094384100083541728 1 1 1 0.010372374845883672 1 1 1 1 1 0.011871687040301632 1 1 0.013469208314108553 1 0.012730527489534895 1 1 1 1 1 0.010725408028584845 1 1 1 1 1 1 1 1 1 1 1 1 1 1 1 1 1 1 1 1 1 1 1 1 1 1 1 1 1 1 1 1 1 1 1 1 1 1 1 1 1 1 0.010537214846956588 1 1 1 1 1 1 1 1 1 1 1 1 1 1 1 1 1 1 1 0.0094561810150890786 0.01465432412683281 1 1 1 1 0.0089819702290311679 1 0.0094202195771946398 0.009511838008195956 1 1 1 1 1 1 1 1 1 1 1 1 0.010262538925069075 1 1 0.010788835801302202 1 1 0.0095507324844389153 1 1 1 1 0.017910802510550612 1 1 1 1 0.010010688362069054 0.01007599044529213 1 1 1 1 1 1 1 1 1 1 1 1 1 1 1 1 1 1 1 1 1 1 0.0090201132980406978 0.0094698860948692481 1 0.010108779855126154 1 1 1 1 1 1 0.009842038866564937 1 1 1 0.012604073085171884 1 1 0.0078367873873936688 1 0.0060924675014381747 0.01052849024692832 1 1 0.0099049831064116495 1 1 0.0060188797826168433 0.010669486208115633 1 1 1 1 1 1 1 1 1 1 0.0075268054519436701 1 1 1 1 1 1 1 1 0.00056174048262170977 1 1 1 1 1 1 1 1 1.0055386610169359e-08 1 1 1 1 1 1 1 1 1 0.0091707217772817942 1 1 1 1 1 1 0.001726424583324975 1 0.011112717885382381 1 1 1 1 0.013507285581654389 1 1 1 1 1 1 1 0.0066538683184864441 0.0099485771024867883 1 1 1 0.0094603336312702804 1 0.0043099822310909489 0.010009679965727096 1 1 1 1 1 0.0087663573489827427 0.0044096480159743698 1 1 1 1 1 1 1 0.010029531632796579 0.010063166417267157 1 1 1 1 1 1 1 1 1 1 1 1 1 1 1 1 1 1 1 1 1 1 1 1 1 1 0.0099798976957464723 1 1 1 1 1 1 1 1 1 1 1 1 1 1 0.010006142098193319 1 1 1 1 1 1 1 1 1 1 1 1 1 1 1 1 1 1 1 1 1 1 1 1 0.0096749073311103422 1 0.0099670121635874881 1 0.010197493217419829 1 1 1 1 1 1 1 1 1 0.010049198310119866 0.010515244545508623 1 1 1 1 1 0.0099164384268729984 1 1 1 1 1 1 1 0.0053913270296601108 1 1 0.0071257317800396663 1 1 0.011145480720952786 1 1 0.011279112171735786 0.010262458255471531 1 0.0046260431498545401 1 0.0099170764816124465 1 1 1 1 1 1 1 1 1 1 1 1 1 1 1 1 0.013429397099777047 1 0.0098408395704333747 1 1 1 0.013490557533092962 1 1 1 1 1 1 1 1 1 1 1 1 1 1 1 1 1 1 1 1 1 1 1 1 1 1 0.013115421222368983 1 1 1 1 1 0.012178437366623189 1 1 1 1 1 0.0063332369960222186 1 1 0.0028758217509467325 1 1 1 1 1 1 1 1 0.0020715233060938283 0.0086265582762864584 0.0024877996512956135 1 0.0079525711381746456 1 1 1 0.012296904889757317 1 0.011211145608330555 1 1 1 1 1 1 1 1 1 0.010345907340686031 1 
</DataArray>
</CellData>
</Piece>
</UnstructuredGrid>
</VTKFile>
