<?xml version="1.0"?>
<VTKFile type="UnstructuredGrid" version="0.1" byte_order="LittleEndian">
<UnstructuredGrid>
<Piece NumberOfPoints="30881" NumberOfCells="10862">
<Points>
<DataArray type="Float64" NumberOfComponents="3" format="ascii">
-0.49999999999999828 -0.48677703703187492 0 -0.5 -0.5 0 -0.48129281494584059 -0.49338851851593718 0 -0.5 -0.5 0 -0.48129281494584059 -0.49338851851593718 0 -0.46258562989168328 -0.5 0 -0.49999999999999828 -0.48677703703187492 0 -0.48129281494584059 -0.49338851851593718 0 -0.49999999999999828 -0.48677703703187492 0 -0.4824545428279598 -0.47451624516148783 0 -0.48129281494584059 -0.49338851851593718 0 -0.49999999999999828 -0.48677703703187492 0 -0.4824545428279598 -0.47451624516148783 0 -0.5 -0.46599539173150673 0 -0.4824545428279598 -0.47451624516148783 0 -0.46853075243710779 -0.48354990242643758 0 -0.46411508256092049 -0.46598235294430129 0 -0.4824545428279598 -0.47451624516148783 0 -0.48129281494584059 -0.49338851851593718 0 -0.46853075243710779 -0.48354990242643758 0 -0.48129281494584059 -0.49338851851593718 0 -0.46258562989168328 -0.5 0 -0.48129281494584059 -0.49338851851593718 0 -0.46258562989168328 -0.5 0 -0.46853075243710779 -0.48354990242643758 0 -0.46258562989168328 -0.5 0 -0.46853075243710779 -0.48354990242643758 0 -0.45147378687733691 -0.48362213557840178 0 -0.46853075243710779 -0.48354990242643758 0 -0.45147378687733691 -0.48362213557840178 0 -0.46411508256092049 -0.46598235294430129 0 -0.4457251648104853 -0.47020164095208389 0 -0.45147378687733691 -0.48362213557840178 0 -0.46411508256092049 -0.46598235294430129 0 -0.4457251648104853 -0.47020164095208389 0 -0.45147378687733691 -0.48362213557840178 0 -0.43513446131126993 -0.48199891714758791 0 -0.45147378687733691 -0.48362213557840178 0 -0.43275163025255442 -0.5 0 -0.43513446131126993 -0.48199891714758791 0 -0.46258562989168328 -0.5 0 -0.45147378687733691 -0.48362213557840178 0 -0.43275163025255442 -0.5 0 -0.4467190029717853 -0.45478934699519452 0 -0.4422915115958943 -0.43555510214664611 0 -0.43246707723660932 -0.44794326854796312 0 -0.4457251648104853 -0.47020164095208389 0 -0.4467190029717853 -0.45478934699519452 0 -0.46411508256092049 -0.46598235294430129 0 -0.4457251648104853 -0.47020164095208389 0 -0.4467190029717853 -0.45478934699519452 0 -0.43016578207734568 -0.46313500011938619 0 -0.4467190029717853 -0.45478934699519452 0 -0.46411508256092049 -0.46598235294430129 0 -0.47114575579794699 -0.4403844242888923 0 -0.4467190029717853 -0.45478934699519452 0 -0.47114575579794699 -0.4403844242888923 0 -0.4422915115958943 -0.43555510214664611 0 -0.47114575579794699 -0.4403844242888923 0 -0.4422915115958943 -0.43555510214664611 0 -0.46411508256092049 -0.46598235294430129 0 -0.47114575579794699 -0.4403844242888923 0 -0.48354307623736548 -0.45841843211146538 0 -0.4824545428279598 -0.47451624516148783 0 -0.46411508256092049 -0.46598235294430129 0 -0.48354307623736548 -0.45841843211146538 0 -0.4824545428279598 -0.47451624516148783 0 -0.48354307623736548 -0.45841843211146538 0 -0.5 -0.46599539173150673 0 -0.48354307623736548 -0.45841843211146538 0 -0.5 -0.46599539173150673 0 -0.49999999999999972 -0.44521374643113848 0 -0.47114575579794699 -0.4403844242888923 0 -0.49999999999999972 -0.44521374643113848 0 -0.47114575579794699 -0.4403844242888923 0 -0.49999999999999972 -0.44521374643113848 0 -0.48704432221743971 -0.42935617662229603 0 -0.47114575579794699 -0.4403844242888923 0 -0.48354307623736548 -0.45841843211146538 0 -0.49999999999999972 -0.44521374643113848 0 -0.49999999999999972 -0.44521374643113848 0 -0.48704432221743971 -0.42935617662229603 0 -0.5 -0.41591957503128979 0 -0.48704432221743971 -0.42935617662229603 0 -0.5 -0.41591957503128979 0 -0.47703153307181151 -0.41590696073786332 0 -0.5 -0.41591957503128979 0 -0.47703153307181151 -0.41590696073786332 0 -0.48817838912021821 -0.4022119694541284 0 -0.47114575579794699 -0.4403844242888923 0 -0.48704432221743971 -0.42935617662229603 0 -0.47703153307181151 -0.41590696073786332 0 -0.5 -0.38662540363144121 0 -0.47568202340906118 -0.39039593841591919 0 -0.4947615751445838 -0.37332156409002909 0 -0.47568202340906118 -0.39039593841591919 0 -0.4947615751445838 -0.37332156409002909 0 -0.5 -0.38662540363144121 0 -0.48817838912021821 -0.4022119694541284 0 -0.47568202340906118 -0.39039593841591919 0 -0.5 -0.41591957503128979 0 -0.5 -0.38662540363144121 0 -0.48817838912021821 -0.4022119694541284 0 -0.47703153307181151 -0.41590696073786332 0 -0.48817838912021821 -0.4022119694541284 0 -0.47568202340906118 -0.39039593841591919 0 -0.47703153307181151 -0.41590696073786332 0 -0.47568202340906118 -0.39039593841591919 0 -0.45660247167353862 -0.40747031274180939 0 -0.47568202340906118 -0.39039593841591919 0 -0.48030931097003587 -0.37191064435083931 0 -0.46669490250066459 -0.37481721741951951 0 -0.47568202340906118 -0.39039593841591919 0 -0.4947615751445838 -0.37332156409002909 0 -0.48030931097003587 -0.37191064435083931 0 -0.45332061783919553 -0.38729481725706361 0 -0.46669490250066459 -0.37481721741951951 0 -0.45095991715087752 -0.36968037302039969 0 -0.47568202340906118 -0.39039593841591919 0 -0.45332061783919553 -0.38729481725706361 0 -0.46669490250066459 -0.37481721741951951 0 -0.47568202340906118 -0.39039593841591919 0 -0.45660247167353862 -0.40747031274180939 0 -0.47568202340906118 -0.39039593841591919 0 -0.45332061783919553 -0.38729481725706361 0 -0.45660247167353862 -0.40747031274180939 0 -0.44332653075004852 -0.401690115615219 0 -0.44646247228389868 -0.41654464256061052 0 -0.42870657106664078 -0.39987574649354879 0 -0.45332061783919553 -0.38729481725706361 0 -0.44332653075004852 -0.401690115615219 0 -0.43479631603355468 -0.39077639303142497 0 -0.45332061783919553 -0.38729481725706361 0 -0.44332653075004852 -0.401690115615219 0 -0.45660247167353862 -0.40747031274180939 0 -0.45332061783919553 -0.38729481725706361 0 -0.43421362475025049 -0.37527491429266319 0 -0.43479631603355468 -0.39077639303142497 0 -0.45332061783919553 -0.38729481725706361 0 -0.43421362475025049 -0.37527491429266319 0 -0.45095991715087752 -0.36968037302039969 0 -0.47114575579794699 -0.4403844242888923 0 -0.45663439814062529 -0.42533932462455271 0 -0.4422915115958943 -0.43555510214664611 0 -0.47114575579794699 -0.4403844242888923 0 -0.47703153307181151 -0.41590696073786332 0 -0.45663439814062529 -0.42533932462455271 0 -0.45663439814062529 -0.42533932462455271 0 -0.45660247167353862 -0.40747031274180939 0 -0.44646247228389868 -0.41654464256061052 0 -0.47703153307181151 -0.41590696073786332 0 -0.45663439814062529 -0.42533932462455271 0 -0.45660247167353862 -0.40747031274180939 0 -0.44332653075004852 -0.401690115615219 0 -0.45660247167353862 -0.40747031274180939 0 -0.44646247228389868 -0.41654464256061052 0 -0.45660247167353862 -0.40747031274180939 0 -0.44646247228389868 -0.41654464256061052 0 -0.44646247228389868 -0.41654464256061052 0 -0.4375229199380159 -0.42454468706769971 0 -0.45663439814062529 -0.42533932462455271 0 -0.4375229199380159 -0.42454468706769971 0 -0.4422915115958943 -0.43555510214664611 0 -0.45663439814062529 -0.42533932462455271 0 -0.44646247228389868 -0.41654464256061052 0 -0.4375229199380159 -0.42454468706769971 0 -0.4375229199380159 -0.42454468706769971 0 -0.4422915115958943 -0.43555510214664611 0 -0.43077617074680319 -0.43406335077952207 0 -0.43077617074680319 -0.43406335077952207 0 -0.42550232634077589 -0.42345940056268039 0 -0.41950844772475421 -0.43888456563633732 0 -0.4375229199380159 -0.42454468706769971 0 -0.43077617074680319 -0.43406335077952207 0 -0.42550232634077589 -0.42345940056268039 0 -0.44646247228389868 -0.41654464256061052 0 -0.41657232816672918 -0.41306671883907142 0 -0.42870657106664078 -0.39987574649354879 0 -0.44646247228389868 -0.41654464256061052 0 -0.4375229199380159 -0.42454468706769971 0 -0.42550232634077589 -0.42345940056268039 0 -0.44646247228389868 -0.41654464256061052 0 -0.42550232634077589 -0.42345940056268039 0 -0.41657232816672918 -0.41306671883907142 0 -0.44646247228389868 -0.41654464256061052 0 -0.41657232816672918 -0.41306671883907142 0 -0.42550232634077589 -0.42345940056268039 0 -0.41657232816672918 -0.41306671883907142 0 -0.41333489101611293 -0.42699700567040988 0 -0.41657232816672918 -0.41306671883907142 0 -0.41333489101611293 -0.42699700567040988 0 -0.39893236021425188 -0.42931692235905211 0 -0.41333489101611293 -0.42699700567040988 0 -0.39893236021425188 -0.42931692235905211 0 -0.41950844772475421 -0.43888456563633732 0 -0.42550232634077589 -0.42345940056268039 0 -0.41333489101611293 -0.42699700567040988 0 -0.41950844772475421 -0.43888456563633732 0 -0.43421362475025049 -0.37527491429266319 0 -0.42478231784314502 -0.38643128255249681 0 -0.41656514696884139 -0.37636588688318029 0 -0.43421362475025049 -0.37527491429266319 0 -0.42478231784314502 -0.38643128255249681 0 -0.43479631603355468 -0.39077639303142497 0 -0.42478231784314502 -0.38643128255249681 0 -0.43479631603355468 -0.39077639303142497 0 -0.42870657106664078 -0.39987574649354879 0 -0.44332653075004852 -0.401690115615219 0 -0.43479631603355468 -0.39077639303142497 0 -0.42870657106664078 -0.39987574649354879 0 -0.41657232816672918 -0.41306671883907142 0 -0.40962993039643741 -0.3898634720616666 0 -0.3946356370269814 -0.39577424904278191 0 -0.42478231784314502 -0.38643128255249681 0 -0.42870657106664078 -0.39987574649354879 0 -0.40962993039643741 -0.3898634720616666 0 -0.41657232816672918 -0.41306671883907142 0 -0.42870657106664078 -0.39987574649354879 0 -0.40962993039643741 -0.3898634720616666 0 -0.42478231784314502 -0.38643128255249681 0 -0.40962993039643741 -0.3898634720616666 0 -0.41656514696884139 -0.37636588688318029 0 -0.40962993039643741 -0.3898634720616666 0 -0.41656514696884139 -0.37636588688318029 0 -0.40465459864295228 -0.37650109000307358 0 -0.39431275766669582 -0.38061373190328529 0 -0.40465459864295228 -0.37650109000307358 0 -0.3968495855878465 -0.36923685638487008 0 -0.40962993039643741 -0.3898634720616666 0 -0.39431275766669582 -0.38061373190328529 0 -0.40465459864295228 -0.37650109000307358 0 -0.40962993039643741 -0.3898634720616666 0 -0.39431275766669582 -0.38061373190328529 0 -0.3946356370269814 -0.39577424904278191 0 -0.3946356370269814 -0.39577424904278191 0 -0.38704143117499401 -0.40999023144455299 0 -0.37464038230528551 -0.396492613407532 0 -0.3946356370269814 -0.39577424904278191 0 -0.37522403377147279 -0.38060127254172499 0 -0.37464038230528551 -0.396492613407532 0 -0.39431275766669582 -0.38061373190328529 0 -0.3946356370269814 -0.39577424904278191 0 -0.37522403377147279 -0.38060127254172499 0 -0.39431275766669582 -0.38061373190328529 0 -0.37522403377147279 -0.38060127254172499 0 -0.38569326772338258 -0.37053454129240582 0 -0.41657232816672918 -0.41306671883907142 0 -0.39893236021425188 -0.42931692235905211 0 -0.38704143117499401 -0.40999023144455299 0 -0.41657232816672918 -0.41306671883907142 0 -0.3946356370269814 -0.39577424904278191 0 -0.38704143117499401 -0.40999023144455299 0 -0.41657232816672918 -0.41306671883907142 0 -0.38704143117499401 -0.40999023144455299 0 -0.38704143117499401 -0.40999023144455299 0 -0.38131756488089769 -0.42670085612339947 0 -0.36377437909963828 -0.41972983174959272 0 -0.38131756488089769 -0.42670085612339947 0 -0.38339996822118783 -0.44368928783448319 0 -0.36866352395763108 -0.4313760290561211 0 -0.39893236021425188 -0.42931692235905211 0 -0.38131756488089769 -0.42670085612339947 0 -0.38339996822118783 -0.44368928783448319 0 -0.39893236021425188 -0.42931692235905211 0 -0.38704143117499401 -0.40999023144455299 0 -0.38131756488089769 -0.42670085612339947 0 -0.38339996822118783 -0.44368928783448319 0 -0.40446438048225181 -0.45117017211807442 0 -0.3895931593355052 -0.46351353191466821 0 -0.39893236021425188 -0.42931692235905211 0 -0.38339996822118783 -0.44368928783448319 0 -0.40446438048225181 -0.45117017211807442 0 -0.40446438048225181 -0.45117017211807442 0 -0.3895931593355052 -0.46351353191466821 0 -0.40280611050484572 -0.47090640128894168 0 -0.38339996822118783 -0.44368928783448319 0 -0.3895931593355052 -0.46351353191466821 0 -0.37415472949075129 -0.45946062715310632 0 -0.3895931593355052 -0.46351353191466821 0 -0.38039451612360919 -0.47713749807852829 0 -0.37415472949075129 -0.45946062715310632 0 -0.38039451612360919 -0.47713749807852829 0 -0.39198476482648659 -0.49312537606366408 0 -0.39366244928105898 -0.47747566409097131 0 -0.3895931593355052 -0.46351353191466821 0 -0.38039451612360919 -0.47713749807852829 0 -0.39366244928105898 -0.47747566409097131 0 -0.39198476482648659 -0.49312537606366408 0 -0.37055643484088358 -0.49425936316784103 0 -0.39198476482648659 -0.49312537606366408 0 -0.40291763061342539 -0.5 0 -0.37308363097429631 -0.50000000000000244 0 -0.39198476482648659 -0.49312537606366408 0 -0.37055643484088358 -0.49425936316784103 0 -0.37308363097429631 -0.50000000000000244 0 -0.38039451612360919 -0.47713749807852829 0 -0.39198476482648659 -0.49312537606366408 0 -0.37055643484088358 -0.49425936316784103 0 -0.39198476482648659 -0.49312537606366408 0 -0.41341309481208982 -0.49199138895948757 0 -0.39198476482648659 -0.49312537606366408 0 -0.39366244928105898 -0.47747566409097131 0 -0.40353369561484831 -0.48269551310905429 0 -0.39198476482648659 -0.49312537606366408 0 -0.40291763061342539 -0.5 0 -0.41341309481208982 -0.49199138895948757 0 -0.39198476482648659 -0.49312537606366408 0 -0.40353369561484831 -0.48269551310905429 0 -0.41341309481208982 -0.49199138895948757 0 -0.3895931593355052 -0.46351353191466821 0 -0.39366244928105898 -0.47747566409097131 0 -0.40280611050484572 -0.47090640128894168 0 -0.39366244928105898 -0.47747566409097131 0 -0.40353369561484831 -0.48269551310905429 0 -0.40280611050484572 -0.47090640128894168 0 -0.40280611050484572 -0.47090640128894168 0 -0.41792735015940108 -0.47619959015896091 0 -0.41524515795200517 -0.46243146669528151 0 -0.40353369561484831 -0.48269551310905429 0 -0.41792735015940108 -0.47619959015896091 0 -0.41341309481208982 -0.49199138895948757 0 -0.40353369561484831 -0.48269551310905429 0 -0.40280611050484572 -0.47090640128894168 0 -0.41792735015940108 -0.47619959015896091 0 -0.41792735015940108 -0.47619959015896091 0 -0.41341309481208982 -0.49199138895948757 0 -0.42480663413382869 -0.48754747406650911 0 -0.40291763061342539 -0.5 0 -0.41341309481208982 -0.49199138895948757 0 -0.43275163025255442 -0.5 0 -0.41341309481208982 -0.49199138895948757 0 -0.42480663413382869 -0.48754747406650911 0 -0.43275163025255442 -0.5 0 -0.42480663413382869 -0.48754747406650911 0 -0.43275163025255442 -0.5 0 -0.43513446131126993 -0.48199891714758791 0 -0.4457251648104853 -0.47020164095208389 0 -0.43513446131126993 -0.48199891714758791 0 -0.43016578207734568 -0.46313500011938619 0 -0.41792735015940108 -0.47619959015896091 0 -0.43513446131126993 -0.48199891714758791 0 -0.43016578207734568 -0.46313500011938619 0 -0.41792735015940108 -0.47619959015896091 0 -0.42480663413382869 -0.48754747406650911 0 -0.43513446131126993 -0.48199891714758791 0 -0.4467190029717853 -0.45478934699519452 0 -0.43016578207734568 -0.46313500011938619 0 -0.43246707723660932 -0.44794326854796312 0 -0.43016578207734568 -0.46313500011938619 0 -0.42051073979218989 -0.45215097324273301 0 -0.41524515795200517 -0.46243146669528151 0 -0.43016578207734568 -0.46313500011938619 0 -0.43246707723660932 -0.44794326854796312 0 -0.42051073979218989 -0.45215097324273301 0 -0.4422915115958943 -0.43555510214664611 0 -0.43077617074680319 -0.43406335077952207 0 -0.43246707723660932 -0.44794326854796312 0 -0.43077617074680319 -0.43406335077952207 0 -0.43246707723660932 -0.44794326854796312 0 -0.41950844772475421 -0.43888456563633732 0 -0.43246707723660932 -0.44794326854796312 0 -0.42051073979218989 -0.45215097324273301 0 -0.41950844772475421 -0.43888456563633732 0 -0.39893236021425188 -0.42931692235905211 0 -0.40446438048225181 -0.45117017211807442 0 -0.41950844772475421 -0.43888456563633732 0 -0.40446438048225181 -0.45117017211807442 0 -0.42051073979218989 -0.45215097324273301 0 -0.41950844772475421 -0.43888456563633732 0 -0.40446438048225181 -0.45117017211807442 0 -0.42051073979218989 -0.45215097324273301 0 -0.41524515795200517 -0.46243146669528151 0 -0.40446438048225181 -0.45117017211807442 0 -0.40280611050484572 -0.47090640128894168 0 -0.41524515795200517 -0.46243146669528151 0 -0.41792735015940108 -0.47619959015896091 0 -0.43016578207734568 -0.46313500011938619 0 -0.41524515795200517 -0.46243146669528151 0 -0.45018232007011222 -0.256765034028549 0 -0.429874989515865 -0.26165756953837482 0 -0.43598079583492633 -0.24721882136819351 0 -0.45018232007011222 -0.256765034028549 0 -0.43765198640052377 -0.27443700488157741 0 -0.429874989515865 -0.26165756953837482 0 -0.45018232007011222 -0.256765034028549 0 -0.43598079583492633 -0.24721882136819351 0 -0.45139902778349827 -0.24711062934306771 0 -0.45018232007011222 -0.256765034028549 0 -0.43765198640052377 -0.27443700488157741 0 -0.46196722525855399 -0.27174391220054139 0 -0.43765198640052377 -0.27443700488157741 0 -0.46196722525855399 -0.27174391220054139 0 -0.4476129789611048 -0.29283803371489903 0 -0.46196722525855399 -0.27174391220054139 0 -0.48050148842732221 -0.25523221810557922 0 -0.46267023581878858 -0.24817136713935201 0 -0.45018232007011222 -0.256765034028549 0 -0.46196722525855399 -0.27174391220054139 0 -0.46267023581878858 -0.24817136713935201 0 -0.45018232007011222 -0.256765034028549 0 -0.46267023581878858 -0.24817136713935201 0 -0.45139902778349827 -0.24711062934306771 0 -0.48050148842732221 -0.25523221810557922 0 -0.5 -0.26944871803204617 0 -0.5 -0.2401545466321974 0 -0.48050148842732221 -0.25523221810557922 0 -0.5 -0.26944871803204617 0 -0.48245797385404121 -0.28063059353633901 0 -0.46196722525855399 -0.27174391220054139 0 -0.48050148842732221 -0.25523221810557922 0 -0.48245797385404121 -0.28063059353633901 0 -0.46196722525855399 -0.27174391220054139 0 -0.48245797385404121 -0.28063059353633901 0 -0.46937090116945868 -0.29821258941183898 0 -0.48245797385404121 -0.28063059353633901 0 -0.5 -0.29874288943189498 0 -0.46937090116945868 -0.29821258941183898 0 -0.5 -0.26944871803204617 0 -0.48245797385404121 -0.28063059353633901 0 -0.5 -0.29874288943189498 0 -0.5 -0.29874288943189498 0 -0.46937090116945868 -0.29821258941183898 0 -0.47623524987602139 -0.32201367690444971 0 -0.46937090116945868 -0.29821258941183898 0 -0.4476129789611048 -0.29283803371489903 0 -0.45018982867155483 -0.32180400573951162 0 -0.46196722525855399 -0.27174391220054139 0 -0.46937090116945868 -0.29821258941183898 0 -0.4476129789611048 -0.29283803371489903 0 -0.43765198640052377 -0.27443700488157741 0 -0.4476129789611048 -0.29283803371489903 0 -0.43236213870239748 -0.29002705800971151 0 -0.4476129789611048 -0.29283803371489903 0 -0.45018982867155483 -0.32180400573951162 0 -0.4314578060398388 -0.3048790663939604 0 -0.45018982867155483 -0.32180400573951162 0 -0.4314578060398388 -0.3048790663939604 0 -0.45018982867155483 -0.32180400573951162 0 -0.46157657978994598 -0.34139555482026068 0 -0.43521386225128428 -0.33802231259611382 0 -0.46157657978994598 -0.34139555482026068 0 -0.43521386225128428 -0.33802231259611382 0 -0.45018982867155483 -0.32180400573951162 0 -0.46157657978994598 -0.34139555482026068 0 -0.47623524987602139 -0.32201367690444971 0 -0.46937090116945868 -0.29821258941183898 0 -0.45018982867155483 -0.32180400573951162 0 -0.47623524987602139 -0.32201367690444971 0 -0.5 -0.29874288943189498 0 -0.47623524987602139 -0.32201367690444971 0 -0.5 -0.32803706083174372 0 -0.47623524987602139 -0.32201367690444971 0 -0.5 -0.32803706083174372 0 -0.48561656391384522 -0.34384835974822991 0 -0.5 -0.32803706083174372 0 -0.5 -0.35733123223159241 0 -0.48561656391384522 -0.34384835974822991 0 -0.46157657978994598 -0.34139555482026068 0 -0.47623524987602139 -0.32201367690444971 0 -0.48561656391384522 -0.34384835974822991 0 -0.46157657978994598 -0.34139555482026068 0 -0.47568148196104371 -0.35852722048879659 0 -0.48561656391384522 -0.34384835974822991 0 -0.47568148196104371 -0.35852722048879659 0 -0.48561656391384522 -0.34384835974822991 0 -0.48768886795130861 -0.36141736908419309 0 -0.5 -0.35733123223159241 0 -0.48561656391384522 -0.34384835974822991 0 -0.48768886795130861 -0.36141736908419309 0 -0.5 -0.35733123223159241 0 -0.4947615751445838 -0.37332156409002909 0 -0.48768886795130861 -0.36141736908419309 0 -0.5 -0.38662540363144121 0 -0.5 -0.35733123223159241 0 -0.4947615751445838 -0.37332156409002909 0 -0.4947615751445838 -0.37332156409002909 0 -0.48768886795130861 -0.36141736908419309 0 -0.48030931097003587 -0.37191064435083931 0 -0.47568148196104371 -0.35852722048879659 0 -0.48030931097003587 -0.37191064435083931 0 -0.46669490250066459 -0.37481721741951951 0 -0.47568148196104371 -0.35852722048879659 0 -0.48768886795130861 -0.36141736908419309 0 -0.48030931097003587 -0.37191064435083931 0 -0.46669490250066459 -0.37481721741951951 0 -0.45985290530711531 -0.35919053618658509 0 -0.45095991715087752 -0.36968037302039969 0 -0.47568148196104371 -0.35852722048879659 0 -0.46669490250066459 -0.37481721741951951 0 -0.45985290530711531 -0.35919053618658509 0 -0.46157657978994598 -0.34139555482026068 0 -0.47568148196104371 -0.35852722048879659 0 -0.45985290530711531 -0.35919053618658509 0 -0.46157657978994598 -0.34139555482026068 0 -0.45985290530711531 -0.35919053618658509 0 -0.44091292170358748 -0.35617636658334351 0 -0.46157657978994598 -0.34139555482026068 0 -0.44091292170358748 -0.35617636658334351 0 -0.43521386225128428 -0.33802231259611382 0 -0.43421362475025049 -0.37527491429266319 0 -0.44091292170358748 -0.35617636658334351 0 -0.45095991715087752 -0.36968037302039969 0 -0.45985290530711531 -0.35919053618658509 0 -0.44091292170358748 -0.35617636658334351 0 -0.45095991715087752 -0.36968037302039969 0 -0.43421362475025049 -0.37527491429266319 0 -0.41656514696884139 -0.37636588688318029 0 -0.42218579342164808 -0.36334977441807748 0 -0.43421362475025049 -0.37527491429266319 0 -0.44091292170358748 -0.35617636658334351 0 -0.42218579342164808 -0.36334977441807748 0 -0.44091292170358748 -0.35617636658334351 0 -0.42218579342164808 -0.36334977441807748 0 -0.42066840753926321 -0.34864312644900147 0 -0.44091292170358748 -0.35617636658334351 0 -0.42066840753926321 -0.34864312644900147 0 -0.43521386225128428 -0.33802231259611382 0 -0.42218579342164808 -0.36334977441807748 0 -0.42066840753926321 -0.34864312644900147 0 -0.40690054455725883 -0.35815659477868023 0 -0.40690054455725883 -0.35815659477868023 0 -0.40885114471262263 -0.334649070371968 0 -0.42066840753926321 -0.34864312644900147 0 -0.40690054455725883 -0.35815659477868023 0 -0.40885114471262263 -0.334649070371968 0 -0.42218579342164808 -0.36334977441807748 0 -0.40690054455725883 -0.35815659477868023 0 -0.40625971269279348 -0.36587953617857771 0 -0.40690054455725883 -0.35815659477868023 0 -0.40625971269279348 -0.36587953617857771 0 -0.41656514696884139 -0.37636588688318029 0 -0.42218579342164808 -0.36334977441807748 0 -0.40625971269279348 -0.36587953617857771 0 -0.42218579342164808 -0.36334977441807748 0 -0.40690054455725883 -0.35815659477868023 0 -0.41656514696884139 -0.37636588688318029 0 -0.40465459864295228 -0.37650109000307358 0 -0.40625971269279348 -0.36587953617857771 0 -0.40465459864295228 -0.37650109000307358 0 -0.40625971269279348 -0.36587953617857771 0 -0.3968495855878465 -0.36923685638487008 0 -0.40690054455725883 -0.35815659477868023 0 -0.40029228617445223 -0.36350286704594809 0 -0.3911593018599101 -0.36073848084166482 0 -0.40625971269279348 -0.36587953617857771 0 -0.40029228617445223 -0.36350286704594809 0 -0.3968495855878465 -0.36923685638487008 0 -0.40690054455725883 -0.35815659477868023 0 -0.40625971269279348 -0.36587953617857771 0 -0.40029228617445223 -0.36350286704594809 0 -0.3911593018599101 -0.36073848084166482 0 -0.3968495855878465 -0.36923685638487008 0 -0.38569326772338258 -0.37053454129240582 0 -0.40029228617445223 -0.36350286704594809 0 -0.3911593018599101 -0.36073848084166482 0 -0.3968495855878465 -0.36923685638487008 0 -0.39431275766669582 -0.38061373190328529 0 -0.3968495855878465 -0.36923685638487008 0 -0.38569326772338258 -0.37053454129240582 0 -0.3911593018599101 -0.36073848084166482 0 -0.38569326772338258 -0.37053454129240582 0 -0.37568472164775779 -0.36524225821647011 0 -0.37522403377147279 -0.38060127254172499 0 -0.38569326772338258 -0.37053454129240582 0 -0.37568472164775779 -0.36524225821647011 0 -0.3911593018599101 -0.36073848084166482 0 -0.37568472164775779 -0.36524225821647011 0 -0.38024887903539811 -0.3491016629308506 0 -0.40690054455725883 -0.35815659477868023 0 -0.3911593018599101 -0.36073848084166482 0 -0.38024887903539811 -0.3491016629308506 0 -0.40690054455725883 -0.35815659477868023 0 -0.38024887903539811 -0.3491016629308506 0 -0.39533213247953691 -0.34338662223350158 0 -0.40690054455725883 -0.35815659477868023 0 -0.39533213247953691 -0.34338662223350158 0 -0.40885114471262263 -0.334649070371968 0 -0.40690054455725883 -0.35815659477868023 0 -0.38024887903539811 -0.3491016629308506 0 -0.39533213247953691 -0.34338662223350158 0 -0.38532796161286798 -0.33163916085250739 0 -0.40885114471262263 -0.334649070371968 0 -0.38532796161286798 -0.33163916085250739 0 -0.40885114471262263 -0.334649070371968 0 -0.38024887903539811 -0.3491016629308506 0 -0.39533213247953691 -0.34338662223350158 0 -0.38532796161286798 -0.33163916085250739 0 -0.38024887903539811 -0.3491016629308506 0 -0.38532796161286798 -0.33163916085250739 0 -0.37024470816872912 -0.33735420154985679 0 -0.38532796161286798 -0.33163916085250739 0 -0.37601492727600683 -0.3197696392392384 0 -0.39293033406270472 -0.31505081143976649 0 -0.37601492727600683 -0.3197696392392384 0 -0.39293033406270472 -0.31505081143976649 0 -0.37651642550459341 -0.307078797330949 0 -0.38532796161286798 -0.33163916085250739 0 -0.39293033406270472 -0.31505081143976649 0 -0.40885114471262263 -0.334649070371968 0 -0.39293033406270472 -0.31505081143976649 0 -0.40885114471262263 -0.334649070371968 0 -0.41078846406037228 -0.3113015987101887 0 -0.40885114471262263 -0.334649070371968 0 -0.42554877913925399 -0.3223331804902434 0 -0.41078846406037228 -0.3113015987101887 0 -0.40885114471262263 -0.334649070371968 0 -0.41078846406037228 -0.3113015987101887 0 -0.42066840753926321 -0.34864312644900147 0 -0.40885114471262263 -0.334649070371968 0 -0.43521386225128428 -0.33802231259611382 0 -0.40885114471262263 -0.334649070371968 0 -0.43521386225128428 -0.33802231259611382 0 -0.40885114471262263 -0.334649070371968 0 -0.43521386225128428 -0.33802231259611382 0 -0.42554877913925399 -0.3223331804902434 0 -0.42554877913925399 -0.3223331804902434 0 -0.4314578060398388 -0.3048790663939604 0 -0.41078846406037228 -0.3113015987101887 0 -0.45018982867155483 -0.32180400573951162 0 -0.43521386225128428 -0.33802231259611382 0 -0.42554877913925399 -0.3223331804902434 0 -0.45018982867155483 -0.32180400573951162 0 -0.42554877913925399 -0.3223331804902434 0 -0.4314578060398388 -0.3048790663939604 0 -0.4476129789611048 -0.29283803371489903 0 -0.4314578060398388 -0.3048790663939604 0 -0.43236213870239748 -0.29002705800971151 0 -0.4314578060398388 -0.3048790663939604 0 -0.43236213870239748 -0.29002705800971151 0 -0.41272578340812272 -0.2879541270484095 0 -0.4314578060398388 -0.3048790663939604 0 -0.41272578340812272 -0.2879541270484095 0 -0.43765198640052377 -0.27443700488157741 0 -0.43236213870239748 -0.29002705800971151 0 -0.41272578340812272 -0.2879541270484095 0 -0.4314578060398388 -0.3048790663939604 0 -0.41272578340812272 -0.2879541270484095 0 -0.41078846406037228 -0.3113015987101887 0 -0.41272578340812272 -0.2879541270484095 0 -0.41078846406037228 -0.3113015987101887 0 -0.41272578340812272 -0.2879541270484095 0 -0.41078846406037228 -0.3113015987101887 0 -0.39233272698174793 -0.29435547039456872 0 -0.39293033406270472 -0.31505081143976649 0 -0.41078846406037228 -0.3113015987101887 0 -0.39233272698174793 -0.29435547039456872 0 -0.39293033406270472 -0.31505081143976649 0 -0.37651642550459341 -0.307078797330949 0 -0.39233272698174793 -0.29435547039456872 0 -0.39233272698174793 -0.29435547039456872 0 -0.39278725088820249 -0.26993907014966689 0 -0.37040839911066209 -0.28171057629616708 0 -0.37651642550459341 -0.307078797330949 0 -0.39233272698174793 -0.29435547039456872 0 -0.37040839911066209 -0.28171057629616708 0 -0.41272578340812272 -0.2879541270484095 0 -0.39233272698174793 -0.29435547039456872 0 -0.39278725088820249 -0.26993907014966689 0 -0.41272578340812272 -0.2879541270484095 0 -0.39278725088820249 -0.26993907014966689 0 -0.39278725088820249 -0.26993907014966689 0 -0.37040839911066209 -0.28171057629616708 0 -0.39278725088820249 -0.26993907014966689 0 -0.37533687834285862 -0.25417213976024849 0 -0.37040839911066209 -0.28171057629616708 0 -0.39278725088820249 -0.26993907014966689 0 -0.37533687834285862 -0.25417213976024849 0 -0.39826986996263802 -0.25360934065352753 0 -0.39278725088820249 -0.26993907014966689 0 -0.37533687834285862 -0.25417213976024849 0 -0.39278725088820249 -0.26993907014966689 0 -0.39826986996263802 -0.25360934065352753 0 -0.41519883225968468 -0.25815034790020708 0 -0.39278725088820249 -0.26993907014966689 0 -0.41519883225968468 -0.25815034790020708 0 -0.39826986996263802 -0.25360934065352753 0 -0.41519883225968468 -0.25815034790020708 0 -0.41615383063077721 -0.2466412503256647 0 -0.41519883225968468 -0.25815034790020708 0 -0.41615383063077721 -0.2466412503256647 0 -0.41272578340812272 -0.2879541270484095 0 -0.41519883225968468 -0.25815034790020708 0 -0.41272578340812272 -0.2879541270484095 0 -0.41519883225968468 -0.25815034790020708 0 -0.429874989515865 -0.26165756953837482 0 -0.41272578340812272 -0.2879541270484095 0 -0.39278725088820249 -0.26993907014966689 0 -0.41519883225968468 -0.25815034790020708 0 -0.43765198640052377 -0.27443700488157741 0 -0.41272578340812272 -0.2879541270484095 0 -0.429874989515865 -0.26165756953837482 0 -0.41519883225968468 -0.25815034790020708 0 -0.43598079583492633 -0.24721882136819351 0 -0.41519883225968468 -0.25815034790020708 0 -0.429874989515865 -0.26165756953837482 0 -0.43598079583492633 -0.24721882136819351 0 -0.41519883225968468 -0.25815034790020708 0 -0.43598079583492633 -0.24721882136819351 0 -0.41615383063077721 -0.2466412503256647 0 -0.31968345090478489 -0.25798973640781447 0 -0.33623326073948312 -0.25365348176558788 0 -0.32213598881581812 -0.2442700999577708 0 -0.31968345090478489 -0.25798973640781447 0 -0.31319680135340772 -0.27337899374224139 0 -0.30564385326437488 -0.26015983685037081 0 -0.31968345090478489 -0.25798973640781447 0 -0.31319680135340772 -0.27337899374224139 0 -0.33256675641106698 -0.27199424518209242 0 -0.31319680135340772 -0.27337899374224139 0 -0.33256675641106698 -0.27199424518209242 0 -0.3219330120753135 -0.28752383142540722 0 -0.33256675641106698 -0.27199424518209242 0 -0.33623326073948312 -0.25365348176558788 0 -0.35329637777243872 -0.26495799818728782 0 -0.31968345090478489 -0.25798973640781447 0 -0.33256675641106698 -0.27199424518209242 0 -0.33623326073948312 -0.25365348176558788 0 -0.33623326073948312 -0.25365348176558788 0 -0.35329637777243872 -0.26495799818728782 0 -0.35305879752332059 -0.24486073726717009 0 -0.37533687834285862 -0.25417213976024849 0 -0.35329637777243872 -0.26495799818728782 0 -0.35305879752332059 -0.24486073726717009 0 -0.37533687834285862 -0.25417213976024849 0 -0.35329637777243872 -0.26495799818728782 0 -0.37040839911066209 -0.28171057629616708 0 -0.35329637777243872 -0.26495799818728782 0 -0.34802954733312141 -0.29348208244266671 0 -0.37040839911066209 -0.28171057629616708 0 -0.33256675641106698 -0.27199424518209242 0 -0.35329637777243872 -0.26495799818728782 0 -0.34802954733312141 -0.29348208244266671 0 -0.34802954733312141 -0.29348208244266671 0 -0.37040839911066209 -0.28171057629616708 0 -0.37651642550459341 -0.307078797330949 0 -0.37040839911066209 -0.28171057629616708 0 -0.36249180620921062 -0.30132401124355712 0 -0.34802954733312141 -0.29348208244266671 0 -0.37040839911066209 -0.28171057629616708 0 -0.36249180620921062 -0.30132401124355712 0 -0.37651642550459341 -0.307078797330949 0 -0.36249180620921062 -0.30132401124355712 0 -0.36514172279026702 -0.314674684486903 0 -0.36249180620921062 -0.30132401124355712 0 -0.35217384865543538 -0.31302074178168637 0 -0.36514172279026702 -0.314674684486903 0 -0.34802954733312141 -0.29348208244266671 0 -0.33894022777705518 -0.31261958861733652 0 -0.35217384865543538 -0.31302074178168637 0 -0.34802954733312141 -0.29348208244266671 0 -0.36249180620921062 -0.30132401124355712 0 -0.35217384865543538 -0.31302074178168637 0 -0.34802954733312141 -0.29348208244266671 0 -0.32565069555558063 -0.30525358858916618 0 -0.33894022777705518 -0.31261958861733652 0 -0.34802954733312141 -0.29348208244266671 0 -0.32565069555558063 -0.30525358858916618 0 -0.32565069555558063 -0.30525358858916618 0 -0.32940773276489932 -0.31652548782855527 0 -0.33894022777705518 -0.31261958861733652 0 -0.33256675641106698 -0.27199424518209242 0 -0.34802954733312141 -0.29348208244266671 0 -0.3219330120753135 -0.28752383142540722 0 -0.34802954733312141 -0.29348208244266671 0 -0.3219330120753135 -0.28752383142540722 0 -0.32565069555558063 -0.30525358858916618 0 -0.3219330120753135 -0.28752383142540722 0 -0.31228269981280887 -0.29918463989613459 0 -0.30483638085835207 -0.28788342401786787 0 -0.31319680135340772 -0.27337899374224139 0 -0.3219330120753135 -0.28752383142540722 0 -0.30483638085835207 -0.28788342401786787 0 -0.32565069555558063 -0.30525358858916618 0 -0.30327184377803978 -0.31702509473566581 0 -0.31228269981280887 -0.29918463989613459 0 -0.3219330120753135 -0.28752383142540722 0 -0.32565069555558063 -0.30525358858916618 0 -0.31228269981280887 -0.29918463989613459 0 -0.32565069555558063 -0.30525358858916618 0 -0.30327184377803978 -0.31702509473566581 0 -0.31475841231360341 -0.32260943229412947 0 -0.32694554799167658 -0.33099179923519167 0 -0.33828159541335823 -0.32561934181358893 0 -0.32565069555558063 -0.30525358858916618 0 -0.31475841231360341 -0.32260943229412947 0 -0.30327184377803978 -0.31702509473566581 0 -0.31475841231360341 -0.32260943229412947 0 -0.33828159541335823 -0.32561934181358893 0 -0.32940773276489932 -0.31652548782855527 0 -0.32565069555558063 -0.30525358858916618 0 -0.31475841231360341 -0.32260943229412947 0 -0.32940773276489932 -0.31652548782855527 0 -0.31475841231360341 -0.32260943229412947 0 -0.33828159541335823 -0.32561934181358893 0 -0.31475841231360341 -0.32260943229412947 0 -0.31372637242327511 -0.33497634201883658 0 -0.32694554799167658 -0.33099179923519167 0 -0.32694554799167658 -0.33099179923519167 0 -0.32737612656656928 -0.35021722948502532 0 -0.3170311031704231 -0.34491623006635341 0 -0.31372637242327511 -0.33497634201883658 0 -0.32694554799167658 -0.33099179923519167 0 -0.3170311031704231 -0.34491623006635341 0 -0.31372637242327511 -0.33497634201883658 0 -0.3170311031704231 -0.34491623006635341 0 -0.30849554643820359 -0.34481279163420842 0 -0.32694554799167658 -0.33099179923519167 0 -0.33828159541335823 -0.32561934181358893 0 -0.35359721351353718 -0.34004673108302108 0 -0.32694554799167658 -0.33099179923519167 0 -0.35359721351353718 -0.34004673108302108 0 -0.33765025977867152 -0.34480892108230998 0 -0.32694554799167658 -0.33099179923519167 0 -0.35359721351353718 -0.34004673108302108 0 -0.32694554799167658 -0.33099179923519167 0 -0.33765025977867152 -0.34480892108230998 0 -0.32737612656656928 -0.35021722948502532 0 -0.33828159541335823 -0.32561934181358893 0 -0.32940773276489932 -0.31652548782855527 0 -0.33894022777705518 -0.31261958861733652 0 -0.33828159541335823 -0.32561934181358893 0 -0.33894022777705518 -0.31261958861733652 0 -0.35217384865543538 -0.31302074178168637 0 -0.33828159541335823 -0.32561934181358893 0 -0.3618047785131131 -0.32862925133304821 0 -0.33828159541335823 -0.32561934181358893 0 -0.35217384865543538 -0.31302074178168637 0 -0.3618047785131131 -0.32862925133304821 0 -0.38532796161286798 -0.33163916085250739 0 -0.37601492727600683 -0.3197696392392384 0 -0.3618047785131131 -0.32862925133304821 0 -0.35217384865543538 -0.31302074178168637 0 -0.36514172279026702 -0.314674684486903 0 -0.3618047785131131 -0.32862925133304821 0 -0.37601492727600683 -0.3197696392392384 0 -0.36514172279026702 -0.314674684486903 0 -0.3618047785131131 -0.32862925133304821 0 -0.37601492727600683 -0.3197696392392384 0 -0.37651642550459341 -0.307078797330949 0 -0.36514172279026702 -0.314674684486903 0 -0.38532796161286798 -0.33163916085250739 0 -0.37024470816872912 -0.33735420154985679 0 -0.3618047785131131 -0.32862925133304821 0 -0.37024470816872912 -0.33735420154985679 0 -0.3618047785131131 -0.32862925133304821 0 -0.35359721351353718 -0.34004673108302108 0 -0.38532796161286798 -0.33163916085250739 0 -0.3618047785131131 -0.32862925133304821 0 -0.38024887903539811 -0.3491016629308506 0 -0.37024470816872912 -0.33735420154985679 0 -0.35359721351353718 -0.34004673108302108 0 -0.33828159541335823 -0.32561934181358893 0 -0.3618047785131131 -0.32862925133304821 0 -0.35359721351353718 -0.34004673108302108 0 -0.35359721351353718 -0.34004673108302108 0 -0.36247207576052709 -0.35740109745143939 0 -0.34268215104290278 -0.35797992452600158 0 -0.35359721351353718 -0.34004673108302108 0 -0.34268215104290278 -0.35797992452600158 0 -0.33765025977867152 -0.34480892108230998 0 -0.37568472164775779 -0.36524225821647011 0 -0.38024887903539811 -0.3491016629308506 0 -0.36247207576052709 -0.35740109745143939 0 -0.38024887903539811 -0.3491016629308506 0 -0.35359721351353718 -0.34004673108302108 0 -0.36247207576052709 -0.35740109745143939 0 -0.38024887903539811 -0.3491016629308506 0 -0.35359721351353718 -0.34004673108302108 0 -0.37522403377147279 -0.38060127254172499 0 -0.37568472164775779 -0.36524225821647011 0 -0.35964608014779109 -0.37334112637938882 0 -0.37568472164775779 -0.36524225821647011 0 -0.36247207576052709 -0.35740109745143939 0 -0.35964608014779109 -0.37334112637938882 0 -0.36247207576052709 -0.35740109745143939 0 -0.35964608014779109 -0.37334112637938882 0 -0.34268215104290278 -0.35797992452600158 0 -0.35964608014779109 -0.37334112637938882 0 -0.34268215104290278 -0.35797992452600158 0 -0.34254000635277743 -0.38197763020755832 0 -0.34268215104290278 -0.35797992452600158 0 -0.32737612656656928 -0.35021722948502532 0 -0.32270418411731933 -0.37181077970513959 0 -0.34268215104290278 -0.35797992452600158 0 -0.32270418411731933 -0.37181077970513959 0 -0.34254000635277743 -0.38197763020755832 0 -0.34268215104290278 -0.35797992452600158 0 -0.34254000635277743 -0.38197763020755832 0 -0.34268215104290278 -0.35797992452600158 0 -0.33765025977867152 -0.34480892108230998 0 -0.32737612656656928 -0.35021722948502532 0 -0.32737612656656928 -0.35021722948502532 0 -0.31662274924076123 -0.35606216629487569 0 -0.32270418411731933 -0.37181077970513959 0 -0.32737612656656928 -0.35021722948502532 0 -0.3170311031704231 -0.34491623006635341 0 -0.31662274924076123 -0.35606216629487569 0 -0.3170311031704231 -0.34491623006635341 0 -0.31662274924076123 -0.35606216629487569 0 -0.30902027636205309 -0.35243705172998302 0 -0.31662274924076123 -0.35606216629487569 0 -0.32270418411731933 -0.37181077970513959 0 -0.30796050174877349 -0.36016317053514468 0 -0.32270418411731933 -0.37181077970513959 0 -0.29719619905707523 -0.36594012765828582 0 -0.30796050174877349 -0.36016317053514468 0 -0.32270418411731933 -0.37181077970513959 0 -0.29719619905707523 -0.36594012765828582 0 -0.3103864423796594 -0.37828470113645102 0 -0.32270418411731933 -0.37181077970513959 0 -0.29719619905707523 -0.36594012765828582 0 -0.29719619905707523 -0.36594012765828582 0 -0.29943295026653399 -0.35953932364306618 0 -0.30796050174877349 -0.36016317053514468 0 -0.29719619905707523 -0.36594012765828582 0 -0.29584447723995128 -0.37444813956539807 0 -0.3103864423796594 -0.37828470113645102 0 -0.31662274924076123 -0.35606216629487569 0 -0.30796050174877349 -0.36016317053514468 0 -0.30902027636205309 -0.35243705172998302 0 -0.30796050174877349 -0.36016317053514468 0 -0.30902027636205309 -0.35243705172998302 0 -0.30278665144889838 -0.35518957417951802 0 -0.3170311031704231 -0.34491623006635341 0 -0.30902027636205309 -0.35243705172998302 0 -0.30849554643820359 -0.34481279163420842 0 -0.30902027636205309 -0.35243705172998302 0 -0.30849554643820359 -0.34481279163420842 0 -0.30076474035813339 -0.34759465108555682 0 -0.30849554643820359 -0.34481279163420842 0 -0.30076474035813339 -0.34759465108555682 0 -0.30398917998114899 -0.33934800480643368 0 -0.30902027636205309 -0.35243705172998302 0 -0.30076474035813339 -0.34759465108555682 0 -0.30278665144889838 -0.35518957417951802 0 -0.29943295026653399 -0.35953932364306618 0 -0.30796050174877349 -0.36016317053514468 0 -0.30278665144889838 -0.35518957417951802 0 -0.30076474035813339 -0.34759465108555682 0 -0.30278665144889838 -0.35518957417951802 0 -0.29719830368448108 -0.35301728683459582 0 -0.29943295026653399 -0.35953932364306618 0 -0.30278665144889838 -0.35518957417951802 0 -0.29719830368448108 -0.35301728683459582 0 -0.29943295026653399 -0.35953932364306618 0 -0.29719830368448108 -0.35301728683459582 0 -0.29016743694869812 -0.35649807524262711 0 -0.29016743694869812 -0.35649807524262711 0 -0.28284547851944208 -0.35047845284871731 0 -0.27168821399683141 -0.36006947561143121 0 -0.29719830368448108 -0.35301728683459582 0 -0.29016743694869812 -0.35649807524262711 0 -0.2925915294609488 -0.34919256188026188 0 -0.2925915294609488 -0.34919256188026188 0 -0.28611540962297188 -0.3426453659285974 0 -0.29619358151489988 -0.34015641309103278 0 -0.30076474035813339 -0.34759465108555682 0 -0.29719830368448108 -0.35301728683459582 0 -0.2925915294609488 -0.34919256188026188 0 -0.30076474035813339 -0.34759465108555682 0 -0.2925915294609488 -0.34919256188026188 0 -0.29619358151489988 -0.34015641309103278 0 -0.2925915294609488 -0.34919256188026188 0 -0.28284547851944208 -0.35047845284871731 0 -0.28611540962297188 -0.3426453659285974 0 -0.28284547851944208 -0.35047845284871731 0 -0.27676447355633299 -0.3457480812413124 0 -0.28611540962297188 -0.3426453659285974 0 -0.29016743694869812 -0.35649807524262711 0 -0.2925915294609488 -0.34919256188026188 0 -0.28284547851944208 -0.35047845284871731 0 -0.29202770366946113 -0.36668513997228358 0 -0.27168821399683141 -0.36006947561143121 0 -0.28307956849111848 -0.3828068929804474 0 -0.29719619905707523 -0.36594012765828582 0 -0.27168821399683141 -0.36006947561143121 0 -0.29202770366946113 -0.36668513997228358 0 -0.28307956849111848 -0.3828068929804474 0 -0.29202770366946113 -0.36668513997228358 0 -0.29584447723995128 -0.37444813956539807 0 -0.28307956849111848 -0.3828068929804474 0 -0.29719619905707523 -0.36594012765828582 0 -0.29016743694869812 -0.35649807524262711 0 -0.27168821399683141 -0.36006947561143121 0 -0.29719619905707523 -0.36594012765828582 0 -0.29202770366946113 -0.36668513997228358 0 -0.27168821399683141 -0.36006947561143121 0 -0.29719619905707523 -0.36594012765828582 0 -0.29943295026653399 -0.35953932364306618 0 -0.29016743694869812 -0.35649807524262711 0 -0.29719619905707523 -0.36594012765828582 0 -0.29202770366946113 -0.36668513997228358 0 -0.29584447723995128 -0.37444813956539807 0 -0.27168821399683141 -0.36006947561143121 0 -0.28307956849111848 -0.3828068929804474 0 -0.27168821399683141 -0.36006947561143121 0 -0.28307956849111848 -0.3828068929804474 0 -0.26050234447883253 -0.38027693877573482 0 -0.27168821399683141 -0.36006947561143121 0 -0.25721723303835431 -0.36623646057876708 0 -0.26050234447883253 -0.38027693877573482 0 -0.27168821399683141 -0.36006947561143121 0 -0.25721723303835431 -0.36623646057876708 0 -0.24850069890613241 -0.35473287875334369 0 -0.25721723303835431 -0.36623646057876708 0 -0.24817767477162081 -0.36986654917455902 0 -0.24850069890613241 -0.35473287875334369 0 -0.25721723303835431 -0.36623646057876708 0 -0.26050234447883253 -0.38027693877573482 0 -0.24817767477162081 -0.36986654917455902 0 -0.27168821399683141 -0.36006947561143121 0 -0.25445926970156468 -0.34270101061729968 0 -0.24850069890613241 -0.35473287875334369 0 -0.27168821399683141 -0.36006947561143121 0 -0.26120815563270988 -0.3391510272218049 0 -0.25445926970156468 -0.34270101061729968 0 -0.27168821399683141 -0.36006947561143121 0 -0.24850069890613241 -0.35473287875334369 0 -0.27168821399683141 -0.36006947561143121 0 -0.27676447355633299 -0.3457480812413124 0 -0.26120815563270988 -0.3391510272218049 0 -0.27168821399683141 -0.36006947561143121 0 -0.26120815563270988 -0.3391510272218049 0 -0.28284547851944208 -0.35047845284871731 0 -0.27168821399683141 -0.36006947561143121 0 -0.27676447355633299 -0.3457480812413124 0 -0.27676447355633299 -0.3457480812413124 0 -0.27858368134566353 -0.33798527866036399 0 -0.28611540962297188 -0.3426453659285974 0 -0.27676447355633299 -0.3457480812413124 0 -0.27858368134566353 -0.33798527866036399 0 -0.26120815563270988 -0.3391510272218049 0 -0.28089299200049878 -0.32879660088216478 0 -0.26120815563270988 -0.3391510272218049 0 -0.28089299200049878 -0.32879660088216478 0 -0.26120815563270988 -0.3391510272218049 0 -0.26730676106940449 -0.32685643845792262 0 -0.27858368134566353 -0.33798527866036399 0 -0.28089299200049878 -0.32879660088216478 0 -0.26120815563270988 -0.3391510272218049 0 -0.26120815563270988 -0.3391510272218049 0 -0.26057751607960811 -0.32279583566460812 0 -0.26730676106940449 -0.32685643845792262 0 -0.26120815563270988 -0.3391510272218049 0 -0.25273748935779161 -0.32224337373924072 0 -0.26120815563270988 -0.3391510272218049 0 -0.25207330520806498 -0.33378255792528982 0 -0.25273748935779161 -0.32224337373924072 0 -0.26120815563270988 -0.3391510272218049 0 -0.25445926970156468 -0.34270101061729968 0 -0.25207330520806498 -0.33378255792528982 0 -0.25445926970156468 -0.34270101061729968 0 -0.2460450098649074 -0.33743905859998191 0 -0.26120815563270988 -0.3391510272218049 0 -0.25207330520806498 -0.33378255792528982 0 -0.25445926970156468 -0.34270101061729968 0 -0.25273748935779161 -0.32224337373924072 0 -0.26050456352867191 -0.3149367065078193 0 -0.24426682308287331 -0.30533572025667649 0 -0.26120815563270988 -0.3391510272218049 0 -0.25273748935779161 -0.32224337373924072 0 -0.26057751607960811 -0.32279583566460812 0 -0.26057751607960811 -0.32279583566460812 0 -0.26050456352867191 -0.3149367065078193 0 -0.26730676106940449 -0.32685643845792262 0 -0.25273748935779161 -0.32224337373924072 0 -0.26057751607960811 -0.32279583566460812 0 -0.26050456352867191 -0.3149367065078193 0 -0.28089299200049878 -0.32879660088216478 0 -0.26050456352867191 -0.3149367065078193 0 -0.27445713665833338 -0.31633796571173628 0 -0.28089299200049878 -0.32879660088216478 0 -0.26050456352867191 -0.3149367065078193 0 -0.26050456352867191 -0.3149367065078193 0 -0.27445713665833338 -0.31633796571173628 0 -0.26793999894844561 -0.31004618489902153 0 -0.28089299200049878 -0.32879660088216478 0 -0.26050456352867191 -0.3149367065078193 0 -0.26730676106940449 -0.32685643845792262 0 -0.28089299200049878 -0.32879660088216478 0 -0.27445713665833338 -0.31633796571173628 0 -0.28125105682705043 -0.31976055402590231 0 -0.27445713665833338 -0.31633796571173628 0 -0.28252008875028978 -0.31254235777143202 0 -0.28125105682705043 -0.31976055402590231 0 -0.28252008875028978 -0.31254235777143202 0 -0.28823329624350208 -0.31711313423980658 0 -0.29327146190654751 -0.30876504511160502 0 -0.28089299200049878 -0.32879660088216478 0 -0.28823329624350208 -0.31711313423980658 0 -0.30327184377803978 -0.31702509473566581 0 -0.28089299200049878 -0.32879660088216478 0 -0.29457520052377689 -0.33013191680287202 0 -0.30327184377803978 -0.31702509473566581 0 -0.28089299200049878 -0.32879660088216478 0 -0.30327184377803978 -0.31702509473566581 0 -0.28252008875028978 -0.31254235777143202 0 -0.28125105682705043 -0.31976055402590231 0 -0.28823329624350208 -0.31711313423980658 0 -0.28823329624350208 -0.31711313423980658 0 -0.30327184377803978 -0.31702509473566581 0 -0.29327146190654751 -0.30876504511160502 0 -0.28089299200049878 -0.32879660088216478 0 -0.28125105682705043 -0.31976055402590231 0 -0.28823329624350208 -0.31711313423980658 0 -0.28089299200049878 -0.32879660088216478 0 -0.28793737591580382 -0.33358531802794061 0 -0.27858368134566353 -0.33798527866036399 0 -0.28089299200049878 -0.32879660088216478 0 -0.28793737591580382 -0.33358531802794061 0 -0.28089299200049878 -0.32879660088216478 0 -0.28793737591580382 -0.33358531802794061 0 -0.29457520052377689 -0.33013191680287202 0 -0.27858368134566353 -0.33798527866036399 0 -0.28793737591580382 -0.33358531802794061 0 -0.28611540962297188 -0.3426453659285974 0 -0.28793737591580382 -0.33358531802794061 0 -0.28611540962297188 -0.3426453659285974 0 -0.29619358151489988 -0.34015641309103278 0 -0.28793737591580382 -0.33358531802794061 0 -0.29619358151489988 -0.34015641309103278 0 -0.29457520052377689 -0.33013191680287202 0 -0.29619358151489988 -0.34015641309103278 0 -0.29457520052377689 -0.33013191680287202 0 -0.30458020940964259 -0.3310961572775562 0 -0.30076474035813339 -0.34759465108555682 0 -0.29619358151489988 -0.34015641309103278 0 -0.30398917998114899 -0.33934800480643368 0 -0.29619358151489988 -0.34015641309103278 0 -0.30458020940964259 -0.3310961572775562 0 -0.30398917998114899 -0.33934800480643368 0 -0.31372637242327511 -0.33497634201883658 0 -0.30849554643820359 -0.34481279163420842 0 -0.30398917998114899 -0.33934800480643368 0 -0.31475841231360341 -0.32260943229412947 0 -0.31372637242327511 -0.33497634201883658 0 -0.30458020940964259 -0.3310961572775562 0 -0.31372637242327511 -0.33497634201883658 0 -0.30458020940964259 -0.3310961572775562 0 -0.30398917998114899 -0.33934800480643368 0 -0.31475841231360341 -0.32260943229412947 0 -0.30458020940964259 -0.3310961572775562 0 -0.30327184377803978 -0.31702509473566581 0 -0.29457520052377689 -0.33013191680287202 0 -0.30458020940964259 -0.3310961572775562 0 -0.30327184377803978 -0.31702509473566581 0 -0.30327184377803978 -0.31702509473566581 0 -0.30068554560480582 -0.30112982209441241 0 -0.31228269981280887 -0.29918463989613459 0 -0.30327184377803978 -0.31702509473566581 0 -0.30068554560480582 -0.30112982209441241 0 -0.29327146190654751 -0.30876504511160502 0 -0.30068554560480582 -0.30112982209441241 0 -0.30483638085835207 -0.28788342401786787 0 -0.28888361246081401 -0.29493054457851903 0 -0.30068554560480582 -0.30112982209441241 0 -0.31228269981280887 -0.29918463989613459 0 -0.30483638085835207 -0.28788342401786787 0 -0.28888361246081401 -0.29493054457851903 0 -0.28078806465599399 -0.28300047521785149 0 -0.29451735460655398 -0.27472288856989607 0 -0.30483638085835207 -0.28788342401786787 0 -0.28888361246081401 -0.29493054457851903 0 -0.29451735460655398 -0.27472288856989607 0 -0.28888361246081401 -0.29493054457851903 0 -0.28295382644196537 -0.3038897035906043 0 -0.27388309143310768 -0.29511411685975181 0 -0.28888361246081401 -0.29493054457851903 0 -0.28295382644196537 -0.3038897035906043 0 -0.29327146190654751 -0.30876504511160502 0 -0.30068554560480582 -0.30112982209441241 0 -0.28888361246081401 -0.29493054457851903 0 -0.29327146190654751 -0.30876504511160502 0 -0.28252008875028978 -0.31254235777143202 0 -0.28295382644196537 -0.3038897035906043 0 -0.29327146190654751 -0.30876504511160502 0 -0.27445713665833338 -0.31633796571173628 0 -0.28252008875028978 -0.31254235777143202 0 -0.27524002690986649 -0.30828041126704497 0 -0.28252008875028978 -0.31254235777143202 0 -0.28295382644196537 -0.3038897035906043 0 -0.27524002690986649 -0.30828041126704497 0 -0.28295382644196537 -0.3038897035906043 0 -0.27524002690986649 -0.30828041126704497 0 -0.27388309143310768 -0.29511411685975181 0 -0.26808679199009749 -0.30362992927208171 0 -0.26252268864995981 -0.29761987486456531 0 -0.27388309143310768 -0.29511411685975181 0 -0.27524002690986649 -0.30828041126704497 0 -0.26808679199009749 -0.30362992927208171 0 -0.27388309143310768 -0.29511411685975181 0 -0.27445713665833338 -0.31633796571173628 0 -0.27524002690986649 -0.30828041126704497 0 -0.26793999894844561 -0.31004618489902153 0 -0.27524002690986649 -0.30828041126704497 0 -0.26808679199009749 -0.30362992927208171 0 -0.26793999894844561 -0.31004618489902153 0 -0.26808679199009749 -0.30362992927208171 0 -0.26793999894844561 -0.31004618489902153 0 -0.26278193746552841 -0.30551063084933561 0 -0.26050456352867191 -0.3149367065078193 0 -0.25485564421046719 -0.30132045870319019 0 -0.24011613505684479 -0.30107681213347393 0 -0.26050456352867191 -0.3149367065078193 0 -0.24011613505684479 -0.30107681213347393 0 -0.26050456352867191 -0.3149367065078193 0 -0.26278193746552841 -0.30551063084933561 0 -0.25485564421046719 -0.30132045870319019 0 -0.26050456352867191 -0.3149367065078193 0 -0.26793999894844561 -0.31004618489902153 0 -0.26278193746552841 -0.30551063084933561 0 -0.26278193746552841 -0.30551063084933561 0 -0.26252268864995981 -0.29761987486456531 0 -0.25485564421046719 -0.30132045870319019 0 -0.26252268864995981 -0.29761987486456531 0 -0.25485564421046719 -0.30132045870319019 0 -0.2567143935458242 -0.29223768812186002 0 -0.26808679199009749 -0.30362992927208171 0 -0.26278193746552841 -0.30551063084933561 0 -0.26252268864995981 -0.29761987486456531 0 -0.25608276685525683 -0.28295324223861612 0 -0.2567143935458242 -0.29223768812186002 0 -0.24732420154209239 -0.29033586459568173 0 -0.25485564421046719 -0.30132045870319019 0 -0.2567143935458242 -0.29223768812186002 0 -0.24732420154209239 -0.29033586459568173 0 -0.26252268864995981 -0.29761987486456531 0 -0.2567143935458242 -0.29223768812186002 0 -0.26350989061834318 -0.28909490770035701 0 -0.25608276685525683 -0.28295324223861612 0 -0.26350989061834318 -0.28909490770035701 0 -0.26907982973782107 -0.2804670883869903 0 -0.25608276685525683 -0.28295324223861612 0 -0.2567143935458242 -0.29223768812186002 0 -0.26350989061834318 -0.28909490770035701 0 -0.26350989061834318 -0.28909490770035701 0 -0.27388309143310768 -0.29511411685975181 0 -0.26907982973782107 -0.2804670883869903 0 -0.26252268864995981 -0.29761987486456531 0 -0.26350989061834318 -0.28909490770035701 0 -0.27388309143310768 -0.29511411685975181 0 -0.28888361246081401 -0.29493054457851903 0 -0.27388309143310768 -0.29511411685975181 0 -0.28078806465599399 -0.28300047521785149 0 -0.27388309143310768 -0.29511411685975181 0 -0.28078806465599399 -0.28300047521785149 0 -0.26907982973782107 -0.2804670883869903 0 -0.27772768471542669 -0.26767482265106679 0 -0.26907982973782107 -0.2804670883869903 0 -0.25958550566062261 -0.27102626557679149 0 -0.28078806465599399 -0.28300047521785149 0 -0.27772768471542669 -0.26767482265106679 0 -0.26907982973782107 -0.2804670883869903 0 -0.25608276685525683 -0.28295324223861612 0 -0.26907982973782107 -0.2804670883869903 0 -0.25958550566062261 -0.27102626557679149 0 -0.25608276685525683 -0.28295324223861612 0 -0.25958550566062261 -0.27102626557679149 0 -0.2444485511135471 -0.27534046621033159 0 -0.26398002587916253 -0.25656090854441049 0 -0.24465976002352091 -0.25387891845332877 0 -0.25992972331208369 -0.2410680052130979 0 -0.25958550566062261 -0.27102626557679149 0 -0.26398002587916253 -0.25656090854441049 0 -0.24465976002352091 -0.25387891845332877 0 -0.27772768471542669 -0.26767482265106679 0 -0.26398002587916253 -0.25656090854441049 0 -0.27722523139620658 -0.24922189107985179 0 -0.27772768471542669 -0.26767482265106679 0 -0.25958550566062261 -0.27102626557679149 0 -0.26398002587916253 -0.25656090854441049 0 -0.27772768471542669 -0.26767482265106679 0 -0.29131753467172561 -0.25675805269722002 0 -0.27722523139620658 -0.24922189107985179 0 -0.28078806465599399 -0.28300047521785149 0 -0.27772768471542669 -0.26767482265106679 0 -0.29451735460655398 -0.27472288856989607 0 -0.27772768471542669 -0.26767482265106679 0 -0.29131753467172561 -0.25675805269722002 0 -0.29451735460655398 -0.27472288856989607 0 -0.31319680135340772 -0.27337899374224139 0 -0.29451735460655398 -0.27472288856989607 0 -0.30564385326437488 -0.26015983685037081 0 -0.31319680135340772 -0.27337899374224139 0 -0.30483638085835207 -0.28788342401786787 0 -0.29451735460655398 -0.27472288856989607 0 -0.29131753467172561 -0.25675805269722002 0 -0.29451735460655398 -0.27472288856989607 0 -0.30564385326437488 -0.26015983685037081 0 -0.29131753467172561 -0.25675805269722002 0 -0.30564385326437488 -0.26015983685037081 0 -0.30769212114973271 -0.24578220261295139 0 -0.31968345090478489 -0.25798973640781447 0 -0.30564385326437488 -0.26015983685037081 0 -0.30769212114973271 -0.24578220261295139 0 -0.34207866423036198 -0.45986413066326443 0 -0.33141508850449702 -0.45187214799378478 0 -0.32594289259428999 -0.46085836632795257 0 -0.34207866423036198 -0.45986413066326443 0 -0.32594289259428999 -0.46085836632795257 0 -0.33264581849560632 -0.47431014716802089 0 -0.34207866423036198 -0.45986413066326443 0 -0.34225571697252682 -0.42997304157067162 0 -0.34207866423036198 -0.45986413066326443 0 -0.33358626016413989 -0.44229992863572659 0 -0.33141508850449702 -0.45187214799378478 0 -0.34207866423036198 -0.45986413066326443 0 -0.33358626016413989 -0.44229992863572659 0 -0.34225571697252682 -0.42997304157067162 0 -0.33358626016413989 -0.44229992863572659 0 -0.33141508850449702 -0.45187214799378478 0 -0.32300139100864811 -0.44723989508536771 0 -0.33358626016413989 -0.44229992863572659 0 -0.32300139100864811 -0.44723989508536771 0 -0.32413493920603592 -0.43586432580396972 0 -0.32300139100864811 -0.44723989508536771 0 -0.31385630152515048 -0.44199725430357722 0 -0.32413493920603592 -0.43586432580396972 0 -0.32300139100864811 -0.44723989508536771 0 -0.31385630152515048 -0.44199725430357722 0 -0.31044958537109257 -0.45255960714027171 0 -0.32594289259428999 -0.46085836632795257 0 -0.31333683559556219 -0.46686726284272168 0 -0.31044958537109257 -0.45255960714027171 0 -0.32594289259428999 -0.46085836632795257 0 -0.31333683559556219 -0.46686726284272168 0 -0.32224857144892449 -0.47649828689453749 0 -0.32300139100864811 -0.44723989508536771 0 -0.32594289259428999 -0.46085836632795257 0 -0.31044958537109257 -0.45255960714027171 0 -0.33141508850449702 -0.45187214799378478 0 -0.32300139100864811 -0.44723989508536771 0 -0.32594289259428999 -0.46085836632795257 0 -0.31333683559556219 -0.46686726284272168 0 -0.32224857144892449 -0.47649828689453749 0 -0.30503152439861497 -0.48190266549989857 0 -0.32224857144892449 -0.47649828689453749 0 -0.32279626626388608 -0.48781718170045291 0 -0.30503152439861497 -0.48190266549989857 0 -0.32594289259428999 -0.46085836632795257 0 -0.32224857144892449 -0.47649828689453749 0 -0.33264581849560632 -0.47431014716802089 0 -0.32224857144892449 -0.47649828689453749 0 -0.32279626626388608 -0.48781718170045291 0 -0.33105735271625752 -0.4845747321984929 0 -0.32006214434654462 -0.5 0 -0.32279626626388608 -0.48781718170045291 0 -0.30503152439861497 -0.48190266549989857 0 -0.32006214434654462 -0.5 0 -0.32279626626388608 -0.48781718170045291 0 -0.33558173840908911 -0.49611022390933512 0 -0.32006214434654462 -0.5 0 -0.33558173840908911 -0.49611022390933512 0 -0.34657288766042038 -0.5 0 -0.33558173840908911 -0.49611022390933512 0 -0.34190161148819742 -0.48975521975585701 0 -0.35306908662498632 -0.4951847935385878 0 -0.32279626626388608 -0.48781718170045291 0 -0.33558173840908911 -0.49611022390933512 0 -0.33105735271625752 -0.4845747321984929 0 -0.33558173840908911 -0.49611022390933512 0 -0.33105735271625752 -0.4845747321984929 0 -0.34190161148819742 -0.48975521975585701 0 -0.34207866423036198 -0.45986413066326443 0 -0.34190161148819742 -0.48975521975585701 0 -0.34207866423036198 -0.45986413066326443 0 -0.34190161148819742 -0.48975521975585701 0 -0.33264581849560632 -0.47431014716802089 0 -0.33105735271625752 -0.4845747321984929 0 -0.34190161148819742 -0.48975521975585701 0 -0.33264581849560632 -0.47431014716802089 0 -0.32224857144892449 -0.47649828689453749 0 -0.33105735271625752 -0.4845747321984929 0 -0.33264581849560632 -0.47431014716802089 0 -0.34190161148819742 -0.48975521975585701 0 -0.35001641252228072 -0.47142734906239081 0 -0.35328963507943428 -0.48328499015431992 0 -0.34207866423036198 -0.45986413066326443 0 -0.34190161148819742 -0.48975521975585701 0 -0.35001641252228072 -0.47142734906239081 0 -0.35328963507943428 -0.48328499015431992 0 -0.35950950469085041 -0.48638993404071668 0 -0.36112286221809747 -0.47283058930211808 0 -0.35001641252228072 -0.47142734906239081 0 -0.35328963507943428 -0.48328499015431992 0 -0.36112286221809747 -0.47283058930211808 0 -0.33558173840908911 -0.49611022390933512 0 -0.35306908662498632 -0.4951847935385878 0 -0.33558173840908911 -0.49611022390933512 0 -0.34657288766042038 -0.5 0 -0.35306908662498632 -0.4951847935385878 0 -0.34657288766042038 -0.5 0 -0.35306908662498632 -0.4951847935385878 0 -0.37308363097429631 -0.50000000000000244 0 -0.34190161148819742 -0.48975521975585701 0 -0.35328963507943428 -0.48328499015431992 0 -0.35306908662498632 -0.4951847935385878 0 -0.35328963507943428 -0.48328499015431992 0 -0.35306908662498632 -0.4951847935385878 0 -0.35950950469085041 -0.48638993404071668 0 -0.35306908662498632 -0.4951847935385878 0 -0.35950950469085041 -0.48638993404071668 0 -0.37055643484088358 -0.49425936316784103 0 -0.35306908662498632 -0.4951847935385878 0 -0.37055643484088358 -0.49425936316784103 0 -0.35950950469085041 -0.48638993404071668 0 -0.37055643484088358 -0.49425936316784103 0 -0.36112286221809747 -0.47283058930211808 0 -0.35306908662498632 -0.4951847935385878 0 -0.37055643484088358 -0.49425936316784103 0 -0.37308363097429631 -0.50000000000000244 0 -0.37055643484088358 -0.49425936316784103 0 -0.37308363097429631 -0.50000000000000244 0 -0.38039451612360919 -0.47713749807852829 0 -0.37055643484088358 -0.49425936316784103 0 -0.36112286221809747 -0.47283058930211808 0 -0.37055643484088358 -0.49425936316784103 0 -0.36112286221809747 -0.47283058930211808 0 -0.38039451612360919 -0.47713749807852829 0 -0.36112286221809747 -0.47283058930211808 0 -0.37415472949075129 -0.45946062715310632 0 -0.37415472949075129 -0.45946062715310632 0 -0.3629811744391212 -0.45722253899736259 0 -0.36406731613876331 -0.44506275929787698 0 -0.36112286221809747 -0.47283058930211808 0 -0.37415472949075129 -0.45946062715310632 0 -0.3629811744391212 -0.45722253899736259 0 -0.36112286221809747 -0.47283058930211808 0 -0.3629811744391212 -0.45722253899736259 0 -0.35168928959531232 -0.4514018154363949 0 -0.36112286221809747 -0.47283058930211808 0 -0.35168928959531232 -0.4514018154363949 0 -0.35001641252228072 -0.47142734906239081 0 -0.36112286221809747 -0.47283058930211808 0 -0.35168928959531232 -0.4514018154363949 0 -0.34207866423036198 -0.45986413066326443 0 -0.35001641252228072 -0.47142734906239081 0 -0.35168928959531232 -0.4514018154363949 0 -0.35168928959531232 -0.4514018154363949 0 -0.34225571697252682 -0.42997304157067162 0 -0.35168928959531232 -0.4514018154363949 0 -0.36406731613876331 -0.44506275929787698 0 -0.34225571697252682 -0.42997304157067162 0 -0.34207866423036198 -0.45986413066326443 0 -0.35168928959531232 -0.4514018154363949 0 -0.34225571697252682 -0.42997304157067162 0 -0.38339996822118783 -0.44368928783448319 0 -0.36406731613876331 -0.44506275929787698 0 -0.36866352395763108 -0.4313760290561211 0 -0.38339996822118783 -0.44368928783448319 0 -0.37415472949075129 -0.45946062715310632 0 -0.36406731613876331 -0.44506275929787698 0 -0.3629811744391212 -0.45722253899736259 0 -0.35168928959531232 -0.4514018154363949 0 -0.36406731613876331 -0.44506275929787698 0 -0.38131756488089769 -0.42670085612339947 0 -0.36866352395763108 -0.4313760290561211 0 -0.36377437909963828 -0.41972983174959272 0 -0.38704143117499401 -0.40999023144455299 0 -0.3575105341832589 -0.40691374405003478 0 -0.38704143117499401 -0.40999023144455299 0 -0.36377437909963828 -0.41972983174959272 0 -0.3575105341832589 -0.40691374405003478 0 -0.35062038894632092 -0.41624612172537079 0 -0.34239786166265201 -0.40597533588911489 0 -0.34225571697252682 -0.42997304157067162 0 -0.36377437909963828 -0.41972983174959272 0 -0.3575105341832589 -0.40691374405003478 0 -0.35062038894632092 -0.41624612172537079 0 -0.3575105341832589 -0.40691374405003478 0 -0.35062038894632092 -0.41624612172537079 0 -0.34239786166265201 -0.40597533588911489 0 -0.36406731613876331 -0.44506275929787698 0 -0.36866352395763108 -0.4313760290561211 0 -0.34225571697252682 -0.42997304157067162 0 -0.36866352395763108 -0.4313760290561211 0 -0.36377437909963828 -0.41972983174959272 0 -0.34225571697252682 -0.42997304157067162 0 -0.36377437909963828 -0.41972983174959272 0 -0.35062038894632092 -0.41624612172537079 0 -0.34225571697252682 -0.42997304157067162 0 -0.37522403377147279 -0.38060127254172499 0 -0.37464038230528551 -0.396492613407532 0 -0.35879027536972019 -0.3891835699585654 0 -0.37522403377147279 -0.38060127254172499 0 -0.35964608014779109 -0.37334112637938882 0 -0.35879027536972019 -0.3891835699585654 0 -0.38704143117499401 -0.40999023144455299 0 -0.3575105341832589 -0.40691374405003478 0 -0.37464038230528551 -0.396492613407532 0 -0.3575105341832589 -0.40691374405003478 0 -0.37464038230528551 -0.396492613407532 0 -0.35879027536972019 -0.3891835699585654 0 -0.3575105341832589 -0.40691374405003478 0 -0.35030966939210212 -0.39601257002631829 0 -0.35879027536972019 -0.3891835699585654 0 -0.35030966939210212 -0.39601257002631829 0 -0.34254000635277743 -0.38197763020755832 0 -0.34239786166265201 -0.40597533588911489 0 -0.3575105341832589 -0.40691374405003478 0 -0.35030966939210212 -0.39601257002631829 0 -0.34239786166265201 -0.40597533588911489 0 -0.35964608014779109 -0.37334112637938882 0 -0.35879027536972019 -0.3891835699585654 0 -0.34254000635277743 -0.38197763020755832 0 -0.35030966939210212 -0.39601257002631829 0 -0.35879027536972019 -0.3891835699585654 0 -0.34254000635277743 -0.38197763020755832 0 -0.32270418411731933 -0.37181077970513959 0 -0.34254000635277743 -0.38197763020755832 0 -0.32435131947256218 -0.38428518727128619 0 -0.34254000635277743 -0.38197763020755832 0 -0.33211028503505757 -0.39455092735479258 0 -0.32435131947256218 -0.38428518727128619 0 -0.34254000635277743 -0.38197763020755832 0 -0.33211028503505757 -0.39455092735479258 0 -0.34239786166265201 -0.40597533588911489 0 -0.34254000635277743 -0.38197763020755832 0 -0.34239786166265201 -0.40597533588911489 0 -0.33211028503505757 -0.39455092735479258 0 -0.32627218782356721 -0.40254155632103228 0 -0.33325599186729038 -0.40952977136485508 0 -0.33211028503505757 -0.39455092735479258 0 -0.34239786166265201 -0.40597533588911489 0 -0.33325599186729038 -0.40952977136485508 0 -0.32627218782356721 -0.40254155632103228 0 -0.31778611784491262 -0.39429551077659458 0 -0.31836523457261151 -0.40628576827473822 0 -0.31778611784491262 -0.39429551077659458 0 -0.31836523457261151 -0.40628576827473822 0 -0.30856762168503782 -0.40330407176644772 0 -0.33211028503505757 -0.39455092735479258 0 -0.32627218782356721 -0.40254155632103228 0 -0.31778611784491262 -0.39429551077659458 0 -0.33211028503505757 -0.39455092735479258 0 -0.31778611784491262 -0.39429551077659458 0 -0.32435131947256218 -0.38428518727128619 0 -0.31778611784491262 -0.39429551077659458 0 -0.32435131947256218 -0.38428518727128619 0 -0.3103864423796594 -0.37828470113645102 0 -0.32270418411731933 -0.37181077970513959 0 -0.32435131947256218 -0.38428518727128619 0 -0.3103864423796594 -0.37828470113645102 0 -0.34225571697252682 -0.42997304157067162 0 -0.32127707919304882 -0.42450406978857058 0 -0.32413493920603592 -0.43586432580396972 0 -0.33358626016413989 -0.44229992863572659 0 -0.34225571697252682 -0.42997304157067162 0 -0.32413493920603592 -0.43586432580396972 0 -0.34225571697252682 -0.42997304157067162 0 -0.32547848823970138 -0.41505510354763547 0 -0.32127707919304882 -0.42450406978857058 0 -0.34225571697252682 -0.42997304157067162 0 -0.33325599186729038 -0.40952977136485508 0 -0.34239786166265201 -0.40597533588911489 0 -0.34225571697252682 -0.42997304157067162 0 -0.34225571697252682 -0.42997304157067162 0 -0.33325599186729038 -0.40952977136485508 0 -0.32547848823970138 -0.41505510354763547 0 -0.34239786166265201 -0.40597533588911489 0 -0.34225571697252682 -0.42997304157067162 0 -0.33325599186729038 -0.40952977136485508 0 -0.32627218782356721 -0.40254155632103228 0 -0.33325599186729038 -0.40952977136485508 0 -0.32547848823970138 -0.41505510354763547 0 -0.32547848823970138 -0.41505510354763547 0 -0.3149711123139971 -0.41411215899080989 0 -0.32127707919304882 -0.42450406978857058 0 -0.32627218782356721 -0.40254155632103228 0 -0.32547848823970138 -0.41505510354763547 0 -0.31836523457261151 -0.40628576827473822 0 -0.32547848823970138 -0.41505510354763547 0 -0.31836523457261151 -0.40628576827473822 0 -0.3149711123139971 -0.41411215899080989 0 -0.31836523457261151 -0.40628576827473822 0 -0.3149711123139971 -0.41411215899080989 0 -0.30856762168503782 -0.40330407176644772 0 -0.3149711123139971 -0.41411215899080989 0 -0.32127707919304882 -0.42450406978857058 0 -0.31068047406536009 -0.42124040027518911 0 -0.32127707919304882 -0.42450406978857058 0 -0.31073004788055869 -0.43167813375356229 0 -0.31068047406536009 -0.42124040027518911 0 -0.32127707919304882 -0.42450406978857058 0 -0.32413493920603592 -0.43586432580396972 0 -0.31073004788055869 -0.43167813375356229 0 -0.31385630152515048 -0.44199725430357722 0 -0.32413493920603592 -0.43586432580396972 0 -0.31073004788055869 -0.43167813375356229 0 -0.31073004788055869 -0.43167813375356229 0 -0.29829421210859891 -0.43220714453990322 0 -0.30286215921622678 -0.44210958888768459 0 -0.31073004788055869 -0.43167813375356229 0 -0.29829421210859891 -0.43220714453990322 0 -0.30293836312512551 -0.42244552438862548 0 -0.29829421210859891 -0.43220714453990322 0 -0.30293836312512551 -0.42244552438862548 0 -0.29038846928103268 -0.42353273433611682 0 -0.31073004788055869 -0.43167813375356229 0 -0.30293836312512551 -0.42244552438862548 0 -0.31068047406536009 -0.42124040027518911 0 -0.3149711123139971 -0.41411215899080989 0 -0.31068047406536009 -0.42124040027518911 0 -0.30545777612822328 -0.41428354029227837 0 -0.30293836312512551 -0.42244552438862548 0 -0.31068047406536009 -0.42124040027518911 0 -0.30545777612822328 -0.41428354029227837 0 -0.3149711123139971 -0.41411215899080989 0 -0.30545777612822328 -0.41428354029227837 0 -0.30856762168503782 -0.40330407176644772 0 -0.30545777612822328 -0.41428354029227837 0 -0.30856762168503782 -0.40330407176644772 0 -0.30079847364115991 -0.40578130343003371 0 -0.30545777612822328 -0.41428354029227837 0 -0.2987732092282892 -0.41413177709842958 0 -0.30079847364115991 -0.40578130343003371 0 -0.30293836312512551 -0.42244552438862548 0 -0.2987732092282892 -0.41413177709842958 0 -0.29038846928103268 -0.42353273433611682 0 -0.30293836312512551 -0.42244552438862548 0 -0.2987732092282892 -0.41413177709842958 0 -0.30293836312512551 -0.42244552438862548 0 -0.30545777612822328 -0.41428354029227837 0 -0.2987732092282892 -0.41413177709842958 0 -0.30545777612822328 -0.41428354029227837 0 -0.2987732092282892 -0.41413177709842958 0 -0.2987732092282892 -0.41413177709842958 0 -0.29092638885970451 -0.39846933503943821 0 -0.2987732092282892 -0.41413177709842958 0 -0.28243901841779939 -0.41376093348156762 0 -0.29092638885970451 -0.39846933503943821 0 -0.2987732092282892 -0.41413177709842958 0 -0.28243901841779939 -0.41376093348156762 0 -0.29038846928103268 -0.42353273433611682 0 -0.2987732092282892 -0.41413177709842958 0 -0.28243901841779939 -0.41376093348156762 0 -0.28243901841779939 -0.41376093348156762 0 -0.29038846928103268 -0.42353273433611682 0 -0.27500508569675858 -0.42792788340523652 0 -0.29038846928103268 -0.42353273433611682 0 -0.27500508569675858 -0.42792788340523652 0 -0.28620792983366777 -0.44117103379144762 0 -0.29829421210859891 -0.43220714453990322 0 -0.29038846928103268 -0.42353273433611682 0 -0.28620792983366777 -0.44117103379144762 0 -0.31778611784491262 -0.39429551077659458 0 -0.3103864423796594 -0.37828470113645102 0 -0.30424293331838692 -0.39073887816822978 0 -0.29584447723995128 -0.37444813956539807 0 -0.29713407365637251 -0.38186722723828942 0 -0.3103864423796594 -0.37828470113645102 0 -0.29713407365637251 -0.38186722723828942 0 -0.30424293331838692 -0.39073887816822978 0 -0.29406976999373469 -0.38920344929064732 0 -0.29713407365637251 -0.38186722723828942 0 -0.3103864423796594 -0.37828470113645102 0 -0.30424293331838692 -0.39073887816822978 0 -0.29998863005712628 -0.39809616774203599 0 -0.30424293331838692 -0.39073887816822978 0 -0.30856762168503782 -0.40330407176644772 0 -0.29998863005712628 -0.39809616774203599 0 -0.30424293331838692 -0.39073887816822978 0 -0.29406976999373469 -0.38920344929064732 0 -0.31778611784491262 -0.39429551077659458 0 -0.30424293331838692 -0.39073887816822978 0 -0.30856762168503782 -0.40330407176644772 0 -0.29998863005712628 -0.39809616774203599 0 -0.30079847364115991 -0.40578130343003371 0 -0.29092638885970451 -0.39846933503943821 0 -0.29998863005712628 -0.39809616774203599 0 -0.30856762168503782 -0.40330407176644772 0 -0.30079847364115991 -0.40578130343003371 0 -0.2987732092282892 -0.41413177709842958 0 -0.30079847364115991 -0.40578130343003371 0 -0.29092638885970451 -0.39846933503943821 0 -0.29092638885970451 -0.39846933503943821 0 -0.28307956849111848 -0.3828068929804474 0 -0.29092638885970451 -0.39846933503943821 0 -0.28307956849111848 -0.3828068929804474 0 -0.27459219804921331 -0.39809849142257658 0 -0.28243901841779939 -0.41376093348156762 0 -0.29092638885970451 -0.39846933503943821 0 -0.27459219804921331 -0.39809849142257658 0 -0.29998863005712628 -0.39809616774203599 0 -0.29092638885970451 -0.39846933503943821 0 -0.29406976999373469 -0.38920344929064732 0 -0.29092638885970451 -0.39846933503943821 0 -0.29406976999373469 -0.38920344929064732 0 -0.28307956849111848 -0.3828068929804474 0 -0.29713407365637251 -0.38186722723828942 0 -0.29406976999373469 -0.38920344929064732 0 -0.28307956849111848 -0.3828068929804474 0 -0.29584447723995128 -0.37444813956539807 0 -0.29713407365637251 -0.38186722723828942 0 -0.28307956849111848 -0.3828068929804474 0 -0.28307956849111848 -0.3828068929804474 0 -0.27459219804921331 -0.39809849142257658 0 -0.26050234447883253 -0.38027693877573482 0 -0.28307956849111848 -0.3828068929804474 0 -0.27459219804921331 -0.39809849142257658 0 -0.27459219804921331 -0.39809849142257658 0 -0.26610482760730952 -0.4133900898647066 0 -0.27459219804921331 -0.39809849142257658 0 -0.26088670843651829 -0.40068536336094251 0 -0.26610482760730952 -0.4133900898647066 0 -0.26088670843651829 -0.40068536336094251 0 -0.26050234447883253 -0.38027693877573482 0 -0.2487824818667288 -0.3954643368039899 0 -0.27459219804921331 -0.39809849142257658 0 -0.26088670843651829 -0.40068536336094251 0 -0.26050234447883253 -0.38027693877573482 0 -0.26088670843651829 -0.40068536336094251 0 -0.24694430377570939 -0.41295507854145541 0 -0.2487824818667288 -0.3954643368039899 0 -0.27500508569675858 -0.42792788340523652 0 -0.25298523514652932 -0.43702750984159111 0 -0.27028712802556781 -0.44002206955302048 0 -0.27500508569675858 -0.42792788340523652 0 -0.27028712802556781 -0.44002206955302048 0 -0.28620792983366777 -0.44117103379144762 0 -0.28243901841779939 -0.41376093348156762 0 -0.27500508569675858 -0.42792788340523652 0 -0.26610482760730952 -0.4133900898647066 0 -0.28243901841779939 -0.41376093348156762 0 -0.27459219804921331 -0.39809849142257658 0 -0.26610482760730952 -0.4133900898647066 0 -0.28243901841779939 -0.41376093348156762 0 -0.26610482760730952 -0.4133900898647066 0 -0.26610482760730952 -0.4133900898647066 0 -0.24694430377570939 -0.41295507854145541 0 -0.26610482760730952 -0.4133900898647066 0 -0.25298523514652932 -0.43702750984159111 0 -0.24694430377570939 -0.41295507854145541 0 -0.26088670843651829 -0.40068536336094251 0 -0.26610482760730952 -0.4133900898647066 0 -0.24694430377570939 -0.41295507854145541 0 -0.27500508569675858 -0.42792788340523652 0 -0.26610482760730952 -0.4133900898647066 0 -0.25298523514652932 -0.43702750984159111 0 -0.26610482760730952 -0.4133900898647066 0 -0.25298523514652932 -0.43702750984159111 0 -0.25298523514652932 -0.43702750984159111 0 -0.25823473398406083 -0.46259190486934387 0 -0.27139768853026319 -0.45350369328431828 0 -0.25298523514652932 -0.43702750984159111 0 -0.27139768853026319 -0.45350369328431828 0 -0.27028712802556781 -0.44002206955302048 0 -0.25298523514652932 -0.43702750984159111 0 -0.25823473398406083 -0.46259190486934387 0 -0.2398656426857485 -0.46066492981847512 0 -0.27139768853026319 -0.45350369328431828 0 -0.28665438526504589 -0.45880473289459528 0 -0.27499686831673542 -0.4693274569635677 0 -0.25823473398406083 -0.46259190486934387 0 -0.27139768853026319 -0.45350369328431828 0 -0.27499686831673542 -0.4693274569635677 0 -0.27139768853026319 -0.45350369328431828 0 -0.27028712802556781 -0.44002206955302048 0 -0.28620792983366777 -0.44117103379144762 0 -0.28620792983366777 -0.44117103379144762 0 -0.29665932401628559 -0.4519210782245337 0 -0.28665438526504589 -0.45880473289459528 0 -0.28620792983366777 -0.44117103379144762 0 -0.29665932401628559 -0.4519210782245337 0 -0.30286215921622678 -0.44210958888768459 0 -0.27139768853026319 -0.45350369328431828 0 -0.28620792983366777 -0.44117103379144762 0 -0.28665438526504589 -0.45880473289459528 0 -0.29829421210859891 -0.43220714453990322 0 -0.28620792983366777 -0.44117103379144762 0 -0.30286215921622678 -0.44210958888768459 0 -0.28665438526504589 -0.45880473289459528 0 -0.28928475434474438 -0.47221518125428918 0 -0.27499686831673542 -0.4693274569635677 0 -0.28665438526504589 -0.45880473289459528 0 -0.30029558254474148 -0.46389675841394568 0 -0.28928475434474438 -0.47221518125428918 0 -0.29665932401628559 -0.4519210782245337 0 -0.28665438526504589 -0.45880473289459528 0 -0.30029558254474148 -0.46389675841394568 0 -0.29665932401628559 -0.4519210782245337 0 -0.30029558254474148 -0.46389675841394568 0 -0.31044958537109257 -0.45255960714027171 0 -0.31333683559556219 -0.46686726284272168 0 -0.30029558254474148 -0.46389675841394568 0 -0.31044958537109257 -0.45255960714027171 0 -0.31385630152515048 -0.44199725430357722 0 -0.31044958537109257 -0.45255960714027171 0 -0.30286215921622678 -0.44210958888768459 0 -0.31385630152515048 -0.44199725430357722 0 -0.31073004788055869 -0.43167813375356229 0 -0.30286215921622678 -0.44210958888768459 0 -0.29665932401628559 -0.4519210782245337 0 -0.31044958537109257 -0.45255960714027171 0 -0.30286215921622678 -0.44210958888768459 0 -0.32006214434654462 -0.5 0 -0.30503152439861497 -0.48190266549989857 0 -0.29355140103266869 -0.5 0 -0.30029558254474148 -0.46389675841394568 0 -0.30503152439861497 -0.48190266549989857 0 -0.28928475434474438 -0.47221518125428918 0 -0.31333683559556219 -0.46686726284272168 0 -0.30029558254474148 -0.46389675841394568 0 -0.30503152439861497 -0.48190266549989857 0 -0.30503152439861497 -0.48190266549989857 0 -0.28928475434474438 -0.47221518125428918 0 -0.27944541119858413 -0.48714429249943858 0 -0.30503152439861497 -0.48190266549989857 0 -0.29355140103266869 -0.5 0 -0.27944541119858413 -0.48714429249943858 0 -0.26704065771879287 -0.5 0 -0.27944541119858413 -0.48714429249943858 0 -0.26377894750559139 -0.4817410620592058 0 -0.29355140103266869 -0.5 0 -0.26704065771879287 -0.5 0 -0.27944541119858413 -0.48714429249943858 0 -0.27944541119858413 -0.48714429249943858 0 -0.27499686831673542 -0.4693274569635677 0 -0.26377894750559139 -0.4817410620592058 0 -0.28928475434474438 -0.47221518125428918 0 -0.27944541119858413 -0.48714429249943858 0 -0.27499686831673542 -0.4693274569635677 0 -0.25823473398406083 -0.46259190486934387 0 -0.27499686831673542 -0.4693274569635677 0 -0.26377894750559139 -0.4817410620592058 0 -0.25823473398406083 -0.46259190486934387 0 -0.26377894750559139 -0.4817410620592058 0 -0.24769273461092009 -0.47775775457152359 0 -0.26704065771879287 -0.5 0 -0.26377894750559139 -0.4817410620592058 0 -0.24052991440491719 -0.5 0 -0.26377894750559139 -0.4817410620592058 0 -0.24052991440491719 -0.5 0 -0.24769273461092009 -0.47775775457152359 0 -0.24052991440491719 -0.5 0 -0.24769273461092009 -0.47775775457152359 0 -0.2238647917587385 -0.47868470982513422 0 -0.24769273461092009 -0.47775775457152359 0 -0.2238647917587385 -0.47868470982513422 0 -0.2253613830811457 -0.45761053917550981 0 -0.24052991440491719 -0.5 0 -0.2238647917587385 -0.47868470982513422 0 -0.2140191710910414 -0.49999999999999972 0 -0.25298523514652932 -0.43702750984159111 0 -0.23591515519085041 -0.44398209369878189 0 -0.2398656426857485 -0.46066492981847512 0 -0.25298523514652932 -0.43702750984159111 0 -0.2398656426857485 -0.46066492981847512 0 -0.25823473398406083 -0.46259190486934387 0 -0.24769273461092009 -0.47775775457152359 0 -0.2398656426857485 -0.46066492981847512 0 -0.24769273461092009 -0.47775775457152359 0 -0.2398656426857485 -0.46066492981847512 0 -0.2253613830811457 -0.45761053917550981 0 -0.24769273461092009 -0.47775775457152359 0 -0.2253613830811457 -0.45761053917550981 0 -0.2238647917587385 -0.47868470982513422 0 -0.2253613830811457 -0.45761053917550981 0 -0.20999779143719291 -0.46083672605530768 0 -0.23591515519085041 -0.44398209369878189 0 -0.2398656426857485 -0.46066492981847512 0 -0.2253613830811457 -0.45761053917550981 0 -0.23591515519085041 -0.44398209369878189 0 -0.2253613830811457 -0.45761053917550981 0 -0.22549954629610269 -0.43500765649169948 0 -0.2253613830811457 -0.45761053917550981 0 -0.20999779143719291 -0.46083672605530768 0 -0.2030300315513712 -0.43746332377949593 0 -0.2253613830811457 -0.45761053917550981 0 -0.2030300315513712 -0.43746332377949593 0 -0.20999779143719291 -0.46083672605530768 0 -0.19715634076338631 -0.4518064782969281 0 -0.2030300315513712 -0.43746332377949593 0 -0.2253613830811457 -0.45761053917550981 0 -0.2030300315513712 -0.43746332377949593 0 -0.22549954629610269 -0.43500765649169948 0 -0.20999779143719291 -0.46083672605530768 0 -0.19715634076338631 -0.4518064782969281 0 -0.2055877559272139 -0.47590323914846377 0 -0.19715634076338631 -0.4518064782969281 0 -0.2055877559272139 -0.47590323914846377 0 -0.19179305986328829 -0.46711759196808689 0 -0.19715634076338631 -0.4518064782969281 0 -0.2055877559272139 -0.47590323914846377 0 -0.19179305986328829 -0.46711759196808689 0 -0.19715634076338631 -0.4518064782969281 0 -0.184822707974968 -0.45592422963236362 0 -0.19715634076338631 -0.4518064782969281 0 -0.2030300315513712 -0.43746332377949593 0 -0.18872492559955881 -0.42770971744539221 0 -0.19715634076338631 -0.4518064782969281 0 -0.18872492559955881 -0.42770971744539221 0 -0.19715634076338631 -0.4518064782969281 0 -0.1870173619903012 -0.44414077979923022 0 -0.18872492559955881 -0.42770971744539221 0 -0.19715634076338631 -0.4518064782969281 0 -0.184822707974968 -0.45592422963236362 0 -0.1870173619903012 -0.44414077979923022 0 -0.2140191710910414 -0.49999999999999972 0 -0.2055877559272139 -0.47590323914846377 0 -0.2140191710910414 -0.49999999999999972 0 -0.2055877559272139 -0.47590323914846377 0 -0.1915741566131953 -0.48274482478870012 0 -0.2238647917587385 -0.47868470982513422 0 -0.2140191710910414 -0.49999999999999972 0 -0.2055877559272139 -0.47590323914846377 0 -0.2238647917587385 -0.47868470982513422 0 -0.20999779143719291 -0.46083672605530768 0 -0.2055877559272139 -0.47590323914846377 0 -0.19179305986328829 -0.46711759196808689 0 -0.2055877559272139 -0.47590323914846377 0 -0.1915741566131953 -0.48274482478870012 0 -0.19179305986328829 -0.46711759196808689 0 -0.1915741566131953 -0.48274482478870012 0 -0.17982433803767831 -0.46920918797397909 0 -0.2140191710910414 -0.49999999999999972 0 -0.1915741566131953 -0.48274482478870012 0 -0.1841956238768391 -0.5 0 -0.1915741566131953 -0.48274482478870012 0 -0.1841956238768391 -0.5 0 -0.17247084166804699 -0.48396500267038112 0 -0.1841956238768391 -0.5 0 -0.17247084166804699 -0.48396500267038112 0 -0.15437207666263669 -0.50000000000000022 0 -0.15669106487963419 -0.47716915445828201 0 -0.17247084166804699 -0.48396500267038112 0 -0.15437207666263669 -0.50000000000000022 0 -0.15669106487963419 -0.47716915445828201 0 -0.17247084166804699 -0.48396500267038112 0 -0.1680230602922401 -0.4683158249620154 0 -0.17247084166804699 -0.48396500267038112 0 -0.17982433803767831 -0.46920918797397909 0 -0.1680230602922401 -0.4683158249620154 0 -0.1915741566131953 -0.48274482478870012 0 -0.17247084166804699 -0.48396500267038112 0 -0.17982433803767831 -0.46920918797397909 0 -0.19179305986328829 -0.46711759196808689 0 -0.17982433803767831 -0.46920918797397909 0 -0.184822707974968 -0.45592422963236362 0 -0.17982433803767831 -0.46920918797397909 0 -0.184822707974968 -0.45592422963236362 0 -0.17211900377920919 -0.45689747079087062 0 -0.17982433803767831 -0.46920918797397909 0 -0.17211900377920919 -0.45689747079087062 0 -0.1680230602922401 -0.4683158249620154 0 -0.1870173619903012 -0.44414077979923022 0 -0.17843006300647921 -0.44542980211747812 0 -0.1823118302108766 -0.43680876328769058 0 -0.184822707974968 -0.45592422963236362 0 -0.1870173619903012 -0.44414077979923022 0 -0.17843006300647921 -0.44542980211747812 0 -0.17211900377920919 -0.45689747079087062 0 -0.17843006300647921 -0.44542980211747812 0 -0.16919262628862339 -0.44362555979768409 0 -0.184822707974968 -0.45592422963236362 0 -0.17211900377920919 -0.45689747079087062 0 -0.17843006300647921 -0.44542980211747812 0 -0.17843006300647921 -0.44542980211747812 0 -0.16919262628862339 -0.44362555979768409 0 -0.17507497024716731 -0.42995475378866199 0 -0.1590100530966318 -0.45433830891656402 0 -0.148881704538534 -0.44296791951084241 0 -0.1613290413136293 -0.43150746337484569 0 -0.1590100530966318 -0.45433830891656402 0 -0.1613290413136293 -0.43150746337484569 0 -0.16919262628862339 -0.44362555979768409 0 -0.1590100530966318 -0.45433830891656402 0 -0.1613290413136293 -0.43150746337484569 0 -0.17211900377920919 -0.45689747079087062 0 -0.16919262628862339 -0.44362555979768409 0 -0.1590100530966318 -0.45433830891656402 0 -0.15669106487963419 -0.47716915445828201 0 -0.1680230602922401 -0.4683158249620154 0 -0.1590100530966318 -0.45433830891656402 0 -0.15669106487963419 -0.47716915445828201 0 -0.1590100530966318 -0.45433830891656402 0 -0.17211900377920919 -0.45689747079087062 0 -0.1680230602922401 -0.4683158249620154 0 -0.1590100530966318 -0.45433830891656402 0 -0.15669106487963419 -0.47716915445828201 0 -0.1590100530966318 -0.45433830891656402 0 -0.1472923250818238 -0.46077477567243558 0 -0.1590100530966318 -0.45433830891656402 0 -0.1472923250818238 -0.46077477567243558 0 -0.148881704538534 -0.44296791951084241 0 -0.1472923250818238 -0.46077477567243558 0 -0.148881704538534 -0.44296791951084241 0 -0.13194602454298601 -0.43962244526902572 0 -0.13194602454298601 -0.43962244526902572 0 -0.13077987840644981 -0.46069854066347632 0 -0.11615585050415531 -0.45102464773050138 0 -0.1472923250818238 -0.46077477567243558 0 -0.13194602454298601 -0.43962244526902572 0 -0.1472923250818238 -0.46077477567243558 0 -0.13077987840644981 -0.46069854066347632 0 -0.13742439756140509 -0.48004162281001828 0 -0.1472923250818238 -0.46077477567243558 0 -0.13194602454298601 -0.43962244526902572 0 -0.13077987840644981 -0.46069854066347632 0 -0.13742439756140509 -0.48004162281001828 0 -0.12108079434187891 -0.47202921183540031 0 -0.1206292342060253 -0.48641385964910883 0 -0.13077987840644981 -0.46069854066347632 0 -0.13742439756140509 -0.48004162281001828 0 -0.12108079434187891 -0.47202921183540031 0 -0.13742439756140509 -0.48004162281001828 0 -0.131118449396015 -0.5 0 -0.1206292342060253 -0.48641385964910883 0 -0.15669106487963419 -0.47716915445828201 0 -0.13742439756140509 -0.48004162281001828 0 -0.15437207666263669 -0.50000000000000022 0 -0.15669106487963419 -0.47716915445828201 0 -0.15437207666263669 -0.50000000000000022 0 -0.13742439756140509 -0.48004162281001828 0 -0.131118449396015 -0.5 0 -0.15437207666263669 -0.50000000000000022 0 -0.15669106487963419 -0.47716915445828201 0 -0.1472923250818238 -0.46077477567243558 0 -0.13742439756140509 -0.48004162281001828 0 -0.13678826443221431 -0.39755243580027871 0 -0.14931675495270949 -0.41057852288770358 0 -0.15761740849691311 -0.38818340141201402 0 -0.1369224961495438 -0.38192389563367207 0 -0.13678826443221431 -0.39755243580027871 0 -0.15761740849691311 -0.38818340141201402 0 -0.1369224961495438 -0.38192389563367207 0 -0.15761740849691311 -0.38818340141201402 0 -0.148308101659717 -0.36695316985008092 0 -0.1369224961495438 -0.38192389563367207 0 -0.12526638733901391 -0.39147447277512609 0 -0.13678826443221431 -0.39755243580027871 0 -0.1369224961495438 -0.38192389563367207 0 -0.1303219987982592 -0.3665496015062627 0 -0.12201267174342199 -0.37938718301114999 0 -0.1369224961495438 -0.38192389563367207 0 -0.12526638733901391 -0.39147447277512609 0 -0.12201267174342199 -0.37938718301114999 0 -0.12526638733901391 -0.39147447277512609 0 -0.13678826443221431 -0.39755243580027871 0 -0.12592730430259419 -0.40432488328170318 0 -0.13678826443221431 -0.39755243580027871 0 -0.12592730430259419 -0.40432488328170318 0 -0.1345256340888337 -0.41538851269275129 0 -0.13678826443221431 -0.39755243580027871 0 -0.1345256340888337 -0.41538851269275129 0 -0.14931675495270949 -0.41057852288770358 0 -0.12592730430259419 -0.40432488328170318 0 -0.1345256340888337 -0.41538851269275129 0 -0.1165997240041481 -0.41847011486561592 0 -0.13194602454298601 -0.43962244526902572 0 -0.1345256340888337 -0.41538851269275129 0 -0.14483107865759889 -0.42859660432134139 0 -0.13194602454298601 -0.43962244526902572 0 -0.1345256340888337 -0.41538851269275129 0 -0.1165997240041481 -0.41847011486561592 0 -0.148881704538534 -0.44296791951084241 0 -0.14483107865759889 -0.42859660432134139 0 -0.1613290413136293 -0.43150746337484569 0 -0.148881704538534 -0.44296791951084241 0 -0.13194602454298601 -0.43962244526902572 0 -0.14483107865759889 -0.42859660432134139 0 -0.14483107865759889 -0.42859660432134139 0 -0.14931675495270949 -0.41057852288770358 0 -0.1613290413136293 -0.43150746337484569 0 -0.1345256340888337 -0.41538851269275129 0 -0.14483107865759889 -0.42859660432134139 0 -0.14931675495270949 -0.41057852288770358 0 -0.16364802953062679 -0.40867661783312748 0 -0.1613290413136293 -0.43150746337484569 0 -0.14931675495270949 -0.41057852288770358 0 -0.16364802953062679 -0.40867661783312748 0 -0.1613290413136293 -0.43150746337484569 0 -0.16364802953062679 -0.40867661783312748 0 -0.1613290413136293 -0.43150746337484569 0 -0.17507497024716731 -0.42995475378866199 0 -0.16919262628862339 -0.44362555979768409 0 -0.1613290413136293 -0.43150746337484569 0 -0.17507497024716731 -0.42995475378866199 0 -0.1870173619903012 -0.44414077979923022 0 -0.1823118302108766 -0.43680876328769058 0 -0.18872492559955881 -0.42770971744539221 0 -0.17843006300647921 -0.44542980211747812 0 -0.17507497024716731 -0.42995475378866199 0 -0.1823118302108766 -0.43680876328769058 0 -0.17507497024716731 -0.42995475378866199 0 -0.1806986800215967 -0.4173161083834821 0 -0.18872492559955881 -0.42770971744539221 0 -0.17507497024716731 -0.42995475378866199 0 -0.1823118302108766 -0.43680876328769058 0 -0.18872492559955881 -0.42770971744539221 0 -0.1806986800215967 -0.4173161083834821 0 -0.18228064084688081 -0.39610998094782668 0 -0.19209360216251761 -0.40824625574224149 0 -0.16364802953062679 -0.40867661783312748 0 -0.17507497024716731 -0.42995475378866199 0 -0.1806986800215967 -0.4173161083834821 0 -0.16364802953062679 -0.40867661783312748 0 -0.1806986800215967 -0.4173161083834821 0 -0.18228064084688081 -0.39610998094782668 0 -0.16364802953062679 -0.40867661783312748 0 -0.18228064084688081 -0.39610998094782668 0 -0.15761740849691311 -0.38818340141201402 0 -0.14931675495270949 -0.41057852288770358 0 -0.16364802953062679 -0.40867661783312748 0 -0.15761740849691311 -0.38818340141201402 0 -0.15761740849691311 -0.38818340141201402 0 -0.183603859264966 -0.3766054584014627 0 -0.1661931572416451 -0.36889933283976362 0 -0.18228064084688081 -0.39610998094782668 0 -0.15761740849691311 -0.38818340141201402 0 -0.183603859264966 -0.3766054584014627 0 -0.18228064084688081 -0.39610998094782668 0 -0.183603859264966 -0.3766054584014627 0 -0.20216487974800659 -0.3829991661375407 0 -0.18228064084688081 -0.39610998094782668 0 -0.20343785588976751 -0.39944649130885712 0 -0.19209360216251761 -0.40824625574224149 0 -0.18228064084688081 -0.39610998094782668 0 -0.20216487974800659 -0.3829991661375407 0 -0.20343785588976751 -0.39944649130885712 0 -0.20343785588976751 -0.39944649130885712 0 -0.21350444502423929 -0.40864471589815532 0 -0.22035180610084079 -0.39356726900625483 0 -0.20216487974800659 -0.3829991661375407 0 -0.20343785588976751 -0.39944649130885712 0 -0.22035180610084079 -0.39356726900625483 0 -0.20216487974800659 -0.3829991661375407 0 -0.22035180610084079 -0.39356726900625483 0 -0.219169022554425 -0.37113875127287832 0 -0.1806986800215967 -0.4173161083834821 0 -0.2030300315513712 -0.43746332377949593 0 -0.18872492559955881 -0.42770971744539221 0 -0.1806986800215967 -0.4173161083834821 0 -0.2030300315513712 -0.43746332377949593 0 -0.2030300315513712 -0.43746332377949593 0 -0.19369636752838881 -0.41903658901391427 0 -0.2031687955665597 -0.42354741618771741 0 -0.1806986800215967 -0.4173161083834821 0 -0.2030300315513712 -0.43746332377949593 0 -0.19369636752838881 -0.41903658901391427 0 -0.19369636752838881 -0.41903658901391427 0 -0.20299923128825029 -0.41376529568937459 0 -0.2031687955665597 -0.42354741618771741 0 -0.1806986800215967 -0.4173161083834821 0 -0.19369636752838881 -0.41903658901391427 0 -0.19209360216251761 -0.40824625574224149 0 -0.19369636752838881 -0.41903658901391427 0 -0.19209360216251761 -0.40824625574224149 0 -0.20299923128825029 -0.41376529568937459 0 -0.20343785588976751 -0.39944649130885712 0 -0.19209360216251761 -0.40824625574224149 0 -0.20299923128825029 -0.41376529568937459 0 -0.20343785588976751 -0.39944649130885712 0 -0.20299923128825029 -0.41376529568937459 0 -0.21350444502423929 -0.40864471589815532 0 -0.21350444502423929 -0.40864471589815532 0 -0.21294955189822859 -0.42392445626808489 0 -0.2277837799441092 -0.41252006721820539 0 -0.20299923128825029 -0.41376529568937459 0 -0.2031687955665597 -0.42354741618771741 0 -0.21294955189822859 -0.42392445626808489 0 -0.20299923128825029 -0.41376529568937459 0 -0.21350444502423929 -0.40864471589815532 0 -0.21294955189822859 -0.42392445626808489 0 -0.2030300315513712 -0.43746332377949593 0 -0.21294955189822859 -0.42392445626808489 0 -0.22549954629610269 -0.43500765649169948 0 -0.2030300315513712 -0.43746332377949593 0 -0.2031687955665597 -0.42354741618771741 0 -0.21294955189822859 -0.42392445626808489 0 -0.23591515519085041 -0.44398209369878189 0 -0.22549954629610269 -0.43500765649169948 0 -0.23735783041644329 -0.42609093398936743 0 -0.22549954629610269 -0.43500765649169948 0 -0.2277837799441092 -0.41252006721820539 0 -0.23735783041644329 -0.42609093398936743 0 -0.21294955189822859 -0.42392445626808489 0 -0.22549954629610269 -0.43500765649169948 0 -0.2277837799441092 -0.41252006721820539 0 -0.2277837799441092 -0.41252006721820539 0 -0.24694430377570939 -0.41295507854145541 0 -0.2277837799441092 -0.41252006721820539 0 -0.24694430377570939 -0.41295507854145541 0 -0.23735783041644329 -0.42609093398936743 0 -0.2277837799441092 -0.41252006721820539 0 -0.24694430377570939 -0.41295507854145541 0 -0.2359891007147569 -0.39914414181493052 0 -0.25298523514652932 -0.43702750984159111 0 -0.24694430377570939 -0.41295507854145541 0 -0.23735783041644329 -0.42609093398936743 0 -0.25298523514652932 -0.43702750984159111 0 -0.23591515519085041 -0.44398209369878189 0 -0.23735783041644329 -0.42609093398936743 0 -0.22035180610084079 -0.39356726900625483 0 -0.23802591309349369 -0.38358476956933441 0 -0.219169022554425 -0.37113875127287832 0 -0.22035180610084079 -0.39356726900625483 0 -0.2359891007147569 -0.39914414181493052 0 -0.23802591309349369 -0.38358476956933441 0 -0.21350444502423929 -0.40864471589815532 0 -0.2277837799441092 -0.41252006721820539 0 -0.22035180610084079 -0.39356726900625483 0 -0.2277837799441092 -0.41252006721820539 0 -0.22035180610084079 -0.39356726900625483 0 -0.2359891007147569 -0.39914414181493052 0 -0.2359891007147569 -0.39914414181493052 0 -0.2487824818667288 -0.3954643368039899 0 -0.23802591309349369 -0.38358476956933441 0 -0.24694430377570939 -0.41295507854145541 0 -0.2359891007147569 -0.39914414181493052 0 -0.2487824818667288 -0.3954643368039899 0 -0.26050234447883253 -0.38027693877573482 0 -0.2487824818667288 -0.3954643368039899 0 -0.23802591309349369 -0.38358476956933441 0 -0.26050234447883253 -0.38027693877573482 0 -0.23802591309349369 -0.38358476956933441 0 -0.24817767477162081 -0.36986654917455902 0 -0.23802591309349369 -0.38358476956933441 0 -0.24817767477162081 -0.36986654917455902 0 -0.23583729862822109 -0.36574384613307409 0 -0.24817767477162081 -0.36986654917455902 0 -0.23583729862822109 -0.36574384613307409 0 -0.24850069890613241 -0.35473287875334369 0 -0.23583729862822109 -0.36574384613307409 0 -0.219169022554425 -0.37113875127287832 0 -0.22531318381543361 -0.34939628189525529 0 -0.23802591309349369 -0.38358476956933441 0 -0.23583729862822109 -0.36574384613307409 0 -0.219169022554425 -0.37113875127287832 0 -0.22531318381543361 -0.34939628189525529 0 -0.24850069890613241 -0.35473287875334369 0 -0.24219101746094579 -0.34438554910399921 0 -0.23583729862822109 -0.36574384613307409 0 -0.22531318381543361 -0.34939628189525529 0 -0.24850069890613241 -0.35473287875334369 0 -0.22531318381543361 -0.34939628189525529 0 -0.24850069890613241 -0.35473287875334369 0 -0.25445926970156468 -0.34270101061729968 0 -0.24850069890613241 -0.35473287875334369 0 -0.24219101746094579 -0.34438554910399921 0 -0.25445926970156468 -0.34270101061729968 0 -0.24219101746094579 -0.34438554910399921 0 -0.2460450098649074 -0.33743905859998191 0 -0.25207330520806498 -0.33378255792528982 0 -0.2460450098649074 -0.33743905859998191 0 -0.24306356592407591 -0.32787829483024122 0 -0.2348359590034956 -0.33686915078515089 0 -0.24306356592407591 -0.32787829483024122 0 -0.23163603200856511 -0.32708080208212859 0 -0.2460450098649074 -0.33743905859998191 0 -0.2348359590034956 -0.33686915078515089 0 -0.24306356592407591 -0.32787829483024122 0 -0.24219101746094579 -0.34438554910399921 0 -0.2460450098649074 -0.33743905859998191 0 -0.2348359590034956 -0.33686915078515089 0 -0.25273748935779161 -0.32224337373924072 0 -0.24326482791746179 -0.31394285089519419 0 -0.24426682308287331 -0.30533572025667649 0 -0.25273748935779161 -0.32224337373924072 0 -0.24426682308287331 -0.30533572025667649 0 -0.25273748935779161 -0.32224337373924072 0 -0.24326482791746179 -0.31394285089519419 0 -0.2440208243134171 -0.32058552998791068 0 -0.25273748935779161 -0.32224337373924072 0 -0.24306356592407591 -0.32787829483024122 0 -0.2440208243134171 -0.32058552998791068 0 -0.25207330520806498 -0.33378255792528982 0 -0.25273748935779161 -0.32224337373924072 0 -0.24306356592407591 -0.32787829483024122 0 -0.24306356592407591 -0.32787829483024122 0 -0.2440208243134171 -0.32058552998791068 0 -0.23701741405433899 -0.31827760048696663 0 -0.24306356592407591 -0.32787829483024122 0 -0.23701741405433899 -0.31827760048696663 0 -0.23163603200856511 -0.32708080208212859 0 -0.24326482791746179 -0.31394285089519419 0 -0.23701741405433899 -0.31827760048696663 0 -0.2384772558931193 -0.30928307653082621 0 -0.24326482791746179 -0.31394285089519419 0 -0.2440208243134171 -0.32058552998791068 0 -0.23701741405433899 -0.31827760048696663 0 -0.22244826701882919 -0.32070202864358233 0 -0.22802593536356699 -0.30882837184141948 0 -0.21110805984082151 -0.30983785689108939 0 -0.23701741405433899 -0.31827760048696663 0 -0.22244826701882919 -0.32070202864358233 0 -0.22802593536356699 -0.30882837184141948 0 -0.23701741405433899 -0.31827760048696663 0 -0.23163603200856511 -0.32708080208212859 0 -0.22244826701882919 -0.32070202864358233 0 -0.23163603200856511 -0.32708080208212859 0 -0.22244826701882919 -0.32070202864358233 0 -0.22079431421521131 -0.33353493235345111 0 -0.22531318381543361 -0.34939628189525529 0 -0.2348359590034956 -0.33686915078515089 0 -0.22079431421521131 -0.33353493235345111 0 -0.22531318381543361 -0.34939628189525529 0 -0.24219101746094579 -0.34438554910399921 0 -0.2348359590034956 -0.33686915078515089 0 -0.2348359590034956 -0.33686915078515089 0 -0.23163603200856511 -0.32708080208212859 0 -0.22079431421521131 -0.33353493235345111 0 -0.22079431421521131 -0.33353493235345111 0 -0.20839645480677241 -0.32403064402179738 0 -0.20212566872473489 -0.34405968503716688 0 -0.22531318381543361 -0.34939628189525529 0 -0.22079431421521131 -0.33353493235345111 0 -0.20212566872473489 -0.34405968503716688 0 -0.22244826701882919 -0.32070202864358233 0 -0.20839645480677241 -0.32403064402179738 0 -0.21110805984082151 -0.30983785689108939 0 -0.22244826701882919 -0.32070202864358233 0 -0.22079431421521131 -0.33353493235345111 0 -0.20839645480677241 -0.32403064402179738 0 -0.20839645480677241 -0.32403064402179738 0 -0.19575919956014079 -0.31702437624003538 0 -0.21110805984082151 -0.30983785689108939 0 -0.20839645480677241 -0.32403064402179738 0 -0.19575919956014079 -0.31702437624003538 0 -0.19562896033857519 -0.33020038185646122 0 -0.19575919956014079 -0.31702437624003538 0 -0.19562896033857519 -0.33020038185646122 0 -0.18477851095256179 -0.32477614194451959 0 -0.20212566872473489 -0.34405968503716688 0 -0.1789381536340362 -0.33872308817907848 0 -0.19562896033857519 -0.33020038185646122 0 -0.20212566872473489 -0.34405968503716688 0 -0.1789381536340362 -0.33872308817907848 0 -0.20839645480677241 -0.32403064402179738 0 -0.19562896033857519 -0.33020038185646122 0 -0.20212566872473489 -0.34405968503716688 0 -0.20212566872473489 -0.34405968503716688 0 -0.2037839996862793 -0.36234410805543599 0 -0.1863350517553729 -0.35962674217565882 0 -0.20212566872473489 -0.34405968503716688 0 -0.1863350517553729 -0.35962674217565882 0 -0.1789381536340362 -0.33872308817907848 0 -0.183603859264966 -0.3766054584014627 0 -0.20216487974800659 -0.3829991661375407 0 -0.2037839996862793 -0.36234410805543599 0 -0.183603859264966 -0.3766054584014627 0 -0.2037839996862793 -0.36234410805543599 0 -0.1863350517553729 -0.35962674217565882 0 -0.219169022554425 -0.37113875127287832 0 -0.22531318381543361 -0.34939628189525529 0 -0.2037839996862793 -0.36234410805543599 0 -0.20216487974800659 -0.3829991661375407 0 -0.219169022554425 -0.37113875127287832 0 -0.2037839996862793 -0.36234410805543599 0 -0.22531318381543361 -0.34939628189525529 0 -0.20212566872473489 -0.34405968503716688 0 -0.2037839996862793 -0.36234410805543599 0 -0.22531318381543361 -0.34939628189525529 0 -0.20212566872473489 -0.34405968503716688 0 -0.24465976002352091 -0.25387891845332877 0 -0.23199225124923151 -0.26692477658714647 0 -0.21854221021918649 -0.25236034283526498 0 -0.23199225124923151 -0.26692477658714647 0 -0.21864709985809599 -0.27150291036173302 0 -0.21854221021918649 -0.25236034283526498 0 -0.24465976002352091 -0.25387891845332877 0 -0.2444485511135471 -0.27534046621033159 0 -0.23199225124923151 -0.26692477658714647 0 -0.25958550566062261 -0.27102626557679149 0 -0.24465976002352091 -0.25387891845332877 0 -0.2444485511135471 -0.27534046621033159 0 -0.2444485511135471 -0.27534046621033159 0 -0.23199225124923151 -0.26692477658714647 0 -0.23366363503180709 -0.28154124507507411 0 -0.2197277065850177 -0.2872169177591285 0 -0.23366363503180709 -0.28154124507507411 0 -0.21864709985809599 -0.27150291036173302 0 -0.23199225124923151 -0.26692477658714647 0 -0.23366363503180709 -0.28154124507507411 0 -0.21864709985809599 -0.27150291036173302 0 -0.2197277065850177 -0.2872169177591285 0 -0.23366363503180709 -0.28154124507507411 0 -0.24011613505684479 -0.30107681213347393 0 -0.2197277065850177 -0.2872169177591285 0 -0.24011613505684479 -0.30107681213347393 0 -0.2197277065850177 -0.2872169177591285 0 -0.24011613505684479 -0.30107681213347393 0 -0.2201073871300871 -0.30044142834658671 0 -0.2444485511135471 -0.27534046621033159 0 -0.23366363503180709 -0.28154124507507411 0 -0.24732420154209239 -0.29033586459568173 0 -0.23366363503180709 -0.28154124507507411 0 -0.24732420154209239 -0.29033586459568173 0 -0.24011613505684479 -0.30107681213347393 0 -0.25608276685525683 -0.28295324223861612 0 -0.2444485511135471 -0.27534046621033159 0 -0.24732420154209239 -0.29033586459568173 0 -0.26050456352867191 -0.3149367065078193 0 -0.24011613505684479 -0.30107681213347393 0 -0.24426682308287331 -0.30533572025667649 0 -0.25485564421046719 -0.30132045870319019 0 -0.24732420154209239 -0.29033586459568173 0 -0.24011613505684479 -0.30107681213347393 0 -0.24011613505684479 -0.30107681213347393 0 -0.2384772558931193 -0.30928307653082621 0 -0.22802593536356699 -0.30882837184141948 0 -0.24326482791746179 -0.31394285089519419 0 -0.24426682308287331 -0.30533572025667649 0 -0.2384772558931193 -0.30928307653082621 0 -0.24011613505684479 -0.30107681213347393 0 -0.24426682308287331 -0.30533572025667649 0 -0.2384772558931193 -0.30928307653082621 0 -0.23701741405433899 -0.31827760048696663 0 -0.2384772558931193 -0.30928307653082621 0 -0.22802593536356699 -0.30882837184141948 0 -0.22802593536356699 -0.30882837184141948 0 -0.2201073871300871 -0.30044142834658671 0 -0.21110805984082151 -0.30983785689108939 0 -0.24011613505684479 -0.30107681213347393 0 -0.22802593536356699 -0.30882837184141948 0 -0.2201073871300871 -0.30044142834658671 0 -0.2201073871300871 -0.30044142834658671 0 -0.21110805984082151 -0.30983785689108939 0 -0.20155909880418441 -0.29524718310782239 0 -0.21110805984082151 -0.30983785689108939 0 -0.2000775247532616 -0.30687463122530689 0 -0.20155909880418441 -0.29524718310782239 0 -0.19575919956014079 -0.31702437624003538 0 -0.21110805984082151 -0.30983785689108939 0 -0.2000775247532616 -0.30687463122530689 0 -0.18961770926909149 -0.30481471110084102 0 -0.20155909880418441 -0.29524718310782239 0 -0.1798976030385912 -0.29461474791537873 0 -0.19575919956014079 -0.31702437624003538 0 -0.2000775247532616 -0.30687463122530689 0 -0.18961770926909149 -0.30481471110084102 0 -0.19575919956014079 -0.31702437624003538 0 -0.18961770926909149 -0.30481471110084102 0 -0.1803928959391416 -0.31521744924658562 0 -0.2000775247532616 -0.30687463122530689 0 -0.18961770926909149 -0.30481471110084102 0 -0.20155909880418441 -0.29524718310782239 0 -0.19933927811319041 -0.27335702338478318 0 -0.1798976030385912 -0.29461474791537873 0 -0.20155909880418441 -0.29524718310782239 0 -0.19933927811319041 -0.27335702338478318 0 -0.1798976030385912 -0.29461474791537873 0 -0.2197277065850177 -0.2872169177591285 0 -0.20155909880418441 -0.29524718310782239 0 -0.19933927811319041 -0.27335702338478318 0 -0.2197277065850177 -0.2872169177591285 0 -0.2201073871300871 -0.30044142834658671 0 -0.20155909880418441 -0.29524718310782239 0 -0.21864709985809599 -0.27150291036173302 0 -0.19933927811319041 -0.27335702338478318 0 -0.21854221021918649 -0.25236034283526498 0 -0.2197277065850177 -0.2872169177591285 0 -0.21864709985809599 -0.27150291036173302 0 -0.19933927811319041 -0.27335702338478318 0 -0.2197277065850177 -0.2872169177591285 0 -0.19933927811319041 -0.27335702338478318 0 -0.19672455084482071 -0.27157955221738023 0 -0.19563648814007639 -0.2627950405098789 0 -0.1773613401945949 -0.28300380337564962 0 -0.19672455084482071 -0.27157955221738023 0 -0.19933927811319041 -0.27335702338478318 0 -0.1773613401945949 -0.28300380337564962 0 -0.19672455084482071 -0.27157955221738023 0 -0.19933927811319041 -0.27335702338478318 0 -0.19563648814007639 -0.2627950405098789 0 -0.19672455084482071 -0.27157955221738023 0 -0.19933927811319041 -0.27335702338478318 0 -0.19933927811319041 -0.27335702338478318 0 -0.19563648814007639 -0.2627950405098789 0 -0.2024770003035091 -0.25628481747185139 0 -0.19563648814007639 -0.2627950405098789 0 -0.19160736129165659 -0.25262396586623759 0 -0.18182513936558051 -0.25739227955256888 0 -0.19563648814007639 -0.2627950405098789 0 -0.19160736129165659 -0.25262396586623759 0 -0.2024770003035091 -0.25628481747185139 0 -0.19160736129165659 -0.25262396586623759 0 -0.2024770003035091 -0.25628481747185139 0 -0.19988453840298659 -0.24176205441804 0 -0.19933927811319041 -0.27335702338478318 0 -0.2024770003035091 -0.25628481747185139 0 -0.21854221021918649 -0.25236034283526498 0 -0.2024770003035091 -0.25628481747185139 0 -0.21854221021918649 -0.25236034283526498 0 -0.19988453840298659 -0.24176205441804 0 -0.19933927811319041 -0.27335702338478318 0 -0.21854221021918649 -0.25236034283526498 0 -0.16270034237907721 -0.26451024010365409 0 -0.1689202540561075 -0.25519621835756329 0 -0.15263230708737521 -0.24356194903458239 0 -0.16270034237907721 -0.26451024010365409 0 -0.15585924966824549 -0.27338725763800159 0 -0.15263230708737521 -0.24356194903458239 0 -0.16270034237907721 -0.26451024010365409 0 -0.1689202540561075 -0.25519621835756329 0 -0.17291740387759841 -0.2648938158906885 0 -0.1689202540561075 -0.25519621835756329 0 -0.18182513936558051 -0.25739227955256888 0 -0.1745260775709061 -0.24562280720632229 0 -0.19160736129165659 -0.25262396586623759 0 -0.18182513936558051 -0.25739227955256888 0 -0.1745260775709061 -0.24562280720632229 0 -0.19563648814007639 -0.2627950405098789 0 -0.18182513936558051 -0.25739227955256888 0 -0.18269465011250469 -0.26841637399603913 0 -0.1689202540561075 -0.25519621835756329 0 -0.18182513936558051 -0.25739227955256888 0 -0.17291740387759841 -0.2648938158906885 0 -0.18182513936558051 -0.25739227955256888 0 -0.17291740387759841 -0.2648938158906885 0 -0.18269465011250469 -0.26841637399603913 0 -0.19563648814007639 -0.2627950405098789 0 -0.18269465011250469 -0.26841637399603913 0 -0.1773613401945949 -0.28300380337564962 0 -0.17291740387759841 -0.2648938158906885 0 -0.17526212336935321 -0.27297056277525461 0 -0.1680750992927145 -0.27556825783864097 0 -0.19563648814007639 -0.2627950405098789 0 -0.1773613401945949 -0.28300380337564962 0 -0.17291740387759841 -0.2648938158906885 0 -0.17526212336935321 -0.27297056277525461 0 -0.18269465011250469 -0.26841637399603913 0 -0.17526212336935321 -0.27297056277525461 0 -0.18269465011250469 -0.26841637399603913 0 -0.1773613401945949 -0.28300380337564962 0 -0.17526212336935321 -0.27297056277525461 0 -0.1680750992927145 -0.27556825783864097 0 -0.1773613401945949 -0.28300380337564962 0 -0.1680750992927145 -0.27556825783864097 0 -0.1682011228878135 -0.28257539269247411 0 -0.1773613401945949 -0.28300380337564962 0 -0.1680750992927145 -0.27556825783864097 0 -0.1622412594804854 -0.28273310688964581 0 -0.1682011228878135 -0.28257539269247411 0 -0.16270034237907721 -0.26451024010365409 0 -0.17291740387759841 -0.2648938158906885 0 -0.1680750992927145 -0.27556825783864097 0 -0.16270034237907721 -0.26451024010365409 0 -0.1680750992927145 -0.27556825783864097 0 -0.16179622859894191 -0.27503335760685149 0 -0.16270034237907721 -0.26451024010365409 0 -0.16179622859894191 -0.27503335760685149 0 -0.15585924966824549 -0.27338725763800159 0 -0.16179622859894191 -0.27503335760685149 0 -0.1622412594804854 -0.28273310688964581 0 -0.15585924966824549 -0.27338725763800159 0 -0.1680750992927145 -0.27556825783864097 0 -0.16179622859894191 -0.27503335760685149 0 -0.1622412594804854 -0.28273310688964581 0 -0.1622412594804854 -0.28273310688964581 0 -0.16512679258345911 -0.28899640266596011 0 -0.15908619224911419 -0.30321256624142101 0 -0.1622412594804854 -0.28273310688964581 0 -0.15908619224911419 -0.30321256624142101 0 -0.15585924966824549 -0.27338725763800159 0 -0.15908619224911419 -0.30321256624142101 0 -0.15585924966824549 -0.27338725763800159 0 -0.16512679258345911 -0.28899640266596011 0 -0.1773613401945949 -0.28300380337564962 0 -0.15908619224911419 -0.30321256624142101 0 -0.1773613401945949 -0.28300380337564962 0 -0.15908619224911419 -0.30321256624142101 0 -0.16512679258345911 -0.28899640266596011 0 -0.1682011228878135 -0.28257539269247411 0 -0.1773613401945949 -0.28300380337564962 0 -0.1622412594804854 -0.28273310688964581 0 -0.16512679258345911 -0.28899640266596011 0 -0.1682011228878135 -0.28257539269247411 0 -0.1773613401945949 -0.28300380337564962 0 -0.1798976030385912 -0.29461474791537873 0 -0.15908619224911419 -0.30321256624142101 0 -0.19933927811319041 -0.27335702338478318 0 -0.1773613401945949 -0.28300380337564962 0 -0.1798976030385912 -0.29461474791537873 0 -0.1798976030385912 -0.29461474791537873 0 -0.17759103405270391 -0.30762984517719472 0 -0.16045592796399111 -0.3158724724459735 0 -0.18961770926909149 -0.30481471110084102 0 -0.1798976030385912 -0.29461474791537873 0 -0.17759103405270391 -0.30762984517719472 0 -0.18961770926909149 -0.30481471110084102 0 -0.17759103405270391 -0.30762984517719472 0 -0.1803928959391416 -0.31521744924658562 0 -0.1798976030385912 -0.29461474791537873 0 -0.16045592796399111 -0.3158724724459735 0 -0.1798976030385912 -0.29461474791537873 0 -0.15908619224911419 -0.30321256624142101 0 -0.16045592796399111 -0.3158724724459735 0 -0.15908619224911419 -0.30321256624142101 0 -0.16045592796399111 -0.3158724724459735 0 -0.1471380549162328 -0.30532142906175452 0 -0.14032160831301491 -0.30752887986621158 0 -0.14130665940473261 -0.32287327510069419 0 -0.15908619224911419 -0.30321256624142101 0 -0.1471380549162328 -0.30532142906175452 0 -0.14130665940473261 -0.32287327510069419 0 -0.15908619224911419 -0.30321256624142101 0 -0.1471380549162328 -0.30532142906175452 0 -0.1510678287434867 -0.29559461902651829 0 -0.14390798587081549 -0.29739780507392732 0 -0.1471380549162328 -0.30532142906175452 0 -0.1510678287434867 -0.29559461902651829 0 -0.14390798587081549 -0.29739780507392732 0 -0.1471380549162328 -0.30532142906175452 0 -0.14032160831301491 -0.30752887986621158 0 -0.14032160831301491 -0.30752887986621158 0 -0.13439128381467691 -0.29991683468539793 0 -0.13033731665847181 -0.31286393971371201 0 -0.13439128381467691 -0.29991683468539793 0 -0.13033731665847181 -0.31286393971371201 0 -0.12304085188452731 -0.29931348820209958 0 -0.14390798587081549 -0.29739780507392732 0 -0.14032160831301491 -0.30752887986621158 0 -0.13439128381467691 -0.29991683468539793 0 -0.14390798587081549 -0.29739780507392732 0 -0.13439128381467691 -0.29991683468539793 0 -0.14011095662501261 -0.28947786809128212 0 -0.13439128381467691 -0.29991683468539793 0 -0.14011095662501261 -0.28947786809128212 0 -0.12994370463312691 -0.28995419054763111 0 -0.13439128381467691 -0.29991683468539793 0 -0.12994370463312691 -0.28995419054763111 0 -0.12304085188452731 -0.29931348820209958 0 -0.12994370463312691 -0.28995419054763111 0 -0.13687965345326569 -0.27993872332247433 0 -0.1257911728949061 -0.280427018304516 0 -0.12994370463312691 -0.28995419054763111 0 -0.1257911728949061 -0.280427018304516 0 -0.1194571486541455 -0.28746452468861589 0 -0.14011095662501261 -0.28947786809128212 0 -0.12994370463312691 -0.28995419054763111 0 -0.13687965345326569 -0.27993872332247433 0 -0.15908619224911419 -0.30321256624142101 0 -0.15162645984294551 -0.28670064183700439 0 -0.15585924966824549 -0.27338725763800159 0 -0.14011095662501261 -0.28947786809128212 0 -0.1458827091329962 -0.28225219708249882 0 -0.13687965345326569 -0.27993872332247433 0 -0.15908619224911419 -0.30321256624142101 0 -0.1510678287434867 -0.29559461902651829 0 -0.15162645984294551 -0.28670064183700439 0 -0.1458827091329962 -0.28225219708249882 0 -0.1468811506158991 -0.28912565090950809 0 -0.15162645984294551 -0.28670064183700439 0 -0.14011095662501261 -0.28947786809128212 0 -0.1458827091329962 -0.28225219708249882 0 -0.1468811506158991 -0.28912565090950809 0 -0.14390798587081549 -0.29739780507392732 0 -0.1468811506158991 -0.28912565090950809 0 -0.1510678287434867 -0.29559461902651829 0 -0.14390798587081549 -0.29739780507392732 0 -0.14011095662501261 -0.28947786809128212 0 -0.1468811506158991 -0.28912565090950809 0 -0.1468811506158991 -0.28912565090950809 0 -0.1510678287434867 -0.29559461902651829 0 -0.15162645984294551 -0.28670064183700439 0 -0.1458827091329962 -0.28225219708249882 0 -0.15162645984294551 -0.28670064183700439 0 -0.15098162864793119 -0.27663156012407891 0 -0.15162645984294551 -0.28670064183700439 0 -0.15098162864793119 -0.27663156012407891 0 -0.15585924966824549 -0.27338725763800159 0 -0.15098162864793119 -0.27663156012407891 0 -0.1522527558101047 -0.27366235468835692 0 -0.14903370440966179 -0.27344637702894548 0 -0.15098162864793119 -0.27663156012407891 0 -0.1522527558101047 -0.27366235468835692 0 -0.15585924966824549 -0.27338725763800159 0 -0.14903370440966179 -0.27344637702894548 0 -0.1531364405145805 -0.27118422396240138 0 -0.14385763015454139 -0.26954128824380802 0 -0.1522527558101047 -0.27366235468835692 0 -0.15585924966824549 -0.27338725763800159 0 -0.1531364405145805 -0.27118422396240138 0 -0.1522527558101047 -0.27366235468835692 0 -0.14903370440966179 -0.27344637702894548 0 -0.1531364405145805 -0.27118422396240138 0 -0.14903370440966179 -0.27344637702894548 0 -0.14385763015454139 -0.26954128824380802 0 -0.1442805510697899 -0.27562940435382949 0 -0.14385763015454139 -0.26954128824380802 0 -0.1442805510697899 -0.27562940435382949 0 -0.13835653564694769 -0.27242798417408381 0 -0.1458827091329962 -0.28225219708249882 0 -0.1442805510697899 -0.27562940435382949 0 -0.13687965345326569 -0.27993872332247433 0 -0.15098162864793119 -0.27663156012407891 0 -0.14903370440966179 -0.27344637702894548 0 -0.1442805510697899 -0.27562940435382949 0 -0.1458827091329962 -0.28225219708249882 0 -0.15098162864793119 -0.27663156012407891 0 -0.1442805510697899 -0.27562940435382949 0 -0.13687965345326569 -0.27993872332247433 0 -0.12970248462840331 -0.2717774759070859 0 -0.13835653564694769 -0.27242798417408381 0 -0.1442805510697899 -0.27562940435382949 0 -0.13687965345326569 -0.27993872332247433 0 -0.13835653564694769 -0.27242798417408381 0 -0.13687965345326569 -0.27993872332247433 0 -0.1257911728949061 -0.280427018304516 0 -0.12970248462840331 -0.2717774759070859 0 -0.12970248462840331 -0.2717774759070859 0 -0.13570208279224111 -0.26528350045903498 0 -0.12855037573501921 -0.26115248962005239 0 -0.14385763015454139 -0.26954128824380802 0 -0.13835653564694769 -0.27242798417408381 0 -0.13570208279224111 -0.26528350045903498 0 -0.12970248462840331 -0.2717774759070859 0 -0.13835653564694769 -0.27242798417408381 0 -0.13570208279224111 -0.26528350045903498 0 -0.13570208279224111 -0.26528350045903498 0 -0.12855037573501921 -0.26115248962005239 0 -0.1377523016625678 -0.25581657194563601 0 -0.14385763015454139 -0.26954128824380802 0 -0.13570208279224111 -0.26528350045903498 0 -0.1377523016625678 -0.25581657194563601 0 -0.12855037573501921 -0.26115248962005239 0 -0.1377523016625678 -0.25581657194563601 0 -0.1223681628105569 -0.24044891992886891 0 -0.1531364405145805 -0.27118422396240138 0 -0.1377523016625678 -0.25581657194563601 0 -0.15263230708737521 -0.24356194903458239 0 -0.15585924966824549 -0.27338725763800159 0 -0.1531364405145805 -0.27118422396240138 0 -0.15263230708737521 -0.24356194903458239 0 -0.15585924966824549 -0.27338725763800159 0 -0.15263230708737521 -0.24356194903458239 0 -0.1531364405145805 -0.27118422396240138 0 -0.1377523016625678 -0.25581657194563601 0 -0.1531364405145805 -0.27118422396240138 0 -0.14385763015454139 -0.26954128824380802 0 -0.1377523016625678 -0.25581657194563601 0 -0.1661931572416451 -0.36889933283976362 0 -0.1633245426028184 -0.34238590264286861 0 -0.15433175674287769 -0.35458729317269139 0 -0.1661931572416451 -0.36889933283976362 0 -0.1633245426028184 -0.34238590264286861 0 -0.1661931572416451 -0.36889933283976362 0 -0.17388048196752651 -0.3522733272046466 0 -0.1633245426028184 -0.34238590264286861 0 -0.1661931572416451 -0.36889933283976362 0 -0.15433175674287769 -0.35458729317269139 0 -0.148308101659717 -0.36695316985008092 0 -0.15761740849691311 -0.38818340141201402 0 -0.1661931572416451 -0.36889933283976362 0 -0.148308101659717 -0.36695316985008092 0 -0.183603859264966 -0.3766054584014627 0 -0.1661931572416451 -0.36889933283976362 0 -0.1863350517553729 -0.35962674217565882 0 -0.1661931572416451 -0.36889933283976362 0 -0.1863350517553729 -0.35962674217565882 0 -0.17388048196752651 -0.3522733272046466 0 -0.1863350517553729 -0.35962674217565882 0 -0.17388048196752651 -0.3522733272046466 0 -0.1789381536340362 -0.33872308817907848 0 -0.17388048196752651 -0.3522733272046466 0 -0.1789381536340362 -0.33872308817907848 0 -0.1633245426028184 -0.34238590264286861 0 -0.19562896033857519 -0.33020038185646122 0 -0.1789381536340362 -0.33872308817907848 0 -0.18477851095256179 -0.32477614194451959 0 -0.1789381536340362 -0.33872308817907848 0 -0.18477851095256179 -0.32477614194451959 0 -0.1735479853981102 -0.32728394705986258 0 -0.1789381536340362 -0.33872308817907848 0 -0.1735479853981102 -0.32728394705986258 0 -0.1633245426028184 -0.34238590264286861 0 -0.17759103405270391 -0.30762984517719472 0 -0.1803928959391416 -0.31521744924658562 0 -0.16045592796399111 -0.3158724724459735 0 -0.19575919956014079 -0.31702437624003538 0 -0.1803928959391416 -0.31521744924658562 0 -0.18477851095256179 -0.32477614194451959 0 -0.1803928959391416 -0.31521744924658562 0 -0.18477851095256179 -0.32477614194451959 0 -0.1735479853981102 -0.32728394705986258 0 -0.1803928959391416 -0.31521744924658562 0 -0.1735479853981102 -0.32728394705986258 0 -0.16045592796399111 -0.3158724724459735 0 -0.1735479853981102 -0.32728394705986258 0 -0.16045592796399111 -0.3158724724459735 0 -0.1633245426028184 -0.34238590264286861 0 -0.16045592796399111 -0.3158724724459735 0 -0.1633245426028184 -0.34238590264286861 0 -0.1476770575246594 -0.3298450188736391 0 -0.16045592796399111 -0.3158724724459735 0 -0.1633245426028184 -0.34238590264286861 0 -0.1633245426028184 -0.34238590264286861 0 -0.15030263560259111 -0.34285112818916452 0 -0.1476770575246594 -0.3298450188736391 0 -0.1476770575246594 -0.3298450188736391 0 -0.14130665940473261 -0.32287327510069419 0 -0.13989838249203351 -0.33226752099114382 0 -0.1476770575246594 -0.3298450188736391 0 -0.14096893258994439 -0.33934882548262568 0 -0.13989838249203351 -0.33226752099114382 0 -0.15030263560259111 -0.34285112818916452 0 -0.1476770575246594 -0.3298450188736391 0 -0.14096893258994439 -0.33934882548262568 0 -0.15908619224911419 -0.30321256624142101 0 -0.14130665940473261 -0.32287327510069419 0 -0.16045592796399111 -0.3158724724459735 0 -0.1476770575246594 -0.3298450188736391 0 -0.14130665940473261 -0.32287327510069419 0 -0.15908619224911419 -0.30321256624142101 0 -0.16045592796399111 -0.3158724724459735 0 -0.14130665940473261 -0.32287327510069419 0 -0.16045592796399111 -0.3158724724459735 0 -0.1476770575246594 -0.3298450188736391 0 -0.14130665940473261 -0.32287327510069419 0 -0.12766342535057629 -0.32481504462803062 0 -0.13033731665847181 -0.31286393971371201 0 -0.14032160831301491 -0.30752887986621158 0 -0.14130665940473261 -0.32287327510069419 0 -0.13033731665847181 -0.31286393971371201 0 -0.14130665940473261 -0.32287327510069419 0 -0.12766342535057629 -0.32481504462803062 0 -0.12902917457320359 -0.33644978787578289 0 -0.12766342535057629 -0.32481504462803062 0 -0.12902917457320359 -0.33644978787578289 0 -0.123033176677132 -0.34308019655903149 0 -0.14096893258994439 -0.33934882548262568 0 -0.12902917457320359 -0.33644978787578289 0 -0.13366226850604379 -0.34759248760944123 0 -0.14096893258994439 -0.33934882548262568 0 -0.13989838249203351 -0.33226752099114382 0 -0.12902917457320359 -0.33644978787578289 0 -0.14130665940473261 -0.32287327510069419 0 -0.12902917457320359 -0.33644978787578289 0 -0.14130665940473261 -0.32287327510069419 0 -0.13989838249203351 -0.33226752099114382 0 -0.12902917457320359 -0.33644978787578289 0 -0.12902917457320359 -0.33644978787578289 0 -0.123033176677132 -0.34308019655903149 0 -0.12902917457320359 -0.33644978787578289 0 -0.13366226850604379 -0.34759248760944123 0 -0.123033176677132 -0.34308019655903149 0 -0.13366226850604379 -0.34759248760944123 0 -0.1303219987982592 -0.3665496015062627 0 -0.123033176677132 -0.34308019655903149 0 -0.1303219987982592 -0.3665496015062627 0 -0.123033176677132 -0.34308019655903149 0 -0.13366226850604379 -0.34759248760944123 0 -0.1435303466076166 -0.35184693234157938 0 -0.1303219987982592 -0.3665496015062627 0 -0.14096893258994439 -0.33934882548262568 0 -0.13366226850604379 -0.34759248760944123 0 -0.1435303466076166 -0.35184693234157938 0 -0.15030263560259111 -0.34285112818916452 0 -0.14096893258994439 -0.33934882548262568 0 -0.1435303466076166 -0.35184693234157938 0 -0.1435303466076166 -0.35184693234157938 0 -0.15433175674287769 -0.35458729317269139 0 -0.148308101659717 -0.36695316985008092 0 -0.1633245426028184 -0.34238590264286861 0 -0.15030263560259111 -0.34285112818916452 0 -0.15433175674287769 -0.35458729317269139 0 -0.15030263560259111 -0.34285112818916452 0 -0.1435303466076166 -0.35184693234157938 0 -0.15433175674287769 -0.35458729317269139 0 -0.1435303466076166 -0.35184693234157938 0 -0.148308101659717 -0.36695316985008092 0 -0.1303219987982592 -0.3665496015062627 0 -0.1369224961495438 -0.38192389563367207 0 -0.148308101659717 -0.36695316985008092 0 -0.1303219987982592 -0.3665496015062627 0 -0.1303219987982592 -0.3665496015062627 0 -0.1159926709000937 -0.36685414663024191 0 -0.11895596668836859 -0.34683008488337108 0 -0.1303219987982592 -0.3665496015062627 0 -0.1159926709000937 -0.36685414663024191 0 -0.12201267174342199 -0.37938718301114999 0 -0.1024060606807759 -0.36205135125861898 0 -0.1016559479587178 -0.38500202459504551 0 -0.1159926709000937 -0.36685414663024191 0 -0.1024060606807759 -0.36205135125861898 0 -0.1094440337948836 -0.37923577087639421 0 -0.1024060606807759 -0.36205135125861898 0 -0.1016559479587178 -0.38500202459504551 0 -0.095426438310298192 -0.37780241062099151 0 -0.1024060606807759 -0.36205135125861898 0 -0.090139611558562177 -0.37333304007799939 0 -0.095426438310298192 -0.37780241062099151 0 -0.1024060606807759 -0.36205135125861898 0 -0.093943439343664059 -0.36410026383479388 0 -0.090139611558562177 -0.37333304007799939 0 -0.1024060606807759 -0.36205135125861898 0 -0.093943439343664059 -0.36410026383479388 0 -0.095626283443773746 -0.35612124291623848 0 -0.1024060606807759 -0.36205135125861898 0 -0.090139611558562177 -0.37333304007799939 0 -0.1024060606807759 -0.36205135125861898 0 -0.1029439411344124 -0.34559419992324319 0 -0.1024060606807759 -0.36205135125861898 0 -0.1029439411344124 -0.34559419992324319 0 -0.11895596668836859 -0.34683008488337108 0 -0.1024060606807759 -0.36205135125861898 0 -0.095626283443773746 -0.35612124291623848 0 -0.1029439411344124 -0.34559419992324319 0 -0.095626283443773746 -0.35612124291623848 0 -0.1029439411344124 -0.34559419992324319 0 -0.093212578299404075 -0.34130700998995739 0 -0.1159926709000937 -0.36685414663024191 0 -0.1024060606807759 -0.36205135125861898 0 -0.11895596668836859 -0.34683008488337108 0 -0.1024060606807759 -0.36205135125861898 0 -0.11895596668836859 -0.34683008488337108 0 -0.1303219987982592 -0.3665496015062627 0 -0.11895596668836859 -0.34683008488337108 0 -0.123033176677132 -0.34308019655903149 0 -0.1029439411344124 -0.34559419992324319 0 -0.11895596668836859 -0.34683008488337108 0 -0.123033176677132 -0.34308019655903149 0 -0.11895596668836859 -0.34683008488337108 0 -0.123033176677132 -0.34308019655903149 0 -0.1029439411344124 -0.34559419992324319 0 -0.1137910684918501 -0.33520612369310882 0 -0.123033176677132 -0.34308019655903149 0 -0.123033176677132 -0.34308019655903149 0 -0.1159692764993048 -0.31568518943543378 0 -0.1137910684918501 -0.33520612369310882 0 -0.123033176677132 -0.34308019655903149 0 -0.1159692764993048 -0.31568518943543378 0 -0.12766342535057629 -0.32481504462803062 0 -0.123033176677132 -0.34308019655903149 0 -0.1159692764993048 -0.31568518943543378 0 -0.1137910684918501 -0.33520612369310882 0 -0.1159692764993048 -0.31568518943543378 0 -0.1034818215880495 -0.3291370485878673 0 -0.12766342535057629 -0.32481504462803062 0 -0.13033731665847181 -0.31286393971371201 0 -0.1159692764993048 -0.31568518943543378 0 -0.1159692764993048 -0.31568518943543378 0 -0.10079975883819629 -0.31506063040533638 0 -0.1034818215880495 -0.3291370485878673 0 -0.10079975883819629 -0.31506063040533638 0 -0.093212578299404075 -0.34130700998995739 0 -0.10079975883819629 -0.31506063040533638 0 -0.093212578299404075 -0.34130700998995739 0 -0.087373844159168004 -0.3291061545470132 0 -0.10079975883819629 -0.31506063040533638 0 -0.1034818215880495 -0.3291370485878673 0 -0.093212578299404075 -0.34130700998995739 0 -0.1029439411344124 -0.34559419992324319 0 -0.1034818215880495 -0.3291370485878673 0 -0.1029439411344124 -0.34559419992324319 0 -0.1034818215880495 -0.3291370485878673 0 -0.093212578299404075 -0.34130700998995739 0 -0.1029439411344124 -0.34559419992324319 0 -0.1137910684918501 -0.33520612369310882 0 -0.1034818215880495 -0.3291370485878673 0 -0.093212578299404075 -0.34130700998995739 0 -0.087373844159168004 -0.3291061545470132 0 -0.080908772255243899 -0.33898270124258217 0 -0.087373844159168004 -0.3291061545470132 0 -0.080908772255243899 -0.33898270124258217 0 -0.077490532230771417 -0.32991328235931511 0 -0.093212578299404075 -0.34130700998995739 0 -0.080908772255243899 -0.33898270124258217 0 -0.080378844364046895 -0.35001101873094542 0 -0.10079975883819629 -0.31506063040533638 0 -0.085305929108392881 -0.31951846990187233 0 -0.091873739319295072 -0.31122357941036211 0 -0.10079975883819629 -0.31506063040533638 0 -0.087373844159168004 -0.3291061545470132 0 -0.085305929108392881 -0.31951846990187233 0 -0.085305929108392881 -0.31951846990187233 0 -0.076805788315873161 -0.32077910918615782 0 -0.077490532230771417 -0.32991328235931511 0 -0.087373844159168004 -0.3291061545470132 0 -0.085305929108392881 -0.31951846990187233 0 -0.077490532230771417 -0.32991328235931511 0 -0.085305929108392881 -0.31951846990187233 0 -0.076805788315873161 -0.32077910918615782 0 -0.078544889372492196 -0.31002595631180607 0 -0.085305929108392881 -0.31951846990187233 0 -0.091873739319295072 -0.31122357941036211 0 -0.078544889372492196 -0.31002595631180607 0 -0.066882954587322394 -0.32486941793266988 0 -0.078544889372492196 -0.31002595631180607 0 -0.05424539878688571 -0.319762651601179 0 -0.078544889372492196 -0.31002595631180607 0 -0.05424539878688571 -0.319762651601179 0 -0.076805788315873161 -0.32077910918615782 0 -0.066882954587322394 -0.32486941793266988 0 -0.078544889372492196 -0.31002595631180607 0 -0.076805788315873161 -0.32077910918615782 0 -0.066882954587322394 -0.32486941793266988 0 -0.077490532230771417 -0.32991328235931511 0 -0.066882954587322394 -0.32486941793266988 0 -0.070160141916437824 -0.34098238217286791 0 -0.054527031800802053 -0.34042178362413461 0 -0.066882954587322394 -0.32486941793266988 0 -0.077490532230771417 -0.32991328235931511 0 -0.070160141916437824 -0.34098238217286791 0 -0.080908772255243899 -0.33898270124258217 0 -0.077490532230771417 -0.32991328235931511 0 -0.070160141916437824 -0.34098238217286791 0 -0.080908772255243899 -0.33898270124258217 0 -0.070160141916437824 -0.34098238217286791 0 -0.080378844364046895 -0.35001101873094542 0 -0.070160141916437824 -0.34098238217286791 0 -0.066522813126512412 -0.35680227137673098 0 -0.054527031800802053 -0.34042178362413461 0 -0.070160141916437824 -0.34098238217286791 0 -0.066522813126512412 -0.35680227137673098 0 -0.080378844364046895 -0.35001101873094542 0 -0.066522813126512412 -0.35680227137673098 0 -0.076582500297099523 -0.36039923154202719 0 -0.080378844364046895 -0.35001101873094542 0 -0.066522813126512412 -0.35680227137673098 0 -0.073802945937226916 -0.36723024648585417 0 -0.058387822440418388 -0.36975607908058028 0 -0.073802945937226916 -0.36723024648585417 0 -0.058387822440418388 -0.36975607908058028 0 -0.08170780991661282 -0.38109255286014232 0 -0.066522813126512412 -0.35680227137673098 0 -0.073802945937226916 -0.36723024648585417 0 -0.076582500297099523 -0.36039923154202719 0 -0.073802945937226916 -0.36723024648585417 0 -0.076582500297099523 -0.36039923154202719 0 -0.085625397760611066 -0.36755338957457828 0 -0.085625397760611066 -0.36755338957457828 0 -0.087954911787112483 -0.37534235041220648 0 -0.08170780991661282 -0.38109255286014232 0 -0.073802945937226916 -0.36723024648585417 0 -0.085625397760611066 -0.36755338957457828 0 -0.08170780991661282 -0.38109255286014232 0 -0.085625397760611066 -0.36755338957457828 0 -0.08170780991661282 -0.38109255286014232 0 -0.093943439343664059 -0.36410026383479388 0 -0.085625397760611066 -0.36755338957457828 0 -0.090139611558562177 -0.37333304007799939 0 -0.093943439343664059 -0.36410026383479388 0 -0.090139611558562177 -0.37333304007799939 0 -0.085625397760611066 -0.36755338957457828 0 -0.090139611558562177 -0.37333304007799939 0 -0.087954911787112483 -0.37534235041220648 0 -0.085625397760611066 -0.36755338957457828 0 -0.087954911787112483 -0.37534235041220648 0 -0.090139611558562177 -0.37333304007799939 0 -0.087954911787112483 -0.37534235041220648 0 -0.093943439343664059 -0.36410026383479388 0 -0.095626283443773746 -0.35612124291623848 0 -0.085625397760611066 -0.36755338957457828 0 -0.093212578299404075 -0.34130700998995739 0 -0.085625397760611066 -0.36755338957457828 0 -0.076582500297099523 -0.36039923154202719 0 -0.085625397760611066 -0.36755338957457828 0 -0.080378844364046895 -0.35001101873094542 0 -0.093212578299404075 -0.34130700998995739 0 -0.085625397760611066 -0.36755338957457828 0 -0.080378844364046895 -0.35001101873094542 0 -0.085625397760611066 -0.36755338957457828 0 -0.080378844364046895 -0.35001101873094542 0 -0.095626283443773746 -0.35612124291623848 0 -0.093212578299404075 -0.34130700998995739 0 -0.085625397760611066 -0.36755338957457828 0 -0.10474757541744149 -0.26087495970427582 0 -0.090174700483665673 -0.26498018187443112 0 -0.1005321994236209 -0.2431127607729493 0 -0.10474757541744149 -0.26087495970427582 0 -0.11757885349586771 -0.25701660664448461 0 -0.1005321994236209 -0.2431127607729493 0 -0.12855037573501921 -0.26115248962005239 0 -0.11757885349586771 -0.25701660664448461 0 -0.1127895441811773 -0.27358429336009982 0 -0.12855037573501921 -0.26115248962005239 0 -0.11757885349586771 -0.25701660664448461 0 -0.1223681628105569 -0.24044891992886891 0 -0.10474757541744149 -0.26087495970427582 0 -0.11757885349586771 -0.25701660664448461 0 -0.1127895441811773 -0.27358429336009982 0 -0.11757885349586771 -0.25701660664448461 0 -0.1127895441811773 -0.27358429336009982 0 -0.1257911728949061 -0.280427018304516 0 -0.12970248462840331 -0.2717774759070859 0 -0.1127895441811773 -0.27358429336009982 0 -0.12855037573501921 -0.26115248962005239 0 -0.1127895441811773 -0.27358429336009982 0 -0.12970248462840331 -0.2717774759070859 0 -0.12855037573501921 -0.26115248962005239 0 -0.1127895441811773 -0.27358429336009982 0 -0.1257911728949061 -0.280427018304516 0 -0.1127895441811773 -0.27358429336009982 0 -0.1194571486541455 -0.28746452468861589 0 -0.1127895441811773 -0.27358429336009982 0 -0.1083869393769897 -0.28881425082071571 0 -0.1127895441811773 -0.27358429336009982 0 -0.093274829049746905 -0.28897707944045958 0 -0.090174700483665673 -0.26498018187443112 0 -0.10474757541744149 -0.26087495970427582 0 -0.1127895441811773 -0.27358429336009982 0 -0.090174700483665673 -0.26498018187443112 0 -0.1127895441811773 -0.27358429336009982 0 -0.1067008731150054 -0.28283902414649681 0 -0.093274829049746905 -0.28897707944045958 0 -0.1127895441811773 -0.27358429336009982 0 -0.093274829049746905 -0.28897707944045958 0 -0.1083869393769897 -0.28881425082071571 0 -0.102844379958099 -0.30028926102243358 0 -0.093274829049746905 -0.28897707944045958 0 -0.1127895441811773 -0.27358429336009982 0 -0.1083869393769897 -0.28881425082071571 0 -0.1067008731150054 -0.28283902414649681 0 -0.1083869393769897 -0.28881425082071571 0 -0.1067008731150054 -0.28283902414649681 0 -0.1083869393769897 -0.28881425082071571 0 -0.1067008731150054 -0.28283902414649681 0 -0.093274829049746905 -0.28897707944045958 0 -0.1127895441811773 -0.27358429336009982 0 -0.1083869393769897 -0.28881425082071571 0 -0.1194571486541455 -0.28746452468861589 0 -0.12994370463312691 -0.28995419054763111 0 -0.1194571486541455 -0.28746452468861589 0 -0.12304085188452731 -0.29931348820209958 0 -0.1083869393769897 -0.28881425082071571 0 -0.1194571486541455 -0.28746452468861589 0 -0.12304085188452731 -0.29931348820209958 0 -0.1159692764993048 -0.31568518943543378 0 -0.1083869393769897 -0.28881425082071571 0 -0.12304085188452731 -0.29931348820209958 0 -0.1159692764993048 -0.31568518943543378 0 -0.1083869393769897 -0.28881425082071571 0 -0.13033731665847181 -0.31286393971371201 0 -0.1159692764993048 -0.31568518943543378 0 -0.12304085188452731 -0.29931348820209958 0 -0.1159692764993048 -0.31568518943543378 0 -0.10079975883819629 -0.31506063040533638 0 -0.1083869393769897 -0.28881425082071571 0 -0.10079975883819629 -0.31506063040533638 0 -0.1083869393769897 -0.28881425082071571 0 -0.10079975883819629 -0.31506063040533638 0 -0.1083869393769897 -0.28881425082071571 0 -0.102844379958099 -0.30028926102243358 0 -0.10079975883819629 -0.31506063040533638 0 -0.102844379958099 -0.30028926102243358 0 -0.091873739319295072 -0.31122357941036211 0 -0.078544889372492196 -0.31002595631180607 0 -0.073760113918316481 -0.30436986552081963 0 -0.093274829049746905 -0.28897707944045958 0 -0.102844379958099 -0.30028926102243358 0 -0.078544889372492196 -0.31002595631180607 0 -0.093274829049746905 -0.28897707944045958 0 -0.102844379958099 -0.30028926102243358 0 -0.091873739319295072 -0.31122357941036211 0 -0.078544889372492196 -0.31002595631180607 0 -0.102844379958099 -0.30028926102243358 0 -0.078544889372492196 -0.31002595631180607 0 -0.078544889372492196 -0.31002595631180607 0 -0.073760113918316481 -0.30436986552081963 0 -0.05424539878688571 -0.319762651601179 0 -0.073760113918316481 -0.30436986552081963 0 -0.05424539878688571 -0.319762651601179 0 -0.073760113918316481 -0.30436986552081963 0 -0.071188273097670243 -0.28513602236808322 0 -0.055748641784298267 -0.30178875706485681 0 -0.073760113918316481 -0.30436986552081963 0 -0.071188273097670243 -0.28513602236808322 0 -0.093274829049746905 -0.28897707944045958 0 -0.073760113918316481 -0.30436986552081963 0 -0.093274829049746905 -0.28897707944045958 0 -0.071188273097670243 -0.28513602236808322 0 -0.093274829049746905 -0.28897707944045958 0 -0.090174700483665673 -0.26498018187443112 0 -0.071188273097670243 -0.28513602236808322 0 -0.063484538676239377 -0.26413124226689111 0 -0.090174700483665673 -0.26498018187443112 0 -0.063484538676239377 -0.26413124226689111 0 -0.076282262678724011 -0.24169347649274159 0 -0.063484538676239377 -0.26413124226689111 0 -0.090174700483665673 -0.26498018187443112 0 -0.076282262678724011 -0.24169347649274159 0 -0.036942597034766073 -0.27265489088473938 0 -0.050686814673754729 -0.28656900804104057 0 -0.0185119813334658 -0.28327625011988139 0 -0.038581934025118947 -0.25114857380685968 0 -0.038334603868346327 -0.2604973367990705 0 -0.03064478186574425 -0.25326356670072259 0 -0.038334603868346327 -0.2604973367990705 0 -0.029413390480137139 -0.26518294325465769 0 -0.03064478186574425 -0.25326356670072259 0 -0.038334603868346327 -0.2604973367990705 0 -0.046517308340487992 -0.25474718453952289 0 -0.048289188575406587 -0.26955092917192058 0 -0.038581934025118947 -0.25114857380685968 0 -0.038334603868346327 -0.2604973367990705 0 -0.046517308340487992 -0.25474718453952289 0 -0.063484538676239377 -0.26413124226689111 0 -0.046517308340487992 -0.25474718453952289 0 -0.0567919256119837 -0.24387644547435741 0 -0.063484538676239377 -0.26413124226689111 0 -0.046517308340487992 -0.25474718453952289 0 -0.048289188575406587 -0.26955092917192058 0 -0.063484538676239377 -0.26413124226689111 0 -0.050686814673754729 -0.28656900804104057 0 -0.071188273097670243 -0.28513602236808322 0 -0.063484538676239377 -0.26413124226689111 0 -0.050686814673754729 -0.28656900804104057 0 -0.063484538676239377 -0.26413124226689111 0 -0.048289188575406587 -0.26955092917192058 0 -0.050686814673754729 -0.28656900804104057 0 -0.048289188575406587 -0.26955092917192058 0 -0.036942597034766073 -0.27265489088473938 0 -0.050686814673754729 -0.28656900804104057 0 -0.038334603868346327 -0.2604973367990705 0 -0.048289188575406587 -0.26955092917192058 0 -0.036942597034766073 -0.27265489088473938 0 -0.038334603868346327 -0.2604973367990705 0 -0.036942597034766073 -0.27265489088473938 0 -0.029413390480137139 -0.26518294325465769 0 -0.050686814673754729 -0.28656900804104057 0 -0.037889090671270123 -0.30900677381518998 0 -0.0185119813334658 -0.28327625011988139 0 -0.071188273097670243 -0.28513602236808322 0 -0.050686814673754729 -0.28656900804104057 0 -0.055748641784298267 -0.30178875706485681 0 -0.073760113918316481 -0.30436986552081963 0 -0.055748641784298267 -0.30178875706485681 0 -0.05424539878688571 -0.319762651601179 0 -0.055748641784298267 -0.30178875706485681 0 -0.037889090671270123 -0.30900677381518998 0 -0.05424539878688571 -0.319762651601179 0 -0.050686814673754729 -0.28656900804104057 0 -0.055748641784298267 -0.30178875706485681 0 -0.037889090671270123 -0.30900677381518998 0 -0.050686814673754729 -0.28656900804104057 0 -0.037889090671270123 -0.30900677381518998 0 -0.037889090671270123 -0.30900677381518998 0 -0.014390974368570029 -0.31032982847088841 0 -0.0185119813334658 -0.28327625011988139 0 -0.014390974368570029 -0.31032982847088841 0 0.001904989571353899 -0.32214434476741449 0 0.0019518825097332619 -0.30029273945570772 0 -0.014390974368570029 -0.31032982847088841 0 -0.0185119813334658 -0.28327625011988139 0 0.0019518825097332619 -0.30029273945570772 0 -0.0185119813334658 -0.28327625011988139 0 -0.0020851015340006161 -0.28052611142458661 0 0.0019518825097332619 -0.30029273945570772 0 -0.014390974368570029 -0.31032982847088841 0 -0.0185119813334658 -0.28327625011988139 0 -0.036942597034766073 -0.27265489088473938 0 -0.0185119813334658 -0.28327625011988139 0 -0.029413390480137139 -0.26518294325465769 0 -0.0185119813334658 -0.28327625011988139 0 -0.02263298829836323 -0.25622267176887481 0 -0.029413390480137139 -0.26518294325465769 0 -0.0185119813334658 -0.28327625011988139 0 -0.02263298829836323 -0.25622267176887481 0 -0.0185119813334658 -0.28327625011988139 0 -0.0093077836028632385 -0.27105033158696179 0 -0.02263298829836323 -0.25622267176887481 0 -0.0185119813334658 -0.28327625011988139 0 -0.0020851015340006161 -0.28052611142458661 0 -0.0093077836028632385 -0.27105033158696179 0 -0.0020851015340006161 -0.28052611142458661 0 -0.0093077836028632385 -0.27105033158696179 0 0.0055944649301708496 -0.26664830233551728 0 -0.014059514610042069 -0.25416210053859828 0 -0.02263298829836323 -0.25622267176887481 0 0.0055944649301708496 -0.26664830233551728 0 -0.0093077836028632385 -0.27105033158696179 0 -0.02263298829836323 -0.25622267176887481 0 0.0055944649301708496 -0.26664830233551728 0 -0.02263298829836323 -0.25622267176887481 0 0.0055944649301708496 -0.26664830233551728 0 -0.014059514610042069 -0.25416210053859828 0 -0.0080727856436109482 -0.2481099565327444 0 0.0055944649301708496 -0.26664830233551728 0 -0.014059514610042069 -0.25416210053859828 0 -0.01887874476148543 -0.24814250919209771 0 -0.0080727856436109482 -0.2481099565327444 0 -0.014059514610042069 -0.25416210053859828 0 -0.02263298829836323 -0.25622267176887481 0 -0.02285766608625657 -0.25474770747244752 0 -0.014059514610042069 -0.25416210053859828 0 -0.02285766608625657 -0.25474770747244752 0 -0.01887874476148543 -0.24814250919209771 0 -0.02285766608625657 -0.25474770747244752 0 -0.026067501294639708 -0.24850247980592871 0 -0.01887874476148543 -0.24814250919209771 0 -0.02263298829836323 -0.25622267176887481 0 -0.02285766608625657 -0.25474770747244752 0 -0.02263298829836323 -0.25622267176887481 0 -0.029413390480137139 -0.26518294325465769 0 -0.03064478186574425 -0.25326356670072259 0 -0.02263298829836323 -0.25622267176887481 0 -0.03064478186574425 -0.25326356670072259 0 -0.02263298829836323 -0.25622267176887481 0 -0.02285766608625657 -0.25474770747244752 0 -0.03064478186574425 -0.25326356670072259 0 -0.02285766608625657 -0.25474770747244752 0 -0.03064478186574425 -0.25326356670072259 0 -0.026067501294639708 -0.24850247980592871 0 -0.040780788735907937 -0.34809370153295588 0 -0.035070660285960877 -0.35841379707961513 0 -0.051335308585544609 -0.35442186843706669 0 -0.040780788735907937 -0.34809370153295588 0 -0.033802973987086503 -0.33588719504380232 0 -0.029167969020145641 -0.35132386348016093 0 -0.040780788735907937 -0.34809370153295588 0 -0.035070660285960877 -0.35841379707961513 0 -0.029167969020145641 -0.35132386348016093 0 -0.035070660285960877 -0.35841379707961513 0 -0.040000350022935588 -0.37213681664196291 0 -0.021437446366364531 -0.36359117576668931 0 -0.035070660285960877 -0.35841379707961513 0 -0.058387822440418388 -0.36975607908058028 0 -0.035070660285960877 -0.35841379707961513 0 -0.040000350022935588 -0.37213681664196291 0 -0.058387822440418388 -0.36975607908058028 0 -0.040000350022935588 -0.37213681664196291 0 -0.058387822440418388 -0.36975607908058028 0 -0.058563253679506787 -0.38068245751723601 0 -0.035070660285960877 -0.35841379707961513 0 -0.058387822440418388 -0.36975607908058028 0 -0.051335308585544609 -0.35442186843706669 0 -0.066522813126512412 -0.35680227137673098 0 -0.058387822440418388 -0.36975607908058028 0 -0.051335308585544609 -0.35442186843706669 0 -0.066522813126512412 -0.35680227137673098 0 -0.051335308585544609 -0.35442186843706669 0 -0.054527031800802053 -0.34042178362413461 0 -0.040780788735907937 -0.34809370153295588 0 -0.051335308585544609 -0.35442186843706669 0 -0.054527031800802053 -0.34042178362413461 0 -0.066882954587322394 -0.32486941793266988 0 -0.054527031800802053 -0.34042178362413461 0 -0.05424539878688571 -0.319762651601179 0 -0.054527031800802053 -0.34042178362413461 0 -0.05424539878688571 -0.319762651601179 0 -0.033802973987086503 -0.33588719504380232 0 -0.05424539878688571 -0.319762651601179 0 -0.039668382727836717 -0.32560359559526031 0 -0.05424539878688571 -0.319762651601179 0 -0.033802973987086503 -0.33588719504380232 0 -0.037889090671270123 -0.30900677381518998 0 -0.025091366668787349 -0.3314445395893405 0 -0.05424539878688571 -0.319762651601179 0 -0.039668382727836717 -0.32560359559526031 0 -0.033802973987086503 -0.33588719504380232 0 -0.037889090671270123 -0.30900677381518998 0 -0.05424539878688571 -0.319762651601179 0 -0.039668382727836717 -0.32560359559526031 0 -0.037889090671270123 -0.30900677381518998 0 -0.039668382727836717 -0.32560359559526031 0 -0.025091366668787349 -0.3314445395893405 0 -0.040780788735907937 -0.34809370153295588 0 -0.054527031800802053 -0.34042178362413461 0 -0.033802973987086503 -0.33588719504380232 0 -0.039668382727836717 -0.32560359559526031 0 -0.025091366668787349 -0.3314445395893405 0 -0.039668382727836717 -0.32560359559526031 0 -0.033802973987086503 -0.33588719504380232 0 -0.025091366668787349 -0.3314445395893405 0 -0.025091366668787349 -0.3314445395893405 0 -0.01336054918728761 -0.35201173848642592 0 -0.033802973987086503 -0.33588719504380232 0 -0.025091366668787349 -0.3314445395893405 0 -0.01336054918728761 -0.35201173848642592 0 -0.025091366668787349 -0.3314445395893405 0 -0.01532372128421448 -0.33535839064186268 0 -0.01336054918728761 -0.35201173848642592 0 -0.025091366668787349 -0.3314445395893405 0 -0.022734703789933738 -0.32728556430890232 0 -0.01532372128421448 -0.33535839064186268 0 -0.025091366668787349 -0.3314445395893405 0 -0.01532372128421448 -0.33535839064186268 0 -0.022734703789933738 -0.32728556430890232 0 -0.01532372128421448 -0.33535839064186268 0 -0.037889090671270123 -0.30900677381518998 0 -0.014390974368570029 -0.31032982847088841 0 -0.022734703789933738 -0.32728556430890232 0 -0.037889090671270123 -0.30900677381518998 0 -0.025091366668787349 -0.3314445395893405 0 -0.022734703789933738 -0.32728556430890232 0 -0.014390974368570029 -0.31032982847088841 0 -0.022734703789933738 -0.32728556430890232 0 -0.01532372128421448 -0.33535839064186268 0 -0.014390974368570029 -0.31032982847088841 0 -0.010269967403673339 -0.33738340682189533 0 -0.014390974368570029 -0.31032982847088841 0 -0.010269967403673339 -0.33738340682189533 0 -0.01532372128421448 -0.33535839064186268 0 -0.014390974368570029 -0.31032982847088841 0 -0.010269967403673339 -0.33738340682189533 0 0.001904989571353899 -0.32214434476741449 0 -0.010269967403673339 -0.33738340682189533 0 -0.0096343958099064687 -0.34155580596031437 0 0.0075807645751098419 -0.34453611388615663 0 -0.010269967403673339 -0.33738340682189533 0 0.0075807645751098419 -0.34453611388615663 0 -0.0096343958099064687 -0.34155580596031437 0 -0.01532372128421448 -0.33535839064186268 0 -0.01336054918728761 -0.35201173848642592 0 -0.010269967403673339 -0.33738340682189533 0 -0.0096343958099064687 -0.34155580596031437 0 -0.010269967403673339 -0.33738340682189533 0 -0.0096343958099064687 -0.34155580596031437 0 -0.01532372128421448 -0.33535839064186268 0 -0.0096343958099064687 -0.34155580596031437 0 -0.01532372128421448 -0.33535839064186268 0 -0.010269967403673339 -0.33738340682189533 0 -0.01532372128421448 -0.33535839064186268 0 -0.010269967403673339 -0.33738340682189533 0 0.0034794820758208261 -0.33361449123698089 0 0.001904989571353899 -0.32214434476741449 0 -0.0096343958099064687 -0.34155580596031437 0 -0.0070150904897389628 -0.35875101633193152 0 -0.0096343958099064687 -0.34155580596031437 0 -0.0070150904897389628 -0.35875101633193152 0 -0.01336054918728761 -0.35201173848642592 0 -0.0096343958099064687 -0.34155580596031437 0 -0.0070150904897389628 -0.35875101633193152 0 0.0099352179383349771 -0.36287309999936251 0 -0.033802973987086503 -0.33588719504380232 0 -0.01336054918728761 -0.35201173848642592 0 -0.029167969020145641 -0.35132386348016093 0 -0.01336054918728761 -0.35201173848642592 0 -0.029167969020145641 -0.35132386348016093 0 -0.021437446366364531 -0.36359117576668931 0 -0.033802973987086503 -0.33588719504380232 0 -0.01336054918728761 -0.35201173848642592 0 -0.035070660285960877 -0.35841379707961513 0 -0.029167969020145641 -0.35132386348016093 0 -0.021437446366364531 -0.36359117576668931 0 -0.040000350022935588 -0.37213681664196291 0 -0.021437446366364531 -0.36359117576668931 0 -0.02618172091304426 -0.37743656618445498 0 -0.021437446366364531 -0.36359117576668931 0 -0.002178803782163227 -0.37161627006544062 0 -0.02618172091304426 -0.37743656618445498 0 -0.040000350022935588 -0.37213681664196291 0 -0.021437446366364531 -0.36359117576668931 0 -0.01336054918728761 -0.35201173848642592 0 -0.021437446366364531 -0.36359117576668931 0 -0.002178803782163227 -0.37161627006544062 0 -0.01336054918728761 -0.35201173848642592 0 -0.002178803782163227 -0.37161627006544062 0 -0.0070150904897389628 -0.35875101633193152 0 -0.01336054918728761 -0.35201173848642592 0 -0.002178803782163227 -0.37161627006544062 0 -0.002178803782163227 -0.37161627006544062 0 -0.026336278995230201 -0.38905167830789189 0 -0.002178803782163227 -0.37161627006544062 0 -0.0066930742226519926 -0.39143820132839208 0 -0.026336278995230201 -0.38905167830789189 0 -0.0066930742226519926 -0.39143820132839208 0 -0.001728596279610697 -0.40597762003102339 0 -0.017737199096442072 -0.40073047040120602 0 -0.0066930742226519926 -0.39143820132839208 0 -0.017737199096442072 -0.40073047040120602 0 -0.026336278995230201 -0.38905167830789189 0 -0.017737199096442072 -0.40073047040120602 0 -0.026336278995230201 -0.38905167830789189 0 -0.033287388117186109 -0.40399871831440642 0 -0.002178803782163227 -0.37161627006544062 0 -0.026336278995230201 -0.38905167830789189 0 -0.02618172091304426 -0.37743656618445498 0 -0.026336278995230201 -0.38905167830789189 0 -0.02618172091304426 -0.37743656618445498 0 -0.033482850758781962 -0.383939184607547 0 -0.02618172091304426 -0.37743656618445498 0 -0.042372487296275553 -0.37905951185084519 0 -0.033482850758781962 -0.383939184607547 0 -0.02618172091304426 -0.37743656618445498 0 -0.042372487296275553 -0.37905951185084519 0 -0.040000350022935588 -0.37213681664196291 0 -0.02618172091304426 -0.37743656618445498 0 -0.042372487296275553 -0.37905951185084519 0 -0.042372487296275553 -0.37905951185084519 0 -0.039040915830577852 -0.39020898208699611 0 -0.049048127186911553 -0.38756594990863991 0 -0.042372487296275553 -0.37905951185084519 0 -0.039040915830577852 -0.39020898208699611 0 -0.033482850758781962 -0.383939184607547 0 -0.026336278995230201 -0.38905167830789189 0 -0.039040915830577852 -0.39020898208699611 0 -0.033482850758781962 -0.383939184607547 0 -0.026336278995230201 -0.38905167830789189 0 -0.050493754208297943 -0.40648708655034188 0 -0.039040915830577852 -0.39020898208699611 0 -0.048181286987745188 -0.3967611761759377 0 -0.050493754208297943 -0.40648708655034188 0 -0.026336278995230201 -0.38905167830789189 0 -0.039040915830577852 -0.39020898208699611 0 -0.050493754208297943 -0.40648708655034188 0 -0.026336278995230201 -0.38905167830789189 0 -0.033287388117186109 -0.40399871831440642 0 -0.050493754208297943 -0.40648708655034188 0 -0.039040915830577852 -0.39020898208699611 0 -0.048181286987745188 -0.3967611761759377 0 -0.049048127186911553 -0.38756594990863991 0 -0.048181286987745188 -0.3967611761759377 0 -0.055512870853615448 -0.39455951290216967 0 -0.049048127186911553 -0.38756594990863991 0 -0.055512870853615448 -0.39455951290216967 0 -0.052509649903146327 -0.40794203844841681 0 -0.074281153156084773 -0.38791836881244668 0 -0.048181286987745188 -0.3967611761759377 0 -0.055512870853615448 -0.39455951290216967 0 -0.050493754208297943 -0.40648708655034188 0 -0.055512870853615448 -0.39455951290216967 0 -0.052509649903146327 -0.40794203844841681 0 -0.050493754208297943 -0.40648708655034188 0 -0.048181286987745188 -0.3967611761759377 0 -0.050493754208297943 -0.40648708655034188 0 -0.040000350022935588 -0.37213681664196291 0 -0.042372487296275553 -0.37905951185084519 0 -0.058563253679506787 -0.38068245751723601 0 -0.042372487296275553 -0.37905951185084519 0 -0.058563253679506787 -0.38068245751723601 0 -0.040000350022935588 -0.37213681664196291 0 -0.058563253679506787 -0.38068245751723601 0 -0.042372487296275553 -0.37905951185084519 0 -0.058563253679506787 -0.38068245751723601 0 -0.049048127186911553 -0.38756594990863991 0 -0.055512870853615448 -0.39455951290216967 0 -0.058563253679506787 -0.38068245751723601 0 -0.049048127186911553 -0.38756594990863991 0 -0.055571169944573007 -0.4278419796903028 0 -0.060002998013559863 -0.44648162232419802 0 -0.069408814394604765 -0.42365151461769918 0 -0.055571169944573007 -0.4278419796903028 0 -0.060002998013559863 -0.44648162232419802 0 -0.055571169944573007 -0.4278419796903028 0 -0.04142135733128624 -0.43391233418184683 0 -0.048623679129421588 -0.44273110985945369 0 -0.055571169944573007 -0.4278419796903028 0 -0.059775586818595829 -0.41787661413097049 0 -0.069408814394604765 -0.42365151461769918 0 -0.055571169944573007 -0.4278419796903028 0 -0.059775586818595829 -0.41787661413097049 0 -0.052509649903146327 -0.40794203844841681 0 -0.055571169944573007 -0.4278419796903028 0 -0.052509649903146327 -0.40794203844841681 0 -0.038621424185474637 -0.4207153063468223 0 -0.055571169944573007 -0.4278419796903028 0 -0.052509649903146327 -0.40794203844841681 0 -0.052509649903146327 -0.40794203844841681 0 -0.070248957975066639 -0.42074520084202788 0 -0.059775586818595829 -0.41787661413097049 0 -0.052509649903146327 -0.40794203844841681 0 -0.070248957975066639 -0.42074520084202788 0 -0.052509649903146327 -0.40794203844841681 0 -0.050493754208297943 -0.40648708655034188 0 -0.041470954428671609 -0.41006675355118111 0 -0.052509649903146327 -0.40794203844841681 0 -0.050493754208297943 -0.40648708655034188 0 -0.052509649903146327 -0.40794203844841681 0 -0.038621424185474637 -0.4207153063468223 0 -0.033287388117186109 -0.40399871831440642 0 -0.050493754208297943 -0.40648708655034188 0 -0.041470954428671609 -0.41006675355118111 0 -0.052509649903146327 -0.40794203844841681 0 -0.041470954428671609 -0.41006675355118111 0 -0.038621424185474637 -0.4207153063468223 0 -0.033287388117186109 -0.40399871831440642 0 -0.041470954428671609 -0.41006675355118111 0 -0.027792962261932352 -0.41547375898907968 0 -0.041470954428671609 -0.41006675355118111 0 -0.038621424185474637 -0.4207153063468223 0 -0.027792962261932352 -0.41547375898907968 0 -0.055571169944573007 -0.4278419796903028 0 -0.038621424185474637 -0.4207153063468223 0 -0.04142135733128624 -0.43391233418184683 0 -0.038621424185474637 -0.4207153063468223 0 -0.026103506495360269 -0.43222827563723731 0 -0.038621424185474637 -0.4207153063468223 0 -0.04142135733128624 -0.43391233418184683 0 -0.026103506495360269 -0.43222827563723731 0 -0.04142135733128624 -0.43391233418184683 0 -0.026103506495360269 -0.43222827563723731 0 -0.035662081446574762 -0.44437129177822371 0 -0.026103506495360269 -0.43222827563723731 0 -0.027792962261932352 -0.41547375898907968 0 -0.009537301248459449 -0.42510302968362512 0 -0.026103506495360269 -0.43222827563723731 0 -0.009537301248459449 -0.42510302968362512 0 -0.019709463090837601 -0.44530454005801179 0 -0.038621424185474637 -0.4207153063468223 0 -0.026103506495360269 -0.43222827563723731 0 -0.027792962261932352 -0.41547375898907968 0 -0.017737199096442072 -0.40073047040120602 0 -0.027792962261932352 -0.41547375898907968 0 -0.009537301248459449 -0.42510302968362512 0 -0.017737199096442072 -0.40073047040120602 0 -0.033287388117186109 -0.40399871831440642 0 -0.027792962261932352 -0.41547375898907968 0 -0.001728596279610697 -0.40597762003102339 0 -0.017737199096442072 -0.40073047040120602 0 -0.009537301248459449 -0.42510302968362512 0 -0.017737199096442072 -0.40073047040120602 0 -0.009537301248459449 -0.42510302968362512 0 -0.001728596279610697 -0.40597762003102339 0 -0.009537301248459449 -0.42510302968362512 0 0.0082246319185010179 -0.41465428951275207 0 -0.009537301248459449 -0.42510302968362512 0 -0.0013374034004768371 -0.44947558896604423 0 -0.009537301248459449 -0.42510302968362512 0 -0.0013374034004768371 -0.44947558896604423 0 0.01039378864355619 -0.42848339288335913 0 -0.009537301248459449 -0.42510302968362512 0 -0.0013374034004768371 -0.44947558896604423 0 -0.019709463090837601 -0.44530454005801179 0 -0.0013374034004768371 -0.44947558896604423 0 -0.014612752260004851 -0.46155177919014362 0 -0.019709463090837601 -0.44530454005801179 0 -0.0013374034004768371 -0.44947558896604423 0 -0.014612752260004851 -0.46155177919014362 0 0.0068624944475057766 -0.47384814824846327 0 -0.014612752260004851 -0.46155177919014362 0 -0.028521420705905499 -0.4674310816654948 0 -0.030789477839635839 -0.45543267362212791 0 -0.014612752260004851 -0.46155177919014362 0 -0.030789477839635839 -0.45543267362212791 0 -0.019709463090837601 -0.44530454005801179 0 -0.030789477839635839 -0.45543267362212791 0 -0.019709463090837601 -0.44530454005801179 0 -0.035662081446574762 -0.44437129177822371 0 -0.026103506495360269 -0.43222827563723731 0 -0.019709463090837601 -0.44530454005801179 0 -0.035662081446574762 -0.44437129177822371 0 -0.015217900669161011 -0.5 0 -0.01418124297067914 -0.47781864258071971 0 0.0024053695883212941 -0.48891336768777249 0 -0.01418124297067914 -0.47781864258071971 0 0.0068624944475057766 -0.47384814824846327 0 0.0024053695883212941 -0.48891336768777249 0 -0.014612752260004851 -0.46155177919014362 0 -0.01418124297067914 -0.47781864258071971 0 0.0068624944475057766 -0.47384814824846327 0 -0.014612752260004851 -0.46155177919014362 0 -0.028521420705905499 -0.4674310816654948 0 -0.01418124297067914 -0.47781864258071971 0 -0.028521420705905499 -0.4674310816654948 0 -0.01418124297067914 -0.47781864258071971 0 -0.027752274071966478 -0.47742461628286209 0 -0.015217900669161011 -0.5 0 -0.027752274071966478 -0.47742461628286209 0 -0.038171784631523778 -0.48284131767108018 0 -0.015217900669161011 -0.5 0 -0.01418124297067914 -0.47781864258071971 0 -0.027752274071966478 -0.47742461628286209 0 -0.015217900669161011 -0.5 0 -0.043972809743024373 -0.5 0 -0.038171784631523778 -0.48284131767108018 0 -0.043972809743024373 -0.5 0 -0.038171784631523778 -0.48284131767108018 0 -0.049841179956411519 -0.48183723669954598 0 -0.038171784631523778 -0.48284131767108018 0 -0.048675315621036823 -0.47094071089761919 0 -0.038171784631523778 -0.48284131767108018 0 -0.048675315621036823 -0.47094071089761919 0 -0.049841179956411519 -0.48183723669954598 0 -0.027752274071966478 -0.47742461628286209 0 -0.038171784631523778 -0.48284131767108018 0 -0.038764373548703768 -0.47063519779216179 0 -0.028521420705905499 -0.4674310816654948 0 -0.027752274071966478 -0.47742461628286209 0 -0.038764373548703768 -0.47063519779216179 0 -0.038764373548703768 -0.47063519779216179 0 -0.048675315621036823 -0.47094071089761919 0 -0.045335619097383061 -0.46570514195792412 0 -0.038171784631523778 -0.48284131767108018 0 -0.038764373548703768 -0.47063519779216179 0 -0.048675315621036823 -0.47094071089761919 0 -0.048675315621036823 -0.47094071089761919 0 -0.055120034750126161 -0.47128965669693351 0 -0.049841179956411519 -0.48183723669954598 0 -0.048675315621036823 -0.47094071089761919 0 -0.055120034750126161 -0.47128965669693351 0 -0.057384894248553399 -0.46524593439390849 0 -0.055120034750126161 -0.47128965669693351 0 -0.059149819292987238 -0.47777467248794547 0 -0.064422500494955764 -0.4650694252783244 0 -0.059149819292987238 -0.47777467248794547 0 -0.049841179956411519 -0.48183723669954598 0 -0.058853327493046781 -0.48842932436532971 0 -0.055120034750126161 -0.47128965669693351 0 -0.059149819292987238 -0.47777467248794547 0 -0.049841179956411519 -0.48183723669954598 0 -0.059149819292987238 -0.47777467248794547 0 -0.058853327493046781 -0.48842932436532971 0 -0.068575109655922298 -0.48253471263916042 0 -0.043972809743024373 -0.5 0 -0.058853327493046781 -0.48842932436532971 0 -0.072727718816887776 -0.49999999999999672 0 -0.043972809743024373 -0.5 0 -0.049841179956411519 -0.48183723669954598 0 -0.058853327493046781 -0.48842932436532971 0 -0.045123684251444827 -0.45223268167437758 0 -0.035662081446574762 -0.44437129177822371 0 -0.048623679129421588 -0.44273110985945369 0 -0.04142135733128624 -0.43391233418184683 0 -0.035662081446574762 -0.44437129177822371 0 -0.048623679129421588 -0.44273110985945369 0 -0.030789477839635839 -0.45543267362212791 0 -0.045123684251444827 -0.45223268167437758 0 -0.035662081446574762 -0.44437129177822371 0 -0.030789477839635839 -0.45543267362212791 0 -0.045123684251444827 -0.45223268167437758 0 -0.04007978340352341 -0.46172459869688548 0 -0.028521420705905499 -0.4674310816654948 0 -0.030789477839635839 -0.45543267362212791 0 -0.04007978340352341 -0.46172459869688548 0 -0.028521420705905499 -0.4674310816654948 0 -0.038764373548703768 -0.47063519779216179 0 -0.04007978340352341 -0.46172459869688548 0 -0.038764373548703768 -0.47063519779216179 0 -0.04007978340352341 -0.46172459869688548 0 -0.045335619097383061 -0.46570514195792412 0 -0.04007978340352341 -0.46172459869688548 0 -0.045335619097383061 -0.46570514195792412 0 -0.047248161051959649 -0.4591011094540644 0 -0.045123684251444827 -0.45223268167437758 0 -0.04007978340352341 -0.46172459869688548 0 -0.047248161051959649 -0.4591011094540644 0 -0.045123684251444827 -0.45223268167437758 0 -0.050581796861615229 -0.45333412325219669 0 -0.047248161051959649 -0.4591011094540644 0 -0.050581796861615229 -0.45333412325219669 0 -0.047248161051959649 -0.4591011094540644 0 -0.051910461861691633 -0.46612409294888979 0 -0.051910461861691633 -0.46612409294888979 0 -0.05917884661055 -0.4590401041241583 0 -0.060002998013559863 -0.44648162232419802 0 -0.051910461861691633 -0.46612409294888979 0 -0.060002998013559863 -0.44648162232419802 0 -0.050581796861615229 -0.45333412325219669 0 -0.051910461861691633 -0.46612409294888979 0 -0.060002998013559863 -0.44648162232419802 0 -0.048675315621036823 -0.47094071089761919 0 -0.05917884661055 -0.4590401041241583 0 -0.048675315621036823 -0.47094071089761919 0 -0.051910461861691633 -0.46612409294888979 0 -0.05917884661055 -0.4590401041241583 0 -0.048675315621036823 -0.47094071089761919 0 -0.045335619097383061 -0.46570514195792412 0 -0.051910461861691633 -0.46612409294888979 0 -0.045335619097383061 -0.46570514195792412 0 -0.047248161051959649 -0.4591011094540644 0 -0.051910461861691633 -0.46612409294888979 0 -0.055120034750126161 -0.47128965669693351 0 -0.057384894248553399 -0.46524593439390849 0 -0.064422500494955764 -0.4650694252783244 0 -0.048675315621036823 -0.47094071089761919 0 -0.057384894248553399 -0.46524593439390849 0 -0.05917884661055 -0.4590401041241583 0 -0.057384894248553399 -0.46524593439390849 0 -0.05917884661055 -0.4590401041241583 0 -0.059237257045792073 -0.46090013765886428 0 -0.064422500494955764 -0.4650694252783244 0 -0.057384894248553399 -0.46524593439390849 0 -0.059237257045792073 -0.46090013765886428 0 -0.064422500494955764 -0.4650694252783244 0 -0.057384894248553399 -0.46524593439390849 0 -0.059237257045792073 -0.46090013765886428 0 -0.05917884661055 -0.4590401041241583 0 -0.059237257045792073 -0.46090013765886428 0 -0.062180371227510647 -0.45563934639583059 0 -0.064422500494955764 -0.4650694252783244 0 -0.059237257045792073 -0.46090013765886428 0 -0.05917884661055 -0.4590401041241583 0 -0.062180371227510647 -0.45563934639583059 0 -0.05917884661055 -0.4590401041241583 0 -0.062180371227510647 -0.45563934639583059 0 -0.05917884661055 -0.4590401041241583 0 -0.061269440441321127 -0.45180810022505591 0 -0.05917884661055 -0.4590401041241583 0 -0.062180371227510647 -0.45563934639583059 0 -0.061269440441321127 -0.45180810022505591 0 -0.062180371227510647 -0.45563934639583059 0 -0.061269440441321127 -0.45180810022505591 0 -0.055571169944573007 -0.4278419796903028 0 -0.060002998013559863 -0.44648162232419802 0 -0.048623679129421588 -0.44273110985945369 0 -0.05917884661055 -0.4590401041241583 0 -0.061269440441321127 -0.45180810022505591 0 -0.060002998013559863 -0.44648162232419802 0 -0.061269440441321127 -0.45180810022505591 0 -0.060002998013559863 -0.44648162232419802 0 -0.050581796861615229 -0.45333412325219669 0 -0.060002998013559863 -0.44648162232419802 0 -0.048623679129421588 -0.44273110985945369 0 -0.045123684251444827 -0.45223268167437758 0 -0.050581796861615229 -0.45333412325219669 0 -0.048623679129421588 -0.44273110985945369 0 -0.061269440441321127 -0.45180810022505591 0 -0.069408814394604765 -0.42365151461769918 0 -0.062180371227510647 -0.45563934639583059 0 -0.061269440441321127 -0.45180810022505591 0 -0.077098496045509793 -0.43873696019506903 0 -0.062180371227510647 -0.45563934639583059 0 -0.077098496045509793 -0.43873696019506903 0 -0.073769461018799692 -0.45951707792468061 0 -0.061269440441321127 -0.45180810022505591 0 -0.077098496045509793 -0.43873696019506903 0 -0.069408814394604765 -0.42365151461769918 0 -0.061269440441321127 -0.45180810022505591 0 -0.060002998013559863 -0.44648162232419802 0 -0.069408814394604765 -0.42365151461769918 0 -0.062180371227510647 -0.45563934639583059 0 -0.077098496045509793 -0.43873696019506903 0 -0.062180371227510647 -0.45563934639583059 0 -0.064422500494955764 -0.4650694252783244 0 -0.062180371227510647 -0.45563934639583059 0 -0.064422500494955764 -0.4650694252783244 0 -0.073769461018799692 -0.45951707792468061 0 -0.084521355142842869 -0.45759592347480388 0 -0.086143661312174283 -0.48253471263916248 0 -0.099165393688022629 -0.46120376842987459 0 -0.073769461018799692 -0.45951707792468061 0 -0.084521355142842869 -0.45759592347480388 0 -0.086143661312174283 -0.48253471263916248 0 -0.084521355142842869 -0.45759592347480388 0 -0.089624247433654214 -0.44685599598904568 0 -0.099165393688022629 -0.46120376842987459 0 -0.077098496045509793 -0.43873696019506903 0 -0.084521355142842869 -0.45759592347480388 0 -0.089624247433654214 -0.44685599598904568 0 -0.077098496045509793 -0.43873696019506903 0 -0.073769461018799692 -0.45951707792468061 0 -0.084521355142842869 -0.45759592347480388 0 -0.089624247433654214 -0.44685599598904568 0 -0.099878095611554862 -0.4393977270813314 0 -0.089545628933694749 -0.43673796215895883 0 -0.077098496045509793 -0.43873696019506903 0 -0.089624247433654214 -0.44685599598904568 0 -0.089545628933694749 -0.43673796215895883 0 -0.072727718816887776 -0.49999999999999672 0 -0.068575109655922298 -0.48253471263916042 0 -0.058853327493046781 -0.48842932436532971 0 -0.072727718816887776 -0.49999999999999672 0 -0.068575109655922298 -0.48253471263916042 0 -0.072727718816887776 -0.49999999999999672 0 -0.068575109655922298 -0.48253471263916042 0 -0.086143661312174283 -0.48253471263916248 0 -0.064422500494955764 -0.4650694252783244 0 -0.068575109655922298 -0.48253471263916042 0 -0.059149819292987238 -0.47777467248794547 0 -0.064422500494955764 -0.4650694252783244 0 -0.068575109655922298 -0.48253471263916042 0 -0.064422500494955764 -0.4650694252783244 0 -0.073769461018799692 -0.45951707792468061 0 -0.086143661312174283 -0.48253471263916248 0 -0.064422500494955764 -0.4650694252783244 0 -0.068575109655922298 -0.48253471263916042 0 -0.086143661312174283 -0.48253471263916248 0 -0.064422500494955764 -0.4650694252783244 0 -0.086143661312174283 -0.48253471263916248 0 -0.072727718816887776 -0.49999999999999672 0 -0.086143661312174283 -0.48253471263916248 0 -0.090296270473140428 -0.5 0 -0.086143661312174283 -0.48253471263916248 0 -0.090296270473140428 -0.5 0 -0.10786482212939311 -0.50000000000000011 0 -0.086143661312174283 -0.48253471263916248 0 -0.10786482212939311 -0.50000000000000011 0 -0.086143661312174283 -0.48253471263916248 0 -0.10786482212939311 -0.50000000000000011 0 -0.1056577076014347 -0.47999846360012538 0 -0.086143661312174283 -0.48253471263916248 0 -0.1056577076014347 -0.47999846360012538 0 -0.099165393688022629 -0.46120376842987459 0 -0.1056577076014347 -0.47999846360012538 0 -0.12108079434187891 -0.47202921183540031 0 -0.099165393688022629 -0.46120376842987459 0 -0.1056577076014347 -0.47999846360012538 0 -0.12108079434187891 -0.47202921183540031 0 -0.1206292342060253 -0.48641385964910883 0 -0.131118449396015 -0.5 0 -0.10786482212939311 -0.50000000000000011 0 -0.1206292342060253 -0.48641385964910883 0 -0.10786482212939311 -0.50000000000000011 0 -0.1056577076014347 -0.47999846360012538 0 -0.1206292342060253 -0.48641385964910883 0 -0.099878095611554862 -0.4393977270813314 0 -0.099165393688022629 -0.46120376842987459 0 -0.099878095611554862 -0.4393977270813314 0 -0.099165393688022629 -0.46120376842987459 0 -0.11615585050415531 -0.45102464773050138 0 -0.089624247433654214 -0.44685599598904568 0 -0.099878095611554862 -0.4393977270813314 0 -0.099165393688022629 -0.46120376842987459 0 -0.12108079434187891 -0.47202921183540031 0 -0.099165393688022629 -0.46120376842987459 0 -0.11615585050415531 -0.45102464773050138 0 -0.13077987840644981 -0.46069854066347632 0 -0.12108079434187891 -0.47202921183540031 0 -0.11615585050415531 -0.45102464773050138 0 -0.13194602454298601 -0.43962244526902572 0 -0.11615585050415531 -0.45102464773050138 0 -0.1129403580353462 -0.43280081863281078 0 -0.099878095611554862 -0.4393977270813314 0 -0.11615585050415531 -0.45102464773050138 0 -0.1129403580353462 -0.43280081863281078 0 -0.13194602454298601 -0.43962244526902572 0 -0.1165997240041481 -0.41847011486561592 0 -0.13194602454298601 -0.43962244526902572 0 -0.1129403580353462 -0.43280081863281078 0 -0.1165997240041481 -0.41847011486561592 0 -0.1129403580353462 -0.43280081863281078 0 -0.1079125428112538 -0.41892639524425412 0 -0.1165997240041481 -0.41847011486561592 0 -0.099878095611554862 -0.4393977270813314 0 -0.100590797535087 -0.41759168573278821 0 -0.092016620863508841 -0.4218345739943074 0 -0.099878095611554862 -0.4393977270813314 0 -0.089545628933694749 -0.43673796215895883 0 -0.092016620863508841 -0.4218345739943074 0 -0.099878095611554862 -0.4393977270813314 0 -0.1129403580353462 -0.43280081863281078 0 -0.10283731640903 -0.42510314405888588 0 -0.099878095611554862 -0.4393977270813314 0 -0.100590797535087 -0.41759168573278821 0 -0.099878095611554862 -0.4393977270813314 0 -0.10283731640903 -0.42510314405888588 0 -0.100590797535087 -0.41759168573278821 0 -0.1129403580353462 -0.43280081863281078 0 -0.10283731640903 -0.42510314405888588 0 -0.1079125428112538 -0.41892639524425412 0 -0.100590797535087 -0.41759168573278821 0 -0.1012534234653099 -0.39731778446220639 0 -0.1165997240041481 -0.41847011486561592 0 -0.1012534234653099 -0.39731778446220639 0 -0.100590797535087 -0.41759168573278821 0 -0.094499944748829334 -0.39722631626938482 0 -0.088610052547492879 -0.41006814396079783 0 -0.100590797535087 -0.41759168573278821 0 -0.1079125428112538 -0.41892639524425412 0 -0.1012534234653099 -0.39731778446220639 0 -0.100590797535087 -0.41759168573278821 0 -0.094499944748829334 -0.39722631626938482 0 -0.1079125428112538 -0.41892639524425412 0 -0.1165997240041481 -0.41847011486561592 0 -0.1012534234653099 -0.39731778446220639 0 -0.10283731640903 -0.42510314405888588 0 -0.100590797535087 -0.41759168573278821 0 -0.1079125428112538 -0.41892639524425412 0 -0.10283731640903 -0.42510314405888588 0 -0.100590797535087 -0.41759168573278821 0 -0.12592730430259419 -0.40432488328170318 0 -0.1165997240041481 -0.41847011486561592 0 -0.1152538145686829 -0.39895411709426332 0 -0.1165997240041481 -0.41847011486561592 0 -0.1152538145686829 -0.39895411709426332 0 -0.1012534234653099 -0.39731778446220639 0 -0.12526638733901391 -0.39147447277512609 0 -0.12592730430259419 -0.40432488328170318 0 -0.1152538145686829 -0.39895411709426332 0 -0.12526638733901391 -0.39147447277512609 0 -0.1152538145686829 -0.39895411709426332 0 -0.1147112201852714 -0.38836266809632891 0 -0.1152538145686829 -0.39895411709426332 0 -0.1147112201852714 -0.38836266809632891 0 -0.1077648281157602 -0.39377477908459929 0 -0.12526638733901391 -0.39147447277512609 0 -0.12201267174342199 -0.37938718301114999 0 -0.1147112201852714 -0.38836266809632891 0 -0.1147112201852714 -0.38836266809632891 0 -0.1094440337948836 -0.37923577087639421 0 -0.1073228884697877 -0.3875649225559597 0 -0.1147112201852714 -0.38836266809632891 0 -0.1073228884697877 -0.3875649225559597 0 -0.1077648281157602 -0.39377477908459929 0 -0.12201267174342199 -0.37938718301114999 0 -0.1147112201852714 -0.38836266809632891 0 -0.1094440337948836 -0.37923577087639421 0 -0.1159926709000937 -0.36685414663024191 0 -0.12201267174342199 -0.37938718301114999 0 -0.1094440337948836 -0.37923577087639421 0 -0.1024060606807759 -0.36205135125861898 0 -0.1094440337948836 -0.37923577087639421 0 -0.1016559479587178 -0.38500202459504551 0 -0.1094440337948836 -0.37923577087639421 0 -0.1016559479587178 -0.38500202459504551 0 -0.1073228884697877 -0.3875649225559597 0 -0.1016559479587178 -0.38500202459504551 0 -0.1014693111655476 -0.390712419775258 0 -0.1016559479587178 -0.38500202459504551 0 -0.1073228884697877 -0.3875649225559597 0 -0.1014693111655476 -0.390712419775258 0 -0.1016559479587178 -0.38500202459504551 0 -0.091585827134305964 -0.3839926061052007 0 -0.1016559479587178 -0.38500202459504551 0 -0.1014693111655476 -0.390712419775258 0 -0.093729726096669103 -0.3869476153003294 0 -0.1016559479587178 -0.38500202459504551 0 -0.091585827134305964 -0.3839926061052007 0 -0.093729726096669103 -0.3869476153003294 0 -0.1014693111655476 -0.390712419775258 0 -0.093729726096669103 -0.3869476153003294 0 -0.1016559479587178 -0.38500202459504551 0 -0.095426438310298192 -0.37780241062099151 0 -0.091585827134305964 -0.3839926061052007 0 -0.100590797535087 -0.41759168573278821 0 -0.1012534234653099 -0.39731778446220639 0 -0.099487365185966847 -0.39952233119993291 0 -0.100590797535087 -0.41759168573278821 0 -0.094499944748829334 -0.39722631626938482 0 -0.099487365185966847 -0.39952233119993291 0 -0.1152538145686829 -0.39895411709426332 0 -0.1077648281157602 -0.39377477908459929 0 -0.1012534234653099 -0.39731778446220639 0 -0.1073228884697877 -0.3875649225559597 0 -0.1077648281157602 -0.39377477908459929 0 -0.1014693111655476 -0.390712419775258 0 -0.1077648281157602 -0.39377477908459929 0 -0.1012534234653099 -0.39731778446220639 0 -0.1014693111655476 -0.390712419775258 0 -0.1077648281157602 -0.39377477908459929 0 -0.1014693111655476 -0.390712419775258 0 -0.1012534234653099 -0.39731778446220639 0 -0.094499944748829334 -0.39722631626938482 0 -0.099487365185966847 -0.39952233119993291 0 -0.1012534234653099 -0.39731778446220639 0 -0.094499944748829334 -0.39722631626938482 0 -0.093729726096669103 -0.3869476153003294 0 -0.1012534234653099 -0.39731778446220639 0 -0.1014693111655476 -0.390712419775258 0 -0.093729726096669103 -0.3869476153003294 0 -0.1012534234653099 -0.39731778446220639 0 -0.093729726096669103 -0.3869476153003294 0 -0.1012534234653099 -0.39731778446220639 0 -0.1014693111655476 -0.390712419775258 0 -0.094499944748829334 -0.39722631626938482 0 -0.099487365185966847 -0.39952233119993291 0 -0.094499944748829334 -0.39722631626938482 0 -0.085553154766675646 -0.40134027138503481 0 -0.088610052547492879 -0.41006814396079783 0 -0.094499944748829334 -0.39722631626938482 0 -0.082560309743270749 -0.39172977139542609 0 -0.085553154766675646 -0.40134027138503481 0 -0.094499944748829334 -0.39722631626938482 0 -0.082560309743270749 -0.39172977139542609 0 -0.091033556626635648 -0.38563610430902873 0 -0.094499944748829334 -0.39722631626938482 0 -0.082560309743270749 -0.39172977139542609 0 -0.094499944748829334 -0.39722631626938482 0 -0.091033556626635648 -0.38563610430902873 0 -0.082560309743270749 -0.39172977139542609 0 -0.079097438192195432 -0.39013559964190198 0 -0.074673198083630793 -0.40544040024196493 0 -0.082560309743270749 -0.39172977139542609 0 -0.079097438192195432 -0.39013559964190198 0 -0.082560309743270749 -0.39172977139542609 0 -0.076542312027108539 -0.406336853914531 0 -0.082560309743270749 -0.39172977139542609 0 -0.085553154766675646 -0.40134027138503481 0 -0.076542312027108539 -0.406336853914531 0 -0.085553154766675646 -0.40134027138503481 0 -0.076542312027108539 -0.406336853914531 0 -0.088610052547492879 -0.41006814396079783 0 -0.090139611558562177 -0.37333304007799939 0 -0.088525620654428705 -0.37725057202694517 0 -0.088525620654428705 -0.37725057202694517 0 -0.087954911787112483 -0.37534235041220648 0 -0.08170780991661282 -0.38109255286014232 0 -0.090139611558562177 -0.37333304007799939 0 -0.088525620654428705 -0.37725057202694517 0 -0.087954911787112483 -0.37534235041220648 0 -0.088525620654428705 -0.37725057202694517 0 -0.087954911787112483 -0.37534235041220648 0 -0.090139611558562177 -0.37333304007799939 0 -0.095426438310298192 -0.37780241062099151 0 -0.088525620654428705 -0.37725057202694517 0 -0.088525620654428705 -0.37725057202694517 0 -0.091585827134305964 -0.3839926061052007 0 -0.095426438310298192 -0.37780241062099151 0 -0.088525620654428705 -0.37725057202694517 0 -0.091585827134305964 -0.3839926061052007 0 -0.088525620654428705 -0.37725057202694517 0 -0.086634605294488312 -0.38349630075200858 0 -0.088525620654428705 -0.37725057202694517 0 -0.086634605294488312 -0.38349630075200858 0 -0.091585827134305964 -0.3839926061052007 0 -0.082560309743270749 -0.39172977139542609 0 -0.086634605294488312 -0.38349630075200858 0 -0.091033556626635648 -0.38563610430902873 0 -0.094499944748829334 -0.39722631626938482 0 -0.091033556626635648 -0.38563610430902873 0 -0.093729726096669103 -0.3869476153003294 0 -0.086634605294488312 -0.38349630075200858 0 -0.091585827134305964 -0.3839926061052007 0 -0.086634605294488312 -0.38349630075200858 0 -0.091033556626635648 -0.38563610430902873 0 -0.086634605294488312 -0.38349630075200858 0 -0.091585827134305964 -0.3839926061052007 0 -0.091033556626635648 -0.38563610430902873 0 -0.091585827134305964 -0.3839926061052007 0 -0.091033556626635648 -0.38563610430902873 0 -0.093729726096669103 -0.3869476153003294 0 -0.091033556626635648 -0.38563610430902873 0 -0.093729726096669103 -0.3869476153003294 0 -0.091585827134305964 -0.3839926061052007 0 -0.093729726096669103 -0.3869476153003294 0 -0.091585827134305964 -0.3839926061052007 0 -0.091033556626635648 -0.38563610430902873 0 -0.082560309743270749 -0.39172977139542609 0 -0.086634605294488312 -0.38349630075200858 0 -0.082560309743270749 -0.39172977139542609 0 -0.086634605294488312 -0.38349630075200858 0 -0.081174899406055781 -0.38294902548401538 0 -0.082560309743270749 -0.39172977139542609 0 -0.079097438192195432 -0.39013559964190198 0 -0.081174899406055781 -0.38294902548401538 0 -0.079097438192195432 -0.39013559964190198 0 -0.081174899406055781 -0.38294902548401538 0 -0.074281153156084773 -0.38791836881244668 0 -0.079097438192195432 -0.39013559964190198 0 -0.081174899406055781 -0.38294902548401538 0 -0.086634605294488312 -0.38349630075200858 0 -0.081174899406055781 -0.38294902548401538 0 -0.088525620654428705 -0.37725057202694517 0 -0.086634605294488312 -0.38349630075200858 0 -0.08170780991661282 -0.38109255286014232 0 -0.086634605294488312 -0.38349630075200858 0 -0.081174899406055781 -0.38294902548401538 0 -0.08170780991661282 -0.38109255286014232 0 -0.086634605294488312 -0.38349630075200858 0 -0.08170780991661282 -0.38109255286014232 0 -0.081174899406055781 -0.38294902548401538 0 -0.08170780991661282 -0.38109255286014232 0 -0.087954911787112483 -0.37534235041220648 0 -0.08170780991661282 -0.38109255286014232 0 -0.055512870853615448 -0.39455951290216967 0 -0.058563253679506787 -0.38068245751723601 0 -0.074281153156084773 -0.38791836881244668 0 -0.058563253679506787 -0.38068245751723601 0 -0.074281153156084773 -0.38791836881244668 0 -0.058387822440418388 -0.36975607908058028 0 -0.08170780991661282 -0.38109255286014232 0 -0.058387822440418388 -0.36975607908058028 0 -0.081174899406055781 -0.38294902548401538 0 -0.08170780991661282 -0.38109255286014232 0 -0.058563253679506787 -0.38068245751723601 0 -0.081174899406055781 -0.38294902548401538 0 -0.074281153156084773 -0.38791836881244668 0 -0.058563253679506787 -0.38068245751723601 0 -0.081174899406055781 -0.38294902548401538 0 -0.058387822440418388 -0.36975607908058028 0 -0.058563253679506787 -0.38068245751723601 0 -0.081174899406055781 -0.38294902548401538 0 -0.081174899406055781 -0.38294902548401538 0 -0.074281153156084773 -0.38791836881244668 0 -0.079097438192195432 -0.39013559964190198 0 -0.074281153156084773 -0.38791836881244668 0 -0.079097438192195432 -0.39013559964190198 0 -0.074281153156084773 -0.38791836881244668 0 -0.074673198083630793 -0.40544040024196493 0 -0.052509649903146327 -0.40794203844841681 0 -0.074281153156084773 -0.38791836881244668 0 -0.052509649903146327 -0.40794203844841681 0 -0.074281153156084773 -0.38791836881244668 0 -0.074673198083630793 -0.40544040024196493 0 -0.082560309743270749 -0.39172977139542609 0 -0.074673198083630793 -0.40544040024196493 0 -0.076542312027108539 -0.406336853914531 0 -0.079097438192195432 -0.39013559964190198 0 -0.074673198083630793 -0.40544040024196493 0 -0.052509649903146327 -0.40794203844841681 0 -0.074673198083630793 -0.40544040024196493 0 -0.070248957975066639 -0.42074520084202788 0 -0.076542312027108539 -0.406336853914531 0 -0.070248957975066639 -0.42074520084202788 0 -0.074673198083630793 -0.40544040024196493 0 -0.070248957975066639 -0.42074520084202788 0 -0.074673198083630793 -0.40544040024196493 0 -0.076542312027108539 -0.406336853914531 0 -0.070248957975066639 -0.42074520084202788 0 -0.070248957975066639 -0.42074520084202788 0 -0.077246521605040669 -0.42579562012280953 0 -0.078194253298280558 -0.41865647959270891 0 -0.076542312027108539 -0.406336853914531 0 -0.070248957975066639 -0.42074520084202788 0 -0.078194253298280558 -0.41865647959270891 0 -0.059775586818595829 -0.41787661413097049 0 -0.070248957975066639 -0.42074520084202788 0 -0.069408814394604765 -0.42365151461769918 0 -0.060002998013559863 -0.44648162232419802 0 -0.069408814394604765 -0.42365151461769918 0 -0.070248957975066639 -0.42074520084202788 0 -0.069408814394604765 -0.42365151461769918 0 -0.077098496045509793 -0.43873696019506903 0 -0.069408814394604765 -0.42365151461769918 0 -0.077246521605040669 -0.42579562012280953 0 -0.070248957975066639 -0.42074520084202788 0 -0.069408814394604765 -0.42365151461769918 0 -0.077246521605040669 -0.42579562012280953 0 -0.070248957975066639 -0.42074520084202788 0 -0.077246521605040669 -0.42579562012280953 0 -0.077246521605040669 -0.42579562012280953 0 -0.082943237868067593 -0.4239856173255338 0 -0.078194253298280558 -0.41865647959270891 0 -0.077098496045509793 -0.43873696019506903 0 -0.082943237868067593 -0.4239856173255338 0 -0.092016620863508841 -0.4218345739943074 0 -0.077098496045509793 -0.43873696019506903 0 -0.089545628933694749 -0.43673796215895883 0 -0.092016620863508841 -0.4218345739943074 0 -0.077098496045509793 -0.43873696019506903 0 -0.092016620863508841 -0.4218345739943074 0 -0.077098496045509793 -0.43873696019506903 0 -0.077246521605040669 -0.42579562012280953 0 -0.082943237868067593 -0.4239856173255338 0 -0.100590797535087 -0.41759168573278821 0 -0.092016620863508841 -0.4218345739943074 0 -0.088610052547492879 -0.41006814396079783 0 -0.082943237868067593 -0.4239856173255338 0 -0.092016620863508841 -0.4218345739943074 0 -0.083714880680240453 -0.41622037016703428 0 -0.092016620863508841 -0.4218345739943074 0 -0.088610052547492879 -0.41006814396079783 0 -0.083714880680240453 -0.41622037016703428 0 -0.076542312027108539 -0.406336853914531 0 -0.088610052547492879 -0.41006814396079783 0 -0.083714880680240453 -0.41622037016703428 0 -0.076542312027108539 -0.406336853914531 0 -0.078194253298280558 -0.41865647959270891 0 -0.083714880680240453 -0.41622037016703428 0 -0.082943237868067593 -0.4239856173255338 0 -0.078194253298280558 -0.41865647959270891 0 -0.083714880680240453 -0.41622037016703428 0 -0.081808777729522386 -0.083143660930833002 0 -0.073985000225153141 -0.099795971436559522 0 -0.085935801107842547 -0.09579043756499836 0 -0.081808777729522386 -0.083143660930833002 0 -0.085935801107842547 -0.09579043756499836 0 -0.094306078709463503 -0.087148618235937392 0 -0.081808777729522386 -0.083143660930833002 0 -0.094306078709463503 -0.087148618235937392 0 -0.095869533599057435 -0.074719864200214883 0 -0.081808777729522386 -0.083143660930833002 0 -0.087640100333796281 -0.066301869750421821 0 -0.076351800502585221 -0.068318825045574613 0 -0.081808777729522386 -0.083143660930833002 0 -0.087640100333796281 -0.066301869750421821 0 -0.095869533599057435 -0.074719864200214883 0 -0.087640100333796281 -0.066301869750421821 0 -0.095869533599057435 -0.074719864200214883 0 -0.097041901727127691 -0.062312633498474219 0 -0.087640100333796281 -0.066301869750421821 0 -0.076351800502585221 -0.068318825045574613 0 -0.079773765115028039 -0.057914828426178573 0 -0.081808777729522386 -0.083143660930833002 0 -0.076351800502585221 -0.068318825045574613 0 -0.068001603171865072 -0.074911341683796137 0 -0.068001603171865072 -0.074911341683796137 0 -0.065822825648978775 -0.060485584973140792 0 -0.05753372126900759 -0.073422836261521005 0 -0.076351800502585221 -0.068318825045574613 0 -0.068001603171865072 -0.074911341683796137 0 -0.065822825648978775 -0.060485584973140792 0 -0.068001603171865072 -0.074911341683796137 0 -0.066670257350634976 -0.085780572793309681 0 -0.05753372126900759 -0.073422836261521005 0 -0.081808777729522386 -0.083143660930833002 0 -0.066670257350634976 -0.085780572793309681 0 -0.073985000225153141 -0.099795971436559522 0 -0.081808777729522386 -0.083143660930833002 0 -0.068001603171865072 -0.074911341683796137 0 -0.066670257350634976 -0.085780572793309681 0 -0.066670257350634976 -0.085780572793309681 0 -0.073985000225153141 -0.099795971436559522 0 -0.05982498813170789 -0.10249801488187529 0 -0.073985000225153141 -0.099795971436559522 0 -0.065415314349395459 -0.11473522154729129 0 -0.05982498813170789 -0.10249801488187529 0 -0.073985000225153141 -0.099795971436559522 0 -0.065415314349395459 -0.11473522154729129 0 -0.07727601190464152 -0.1134926659633375 0 -0.065415314349395459 -0.11473522154729129 0 -0.060446148579459319 -0.1303024678998376 0 -0.071674103496310607 -0.1250344835198243 0 -0.07727601190464152 -0.1134926659633375 0 -0.082994471061899833 -0.1234246307735777 0 -0.071674103496310607 -0.1250344835198243 0 -0.065415314349395459 -0.11473522154729129 0 -0.07727601190464152 -0.1134926659633375 0 -0.071674103496310607 -0.1250344835198243 0 -0.07727601190464152 -0.1134926659633375 0 -0.082994471061899833 -0.1234246307735777 0 -0.08680817640523622 -0.1078855820033275 0 -0.082994471061899833 -0.1234246307735777 0 -0.08680817640523622 -0.1078855820033275 0 -0.095277368860953449 -0.1178446661751102 0 -0.082994471061899833 -0.1234246307735777 0 -0.095277368860953449 -0.1178446661751102 0 -0.095971306836852913 -0.13086642389395989 0 -0.085935801107842547 -0.09579043756499836 0 -0.08680817640523622 -0.1078855820033275 0 -0.1020424425883536 -0.1015565670732166 0 -0.073985000225153141 -0.099795971436559522 0 -0.085935801107842547 -0.09579043756499836 0 -0.08680817640523622 -0.1078855820033275 0 -0.073985000225153141 -0.099795971436559522 0 -0.07727601190464152 -0.1134926659633375 0 -0.08680817640523622 -0.1078855820033275 0 -0.085935801107842547 -0.09579043756499836 0 -0.1020424425883536 -0.1015565670732166 0 -0.094306078709463503 -0.087148618235937392 0 -0.08680817640523622 -0.1078855820033275 0 -0.1020424425883536 -0.1015565670732166 0 -0.095277368860953449 -0.1178446661751102 0 -0.1020424425883536 -0.1015565670732166 0 -0.095277368860953449 -0.1178446661751102 0 -0.1085913382140784 -0.11903379143832921 0 -0.095277368860953449 -0.1178446661751102 0 -0.1085913382140784 -0.11903379143832921 0 -0.095971306836852913 -0.13086642389395989 0 -0.1085913382140784 -0.11903379143832921 0 -0.11893842975153809 -0.10446969177473921 0 -0.12736410167423581 -0.1213878944680517 0 -0.1020424425883536 -0.1015565670732166 0 -0.11893842975153809 -0.10446969177473921 0 -0.1189291253072135 -0.086669643832799348 0 -0.1020424425883536 -0.1015565670732166 0 -0.1085913382140784 -0.11903379143832921 0 -0.11893842975153809 -0.10446969177473921 0 -0.1189291253072135 -0.086669643832799348 0 -0.1056068239719813 -0.08097964138995771 0 -0.1139735316209595 -0.069866863539540053 0 -0.1020424425883536 -0.1015565670732166 0 -0.1189291253072135 -0.086669643832799348 0 -0.1056068239719813 -0.08097964138995771 0 -0.1020424425883536 -0.1015565670732166 0 -0.1056068239719813 -0.08097964138995771 0 -0.094306078709463503 -0.087148618235937392 0 -0.1056068239719813 -0.08097964138995771 0 -0.094306078709463503 -0.087148618235937392 0 -0.095869533599057435 -0.074719864200214883 0 -0.095869533599057435 -0.074719864200214883 0 -0.1039382096783972 -0.069282752438140638 0 -0.097041901727127691 -0.062312633498474219 0 -0.1056068239719813 -0.08097964138995771 0 -0.1039382096783972 -0.069282752438140638 0 -0.1139735316209595 -0.069866863539540053 0 -0.1056068239719813 -0.08097964138995771 0 -0.095869533599057435 -0.074719864200214883 0 -0.1039382096783972 -0.069282752438140638 0 -0.1039382096783972 -0.069282752438140638 0 -0.097041901727127691 -0.062312633498474219 0 -0.1071992574728602 -0.058534759562516372 0 -0.1039382096783972 -0.069282752438140638 0 -0.1139735316209595 -0.069866863539540053 0 -0.1071992574728602 -0.058534759562516372 0 -0.1189291253072135 -0.086669643832799348 0 -0.1139735316209595 -0.069866863539540053 0 -0.12930964035960699 -0.069761515268982097 0 -0.1139735316209595 -0.069866863539540053 0 -0.1161384697585349 -0.056806249932135858 0 -0.12930964035960699 -0.069761515268982097 0 -0.1161384697585349 -0.056806249932135858 0 -0.1208541397454049 -0.045822468476665427 0 -0.12930964035960699 -0.069761515268982097 0 -0.1248214427799455 -0.0491876577223027 0 -0.1208541397454049 -0.045822468476665427 0 -0.12930964035960699 -0.069761515268982097 0 -0.1161384697585349 -0.056806249932135858 0 -0.10991932193075039 -0.048940588969216672 0 -0.1071992574728602 -0.058534759562516372 0 -0.1139735316209595 -0.069866863539540053 0 -0.1161384697585349 -0.056806249932135858 0 -0.1071992574728602 -0.058534759562516372 0 -0.1161384697585349 -0.056806249932135858 0 -0.10991932193075039 -0.048940588969216672 0 -0.1149357203506014 -0.047989794102068162 0 -0.1161384697585349 -0.056806249932135858 0 -0.1149357203506014 -0.047989794102068162 0 -0.1208541397454049 -0.045822468476665427 0 -0.1248214427799455 -0.0491876577223027 0 -0.1208541397454049 -0.045822468476665427 0 -0.1246368416492639 -0.024787675353444869 0 -0.1128309499677153 -0.040389869030254703 0 -0.10841128816168021 -0.033720593740292633 0 -0.11239863913120279 -0.021883421684348751 0 -0.1208541397454049 -0.045822468476665427 0 -0.11239863913120279 -0.021883421684348751 0 -0.1208541397454049 -0.045822468476665427 0 -0.1128309499677153 -0.040389869030254703 0 -0.11239863913120279 -0.021883421684348751 0 -0.1248214427799455 -0.0491876577223027 0 -0.1246368416492639 -0.024787675353444869 0 -0.1149357203506014 -0.047989794102068162 0 -0.1208541397454049 -0.045822468476665427 0 -0.1128309499677153 -0.040389869030254703 0 -0.10991932193075039 -0.048940588969216672 0 -0.1149357203506014 -0.047989794102068162 0 -0.1128309499677153 -0.040389869030254703 0 -0.10991932193075039 -0.048940588969216672 0 -0.1128309499677153 -0.040389869030254703 0 -0.1049963107845597 -0.040407454994133042 0 -0.10991932193075039 -0.048940588969216672 0 -0.1049963107845597 -0.040407454994133042 0 -0.1002598709818909 -0.049694841596422852 0 -0.1049963107845597 -0.040407454994133042 0 -0.10841128816168021 -0.033720593740292633 0 -0.1012581714839781 -0.029848849592015819 0 -0.1128309499677153 -0.040389869030254703 0 -0.1049963107845597 -0.040407454994133042 0 -0.10841128816168021 -0.033720593740292633 0 -0.097298262181343159 -0.039849987036595598 0 -0.1012581714839781 -0.029848849592015819 0 -0.091929659262116575 -0.033133953101480262 0 -0.1049963107845597 -0.040407454994133042 0 -0.097298262181343159 -0.039849987036595598 0 -0.1012581714839781 -0.029848849592015819 0 -0.1049963107845597 -0.040407454994133042 0 -0.097298262181343159 -0.039849987036595598 0 -0.1002598709818909 -0.049694841596422852 0 -0.097298262181343159 -0.039849987036595598 0 -0.1002598709818909 -0.049694841596422852 0 -0.087030839425688053 -0.044306376809862227 0 -0.1002598709818909 -0.049694841596422852 0 -0.097041901727127691 -0.062312633498474219 0 -0.1071992574728602 -0.058534759562516372 0 -0.1002598709818909 -0.049694841596422852 0 -0.097041901727127691 -0.062312633498474219 0 -0.090164156554830718 -0.055563028782557922 0 -0.10991932193075039 -0.048940588969216672 0 -0.1002598709818909 -0.049694841596422852 0 -0.1071992574728602 -0.058534759562516372 0 -0.1244522405185825 -0.00038769298458709092 0 -0.11239863913120279 -0.021883421684348751 0 -0.10394313851700079 0.0020556251079679459 0 -0.1244522405185825 -0.00038769298458709092 0 -0.1246368416492639 -0.024787675353444869 0 -0.1244522405185825 -0.00038769298458709092 0 -0.11239863913120279 -0.021883421684348751 0 -0.1246368416492639 -0.024787675353444869 0 -0.1208541397454049 -0.045822468476665427 0 -0.11239863913120279 -0.021883421684348751 0 -0.1246368416492639 -0.024787675353444869 0 -0.10841128816168021 -0.033720593740292633 0 -0.11239863913120279 -0.021883421684348751 0 -0.1012581714839781 -0.029848849592015819 0 -0.1012581714839781 -0.029848849592015819 0 -0.090677970328949406 -0.022917020247476879 0 -0.091929659262116575 -0.033133953101480262 0 -0.1012581714839781 -0.029848849592015819 0 -0.1001126671493681 -0.016491083843961009 0 -0.090677970328949406 -0.022917020247476879 0 -0.1001126671493681 -0.016491083843961009 0 -0.092285416285709382 -0.0098617528039315269 0 -0.090677970328949406 -0.022917020247476879 0 -0.11239863913120279 -0.021883421684348751 0 -0.1012581714839781 -0.029848849592015819 0 -0.1001126671493681 -0.016491083843961009 0 -0.1001126671493681 -0.016491083843961009 0 -0.092285416285709382 -0.0098617528039315269 0 -0.10394313851700079 0.0020556251079679459 0 -0.11239863913120279 -0.021883421684348751 0 -0.1001126671493681 -0.016491083843961009 0 -0.10394313851700079 0.0020556251079679459 0 -0.092285416285709382 -0.0098617528039315269 0 -0.10394313851700079 0.0020556251079679459 0 -0.085958893623968774 0.001514634656162053 0 -0.11239863913120279 -0.021883421684348751 0 -0.10394313851700079 0.0020556251079679459 0 -0.092285416285709382 -0.0098617528039315269 0 -0.077949881484559239 -0.01307625006729682 0 -0.085958893623968774 0.001514634656162053 0 -0.092285416285709382 -0.0098617528039315269 0 -0.090677970328949406 -0.022917020247476879 0 -0.077949881484559239 -0.01307625006729682 0 -0.090677970328949406 -0.022917020247476879 0 -0.073841780976804383 -0.025706854857452392 0 -0.077949881484559239 -0.01307625006729682 0 -0.090677970328949406 -0.022917020247476879 0 -0.073841780976804383 -0.025706854857452392 0 -0.082102255714859004 -0.034759692131612618 0 -0.090677970328949406 -0.022917020247476879 0 -0.091929659262116575 -0.033133953101480262 0 -0.082102255714859004 -0.034759692131612618 0 -0.073841780976804383 -0.025706854857452392 0 -0.077949881484559239 -0.01307625006729682 0 -0.060674527584339763 -0.015412449877807689 0 -0.073841780976804383 -0.025706854857452392 0 -0.060674527584339763 -0.015412449877807689 0 -0.060703590497751453 -0.03101491529774986 0 -0.077949881484559239 -0.01307625006729682 0 -0.085958893623968774 0.001514634656162053 0 -0.065648076432031049 0.00090955339710942099 0 -0.077949881484559239 -0.01307625006729682 0 -0.060674527584339763 -0.015412449877807689 0 -0.065648076432031049 0.00090955339710942099 0 -0.079773765115028039 -0.057914828426178573 0 -0.087030839425688053 -0.044306376809862227 0 -0.074827122987446398 -0.047817820925290022 0 -0.079773765115028039 -0.057914828426178573 0 -0.090164156554830718 -0.055563028782557922 0 -0.087030839425688053 -0.044306376809862227 0 -0.087640100333796281 -0.066301869750421821 0 -0.079773765115028039 -0.057914828426178573 0 -0.090164156554830718 -0.055563028782557922 0 -0.087640100333796281 -0.066301869750421821 0 -0.097041901727127691 -0.062312633498474219 0 -0.090164156554830718 -0.055563028782557922 0 -0.1002598709818909 -0.049694841596422852 0 -0.090164156554830718 -0.055563028782557922 0 -0.087030839425688053 -0.044306376809862227 0 -0.097298262181343159 -0.039849987036595598 0 -0.087030839425688053 -0.044306376809862227 0 -0.091929659262116575 -0.033133953101480262 0 -0.087030839425688053 -0.044306376809862227 0 -0.091929659262116575 -0.033133953101480262 0 -0.082102255714859004 -0.034759692131612618 0 -0.087030839425688053 -0.044306376809862227 0 -0.082102255714859004 -0.034759692131612618 0 -0.074827122987446398 -0.047817820925290022 0 -0.082102255714859004 -0.034759692131612618 0 -0.070942460250367517 -0.03706080152277047 0 -0.074827122987446398 -0.047817820925290022 0 -0.073841780976804383 -0.025706854857452392 0 -0.082102255714859004 -0.034759692131612618 0 -0.070942460250367517 -0.03706080152277047 0 -0.073841780976804383 -0.025706854857452392 0 -0.070942460250367517 -0.03706080152277047 0 -0.060703590497751453 -0.03101491529774986 0 -0.070942460250367517 -0.03706080152277047 0 -0.061850736208416378 -0.044087883634974623 0 -0.060703590497751453 -0.03101491529774986 0 -0.070942460250367517 -0.03706080152277047 0 -0.074827122987446398 -0.047817820925290022 0 -0.061850736208416378 -0.044087883634974623 0 -0.074827122987446398 -0.047817820925290022 0 -0.065822825648978775 -0.060485584973140792 0 -0.061850736208416378 -0.044087883634974623 0 -0.079773765115028039 -0.057914828426178573 0 -0.074827122987446398 -0.047817820925290022 0 -0.065822825648978775 -0.060485584973140792 0 -0.076351800502585221 -0.068318825045574613 0 -0.079773765115028039 -0.057914828426178573 0 -0.065822825648978775 -0.060485584973140792 0 -0.065822825648978775 -0.060485584973140792 0 -0.051906109188989122 -0.051634581827710108 0 -0.055146373663134192 -0.063188587977351315 0 -0.065822825648978775 -0.060485584973140792 0 -0.051906109188989122 -0.051634581827710108 0 -0.061850736208416378 -0.044087883634974623 0 -0.051906109188989122 -0.051634581827710108 0 -0.044968642856814678 -0.064628327886466996 0 -0.055146373663134192 -0.063188587977351315 0 -0.061850736208416378 -0.044087883634974623 0 -0.048286593140243993 -0.039377229684959138 0 -0.060703590497751453 -0.03101491529774986 0 -0.051906109188989122 -0.051634581827710108 0 -0.061850736208416378 -0.044087883634974623 0 -0.048286593140243993 -0.039377229684959138 0 -0.048286593140243993 -0.039377229684959138 0 -0.039642814346724391 -0.052475069278980747 0 -0.030584103036016622 -0.035608219704199993 0 -0.039642814346724391 -0.052475069278980747 0 -0.024435088609687641 -0.049746151716912712 0 -0.030584103036016622 -0.035608219704199993 0 -0.048286593140243993 -0.039377229684959138 0 -0.044331283213942488 -0.020119990811347448 0 -0.030584103036016622 -0.035608219704199993 0 -0.039642814346724391 -0.052475069278980747 0 -0.03034189778213453 -0.060014988360291517 0 -0.024435088609687641 -0.049746151716912712 0 -0.039642814346724391 -0.052475069278980747 0 -0.03034189778213453 -0.060014988360291517 0 -0.044968642856814678 -0.064628327886466996 0 -0.051906109188989122 -0.051634581827710108 0 -0.039642814346724391 -0.052475069278980747 0 -0.044968642856814678 -0.064628327886466996 0 -0.051906109188989122 -0.051634581827710108 0 -0.048286593140243993 -0.039377229684959138 0 -0.039642814346724391 -0.052475069278980747 0 -0.060674527584339763 -0.015412449877807689 0 -0.044331283213942488 -0.020119990811347448 0 -0.045118160941850949 -0.00049033847668307538 0 -0.060674527584339763 -0.015412449877807689 0 -0.045118160941850949 -0.00049033847668307538 0 -0.065648076432031049 0.00090955339710942099 0 -0.048286593140243993 -0.039377229684959138 0 -0.060703590497751453 -0.03101491529774986 0 -0.044331283213942488 -0.020119990811347448 0 -0.060674527584339763 -0.015412449877807689 0 -0.060703590497751453 -0.03101491529774986 0 -0.044331283213942488 -0.020119990811347448 0 -0.044331283213942488 -0.020119990811347448 0 -0.027025641752002061 -0.0079319500279313396 0 -0.030584103036016622 -0.035608219704199993 0 -0.044331283213942488 -0.020119990811347448 0 -0.045118160941850949 -0.00049033847668307538 0 -0.027025641752002061 -0.0079319500279313396 0 -0.027025641752002061 -0.0079319500279313396 0 -0.0118242871531395 -0.020545428430059291 0 -0.0091716063734174208 -0.003332990253060792 0 -0.027025641752002061 -0.0079319500279313396 0 -0.0091716063734174208 -0.003332990253060792 0 -0.01566814095190756 0.010235570601176981 0 -0.027025641752002061 -0.0079319500279313396 0 -0.0118242871531395 -0.020545428430059291 0 -0.030584103036016622 -0.035608219704199993 0 -0.0118242871531395 -0.020545428430059291 0 -0.030584103036016622 -0.035608219704199993 0 -0.0118242871531395 -0.020545428430059291 0 0.006935528729737548 -0.0054826371559186567 0 0.0027408304473846411 -0.028176541972939319 0 -0.0118242871531395 -0.020545428430059291 0 -0.01026660782967455 -0.041229232136501717 0 0.0027408304473846411 -0.028176541972939319 0 -0.0118242871531395 -0.020545428430059291 0 -0.0091716063734174208 -0.003332990253060792 0 0.006935528729737548 -0.0054826371559186567 0 -0.0118242871531395 -0.020545428430059291 0 0.006935528729737548 -0.0054826371559186567 0 -0.024435088609687641 -0.049746151716912712 0 -0.01026660782967455 -0.041229232136501717 0 -0.01499476028908407 -0.06055090283160456 0 -0.03034189778213453 -0.060014988360291517 0 -0.01499476028908407 -0.06055090283160456 0 -0.03034189778213453 -0.060014988360291517 0 -0.024435088609687641 -0.049746151716912712 0 -0.01499476028908407 -0.06055090283160456 0 -0.024435088609687641 -0.049746151716912712 0 -0.030584103036016622 -0.035608219704199993 0 -0.01026660782967455 -0.041229232136501717 0 -0.0118242871531395 -0.020545428430059291 0 -0.030584103036016622 -0.035608219704199993 0 -0.01026660782967455 -0.041229232136501717 0 -0.01026660782967455 -0.041229232136501717 0 0.0096258971738255473 -0.043108802377643002 0 0.00035237720396625368 -0.061086817302918282 0 -0.01026660782967455 -0.041229232136501717 0 -0.01499476028908407 -0.06055090283160456 0 0.00035237720396625368 -0.061086817302918282 0 -0.01499476028908407 -0.06055090283160456 0 0.00035237720396625368 -0.061086817302918282 0 -0.011408129540087309 -0.083886203777590068 0 0.0065051428120863272 -0.082127796022149757 0 0.00035237720396625368 -0.061086817302918282 0 -0.011408129540087309 -0.083886203777590068 0 0.00035237720396625368 -0.061086817302918282 0 -0.01499476028908407 -0.06055090283160456 0 -0.011408129540087309 -0.083886203777590068 0 0.00035237720396625368 -0.061086817302918282 0 -0.011408129540087309 -0.083886203777590068 0 0.001856719827670471 -0.098182337095309047 0 0.0065051428120863272 -0.082127796022149757 0 -0.011408129540087309 -0.083886203777590068 0 -0.03053113156520738 -0.089911417014305078 0 -0.02316863628414112 -0.10668559025226169 0 -0.011408129540087309 -0.083886203777590068 0 -0.03053113156520738 -0.089911417014305078 0 -0.026049830403481512 -0.075342802050597457 0 -0.01499476028908407 -0.06055090283160456 0 -0.011408129540087309 -0.083886203777590068 0 -0.026049830403481512 -0.075342802050597457 0 -0.03034189778213453 -0.060014988360291517 0 -0.01499476028908407 -0.06055090283160456 0 -0.026049830403481512 -0.075342802050597457 0 -0.03034189778213453 -0.060014988360291517 0 -0.026049830403481512 -0.075342802050597457 0 -0.041349905228919973 -0.078428718904655664 0 -0.03034189778213453 -0.060014988360291517 0 -0.044968642856814678 -0.064628327886466996 0 -0.041349905228919973 -0.078428718904655664 0 -0.03053113156520738 -0.089911417014305078 0 -0.026049830403481512 -0.075342802050597457 0 -0.041349905228919973 -0.078428718904655664 0 -0.03053113156520738 -0.089911417014305078 0 -0.041349905228919973 -0.078428718904655664 0 -0.047432501145458397 -0.097370211357339573 0 -0.041349905228919973 -0.078428718904655664 0 -0.053879666709155317 -0.08598560359304859 0 -0.05753372126900759 -0.073422836261521005 0 -0.041349905228919973 -0.078428718904655664 0 -0.053879666709155317 -0.08598560359304859 0 -0.047432501145458397 -0.097370211357339573 0 -0.066670257350634976 -0.085780572793309681 0 -0.053879666709155317 -0.08598560359304859 0 -0.05982498813170789 -0.10249801488187529 0 -0.066670257350634976 -0.085780572793309681 0 -0.053879666709155317 -0.08598560359304859 0 -0.05753372126900759 -0.073422836261521005 0 -0.044968642856814678 -0.064628327886466996 0 -0.041349905228919973 -0.078428718904655664 0 -0.05753372126900759 -0.073422836261521005 0 -0.065822825648978775 -0.060485584973140792 0 -0.05753372126900759 -0.073422836261521005 0 -0.055146373663134192 -0.063188587977351315 0 -0.044968642856814678 -0.064628327886466996 0 -0.05753372126900759 -0.073422836261521005 0 -0.055146373663134192 -0.063188587977351315 0 -0.065415314349395459 -0.11473522154729129 0 -0.048239208743362072 -0.1165718691901324 0 -0.05982498813170789 -0.10249801488187529 0 -0.065415314349395459 -0.11473522154729129 0 -0.048239208743362072 -0.1165718691901324 0 -0.060446148579459319 -0.1303024678998376 0 -0.048239208743362072 -0.1165718691901324 0 -0.05982498813170789 -0.10249801488187529 0 -0.047432501145458397 -0.097370211357339573 0 -0.053879666709155317 -0.08598560359304859 0 -0.05982498813170789 -0.10249801488187529 0 -0.047432501145458397 -0.097370211357339573 0 -0.048239208743362072 -0.1165718691901324 0 -0.047432501145458397 -0.097370211357339573 0 -0.02316863628414112 -0.10668559025226169 0 -0.03053113156520738 -0.089911417014305078 0 -0.047432501145458397 -0.097370211357339573 0 -0.02316863628414112 -0.10668559025226169 0 -0.048239208743362072 -0.1165718691901324 0 -0.02316863628414112 -0.10668559025226169 0 -0.029948833034415319 -0.13246817914486481 0 -0.02316863628414112 -0.10668559025226169 0 -0.01250087523651249 -0.12826546419306251 0 -0.029948833034415319 -0.13246817914486481 0 -0.011408129540087309 -0.083886203777590068 0 -0.02316863628414112 -0.10668559025226169 0 -0.02316863628414112 -0.10668559025226169 0 0.0015243557028834459 -0.11711868301268021 0 0.001856719827670471 -0.098182337095309047 0 -0.011408129540087309 -0.083886203777590068 0 -0.02316863628414112 -0.10668559025226169 0 0.001856719827670471 -0.098182337095309047 0 -0.02316863628414112 -0.10668559025226169 0 -0.01250087523651249 -0.12826546419306251 0 0.0015243557028834459 -0.11711868301268021 0 -0.01250087523651249 -0.12826546419306251 0 -0.013317386200938249 -0.14799664519887931 0 0.0088678229424013627 -0.13941235935176011 0 -0.01250087523651249 -0.12826546419306251 0 0.0088678229424013627 -0.13941235935176011 0 0.0015243557028834459 -0.11711868301268021 0 -0.01250087523651249 -0.12826546419306251 0 -0.029948833034415319 -0.13246817914486481 0 -0.013317386200938249 -0.14799664519887931 0 -0.013317386200938249 -0.14799664519887931 0 -0.035502595344277812 -0.15658093104599841 0 -0.029948833034415319 -0.13246817914486481 0 -0.013317386200938249 -0.14799664519887931 0 -0.035502595344277812 -0.15658093104599841 0 -0.013317386200938249 -0.14799664519887931 0 0.0088678229424013627 -0.13941235935176011 0 -0.013317386200938249 -0.14799664519887931 0 0.0027310736070901482 -0.15493719994590471 0 0.0088678229424013627 -0.13941235935176011 0 -0.013317386200938249 -0.14799664519887931 0 -0.0013673002328405961 -0.1767093328090546 0 0.0027310736070901482 -0.15493719994590471 0 -0.013317386200938249 -0.14799664519887931 0 -0.0013673002328405961 -0.1767093328090546 0 -0.029934926785222919 -0.1776443960910804 0 -0.0013673002328405961 -0.1767093328090546 0 -0.0217915143334447 -0.19785215020996011 0 -0.0013673002328405961 -0.1767093328090546 0 -0.029934926785222919 -0.1776443960910804 0 -0.0217915143334447 -0.19785215020996011 0 -0.013317386200938249 -0.14799664519887931 0 -0.029934926785222919 -0.1776443960910804 0 -0.035502595344277812 -0.15658093104599841 0 -0.035502595344277812 -0.15658093104599841 0 -0.057687804487617317 -0.16516521689311761 0 -0.029934926785222919 -0.1776443960910804 0 -0.035502595344277812 -0.15658093104599841 0 -0.057687804487617317 -0.16516521689311761 0 -0.029934926785222919 -0.1776443960910804 0 -0.048583433801033478 -0.18728911877980611 0 -0.034676635542126917 -0.191298641696723 0 -0.029934926785222919 -0.1776443960910804 0 -0.048583433801033478 -0.18728911877980611 0 -0.057687804487617317 -0.16516521689311761 0 -0.048583433801033478 -0.18728911877980611 0 -0.057687804487617317 -0.16516521689311761 0 -0.063770138428779252 -0.18079669395549949 0 -0.035502595344277812 -0.15658093104599841 0 -0.057687804487617317 -0.16516521689311761 0 -0.06059931965736505 -0.14742373122833671 0 -0.035502595344277812 -0.15658093104599841 0 -0.06059931965736505 -0.14742373122833671 0 -0.046947221071775923 -0.13666943570183401 0 -0.048239208743362072 -0.1165718691901324 0 -0.046947221071775923 -0.13666943570183401 0 -0.060446148579459319 -0.1303024678998376 0 -0.06059931965736505 -0.14742373122833671 0 -0.046947221071775923 -0.13666943570183401 0 -0.060446148579459319 -0.1303024678998376 0 -0.048239208743362072 -0.1165718691901324 0 -0.029948833034415319 -0.13246817914486481 0 -0.046947221071775923 -0.13666943570183401 0 -0.029948833034415319 -0.13246817914486481 0 -0.035502595344277812 -0.15658093104599841 0 -0.046947221071775923 -0.13666943570183401 0 -0.03064478186574425 -0.25326356670072259 0 -0.026067501294639708 -0.24850247980592871 0 -0.033387688564450117 -0.24425465961654741 0 -0.026067501294639708 -0.24850247980592871 0 -0.02456862519526215 -0.24210395604782819 0 -0.033387688564450117 -0.24425465961654741 0 -0.02974340118516787 -0.23585106297766359 0 -0.02456862519526215 -0.24210395604782819 0 -0.02062871475200042 -0.2320366992723622 0 -0.02974340118516787 -0.23585106297766359 0 -0.02456862519526215 -0.24210395604782819 0 -0.033387688564450117 -0.24425465961654741 0 -0.02456862519526215 -0.24210395604782819 0 -0.01660477195623393 -0.2403164687020414 0 -0.02062871475200042 -0.2320366992723622 0 -0.02456862519526215 -0.24210395604782819 0 -0.01660477195623393 -0.2403164687020414 0 -0.01887874476148543 -0.24814250919209771 0 -0.026067501294639708 -0.24850247980592871 0 -0.02456862519526215 -0.24210395604782819 0 -0.01887874476148543 -0.24814250919209771 0 -0.01660477195623393 -0.2403164687020414 0 -0.01887874476148543 -0.24814250919209771 0 -0.0080727856436109482 -0.2481099565327444 0 -0.0080727856436109482 -0.2481099565327444 0 -0.0084819670471955304 -0.2367225590632196 0 0.0055632338660241776 -0.24332209518663511 0 -0.01660477195623393 -0.2403164687020414 0 -0.0084819670471955304 -0.2367225590632196 0 -0.02062871475200042 -0.2320366992723622 0 -0.01660477195623393 -0.2403164687020414 0 -0.0080727856436109482 -0.2481099565327444 0 -0.0084819670471955304 -0.2367225590632196 0 -0.0084819670471955304 -0.2367225590632196 0 -0.0075276580997289226 -0.21896018305478171 0 0.0032521440618358652 -0.23009641691855939 0 -0.0084819670471955304 -0.2367225590632196 0 -0.0075276580997289226 -0.21896018305478171 0 -0.02062871475200042 -0.2320366992723622 0 -0.0075276580997289226 -0.21896018305478171 0 -0.02062871475200042 -0.2320366992723622 0 -0.024832472176938718 -0.21885173135413241 0 -0.02974340118516787 -0.23585106297766359 0 -0.02062871475200042 -0.2320366992723622 0 -0.031998745265470661 -0.22641465662269231 0 -0.02062871475200042 -0.2320366992723622 0 -0.024832472176938718 -0.21885173135413241 0 -0.031998745265470661 -0.22641465662269231 0 -0.0075276580997289226 -0.21896018305478171 0 -0.024832472176938718 -0.21885173135413241 0 -0.0217915143334447 -0.19785215020996011 0 -0.024832472176938718 -0.21885173135413241 0 -0.0217915143334447 -0.19785215020996011 0 -0.042215728434048867 -0.21899496761086559 0 -0.0075276580997289226 -0.21896018305478171 0 -0.0217915143334447 -0.19785215020996011 0 0.003555539334036632 -0.19934620758084881 0 -0.0013673002328405961 -0.1767093328090546 0 -0.0217915143334447 -0.19785215020996011 0 0.003555539334036632 -0.19934620758084881 0 -0.029934926785222919 -0.1776443960910804 0 -0.0217915143334447 -0.19785215020996011 0 -0.034676635542126917 -0.191298641696723 0 -0.0217915143334447 -0.19785215020996011 0 -0.034676635542126917 -0.191298641696723 0 -0.04224094911505525 -0.20168175555289891 0 -0.048583433801033478 -0.18728911877980611 0 -0.034676635542126917 -0.191298641696723 0 -0.04224094911505525 -0.20168175555289891 0 -0.048583433801033478 -0.18728911877980611 0 -0.058327232484387218 -0.2013044317948425 0 -0.063770138428779252 -0.18079669395549949 0 -0.048583433801033478 -0.18728911877980611 0 -0.04224094911505525 -0.20168175555289891 0 -0.058327232484387218 -0.2013044317948425 0 -0.058327232484387218 -0.2013044317948425 0 -0.04785115009529034 -0.21335122322519601 0 -0.065984069430329237 -0.21594808513783789 0 -0.04224094911505525 -0.20168175555289891 0 -0.058327232484387218 -0.2013044317948425 0 -0.04785115009529034 -0.21335122322519601 0 -0.04785115009529034 -0.21335122322519601 0 -0.065984069430329237 -0.21594808513783789 0 -0.04785115009529034 -0.21335122322519601 0 -0.050089297127046031 -0.22131182591420251 0 -0.065984069430329237 -0.21594808513783789 0 -0.0217915143334447 -0.19785215020996011 0 -0.042215728434048867 -0.21899496761086559 0 -0.0217915143334447 -0.19785215020996011 0 -0.04224094911505525 -0.20168175555289891 0 -0.042215728434048867 -0.21899496761086559 0 -0.04224094911505525 -0.20168175555289891 0 -0.04785115009529034 -0.21335122322519601 0 -0.042215728434048867 -0.21899496761086559 0 -0.04785115009529034 -0.21335122322519601 0 -0.042215728434048867 -0.21899496761086559 0 -0.050089297127046031 -0.22131182591420251 0 -0.024832472176938718 -0.21885173135413241 0 -0.031998745265470661 -0.22641465662269231 0 -0.042215728434048867 -0.21899496761086559 0 -0.031998745265470661 -0.22641465662269231 0 -0.042215728434048867 -0.21899496761086559 0 -0.041320068815934301 -0.22639292378782619 0 -0.031998745265470661 -0.22641465662269231 0 -0.041320068815934301 -0.22639292378782619 0 -0.038133232148655979 -0.23444534332888789 0 -0.02974340118516787 -0.23585106297766359 0 -0.031998745265470661 -0.22641465662269231 0 -0.038133232148655979 -0.23444534332888789 0 -0.041320068815934301 -0.22639292378782619 0 -0.052151212760384272 -0.22988480121754831 0 -0.038133232148655979 -0.23444534332888789 0 -0.042215728434048867 -0.21899496761086559 0 -0.041320068815934301 -0.22639292378782619 0 -0.050089297127046031 -0.22131182591420251 0 -0.041320068815934301 -0.22639292378782619 0 -0.050089297127046031 -0.22131182591420251 0 -0.052151212760384272 -0.22988480121754831 0 -0.0567919256119837 -0.24387644547435741 0 -0.065984069430329237 -0.21594808513783789 0 -0.050089297127046031 -0.22131182591420251 0 -0.052151212760384272 -0.22988480121754831 0 -0.065984069430329237 -0.21594808513783789 0 -0.052151212760384272 -0.22988480121754831 0 -0.0567919256119837 -0.24387644547435741 0 -0.065984069430329237 -0.21594808513783789 0 -0.052151212760384272 -0.22988480121754831 0 -0.0567919256119837 -0.24387644547435741 0 -0.045207486351244337 -0.24272005325013779 0 -0.046517308340487992 -0.25474718453952289 0 -0.0567919256119837 -0.24387644547435741 0 -0.045207486351244337 -0.24272005325013779 0 -0.038581934025118947 -0.25114857380685968 0 -0.046517308340487992 -0.25474718453952289 0 -0.045207486351244337 -0.24272005325013779 0 -0.052151212760384272 -0.22988480121754831 0 -0.045207486351244337 -0.24272005325013779 0 -0.038133232148655979 -0.23444534332888789 0 -0.02974340118516787 -0.23585106297766359 0 -0.038133232148655979 -0.23444534332888789 0 -0.033387688564450117 -0.24425465961654741 0 -0.045207486351244337 -0.24272005325013779 0 -0.038133232148655979 -0.23444534332888789 0 -0.033387688564450117 -0.24425465961654741 0 -0.038581934025118947 -0.25114857380685968 0 -0.03064478186574425 -0.25326356670072259 0 -0.033387688564450117 -0.24425465961654741 0 -0.038581934025118947 -0.25114857380685968 0 -0.045207486351244337 -0.24272005325013779 0 -0.033387688564450117 -0.24425465961654741 0 -0.076282262678724011 -0.24169347649274159 0 -0.094544528280961701 -0.23130979592197831 0 -0.1005321994236209 -0.2431127607729493 0 -0.090174700483665673 -0.26498018187443112 0 -0.076282262678724011 -0.24169347649274159 0 -0.1005321994236209 -0.2431127607729493 0 -0.063484538676239377 -0.26413124226689111 0 -0.0567919256119837 -0.24387644547435741 0 -0.076282262678724011 -0.24169347649274159 0 -0.0567919256119837 -0.24387644547435741 0 -0.076282262678724011 -0.24169347649274159 0 -0.076216545617433393 -0.2267874217425101 0 -0.0567919256119837 -0.24387644547435741 0 -0.076216545617433393 -0.2267874217425101 0 -0.065984069430329237 -0.21594808513783789 0 -0.076216545617433393 -0.2267874217425101 0 -0.089079986681209755 -0.21925571071859279 0 -0.065984069430329237 -0.21594808513783789 0 -0.076282262678724011 -0.24169347649274159 0 -0.076216545617433393 -0.2267874217425101 0 -0.089079986681209755 -0.21925571071859279 0 -0.076282262678724011 -0.24169347649274159 0 -0.089079986681209755 -0.21925571071859279 0 -0.076282262678724011 -0.24169347649274159 0 -0.089079986681209755 -0.21925571071859279 0 -0.094544528280961701 -0.23130979592197831 0 -0.089079986681209755 -0.21925571071859279 0 -0.087982693832912948 -0.20610030108417279 0 -0.065984069430329237 -0.21594808513783789 0 -0.089079986681209755 -0.21925571071859279 0 -0.091681034097487346 -0.21469539259619891 0 -0.087982693832912948 -0.20610030108417279 0 -0.089079986681209755 -0.21925571071859279 0 -0.091681034097487346 -0.21469539259619891 0 -0.089079986681209755 -0.21925571071859279 0 -0.065984069430329237 -0.21594808513783789 0 -0.058327232484387218 -0.2013044317948425 0 -0.065984069430329237 -0.21594808513783789 0 -0.072928541530643487 -0.1948487939390374 0 -0.065984069430329237 -0.21594808513783789 0 -0.072928541530643487 -0.1948487939390374 0 -0.087982693832912948 -0.20610030108417279 0 -0.065984069430329237 -0.21594808513783789 0 -0.072928541530643487 -0.1948487939390374 0 -0.058327232484387218 -0.2013044317948425 0 -0.072928541530643487 -0.1948487939390374 0 -0.063770138428779252 -0.18079669395549949 0 -0.087982693832912948 -0.20610030108417279 0 -0.072928541530643487 -0.1948487939390374 0 -0.088647710124579282 -0.1895137930351245 0 -0.087982693832912948 -0.20610030108417279 0 -0.088647710124579282 -0.1895137930351245 0 -0.098413722631135098 -0.19641739989264009 0 -0.088647710124579282 -0.1895137930351245 0 -0.098413722631135098 -0.19641739989264009 0 -0.1039428787252024 -0.18306303235069041 0 -0.087982693832912948 -0.20610030108417279 0 -0.098413722631135098 -0.19641739989264009 0 -0.1018219586260966 -0.2062222809526808 0 -0.098413722631135098 -0.19641739989264009 0 -0.10967337184688419 -0.19718759204053191 0 -0.1018219586260966 -0.2062222809526808 0 -0.098413722631135098 -0.19641739989264009 0 -0.10967337184688419 -0.19718759204053191 0 -0.1039428787252024 -0.18306303235069041 0 -0.1039428787252024 -0.18306303235069041 0 -0.1280127438194481 -0.19237656196114411 0 -0.10967337184688419 -0.19718759204053191 0 -0.1178174188303993 -0.20556040013348681 0 -0.1280127438194481 -0.19237656196114411 0 -0.10967337184688419 -0.19718759204053191 0 -0.1039428787252024 -0.18306303235069041 0 -0.1280127438194481 -0.19237656196114411 0 -0.10967337184688419 -0.19718759204053191 0 -0.10961342770230489 -0.21003706569406461 0 -0.1178174188303993 -0.20556040013348681 0 -0.1178174188303993 -0.20556040013348681 0 -0.1109550451866443 -0.21888036136960631 0 -0.13246178853905299 -0.20873151589840269 0 -0.1109550451866443 -0.21888036136960631 0 -0.13246178853905299 -0.20873151589840269 0 -0.1109550451866443 -0.21888036136960631 0 -0.12407830270498089 -0.22426790937284519 0 -0.13246178853905299 -0.20873151589840269 0 -0.10961342770230489 -0.21003706569406461 0 -0.1178174188303993 -0.20556040013348681 0 -0.1109550451866443 -0.21888036136960631 0 -0.10961342770230489 -0.21003706569406461 0 -0.103172625086798 -0.22127395363072039 0 -0.1109550451866443 -0.21888036136960631 0 -0.10961342770230489 -0.21003706569406461 0 -0.1018219586260966 -0.2062222809526808 0 -0.103172625086798 -0.22127395363072039 0 -0.10967337184688419 -0.19718759204053191 0 -0.10961342770230489 -0.21003706569406461 0 -0.1018219586260966 -0.2062222809526808 0 -0.091681034097487346 -0.21469539259619891 0 -0.087982693832912948 -0.20610030108417279 0 -0.103172625086798 -0.22127395363072039 0 -0.089079986681209755 -0.21925571071859279 0 -0.091681034097487346 -0.21469539259619891 0 -0.103172625086798 -0.22127395363072039 0 -0.087982693832912948 -0.20610030108417279 0 -0.103172625086798 -0.22127395363072039 0 -0.087982693832912948 -0.20610030108417279 0 -0.1018219586260966 -0.2062222809526808 0 -0.103172625086798 -0.22127395363072039 0 -0.094544528280961701 -0.23130979592197831 0 -0.103172625086798 -0.22127395363072039 0 -0.1005321994236209 -0.2431127607729493 0 -0.089079986681209755 -0.21925571071859279 0 -0.103172625086798 -0.22127395363072039 0 -0.089079986681209755 -0.21925571071859279 0 -0.094544528280961701 -0.23130979592197831 0 -0.103172625086798 -0.22127395363072039 0 -0.103172625086798 -0.22127395363072039 0 -0.1223681628105569 -0.24044891992886891 0 -0.103172625086798 -0.22127395363072039 0 -0.12407830270498089 -0.22426790937284519 0 -0.1238233973506119 -0.23541481827178831 0 -0.103172625086798 -0.22127395363072039 0 -0.1223681628105569 -0.24044891992886891 0 -0.1238233973506119 -0.23541481827178831 0 -0.103172625086798 -0.22127395363072039 0 -0.12407830270498089 -0.22426790937284519 0 -0.103172625086798 -0.22127395363072039 0 -0.1109550451866443 -0.21888036136960631 0 -0.12407830270498089 -0.22426790937284519 0 -0.11757885349586771 -0.25701660664448461 0 -0.1223681628105569 -0.24044891992886891 0 -0.1005321994236209 -0.2431127607729493 0 -0.11757885349586771 -0.25701660664448461 0 -0.1223681628105569 -0.24044891992886891 0 -0.1223681628105569 -0.24044891992886891 0 -0.1238233973506119 -0.23541481827178831 0 -0.103172625086798 -0.22127395363072039 0 -0.1223681628105569 -0.24044891992886891 0 -0.1005321994236209 -0.2431127607729493 0 -0.088441251280713618 -0.1477167476767523 0 -0.085474651021334253 -0.13655174303235951 0 -0.077236065216807342 -0.1460130695171887 0 -0.088441251280713618 -0.1477167476767523 0 -0.077236065216807342 -0.1460130695171887 0 -0.072985053953480025 -0.15595005707556001 0 -0.088441251280713618 -0.1477167476767523 0 -0.093538562727787294 -0.15940564464812701 0 -0.098894310772838973 -0.14952020789867901 0 -0.088441251280713618 -0.1477167476767523 0 -0.085474651021334253 -0.13655174303235951 0 -0.095252038160572317 -0.1406191133899993 0 -0.085474651021334253 -0.13655174303235951 0 -0.095971306836852913 -0.13086642389395989 0 -0.095252038160572317 -0.1406191133899993 0 -0.082994471061899833 -0.1234246307735777 0 -0.085474651021334253 -0.13655174303235951 0 -0.095971306836852913 -0.13086642389395989 0 -0.082994471061899833 -0.1234246307735777 0 -0.085474651021334253 -0.13655174303235951 0 -0.073596501371478315 -0.1364787996572045 0 -0.085474651021334253 -0.13655174303235951 0 -0.073596501371478315 -0.1364787996572045 0 -0.077236065216807342 -0.1460130695171887 0 -0.06059931965736505 -0.14742373122833671 0 -0.060446148579459319 -0.1303024678998376 0 -0.073596501371478315 -0.1364787996572045 0 -0.082994471061899833 -0.1234246307735777 0 -0.073596501371478315 -0.1364787996572045 0 -0.071674103496310607 -0.1250344835198243 0 -0.060446148579459319 -0.1303024678998376 0 -0.073596501371478315 -0.1364787996572045 0 -0.071674103496310607 -0.1250344835198243 0 -0.06059931965736505 -0.14742373122833671 0 -0.073596501371478315 -0.1364787996572045 0 -0.077236065216807342 -0.1460130695171887 0 -0.057687804487617317 -0.16516521689311761 0 -0.06059931965736505 -0.14742373122833671 0 -0.072985053953480025 -0.15595005707556001 0 -0.06059931965736505 -0.14742373122833671 0 -0.077236065216807342 -0.1460130695171887 0 -0.072985053953480025 -0.15595005707556001 0 -0.057687804487617317 -0.16516521689311761 0 -0.079873013630956835 -0.17374950274023659 0 -0.057687804487617317 -0.16516521689311761 0 -0.072985053953480025 -0.15595005707556001 0 -0.079873013630956835 -0.17374950274023659 0 -0.072928541530643487 -0.1948487939390374 0 -0.079873013630956835 -0.17374950274023659 0 -0.057687804487617317 -0.16516521689311761 0 -0.063770138428779252 -0.18079669395549949 0 -0.079873013630956835 -0.17374950274023659 0 -0.072928541530643487 -0.1948487939390374 0 -0.063770138428779252 -0.18079669395549949 0 -0.079873013630956835 -0.17374950274023659 0 -0.072928541530643487 -0.1948487939390374 0 -0.088647710124579282 -0.1895137930351245 0 -0.079873013630956835 -0.17374950274023659 0 -0.079873013630956835 -0.17374950274023659 0 -0.1039428787252024 -0.18306303235069041 0 -0.088647710124579282 -0.1895137930351245 0 -0.079873013630956835 -0.17374950274023659 0 -0.1039428787252024 -0.18306303235069041 0 -0.088441251280713618 -0.1477167476767523 0 -0.079873013630956835 -0.17374950274023659 0 -0.079873013630956835 -0.17374950274023659 0 -0.093538562727787294 -0.15940564464812701 0 -0.098088850166783578 -0.16700629557107341 0 -0.088441251280713618 -0.1477167476767523 0 -0.079873013630956835 -0.17374950274023659 0 -0.093538562727787294 -0.15940564464812701 0 -0.088441251280713618 -0.1477167476767523 0 -0.072985053953480025 -0.15595005707556001 0 -0.079873013630956835 -0.17374950274023659 0 -0.093538562727787294 -0.15940564464812701 0 -0.098088850166783578 -0.16700629557107341 0 -0.1023953877876435 -0.15903546935389351 0 -0.098088850166783578 -0.16700629557107341 0 -0.1039428787252024 -0.18306303235069041 0 -0.1119878388851908 -0.16231915977259129 0 -0.098088850166783578 -0.16700629557107341 0 -0.1023953877876435 -0.15903546935389351 0 -0.1119878388851908 -0.16231915977259129 0 -0.079873013630956835 -0.17374950274023659 0 -0.098088850166783578 -0.16700629557107341 0 -0.1039428787252024 -0.18306303235069041 0 -0.1039428787252024 -0.18306303235069041 0 -0.11859204859796291 -0.17560578940816099 0 -0.1119878388851908 -0.16231915977259129 0 -0.1039428787252024 -0.18306303235069041 0 -0.11859204859796291 -0.17560578940816099 0 -0.1280127438194481 -0.19237656196114411 0 -0.1023953877876435 -0.15903546935389351 0 -0.1119878388851908 -0.16231915977259129 0 -0.1169630623746598 -0.14907522687480429 0 -0.11859204859796291 -0.17560578940816099 0 -0.1119878388851908 -0.16231915977259129 0 -0.12588679133122799 -0.1624874708491951 0 -0.1119878388851908 -0.16231915977259129 0 -0.1169630623746598 -0.14907522687480429 0 -0.12588679133122799 -0.1624874708491951 0 -0.1119878388851908 -0.16231915977259129 0 -0.1169630623746598 -0.14907522687480429 0 -0.1023953877876435 -0.15903546935389351 0 -0.1169630623746598 -0.14907522687480429 0 -0.098894310772838973 -0.14952020789867901 0 -0.1169630623746598 -0.14907522687480429 0 -0.098894310772838973 -0.14952020789867901 0 -0.1169630623746598 -0.14907522687480429 0 -0.098894310772838973 -0.14952020789867901 0 -0.1074786708911218 -0.1384404444482458 0 -0.088441251280713618 -0.1477167476767523 0 -0.098894310772838973 -0.14952020789867901 0 -0.095252038160572317 -0.1406191133899993 0 -0.098894310772838973 -0.14952020789867901 0 -0.095252038160572317 -0.1406191133899993 0 -0.1074786708911218 -0.1384404444482458 0 -0.093538562727787294 -0.15940564464812701 0 -0.1023953877876435 -0.15903546935389351 0 -0.098894310772838973 -0.14952020789867901 0 -0.1085913382140784 -0.11903379143832921 0 -0.095971306836852913 -0.13086642389395989 0 -0.1074786708911218 -0.1384404444482458 0 -0.095971306836852913 -0.13086642389395989 0 -0.095252038160572317 -0.1406191133899993 0 -0.1074786708911218 -0.1384404444482458 0 -0.1085913382140784 -0.11903379143832921 0 -0.1074786708911218 -0.1384404444482458 0 -0.12736410167423581 -0.1213878944680517 0 -0.1169630623746598 -0.14907522687480429 0 -0.1074786708911218 -0.1384404444482458 0 -0.12736410167423581 -0.1213878944680517 0 -0.1169630623746598 -0.14907522687480429 0 -0.12736410167423581 -0.1213878944680517 0 -0.13746664940214659 -0.13470709103134659 0 -0.12736410167423581 -0.1213878944680517 0 -0.14737054533773081 -0.1208951937003558 0 -0.1169630623746598 -0.14907522687480429 0 -0.13746664940214659 -0.13470709103134659 0 -0.12736410167423581 -0.1213878944680517 0 -0.1569759497016511 -0.14808982533941309 0 -0.14737054533773081 -0.1208951937003558 0 -0.13746664940214659 -0.13470709103134659 0 -0.1569759497016511 -0.14808982533941309 0 -0.14737054533773081 -0.1208951937003558 0 -0.1369695060381555 -0.1485825261071109 0 -0.1526603788815559 -0.1573596194762775 0 -0.1569759497016511 -0.14808982533941309 0 -0.13746664940214659 -0.13470709103134659 0 -0.1369695060381555 -0.1485825261071109 0 -0.1569759497016511 -0.14808982533941309 0 -0.1369695060381555 -0.1485825261071109 0 -0.1569759497016511 -0.14808982533941309 0 -0.1169630623746598 -0.14907522687480429 0 -0.1369695060381555 -0.1485825261071109 0 -0.1169630623746598 -0.14907522687480429 0 -0.1369695060381555 -0.1485825261071109 0 -0.12588679133122799 -0.1624874708491951 0 -0.1169630623746598 -0.14907522687480429 0 -0.13746664940214659 -0.13470709103134659 0 -0.1369695060381555 -0.1485825261071109 0 -0.11859204859796291 -0.17560578940816099 0 -0.12588679133122799 -0.1624874708491951 0 -0.13147554750711021 -0.17522771154146191 0 -0.12588679133122799 -0.1624874708491951 0 -0.13147554750711021 -0.17522771154146191 0 -0.14107140235061469 -0.16358211752318311 0 -0.13147554750711021 -0.17522771154146191 0 -0.14520517551865919 -0.17294749126987599 0 -0.14107140235061469 -0.16358211752318311 0 -0.1369695060381555 -0.1485825261071109 0 -0.12588679133122799 -0.1624874708491951 0 -0.14107140235061469 -0.16358211752318311 0 -0.11859204859796291 -0.17560578940816099 0 -0.13147554750711021 -0.17522771154146191 0 -0.1280127438194481 -0.19237656196114411 0 -0.13147554750711021 -0.17522771154146191 0 -0.1398254013782112 -0.18365029146927231 0 -0.1280127438194481 -0.19237656196114411 0 -0.13147554750711021 -0.17522771154146191 0 -0.1398254013782112 -0.18365029146927231 0 -0.14520517551865919 -0.17294749126987599 0 -0.1398254013782112 -0.18365029146927231 0 -0.14820117369214661 -0.18035874543477601 0 -0.1498687104188495 -0.18767128888863599 0 -0.1398254013782112 -0.18365029146927231 0 -0.14820117369214661 -0.18035874543477601 0 -0.14520517551865919 -0.17294749126987599 0 -0.14820117369214661 -0.18035874543477601 0 -0.14520517551865919 -0.17294749126987599 0 -0.1568216795970071 -0.17538216601134321 0 -0.14820117369214661 -0.18035874543477601 0 -0.15608754076248521 -0.18190001438557629 0 -0.1568216795970071 -0.17538216601134321 0 -0.14520517551865919 -0.17294749126987599 0 -0.15263532751206779 -0.16758471640843459 0 -0.1568216795970071 -0.17538216601134321 0 -0.14820117369214661 -0.18035874543477601 0 -0.15608754076248521 -0.18190001438557629 0 -0.1498687104188495 -0.18767128888863599 0 -0.15608754076248521 -0.18190001438557629 0 -0.1607184616130248 -0.18728683910860641 0 -0.1498687104188495 -0.18767128888863599 0 -0.1369695060381555 -0.1485825261071109 0 -0.14107140235061469 -0.16358211752318311 0 -0.1526603788815559 -0.1573596194762775 0 -0.14520517551865919 -0.17294749126987599 0 -0.14107140235061469 -0.16358211752318311 0 -0.15263532751206779 -0.16758471640843459 0 -0.15263532751206779 -0.16758471640843459 0 -0.1526603788815559 -0.1573596194762775 0 -0.16142564196989831 -0.16655703171874039 0 -0.14107140235061469 -0.16358211752318311 0 -0.15263532751206779 -0.16758471640843459 0 -0.1526603788815559 -0.1573596194762775 0 -0.1526603788815559 -0.1573596194762775 0 -0.16142564196989831 -0.16655703171874039 0 -0.16326087804426159 -0.16588359066980229 0 -0.16326087804426159 -0.16588359066980229 0 -0.1569759497016511 -0.14808982533941309 0 -0.1526603788815559 -0.1573596194762775 0 -0.16326087804426159 -0.16588359066980229 0 -0.1569759497016511 -0.14808982533941309 0 -0.1594122663447772 -0.17133307891758459 0 -0.16142564196989831 -0.16655703171874039 0 -0.16676641630013581 -0.17580840153182001 0 -0.15263532751206779 -0.16758471640843459 0 -0.1594122663447772 -0.17133307891758459 0 -0.16142564196989831 -0.16655703171874039 0 -0.16142564196989831 -0.16655703171874039 0 -0.16326087804426159 -0.16588359066980229 0 -0.16676641630013581 -0.17580840153182001 0 -0.15263532751206779 -0.16758471640843459 0 -0.1594122663447772 -0.17133307891758459 0 -0.1568216795970071 -0.17538216601134321 0 -0.16142564196989831 -0.16655703171874039 0 -0.16326087804426159 -0.16588359066980229 0 -0.16326087804426159 -0.16588359066980229 0 -0.16676641630013581 -0.17580840153182001 0 -0.1783922457352059 -0.17293489930968209 0 -0.16326087804426159 -0.16588359066980229 0 -0.16676641630013581 -0.17580840153182001 0 -0.15608754076248521 -0.18190001438557629 0 -0.1607184616130248 -0.18728683910860641 0 -0.16676641630013581 -0.17580840153182001 0 -0.15608754076248521 -0.18190001438557629 0 -0.1568216795970071 -0.17538216601134321 0 -0.16676641630013581 -0.17580840153182001 0 -0.1594122663447772 -0.17133307891758459 0 -0.1568216795970071 -0.17538216601134321 0 -0.16676641630013581 -0.17580840153182001 0 -0.1607184616130248 -0.18728683910860641 0 -0.16676641630013581 -0.17580840153182001 0 -0.17547527524387041 -0.1884338249559952 0 -0.17547527524387041 -0.1884338249559952 0 -0.1969820185962792 -0.17828497948479149 0 -0.1783922457352059 -0.17293489930968209 0 -0.17547527524387041 -0.1884338249559952 0 -0.1969820185962792 -0.17828497948479149 0 -0.16676641630013581 -0.17580840153182001 0 -0.1783922457352059 -0.17293489930968209 0 -0.17547527524387041 -0.1884338249559952 0 -0.16326087804426159 -0.16588359066980229 0 -0.18947664049148261 -0.1562636999060015 0 -0.16326087804426159 -0.16588359066980229 0 -0.18633417632017751 -0.14736681724080919 0 -0.18947664049148261 -0.1562636999060015 0 -0.16326087804426159 -0.16588359066980229 0 -0.1783922457352059 -0.17293489930968209 0 -0.18947664049148261 -0.1562636999060015 0 -0.18633417632017751 -0.14736681724080919 0 -0.16621773075288121 -0.1295318635244681 0 -0.18400621351090571 -0.1217110611121094 0 -0.16621773075288121 -0.1295318635244681 0 -0.1569759497016511 -0.14808982533941309 0 -0.14737054533773081 -0.1208951937003558 0 -0.18633417632017751 -0.14736681724080919 0 -0.16621773075288121 -0.1295318635244681 0 -0.1569759497016511 -0.14808982533941309 0 -0.18633417632017751 -0.14736681724080919 0 -0.1569759497016511 -0.14808982533941309 0 -0.16326087804426159 -0.16588359066980229 0 -0.18633417632017751 -0.14736681724080919 0 -0.1569759497016511 -0.14808982533941309 0 -0.1377523016625678 -0.25581657194563601 0 -0.15263230708737521 -0.24356194903458239 0 -0.13476861079800859 -0.2391754021203874 0 -0.15263230708737521 -0.24356194903458239 0 -0.13476861079800859 -0.2391754021203874 0 -0.14055595197029169 -0.22979662500526149 0 -0.1377523016625678 -0.25581657194563601 0 -0.1223681628105569 -0.24044891992886891 0 -0.13476861079800859 -0.2391754021203874 0 -0.1377523016625678 -0.25581657194563601 0 -0.1223681628105569 -0.24044891992886891 0 -0.1238233973506119 -0.23541481827178831 0 -0.13476861079800859 -0.2391754021203874 0 -0.13139441447274411 -0.22962184130071481 0 -0.1223681628105569 -0.24044891992886891 0 -0.1238233973506119 -0.23541481827178831 0 -0.13476861079800859 -0.2391754021203874 0 -0.13476861079800859 -0.2391754021203874 0 -0.14055595197029169 -0.22979662500526149 0 -0.13139441447274411 -0.22962184130071481 0 -0.12407830270498089 -0.22426790937284519 0 -0.1238233973506119 -0.23541481827178831 0 -0.13139441447274411 -0.22962184130071481 0 -0.12407830270498089 -0.22426790937284519 0 -0.13139441447274411 -0.22962184130071481 0 -0.13441394179160859 -0.22010184774946731 0 -0.14055595197029169 -0.22979662500526149 0 -0.13139441447274411 -0.22962184130071481 0 -0.13441394179160859 -0.22010184774946731 0 -0.14055595197029169 -0.22979662500526149 0 -0.13441394179160859 -0.22010184774946731 0 -0.14940536450650499 -0.21373664043116339 0 -0.15263230708737521 -0.24356194903458239 0 -0.14940536450650499 -0.21373664043116339 0 -0.15263230708737521 -0.24356194903458239 0 -0.14940536450650499 -0.21373664043116339 0 -0.16621803193972459 -0.22739125443424221 0 -0.15263230708737521 -0.24356194903458239 0 -0.14055595197029169 -0.22979662500526149 0 -0.14940536450650499 -0.21373664043116339 0 -0.14940536450650499 -0.21373664043116339 0 -0.13246178853905299 -0.20873151589840269 0 -0.1539685318914617 -0.1985826704271989 0 -0.13246178853905299 -0.20873151589840269 0 -0.1539685318914617 -0.1985826704271989 0 -0.13441394179160859 -0.22010184774946731 0 -0.14940536450650499 -0.21373664043116339 0 -0.13246178853905299 -0.20873151589840269 0 -0.12407830270498089 -0.22426790937284519 0 -0.13441394179160859 -0.22010184774946731 0 -0.13246178853905299 -0.20873151589840269 0 -0.1178174188303993 -0.20556040013348681 0 -0.13246178853905299 -0.20873151589840269 0 -0.1280127438194481 -0.19237656196114411 0 -0.13246178853905299 -0.20873151589840269 0 -0.1280127438194481 -0.19237656196114411 0 -0.14041115317576749 -0.19424917250638599 0 -0.1398254013782112 -0.18365029146927231 0 -0.1280127438194481 -0.19237656196114411 0 -0.14041115317576749 -0.19424917250638599 0 -0.13246178853905299 -0.20873151589840269 0 -0.14041115317576749 -0.19424917250638599 0 -0.1539685318914617 -0.1985826704271989 0 -0.14041115317576749 -0.19424917250638599 0 -0.1539685318914617 -0.1985826704271989 0 -0.1498687104188495 -0.18767128888863599 0 -0.1398254013782112 -0.18365029146927231 0 -0.14041115317576749 -0.19424917250638599 0 -0.1498687104188495 -0.18767128888863599 0 -0.1607184616130248 -0.18728683910860641 0 -0.1539685318914617 -0.1985826704271989 0 -0.1498687104188495 -0.18767128888863599 0 -0.1607184616130248 -0.18728683910860641 0 -0.1539685318914617 -0.1985826704271989 0 -0.17547527524387041 -0.1884338249559952 0 -0.1539685318914617 -0.1985826704271989 0 -0.17547527524387041 -0.1884338249559952 0 -0.16825702714884239 -0.20885775366498019 0 -0.1539685318914617 -0.1985826704271989 0 -0.17547527524387041 -0.1884338249559952 0 -0.17547527524387041 -0.1884338249559952 0 -0.18277425339256639 -0.2026996383603622 0 -0.16825702714884239 -0.20885775366498019 0 -0.17547527524387041 -0.1884338249559952 0 -0.18277425339256639 -0.2026996383603622 0 -0.1902080517791363 -0.1917922864575213 0 -0.18277425339256639 -0.2026996383603622 0 -0.16825702714884239 -0.20885775366498019 0 -0.18626938338499441 -0.22517712183416291 0 -0.14940536450650499 -0.21373664043116339 0 -0.1539685318914617 -0.1985826704271989 0 -0.16825702714884239 -0.20885775366498019 0 -0.14940536450650499 -0.21373664043116339 0 -0.16825702714884239 -0.20885775366498019 0 -0.16621803193972459 -0.22739125443424221 0 -0.16825702714884239 -0.20885775366498019 0 -0.16621803193972459 -0.22739125443424221 0 -0.18626938338499441 -0.22517712183416291 0 -0.16621803193972459 -0.22739125443424221 0 -0.18626938338499441 -0.22517712183416291 0 -0.1745260775709061 -0.24562280720632229 0 -0.18626938338499441 -0.22517712183416291 0 -0.1745260775709061 -0.24562280720632229 0 -0.19988453840298659 -0.24176205441804 0 -0.18626938338499441 -0.22517712183416291 0 -0.1745260775709061 -0.24562280720632229 0 -0.15263230708737521 -0.24356194903458239 0 -0.16621803193972459 -0.22739125443424221 0 -0.1745260775709061 -0.24562280720632229 0 -0.1689202540561075 -0.25519621835756329 0 -0.15263230708737521 -0.24356194903458239 0 -0.1745260775709061 -0.24562280720632229 0 -0.21854221021918649 -0.25236034283526498 0 -0.19988453840298659 -0.24176205441804 0 -0.21493562756427159 -0.22243862284749449 0 -0.19160736129165659 -0.25262396586623759 0 -0.1745260775709061 -0.24562280720632229 0 -0.19988453840298659 -0.24176205441804 0 -0.18626938338499441 -0.22517712183416291 0 -0.19988453840298659 -0.24176205441804 0 -0.21493562756427159 -0.22243862284749449 0 -0.21493562756427159 -0.22243862284749449 0 -0.19801268919908249 -0.2047314364620034 0 -0.21541309520260529 -0.20113031717637361 0 -0.18626938338499441 -0.22517712183416291 0 -0.19801268919908249 -0.2047314364620034 0 -0.18277425339256639 -0.2026996383603622 0 -0.18626938338499441 -0.22517712183416291 0 -0.19801268919908249 -0.2047314364620034 0 -0.18626938338499441 -0.22517712183416291 0 -0.21493562756427159 -0.22243862284749449 0 -0.19801268919908249 -0.2047314364620034 0 -0.19801268919908249 -0.2047314364620034 0 -0.1902080517791363 -0.1917922864575213 0 -0.20975599501317069 -0.18428575108984399 0 -0.18277425339256639 -0.2026996383603622 0 -0.19801268919908249 -0.2047314364620034 0 -0.1902080517791363 -0.1917922864575213 0 -0.21541309520260529 -0.20113031717637361 0 -0.20975599501317069 -0.18428575108984399 0 -0.229896455205026 -0.18225842567294781 0 -0.19801268919908249 -0.2047314364620034 0 -0.21541309520260529 -0.20113031717637361 0 -0.20975599501317069 -0.18428575108984399 0 -0.19801268919908249 -0.2047314364620034 0 -0.20975599501317069 -0.18428575108984399 0 -0.21541309520260529 -0.20113031717637361 0 -0.23384346774119599 -0.2034651679104556 0 -0.229896455205026 -0.18225842567294781 0 -0.24262172765942899 -0.19089247064050549 0 -0.25644706280453389 -0.1995927939493197 0 -0.25029992488695979 -0.1782534950292988 0 -0.24262172765942899 -0.19089247064050549 0 -0.23384346774119599 -0.2034651679104556 0 -0.25644706280453389 -0.1995927939493197 0 -0.24262172765942899 -0.19089247064050549 0 -0.23384346774119599 -0.2034651679104556 0 -0.229896455205026 -0.18225842567294781 0 -0.23384346774119599 -0.2034651679104556 0 -0.2377451423251814 -0.23136366228574551 0 -0.25674041691710447 -0.22108212323078871 0 -0.23384346774119599 -0.2034651679104556 0 -0.25674041691710447 -0.22108212323078871 0 -0.25644706280453389 -0.1995927939493197 0 -0.21493562756427159 -0.22243862284749449 0 -0.21541309520260529 -0.20113031717637361 0 -0.23384346774119599 -0.2034651679104556 0 -0.21493562756427159 -0.22243862284749449 0 -0.23384346774119599 -0.2034651679104556 0 -0.2377451423251814 -0.23136366228574551 0 -0.24465976002352091 -0.25387891845332877 0 -0.2377451423251814 -0.23136366228574551 0 -0.25992972331208369 -0.2410680052130979 0 -0.24465976002352091 -0.25387891845332877 0 -0.21854221021918649 -0.25236034283526498 0 -0.2377451423251814 -0.23136366228574551 0 -0.21854221021918649 -0.25236034283526498 0 -0.21493562756427159 -0.22243862284749449 0 -0.2377451423251814 -0.23136366228574551 0 -0.21854221021918649 -0.25236034283526498 0 -0.2377451423251814 -0.23136366228574551 0 -0.21569240293870359 -0.1466438091422006 0 -0.18947664049148261 -0.1562636999060015 0 -0.2105647825198341 -0.15627799774793921 0 -0.2105647825198341 -0.15627799774793921 0 -0.22149930082725899 -0.1638400657176845 0 -0.22047208921520459 -0.14652609931143951 0 -0.21569240293870359 -0.1466438091422006 0 -0.2105647825198341 -0.15627799774793921 0 -0.22047208921520459 -0.14652609931143951 0 -0.21569240293870359 -0.1466438091422006 0 -0.22047208921520459 -0.14652609931143951 0 -0.20228853596836749 -0.13187567246267581 0 -0.2244809527826766 -0.1321180186971766 0 -0.2129261089666101 -0.1196792574727195 0 -0.21569240293870359 -0.1466438091422006 0 -0.20228853596836749 -0.13187567246267581 0 -0.2244809527826766 -0.1321180186971766 0 -0.18633417632017751 -0.14736681724080919 0 -0.20228853596836749 -0.13187567246267581 0 -0.18400621351090571 -0.1217110611121094 0 -0.21569240293870359 -0.1466438091422006 0 -0.18947664049148261 -0.1562636999060015 0 -0.18633417632017751 -0.14736681724080919 0 -0.21569240293870359 -0.1466438091422006 0 -0.18947664049148261 -0.1562636999060015 0 -0.18633417632017751 -0.14736681724080919 0 -0.21569240293870359 -0.1466438091422006 0 -0.18633417632017751 -0.14736681724080919 0 -0.21569240293870359 -0.1466438091422006 0 -0.20228853596836749 -0.13187567246267581 0 -0.1783922457352059 -0.17293489930968209 0 -0.18947664049148261 -0.1562636999060015 0 -0.1969820185962792 -0.17828497948479149 0 -0.18947664049148261 -0.1562636999060015 0 -0.1969820185962792 -0.17828497948479149 0 -0.20568347912652049 -0.16811631466237001 0 -0.18947664049148261 -0.1562636999060015 0 -0.20568347912652049 -0.16811631466237001 0 -0.2105647825198341 -0.15627799774793921 0 -0.1902080517791363 -0.1917922864575213 0 -0.1969820185962792 -0.17828497948479149 0 -0.20975599501317069 -0.18428575108984399 0 -0.17547527524387041 -0.1884338249559952 0 -0.1902080517791363 -0.1917922864575213 0 -0.1969820185962792 -0.17828497948479149 0 -0.20975599501317069 -0.18428575108984399 0 -0.22149930082725899 -0.1638400657176845 0 -0.20975599501317069 -0.18428575108984399 0 -0.20568347912652049 -0.16811631466237001 0 -0.22149930082725899 -0.1638400657176845 0 -0.1969820185962792 -0.17828497948479149 0 -0.20975599501317069 -0.18428575108984399 0 -0.20568347912652049 -0.16811631466237001 0 -0.20568347912652049 -0.16811631466237001 0 -0.2105647825198341 -0.15627799774793921 0 -0.22149930082725899 -0.1638400657176845 0 -0.22149930082725899 -0.1638400657176845 0 -0.2402834514435094 -0.1667894474332684 0 -0.2341322288468432 -0.15422277024092529 0 -0.22149930082725899 -0.1638400657176845 0 -0.229896455205026 -0.18225842567294781 0 -0.2402834514435094 -0.1667894474332684 0 -0.20975599501317069 -0.18428575108984399 0 -0.22149930082725899 -0.1638400657176845 0 -0.229896455205026 -0.18225842567294781 0 -0.229896455205026 -0.18225842567294781 0 -0.2402834514435094 -0.1667894474332684 0 -0.25029992488695979 -0.1782534950292988 0 -0.24262172765942899 -0.19089247064050549 0 -0.229896455205026 -0.18225842567294781 0 -0.25029992488695979 -0.1782534950292988 0 -0.2402834514435094 -0.1667894474332684 0 -0.25029992488695979 -0.1782534950292988 0 -0.25761979100978533 -0.16665415002795461 0 -0.2402834514435094 -0.1667894474332684 0 -0.24825300788518309 -0.1555077779107997 0 -0.25761979100978533 -0.16665415002795461 0 -0.2402834514435094 -0.1667894474332684 0 -0.24825300788518309 -0.1555077779107997 0 -0.2341322288468432 -0.15422277024092529 0 -0.24825300788518309 -0.1555077779107997 0 -0.2405789555143194 -0.1375116727892334 0 -0.25601133851015478 -0.1487044986697981 0 -0.24825300788518309 -0.1555077779107997 0 -0.2341322288468432 -0.15422277024092529 0 -0.2405789555143194 -0.1375116727892334 0 -0.21569240293870359 -0.1466438091422006 0 -0.22047208921520459 -0.14652609931143951 0 -0.2405789555143194 -0.1375116727892334 0 -0.22149930082725899 -0.1638400657176845 0 -0.2341322288468432 -0.15422277024092529 0 -0.22047208921520459 -0.14652609931143951 0 -0.21569240293870359 -0.1466438091422006 0 -0.2405789555143194 -0.1375116727892334 0 -0.2341322288468432 -0.15422277024092529 0 -0.22047208921520459 -0.14652609931143951 0 -0.2405789555143194 -0.1375116727892334 0 -0.21569240293870359 -0.1466438091422006 0 -0.2244809527826766 -0.1321180186971766 0 -0.2405789555143194 -0.1375116727892334 0 -0.2244809527826766 -0.1321180186971766 0 -0.2405789555143194 -0.1375116727892334 0 -0.23651179230599079 -0.1199754775459997 0 -0.2405789555143194 -0.1375116727892334 0 -0.23651179230599079 -0.1199754775459997 0 -0.25054446979338107 -0.12912519928877991 0 -0.23651179230599079 -0.1199754775459997 0 -0.24959534238117709 -0.1078054475449232 0 -0.26009747564537128 -0.1202716976192799 0 -0.23651179230599079 -0.1199754775459997 0 -0.26009747564537128 -0.1202716976192799 0 -0.23651179230599079 -0.1199754775459997 0 -0.26009747564537128 -0.1202716976192799 0 -0.25054446979338107 -0.12912519928877991 0 -0.23651179230599079 -0.1199754775459997 0 -0.24959534238117709 -0.1078054475449232 0 -0.23746734258601571 -0.1067534300414448 0 -0.24098124084432149 -0.095291905336151436 0 -0.23746734258601571 -0.1067534300414448 0 -0.22473934926471251 -0.1042306158888877 0 -0.24959534238117709 -0.1078054475449232 0 -0.24098124084432149 -0.095291905336151436 0 -0.25687551172258971 -0.095275519396915032 0 -0.24959534238117709 -0.1078054475449232 0 -0.24098124084432149 -0.095291905336151436 0 -0.23746734258601571 -0.1067534300414448 0 -0.22473934926471251 -0.1042306158888877 0 -0.22774604229393439 -0.087804120453188278 0 -0.20897213189474381 -0.093424031558921927 0 -0.24098124084432149 -0.095291905336151436 0 -0.22473934926471251 -0.1042306158888877 0 -0.22774604229393439 -0.087804120453188278 0 -0.2244809527826766 -0.1321180186971766 0 -0.23651179230599079 -0.1199754775459997 0 -0.2129261089666101 -0.1196792574727195 0 -0.23651179230599079 -0.1199754775459997 0 -0.2129261089666101 -0.1196792574727195 0 -0.23651179230599079 -0.1199754775459997 0 -0.23746734258601571 -0.1067534300414448 0 -0.22473934926471251 -0.1042306158888877 0 -0.23651179230599079 -0.1199754775459997 0 -0.22473934926471251 -0.1042306158888877 0 -0.2129261089666101 -0.1196792574727195 0 -0.2466384096447127 -0.069214282175018252 0 -0.23144064811545881 -0.071679072189906365 0 -0.24006258296416741 -0.059977364163272567 0 -0.2466384096447127 -0.069214282175018252 0 -0.23867713564867771 -0.0818228939715063 0 -0.25106785873748549 -0.083001848322642804 0 -0.2466384096447127 -0.069214282175018252 0 -0.23867713564867771 -0.0818228939715063 0 -0.23144064811545881 -0.071679072189906365 0 -0.24098124084432149 -0.095291905336151436 0 -0.25106785873748549 -0.083001848322642804 0 -0.25687551172258971 -0.095275519396915032 0 -0.24098124084432149 -0.095291905336151436 0 -0.23867713564867771 -0.0818228939715063 0 -0.25106785873748549 -0.083001848322642804 0 -0.24098124084432149 -0.095291905336151436 0 -0.23867713564867771 -0.0818228939715063 0 -0.22774604229393439 -0.087804120453188278 0 -0.22048160989483939 -0.080833284582646742 0 -0.22774604229393439 -0.087804120453188278 0 -0.23144064811545881 -0.071679072189906365 0 -0.23867713564867771 -0.0818228939715063 0 -0.22774604229393439 -0.087804120453188278 0 -0.23144064811545881 -0.071679072189906365 0 -0.22048160989483939 -0.080833284582646742 0 -0.22774604229393439 -0.087804120453188278 0 -0.20897213189474381 -0.093424031558921927 0 -0.23144064811545881 -0.071679072189906365 0 -0.2137676172752207 -0.070425914128570383 0 -0.21856310265569601 -0.047427796698218422 0 -0.22048160989483939 -0.080833284582646742 0 -0.23144064811545881 -0.071679072189906365 0 -0.2137676172752207 -0.070425914128570383 0 -0.23144064811545881 -0.071679072189906365 0 -0.23092663332862359 -0.057189961691847993 0 -0.24006258296416741 -0.059977364163272567 0 -0.20335705558913081 -0.063140738221072371 0 -0.2137676172752207 -0.070425914128570383 0 -0.20224544779007569 -0.076575791796341275 0 -0.2137676172752207 -0.070425914128570383 0 -0.20897213189474381 -0.093424031558921927 0 -0.20224544779007569 -0.076575791796341275 0 -0.2137676172752207 -0.070425914128570383 0 -0.20897213189474381 -0.093424031558921927 0 -0.22048160989483939 -0.080833284582646742 0 -0.2137676172752207 -0.070425914128570383 0 -0.20897213189474381 -0.093424031558921927 0 -0.20897213189474381 -0.093424031558921927 0 -0.18864483179057751 -0.079783658531738119 0 -0.20224544779007569 -0.076575791796341275 0 -0.20897213189474381 -0.093424031558921927 0 -0.18864483179057751 -0.079783658531738119 0 -0.1843208979706715 -0.098582101900239388 0 -0.20335705558913081 -0.063140738221072371 0 -0.18864483179057751 -0.079783658531738119 0 -0.20224544779007569 -0.076575791796341275 0 -0.20335705558913081 -0.063140738221072371 0 -0.18864483179057751 -0.079783658531738119 0 -0.20335705558913081 -0.063140738221072371 0 -0.18864483179057751 -0.079783658531738119 0 -0.18476368522970901 -0.060313507398174523 0 -0.22473934926471251 -0.1042306158888877 0 -0.2129261089666101 -0.1196792574727195 0 -0.1994025973422491 -0.10829052452779669 0 -0.20228853596836749 -0.13187567246267581 0 -0.2129261089666101 -0.1196792574727195 0 -0.1994025973422491 -0.10829052452779669 0 -0.22473934926471251 -0.1042306158888877 0 -0.20897213189474381 -0.093424031558921927 0 -0.1994025973422491 -0.10829052452779669 0 -0.20897213189474381 -0.093424031558921927 0 -0.1994025973422491 -0.10829052452779669 0 -0.1843208979706715 -0.098582101900239388 0 -0.20228853596836749 -0.13187567246267581 0 -0.1994025973422491 -0.10829052452779669 0 -0.18400621351090571 -0.1217110611121094 0 -0.1994025973422491 -0.10829052452779669 0 -0.18400621351090571 -0.1217110611121094 0 -0.1843208979706715 -0.098582101900239388 0 -0.16621773075288121 -0.1295318635244681 0 -0.18400621351090571 -0.1217110611121094 0 -0.16647442841019139 -0.11035058163789351 0 -0.18400621351090571 -0.1217110611121094 0 -0.16647442841019139 -0.11035058163789351 0 -0.1843208979706715 -0.098582101900239388 0 -0.16621773075288121 -0.1295318635244681 0 -0.16647442841019139 -0.11035058163789351 0 -0.14737054533773081 -0.1208951937003558 0 -0.16647442841019139 -0.11035058163789351 0 -0.16521255597131029 -0.094363556792246006 0 -0.15171862691764881 -0.097019712797942706 0 -0.16647442841019139 -0.11035058163789351 0 -0.16521255597131029 -0.094363556792246006 0 -0.1843208979706715 -0.098582101900239388 0 -0.16521255597131029 -0.094363556792246006 0 -0.1843208979706715 -0.098582101900239388 0 -0.1718657805157274 -0.077566403117392158 0 -0.18864483179057751 -0.079783658531738119 0 -0.1843208979706715 -0.098582101900239388 0 -0.1718657805157274 -0.077566403117392158 0 -0.18864483179057751 -0.079783658531738119 0 -0.1718657805157274 -0.077566403117392158 0 -0.18476368522970901 -0.060313507398174523 0 -0.1718657805157274 -0.077566403117392158 0 -0.16766997596840549 -0.055069670457126463 0 -0.18476368522970901 -0.060313507398174523 0 -0.1718657805157274 -0.077566403117392158 0 -0.1555984100513392 -0.067553704814911478 0 -0.16766997596840549 -0.055069670457126463 0 -0.1718657805157274 -0.077566403117392158 0 -0.15451520526235171 -0.083858215916353424 0 -0.1555984100513392 -0.067553704814911478 0 -0.16521255597131029 -0.094363556792246006 0 -0.1718657805157274 -0.077566403117392158 0 -0.15451520526235171 -0.083858215916353424 0 -0.16521255597131029 -0.094363556792246006 0 -0.15451520526235171 -0.083858215916353424 0 -0.15171862691764881 -0.097019712797942706 0 -0.15451520526235171 -0.083858215916353424 0 -0.14334301715898221 -0.074859018030624863 0 -0.13903100861317999 -0.090330850909877913 0 -0.15451520526235171 -0.083858215916353424 0 -0.13903100861317999 -0.090330850909877913 0 -0.15171862691764881 -0.097019712797942706 0 -0.1377651409738101 -0.093700562061298426 0 -0.13903100861317999 -0.090330850909877913 0 -0.15171862691764881 -0.097019712797942706 0 -0.15451520526235171 -0.083858215916353424 0 -0.1555984100513392 -0.067553704814911478 0 -0.14334301715898221 -0.074859018030624863 0 -0.1555984100513392 -0.067553704814911478 0 -0.14334301715898221 -0.074859018030624863 0 -0.13945189113323761 -0.059806177835795588 0 -0.14334301715898221 -0.074859018030624863 0 -0.12930964035960699 -0.069761515268982097 0 -0.13945189113323761 -0.059806177835795588 0 -0.12930964035960699 -0.069761515268982097 0 -0.1377651409738101 -0.093700562061298426 0 -0.12930964035960699 -0.069761515268982097 0 -0.1377651409738101 -0.093700562061298426 0 -0.13903100861317999 -0.090330850909877913 0 -0.1189291253072135 -0.086669643832799348 0 -0.12930964035960699 -0.069761515268982097 0 -0.1377651409738101 -0.093700562061298426 0 -0.14334301715898221 -0.074859018030624863 0 -0.12930964035960699 -0.069761515268982097 0 -0.13903100861317999 -0.090330850909877913 0 -0.1377651409738101 -0.093700562061298426 0 -0.13903100861317999 -0.090330850909877913 0 -0.11893842975153809 -0.10446969177473921 0 -0.1377651409738101 -0.093700562061298426 0 -0.12736410167423581 -0.1213878944680517 0 -0.1377651409738101 -0.093700562061298426 0 -0.12736410167423581 -0.1213878944680517 0 -0.11893842975153809 -0.10446969177473921 0 -0.1189291253072135 -0.086669643832799348 0 -0.1377651409738101 -0.093700562061298426 0 -0.1377651409738101 -0.093700562061298426 0 -0.12736410167423581 -0.1213878944680517 0 -0.14737054533773081 -0.1208951937003558 0 -0.16647442841019139 -0.11035058163789351 0 -0.14737054533773081 -0.1208951937003558 0 -0.15171862691764881 -0.097019712797942706 0 -0.1377651409738101 -0.093700562061298426 0 -0.14737054533773081 -0.1208951937003558 0 -0.15171862691764881 -0.097019712797942706 0 -0.1377651409738101 -0.093700562061298426 0 -0.14737054533773081 -0.1208951937003558 0 -0.14925834278157041 -0.027771983247297551 0 -0.15381676672243971 -0.0048344028756085976 0 -0.16158573310271521 -0.019122381719964599 0 -0.14925834278157041 -0.027771983247297551 0 -0.15381676672243971 -0.0048344028756085976 0 -0.14925834278157041 -0.027771983247297551 0 -0.13622810944285851 -0.025664644749336048 0 -0.13728148428220571 -0.03631729474545041 0 -0.15381676672243971 -0.0048344028756085976 0 -0.13373576905839379 -0.01378162565115138 0 -0.13796817939809339 -7.5853332940862265e-05 0 -0.14925834278157041 -0.027771983247297551 0 -0.15381676672243971 -0.0048344028756085976 0 -0.13373576905839379 -0.01378162565115138 0 -0.1244522405185825 -0.00038769298458709092 0 -0.1246368416492639 -0.024787675353444869 0 -0.13373576905839379 -0.01378162565115138 0 -0.1244522405185825 -0.00038769298458709092 0 -0.13373576905839379 -0.01378162565115138 0 -0.13796817939809339 -7.5853332940862265e-05 0 -0.1244522405185825 -0.00038769298458709092 0 -0.13373576905839379 -0.01378162565115138 0 -0.1246368416492639 -0.024787675353444869 0 -0.13373576905839379 -0.01378162565115138 0 -0.13622810944285851 -0.025664644749336048 0 -0.14925834278157041 -0.027771983247297551 0 -0.13373576905839379 -0.01378162565115138 0 -0.13622810944285851 -0.025664644749336048 0 -0.1246368416492639 -0.024787675353444869 0 -0.13622810944285851 -0.025664644749336048 0 -0.13728148428220571 -0.03631729474545041 0 -0.1248214427799455 -0.0491876577223027 0 -0.1246368416492639 -0.024787675353444869 0 -0.13067566527459321 -0.039597081228004503 0 -0.1246368416492639 -0.024787675353444869 0 -0.13067566527459321 -0.039597081228004503 0 -0.13728148428220571 -0.03631729474545041 0 -0.1248214427799455 -0.0491876577223027 0 -0.13067566527459321 -0.039597081228004503 0 -0.1359628923869578 -0.048095697090820053 0 -0.13067566527459321 -0.039597081228004503 0 -0.13728148428220571 -0.03631729474545041 0 -0.1359628923869578 -0.048095697090820053 0 -0.13728148428220571 -0.03631729474545041 0 -0.1359628923869578 -0.048095697090820053 0 -0.14767594406259391 -0.049379474087132447 0 -0.1248214427799455 -0.0491876577223027 0 -0.12930964035960699 -0.069761515268982097 0 -0.13945189113323761 -0.059806177835795588 0 -0.1208541397454049 -0.045822468476665427 0 -0.12930964035960699 -0.069761515268982097 0 -0.1248214427799455 -0.0491876577223027 0 -0.1359628923869578 -0.048095697090820053 0 -0.13945189113323761 -0.059806177835795588 0 -0.1555984100513392 -0.067553704814911478 0 -0.13945189113323761 -0.059806177835795588 0 -0.14767594406259391 -0.049379474087132447 0 -0.1359628923869578 -0.048095697090820053 0 -0.13945189113323761 -0.059806177835795588 0 -0.14767594406259391 -0.049379474087132447 0 -0.14925834278157041 -0.027771983247297551 0 -0.14767594406259391 -0.049379474087132447 0 -0.16346190388351911 -0.035477368974388322 0 -0.14925834278157041 -0.027771983247297551 0 -0.13728148428220571 -0.03631729474545041 0 -0.14767594406259391 -0.049379474087132447 0 -0.14767594406259391 -0.049379474087132447 0 -0.16346190388351911 -0.035477368974388322 0 -0.16766997596840549 -0.055069670457126463 0 -0.16346190388351911 -0.035477368974388322 0 -0.16766997596840549 -0.055069670457126463 0 -0.1792130821544009 -0.041655239440509813 0 -0.1555984100513392 -0.067553704814911478 0 -0.14767594406259391 -0.049379474087132447 0 -0.16766997596840549 -0.055069670457126463 0 -0.16766997596840549 -0.055069670457126463 0 -0.18476368522970901 -0.060313507398174523 0 -0.1792130821544009 -0.041655239440509813 0 -0.18476368522970901 -0.060313507398174523 0 -0.1792130821544009 -0.041655239440509813 0 -0.19607578221694649 -0.043845816873478577 0 -0.16346190388351911 -0.035477368974388322 0 -0.1792130821544009 -0.041655239440509813 0 -0.1747539590121796 -0.02148713112583673 0 -0.1792130821544009 -0.041655239440509813 0 -0.1747539590121796 -0.02148713112583673 0 -0.18874747204970219 -0.028974905836781941 0 -0.1747539590121796 -0.02148713112583673 0 -0.18814241231787171 -0.014961103822567131 0 -0.18874747204970219 -0.028974905836781941 0 -0.14925834278157041 -0.027771983247297551 0 -0.16346190388351911 -0.035477368974388322 0 -0.16158573310271521 -0.019122381719964599 0 -0.16346190388351911 -0.035477368974388322 0 -0.1747539590121796 -0.02148713112583673 0 -0.16158573310271521 -0.019122381719964599 0 -0.1747539590121796 -0.02148713112583673 0 -0.16158573310271521 -0.019122381719964599 0 -0.1670666400728934 -0.0075955490013497832 0 -0.15381676672243971 -0.0048344028756085976 0 -0.1670666400728934 -0.0075955490013497832 0 -0.16872927738725291 0.0066655648670224509 0 -0.15381676672243971 -0.0048344028756085976 0 -0.16158573310271521 -0.019122381719964599 0 -0.1670666400728934 -0.0075955490013497832 0 -0.1670666400728934 -0.0075955490013497832 0 -0.1785064095432054 -0.0066611219507198768 0 -0.16872927738725291 0.0066655648670224509 0 -0.1747539590121796 -0.02148713112583673 0 -0.1670666400728934 -0.0075955490013497832 0 -0.1785064095432054 -0.0066611219507198768 0 -0.1747539590121796 -0.02148713112583673 0 -0.1785064095432054 -0.0066611219507198768 0 -0.18814241231787171 -0.014961103822567131 0 -0.1785064095432054 -0.0066611219507198768 0 -0.18814241231787171 -0.014961103822567131 0 -0.193034969706537 0.00064734206737222756 0 -0.20555212454711219 -0.022925237921517471 0 -0.20993853639106591 -0.0035380738047605968 0 -0.193034969706537 0.00064734206737222756 0 -0.18814241231787171 -0.014961103822567131 0 -0.20555212454711219 -0.022925237921517471 0 -0.193034969706537 0.00064734206737222756 0 -0.20555212454711219 -0.022925237921517471 0 -0.193034969706537 0.00064734206737222756 0 -0.20993853639106591 -0.0035380738047605968 0 -0.193034969706537 0.00064734206737222756 0 -0.18814241231787171 -0.014961103822567131 0 -0.18874747204970219 -0.028974905836781941 0 -0.20555212454711219 -0.022925237921517471 0 -0.20555212454711219 -0.022925237921517471 0 -0.21630961893328751 -0.01519709454307171 0 -0.22290571171937651 -0.026601576769118469 0 -0.20993853639106591 -0.0035380738047605968 0 -0.22684210307559549 -0.0077234896768903086 0 -0.21568563774484731 0.0082874278720449449 0 -0.20993853639106591 -0.0035380738047605968 0 -0.21630961893328751 -0.01519709454307171 0 -0.22684210307559549 -0.0077234896768903086 0 -0.20555212454711219 -0.022925237921517471 0 -0.20993853639106591 -0.0035380738047605968 0 -0.21630961893328751 -0.01519709454307171 0 -0.20993853639106591 -0.0035380738047605968 0 -0.22684210307559549 -0.0077234896768903086 0 -0.20335705558913081 -0.063140738221072371 0 -0.18476368522970901 -0.060313507398174523 0 -0.19607578221694649 -0.043845816873478577 0 -0.1792130821544009 -0.041655239440509813 0 -0.18874747204970219 -0.028974905836781941 0 -0.19607578221694649 -0.043845816873478577 0 -0.18874747204970219 -0.028974905836781941 0 -0.20555212454711219 -0.022925237921517471 0 -0.19607578221694649 -0.043845816873478577 0 -0.20555212454711219 -0.022925237921517471 0 -0.21856310265569601 -0.047427796698218422 0 -0.20555212454711219 -0.022925237921517471 0 -0.21856310265569601 -0.047427796698218422 0 -0.21896932036315811 -0.045479663861346789 0 -0.20555212454711219 -0.022925237921517471 0 -0.19607578221694649 -0.043845816873478577 0 -0.21856310265569601 -0.047427796698218422 0 -0.20555212454711219 -0.022925237921517471 0 -0.21896932036315811 -0.045479663861346789 0 -0.22290571171937651 -0.026601576769118469 0 -0.2137676172752207 -0.070425914128570383 0 -0.21856310265569601 -0.047427796698218422 0 -0.20335705558913081 -0.063140738221072371 0 -0.2137676172752207 -0.070425914128570383 0 -0.21856310265569601 -0.047427796698218422 0 -0.20335705558913081 -0.063140738221072371 0 -0.19607578221694649 -0.043845816873478577 0 -0.21856310265569601 -0.047427796698218422 0 -0.20335705558913081 -0.063140738221072371 0 -0.21856310265569601 -0.047427796698218422 0 -0.23144064811545881 -0.071679072189906365 0 -0.21856310265569601 -0.047427796698218422 0 -0.23092663332862359 -0.057189961691847993 0 -0.23144064811545881 -0.071679072189906365 0 -0.21856310265569601 -0.047427796698218422 0 -0.21856310265569601 -0.047427796698218422 0 -0.23092663332862359 -0.057189961691847993 0 -0.22458774444026389 -0.046948698447319907 0 -0.23092663332862359 -0.057189961691847993 0 -0.2320274706224234 -0.04981915803055513 0 -0.23892230415514151 -0.050781370399802413 0 -0.23092663332862359 -0.057189961691847993 0 -0.22458774444026389 -0.046948698447319907 0 -0.2320274706224234 -0.04981915803055513 0 -0.21896932036315811 -0.045479663861346789 0 -0.2306307955349908 -0.032287844280089482 0 -0.22290571171937651 -0.026601576769118469 0 -0.21896932036315811 -0.045479663861346789 0 -0.22290571171937651 -0.026601576769118469 0 -0.22458774444026389 -0.046948698447319907 0 -0.2320274706224234 -0.04981915803055513 0 -0.23529860714157019 -0.041169280456794459 0 -0.22458774444026389 -0.046948698447319907 0 -0.2306307955349908 -0.032287844280089482 0 -0.23529860714157019 -0.041169280456794459 0 -0.22458774444026389 -0.046948698447319907 0 -0.21896932036315811 -0.045479663861346789 0 -0.2306307955349908 -0.032287844280089482 0 -0.21856310265569601 -0.047427796698218422 0 -0.22458774444026389 -0.046948698447319907 0 -0.21896932036315811 -0.045479663861346789 0 -0.21856310265569601 -0.047427796698218422 0 -0.21896932036315811 -0.045479663861346789 0 -0.21896932036315811 -0.045479663861346789 0 -0.2306307955349908 -0.032287844280089482 0 -0.2306307955349908 -0.032287844280089482 0 -0.23529860714157019 -0.041169280456794459 0 -0.241537864008738 -0.030171217790278881 0 -0.24798951326795751 -0.035882587373858313 0 -0.23529860714157019 -0.041169280456794459 0 -0.241537864008738 -0.030171217790278881 0 -0.24798951326795751 -0.035882587373858313 0 -0.24357205858261219 -0.044359355700093257 0 -0.23529860714157019 -0.041169280456794459 0 -0.24798951326795751 -0.035882587373858313 0 -0.24357205858261219 -0.044359355700093257 0 -0.25238491957690051 -0.051022134359787842 0 -0.24357205858261219 -0.044359355700093257 0 -0.23529860714157019 -0.041169280456794459 0 -0.23892230415514151 -0.050781370399802413 0 -0.2466384096447127 -0.069214282175018252 0 -0.24006258296416741 -0.059977364163272567 0 -0.25238491957690051 -0.051022134359787842 0 -0.2320274706224234 -0.04981915803055513 0 -0.23529860714157019 -0.041169280456794459 0 -0.23892230415514151 -0.050781370399802413 0 -0.23892230415514151 -0.050781370399802413 0 -0.24006258296416741 -0.059977364163272567 0 -0.25238491957690051 -0.051022134359787842 0 -0.24357205858261219 -0.044359355700093257 0 -0.23892230415514151 -0.050781370399802413 0 -0.25238491957690051 -0.051022134359787842 0 -0.23092663332862359 -0.057189961691847993 0 -0.23892230415514151 -0.050781370399802413 0 -0.24006258296416741 -0.059977364163272567 0 -0.21630961893328751 -0.01519709454307171 0 -0.22684210307559549 -0.0077234896768903086 0 -0.22290571171937651 -0.026601576769118469 0 -0.22684210307559549 -0.0077234896768903086 0 -0.22290571171937651 -0.026601576769118469 0 -0.23226271327452069 -0.02198020745377605 0 -0.22684210307559549 -0.0077234896768903086 0 -0.22290571171937651 -0.026601576769118469 0 -0.2306307955349908 -0.032287844280089482 0 -0.22290571171937651 -0.026601576769118469 0 -0.23226271327452069 -0.02198020745377605 0 -0.22684210307559549 -0.0077234896768903086 0 -0.23226271327452069 -0.02198020745377605 0 -0.24229227070682269 -0.019096024698831499 0 -0.2306307955349908 -0.032287844280089482 0 -0.241537864008738 -0.030171217790278881 0 -0.24229227070682269 -0.019096024698831499 0 -0.2306307955349908 -0.032287844280089482 0 -0.23226271327452069 -0.02198020745377605 0 -0.24229227070682269 -0.019096024698831499 0 -0.2306307955349908 -0.032287844280089482 0 -0.24229227070682269 -0.019096024698831499 0 -0.24798951326795751 -0.035882587373858313 0 -0.241537864008738 -0.030171217790278881 0 -0.25387676547985721 -0.02452441136234379 0 -0.241537864008738 -0.030171217790278881 0 -0.24229227070682269 -0.019096024698831499 0 -0.25387676547985721 -0.02452441136234379 0 -0.24229227070682269 -0.019096024698831499 0 -0.24826461013585729 -0.013027819984466921 0 -0.25387676547985721 -0.02452441136234379 0 -0.22684210307559549 -0.0077234896768903086 0 -0.24826461013585729 -0.013027819984466921 0 -0.24598119983726671 0.0037338506766126851 0 -0.22684210307559549 -0.0077234896768903086 0 -0.24229227070682269 -0.019096024698831499 0 -0.24826461013585729 -0.013027819984466921 0 -0.22684210307559549 -0.0077234896768903086 0 -0.24826461013585729 -0.013027819984466921 0 -0.24826461013585729 -0.013027819984466921 0 -0.26003022337954462 -0.0038093911555793728 0 -0.24598119983726671 0.0037338506766126851 0 -0.24826461013585729 -0.013027819984466921 0 -0.26003022337954462 -0.0038093911555793728 0 -0.26968711719611937 -0.018332150292041979 0 -0.24826461013585729 -0.013027819984466921 0 -0.26968711719611937 -0.018332150292041979 0 -0.25387676547985721 -0.02452441136234379 0 -0.26968711719611937 -0.018332150292041979 0 -0.26155562347943467 -0.037861138146123199 0 -0.24826461013585729 -0.013027819984466921 0 -0.25387676547985721 -0.02452441136234379 0 -0.26968711719611937 -0.018332150292041979 0 -0.26968711719611937 -0.018332150292041979 0 -0.28953187906397732 -0.034281883787379987 0 -0.27524211720584768 -0.038538427260779863 0 -0.26003022337954462 -0.0038093911555793728 0 -0.26968711719611937 -0.018332150292041979 0 -0.27433688946420332 -0.0007833753365484626 0 -0.26968711719611937 -0.018332150292041979 0 -0.27433688946420332 -0.0007833753365484626 0 -0.28631392786639209 -0.0070506759659385472 0 -0.28631392786639209 -0.0070506759659385472 0 -0.29653674479957171 -0.021015146411400301 0 -0.3025805037907468 -0.0027432771802810229 0 -0.28631392786639209 -0.0070506759659385472 0 -0.3025805037907468 -0.0027432771802810229 0 -0.28842838408131971 0.0076205693905790281 0 -0.27433688946420332 -0.0007833753365484626 0 -0.28631392786639209 -0.0070506759659385472 0 -0.28842838408131971 0.0076205693905790281 0 -0.26968711719611937 -0.018332150292041979 0 -0.28631392786639209 -0.0070506759659385472 0 -0.29653674479957171 -0.021015146411400301 0 -0.26968711719611937 -0.018332150292041979 0 -0.29653674479957171 -0.021015146411400301 0 -0.28953187906397732 -0.034281883787379987 0 -0.29653674479957171 -0.021015146411400301 0 -0.28953187906397732 -0.034281883787379987 0 -0.31718310516035308 -0.038172790333745737 0 -0.29653674479957171 -0.021015146411400301 0 -0.31459326366374579 -0.01532774276474733 0 -0.31718310516035308 -0.038172790333745737 0 -0.29653674479957171 -0.021015146411400301 0 -0.3025805037907468 -0.0027432771802810229 0 -0.31459326366374579 -0.01532774276474733 0 -0.30229462048881822 -0.056161209871372138 0 -0.29850594913894141 -0.055440370537233663 0 -0.30849544073550722 -0.074776909133231664 0 -0.30229462048881822 -0.056161209871372138 0 -0.29366820665513949 -0.048519954280836622 0 -0.31370341578724742 -0.051143824177853653 0 -0.30229462048881822 -0.056161209871372138 0 -0.29850594913894141 -0.055440370537233663 0 -0.29366820665513949 -0.048519954280836622 0 -0.30229462048881822 -0.056161209871372138 0 -0.31629816603535338 -0.060261719535131632 0 -0.30229462048881822 -0.056161209871372138 0 -0.31178497446605258 -0.064623658022855565 0 -0.31629816603535338 -0.060261719535131632 0 -0.30229462048881822 -0.056161209871372138 0 -0.31370341578724742 -0.051143824177853653 0 -0.31629816603535338 -0.060261719535131632 0 -0.29366820665513949 -0.048519954280836622 0 -0.31718310516035308 -0.038172790333745737 0 -0.29366820665513949 -0.048519954280836622 0 -0.31718310516035308 -0.038172790333745737 0 -0.31370341578724742 -0.051143824177853653 0 -0.28953187906397732 -0.034281883787379987 0 -0.29366820665513949 -0.048519954280836622 0 -0.31718310516035308 -0.038172790333745737 0 -0.28953187906397732 -0.034281883787379987 0 -0.29366820665513949 -0.048519954280836622 0 -0.27524211720584768 -0.038538427260779863 0 -0.29366820665513949 -0.048519954280836622 0 -0.27015330814992611 -0.058867118227927437 0 -0.29366820665513949 -0.048519954280836622 0 -0.28660483069534037 -0.061918496488246169 0 -0.27015330814992611 -0.058867118227927437 0 -0.29850594913894141 -0.055440370537233663 0 -0.28660483069534037 -0.061918496488246169 0 -0.29557893925590151 -0.069462416794053169 0 -0.29850594913894141 -0.055440370537233663 0 -0.29366820665513949 -0.048519954280836622 0 -0.28660483069534037 -0.061918496488246169 0 -0.29366820665513949 -0.048519954280836622 0 -0.27015330814992611 -0.058867118227927437 0 -0.27524211720584768 -0.038538427260779863 0 -0.26968711719611937 -0.018332150292041979 0 -0.27524211720584768 -0.038538427260779863 0 -0.26155562347943467 -0.037861138146123199 0 -0.27015330814992611 -0.058867118227927437 0 -0.27524211720584768 -0.038538427260779863 0 -0.26155562347943467 -0.037861138146123199 0 -0.24798951326795751 -0.035882587373858313 0 -0.26155562347943467 -0.037861138146123199 0 -0.25238491957690051 -0.051022134359787842 0 -0.24798951326795751 -0.035882587373858313 0 -0.25387676547985721 -0.02452441136234379 0 -0.26155562347943467 -0.037861138146123199 0 -0.27015330814992611 -0.058867118227927437 0 -0.26155562347943467 -0.037861138146123199 0 -0.25238491957690051 -0.051022134359787842 0 -0.2466384096447127 -0.069214282175018252 0 -0.27015330814992611 -0.058867118227927437 0 -0.25238491957690051 -0.051022134359787842 0 -0.2466384096447127 -0.069214282175018252 0 -0.27015330814992611 -0.058867118227927437 0 -0.26102584033089798 -0.073534373921212107 0 -0.2466384096447127 -0.069214282175018252 0 -0.27015330814992611 -0.058867118227927437 0 -0.2466384096447127 -0.069214282175018252 0 -0.26102584033089798 -0.073534373921212107 0 -0.25106785873748549 -0.083001848322642804 0 -0.25106785873748549 -0.083001848322642804 0 -0.26431637422662529 -0.083961298504163229 0 -0.25687551172258971 -0.095275519396915032 0 -0.26431637422662529 -0.083961298504163229 0 -0.25687551172258971 -0.095275519396915032 0 -0.26922948176741379 -0.094556007429682482 0 -0.26102584033089798 -0.073534373921212107 0 -0.25106785873748549 -0.083001848322642804 0 -0.26431637422662529 -0.083961298504163229 0 -0.26431637422662529 -0.083961298504163229 0 -0.27622487875609619 -0.085738752979791055 0 -0.27411142324960069 -0.07331497732508381 0 -0.26431637422662529 -0.083961298504163229 0 -0.27622487875609619 -0.085738752979791055 0 -0.26922948176741379 -0.094556007429682482 0 -0.27622487875609619 -0.085738752979791055 0 -0.26922948176741379 -0.094556007429682482 0 -0.28208733676033698 -0.099544680508420066 0 -0.27622487875609619 -0.085738752979791055 0 -0.27411142324960069 -0.07331497732508381 0 -0.28634330733871821 -0.075869823829162894 0 -0.28660483069534037 -0.061918496488246169 0 -0.27015330814992611 -0.058867118227927437 0 -0.27411142324960069 -0.07331497732508381 0 -0.27015330814992611 -0.058867118227927437 0 -0.26102584033089798 -0.073534373921212107 0 -0.27411142324960069 -0.07331497732508381 0 -0.26102584033089798 -0.073534373921212107 0 -0.26431637422662529 -0.083961298504163229 0 -0.27411142324960069 -0.07331497732508381 0 -0.24959534238117709 -0.1078054475449232 0 -0.26009747564537128 -0.1202716976192799 0 -0.26511094786836592 -0.1069062435210571 0 -0.24959534238117709 -0.1078054475449232 0 -0.26511094786836592 -0.1069062435210571 0 -0.25687551172258971 -0.095275519396915032 0 -0.26511094786836592 -0.1069062435210571 0 -0.25687551172258971 -0.095275519396915032 0 -0.26922948176741379 -0.094556007429682482 0 -0.26511094786836592 -0.1069062435210571 0 -0.27676276389741278 -0.11052104179975 0 -0.28208733676033698 -0.099544680508420066 0 -0.26511094786836592 -0.1069062435210571 0 -0.26922948176741379 -0.094556007429682482 0 -0.28208733676033698 -0.099544680508420066 0 -0.26511094786836592 -0.1069062435210571 0 -0.28208733676033698 -0.099544680508420066 0 -0.26009747564537128 -0.1202716976192799 0 -0.28368315898475188 -0.1205679176925603 0 -0.26697405985724948 -0.1304210152969853 0 -0.26009747564537128 -0.1202716976192799 0 -0.27676276389741278 -0.11052104179975 0 -0.28368315898475188 -0.1205679176925603 0 -0.26009747564537128 -0.1202716976192799 0 -0.28368315898475188 -0.1205679176925603 0 -0.26009747564537128 -0.1202716976192799 0 -0.26511094786836592 -0.1069062435210571 0 -0.27676276389741278 -0.11052104179975 0 -0.28368315898475188 -0.1205679176925603 0 -0.30807566230962469 -0.12087427087378499 0 -0.28368315898475188 -0.1205679176925603 0 -0.29137344231852969 -0.1063755175941712 0 -0.30807566230962469 -0.12087427087378499 0 -0.27676276389741278 -0.11052104179975 0 -0.28368315898475188 -0.1205679176925603 0 -0.29137344231852969 -0.1063755175941712 0 -0.28368315898475188 -0.1205679176925603 0 -0.29137344231852969 -0.1063755175941712 0 -0.29137344231852969 -0.1063755175941712 0 -0.28208733676033698 -0.099544680508420066 0 -0.29906372565230788 -0.092183117495782341 0 -0.28208733676033698 -0.099544680508420066 0 -0.29906372565230788 -0.092183117495782341 0 -0.27676276389741278 -0.11052104179975 0 -0.29137344231852969 -0.1063755175941712 0 -0.28208733676033698 -0.099544680508420066 0 -0.29137344231852969 -0.1063755175941712 0 -0.29906372565230788 -0.092183117495782341 0 -0.30690970986333499 -0.10413412755240679 0 -0.29906372565230788 -0.092183117495782341 0 -0.31411573014289268 -0.085656035662949492 0 -0.29137344231852969 -0.1063755175941712 0 -0.30690970986333499 -0.10413412755240679 0 -0.29906372565230788 -0.092183117495782341 0 -0.28368315898475188 -0.1205679176925603 0 -0.30807566230962469 -0.12087427087378499 0 -0.30140371581860798 -0.1292511186866305 0 -0.29137344231852969 -0.1063755175941712 0 -0.30690970986333499 -0.10413412755240679 0 -0.30807566230962469 -0.12087427087378499 0 -0.29557893925590151 -0.069462416794053169 0 -0.28634330733871821 -0.075869823829162894 0 -0.29528406594296941 -0.079953964946478426 0 -0.28660483069534037 -0.061918496488246169 0 -0.29557893925590151 -0.069462416794053169 0 -0.28634330733871821 -0.075869823829162894 0 -0.28660483069534037 -0.061918496488246169 0 -0.27411142324960069 -0.07331497732508381 0 -0.28634330733871821 -0.075869823829162894 0 -0.27622487875609619 -0.085738752979791055 0 -0.28634330733871821 -0.075869823829162894 0 -0.28693891673241251 -0.08747755748016231 0 -0.28208733676033698 -0.099544680508420066 0 -0.28693891673241251 -0.08747755748016231 0 -0.29906372565230788 -0.092183117495782341 0 -0.27622487875609619 -0.085738752979791055 0 -0.28208733676033698 -0.099544680508420066 0 -0.28693891673241251 -0.08747755748016231 0 -0.28693891673241251 -0.08747755748016231 0 -0.29528406594296941 -0.079953964946478426 0 -0.29906372565230788 -0.092183117495782341 0 -0.28634330733871821 -0.075869823829162894 0 -0.28693891673241251 -0.08747755748016231 0 -0.29528406594296941 -0.079953964946478426 0 -0.29528406594296941 -0.079953964946478426 0 -0.29906372565230788 -0.092183117495782341 0 -0.30849544073550722 -0.074776909133231664 0 -0.29906372565230788 -0.092183117495782341 0 -0.30849544073550722 -0.074776909133231664 0 -0.29906372565230788 -0.092183117495782341 0 -0.30849544073550722 -0.074776909133231664 0 -0.31411573014289268 -0.085656035662949492 0 -0.29906372565230788 -0.092183117495782341 0 -0.31411573014289268 -0.085656035662949492 0 -0.30849544073550722 -0.074776909133231664 0 -0.31411573014289268 -0.085656035662949492 0 -0.30229462048881822 -0.056161209871372138 0 -0.30849544073550722 -0.074776909133231664 0 -0.31178497446605258 -0.064623658022855565 0 -0.29850594913894141 -0.055440370537233663 0 -0.29557893925590151 -0.069462416794053169 0 -0.30849544073550722 -0.074776909133231664 0 -0.30849544073550722 -0.074776909133231664 0 -0.31286059459191501 -0.066721027791507209 0 -0.29850594913894141 -0.055440370537233663 0 -0.30849544073550722 -0.074776909133231664 0 -0.29557893925590151 -0.069462416794053169 0 -0.29528406594296941 -0.079953964946478426 0 -0.30849544073550722 -0.074776909133231664 0 -0.30849544073550722 -0.074776909133231664 0 -0.31178497446605258 -0.064623658022855565 0 -0.31286059459191501 -0.066721027791507209 0 -0.31178497446605258 -0.064623658022855565 0 -0.31286059459191501 -0.066721027791507209 0 -0.31286059459191501 -0.066721027791507209 0 -0.32103296817657878 -0.082656476452658639 0 -0.31286059459191501 -0.066721027791507209 0 -0.32103296817657878 -0.082656476452658639 0 -0.32352590008436471 -0.062378140209921912 0 -0.31178497446605258 -0.064623658022855565 0 -0.31286059459191501 -0.066721027791507209 0 -0.31629816603535338 -0.060261719535131632 0 -0.30849544073550722 -0.074776909133231664 0 -0.31286059459191501 -0.066721027791507209 0 -0.32103296817657878 -0.082656476452658639 0 -0.31286059459191501 -0.066721027791507209 0 -0.31629816603535338 -0.060261719535131632 0 -0.31286059459191501 -0.066721027791507209 0 -0.31629816603535338 -0.060261719535131632 0 -0.32352590008436471 -0.062378140209921912 0 -0.32103296817657878 -0.082656476452658639 0 -0.33093834944883532 -0.101971145942244 0 -0.30849544073550722 -0.074776909133231664 0 -0.31411573014289268 -0.085656035662949492 0 -0.32103296817657878 -0.082656476452658639 0 -0.31411573014289268 -0.085656035662949492 0 -0.32103296817657878 -0.082656476452658639 0 -0.32329194788869442 -0.1034183298589804 0 -0.31411573014289268 -0.085656035662949492 0 -0.32103296817657878 -0.082656476452658639 0 -0.32103296817657878 -0.082656476452658639 0 -0.33692687914299491 -0.089632102483736459 0 -0.33093834944883532 -0.101971145942244 0 -0.32103296817657878 -0.082656476452658639 0 -0.33692687914299491 -0.089632102483736459 0 -0.3453529791357649 -0.07211045902320197 0 -0.32103296817657878 -0.082656476452658639 0 -0.3453529791357649 -0.07211045902320197 0 -0.32352590008436471 -0.062378140209921912 0 -0.34475717967991132 -0.068595070548471249 0 -0.3453529791357649 -0.07211045902320197 0 -0.32352590008436471 -0.062378140209921912 0 -0.34475717967991132 -0.068595070548471249 0 -0.32352590008436471 -0.062378140209921912 0 -0.32103296817657878 -0.082656476452658639 0 -0.3453529791357649 -0.07211045902320197 0 -0.30807566230962469 -0.12087427087378499 0 -0.32329194788869442 -0.1034183298589804 0 -0.33246816563449738 -0.1211806240550105 0 -0.30807566230962469 -0.12087427087378499 0 -0.33246816563449738 -0.1211806240550105 0 -0.30807566230962469 -0.12087427087378499 0 -0.32007374605487132 -0.12494213909402439 0 -0.33246816563449738 -0.1211806240550105 0 -0.30690970986333499 -0.10413412755240679 0 -0.30807566230962469 -0.12087427087378499 0 -0.32329194788869442 -0.1034183298589804 0 -0.32329194788869442 -0.1034183298589804 0 -0.33246816563449738 -0.1211806240550105 0 -0.32007374605487132 -0.12494213909402439 0 -0.33441303965894859 -0.1249452932850653 0 -0.30690970986333499 -0.10413412755240679 0 -0.31411573014289268 -0.085656035662949492 0 -0.32329194788869442 -0.1034183298589804 0 -0.32103296817657878 -0.082656476452658639 0 -0.32329194788869442 -0.1034183298589804 0 -0.33093834944883532 -0.101971145942244 0 -0.31411573014289268 -0.085656035662949492 0 -0.32329194788869442 -0.1034183298589804 0 -0.32329194788869442 -0.1034183298589804 0 -0.33093834944883532 -0.101971145942244 0 -0.33246816563449738 -0.1211806240550105 0 -0.33692687914299491 -0.089632102483736459 0 -0.33093834944883532 -0.101971145942244 0 -0.35038321981080389 -0.10179032851684799 0 -0.33093834944883532 -0.101971145942244 0 -0.34773438721257438 -0.1121772477149196 0 -0.35038321981080389 -0.10179032851684799 0 -0.33093834944883532 -0.101971145942244 0 -0.3408437307210912 -0.1212858154318297 0 -0.33093834944883532 -0.101971145942244 0 -0.3408437307210912 -0.1212858154318297 0 -0.33246816563449738 -0.1211806240550105 0 -0.33093834944883532 -0.101971145942244 0 -0.3408437307210912 -0.1212858154318297 0 -0.34773438721257438 -0.1121772477149196 0 -0.34272140335036932 -0.124947120862287 0 -0.3408437307210912 -0.1212858154318297 0 -0.33441303965894859 -0.1249452932850653 0 -0.3408437307210912 -0.1212858154318297 0 -0.33246816563449738 -0.1211806240550105 0 -0.34272140335036932 -0.124947120862287 0 -0.33441303965894859 -0.1249452932850653 0 -0.34272140335036932 -0.124947120862287 0 -0.3408437307210912 -0.1212858154318297 0 -0.32007374605487132 -0.12494213909402439 0 -0.33441303965894859 -0.1249452932850653 0 -0.33246816563449738 -0.1211806240550105 0 -0.3408437307210912 -0.1212858154318297 0 -0.33441303965894859 -0.1249452932850653 0 -0.33246816563449738 -0.1211806240550105 0 -0.33441303965894859 -0.1249452932850653 0 -0.33246816563449738 -0.1211806240550105 0 -0.34272140335036932 -0.124947120862287 0 -0.35433435295871402 -0.1214552484327875 0 -0.36893450279197471 -0.1249528869149899 0 -0.34272140335036932 -0.124947120862287 0 -0.36893450279197471 -0.1249528869149899 0 -0.3408437307210912 -0.1212858154318297 0 -0.35433435295871402 -0.1214552484327875 0 -0.3408437307210912 -0.1212858154318297 0 -0.35433435295871402 -0.1214552484327875 0 -0.34773438721257438 -0.1121772477149196 0 -0.34272140335036932 -0.124947120862287 0 -0.3408437307210912 -0.1212858154318297 0 -0.35433435295871402 -0.1214552484327875 0 -0.35433435295871402 -0.1214552484327875 0 -0.34773438721257438 -0.1121772477149196 0 -0.3623387343604032 -0.1125517513480446 0 -0.34773438721257438 -0.1121772477149196 0 -0.35038321981080389 -0.10179032851684799 0 -0.3623387343604032 -0.1125517513480446 0 -0.37380044498630338 -0.100392191664622 0 -0.3623387343604032 -0.1125517513480446 0 -0.3789649235099295 -0.11270856972454819 0 -0.35038321981080389 -0.10179032851684799 0 -0.37380044498630338 -0.100392191664622 0 -0.36747037526515469 -0.088210616938563927 0 -0.35038321981080389 -0.10179032851684799 0 -0.37380044498630338 -0.100392191664622 0 -0.3623387343604032 -0.1125517513480446 0 -0.3623387343604032 -0.1125517513480446 0 -0.36893450279197471 -0.1249528869149899 0 -0.3789649235099295 -0.11270856972454819 0 -0.35433435295871402 -0.1214552484327875 0 -0.3623387343604032 -0.1125517513480446 0 -0.36893450279197471 -0.1249528869149899 0 -0.34995192587724822 -0.070116192960804249 0 -0.35645509357982358 -0.081628608772215283 0 -0.36843110820579178 -0.075527255856609146 0 -0.34995192587724822 -0.070116192960804249 0 -0.36608399240098949 -0.063120758007335118 0 -0.35494834161021771 -0.06194377696909157 0 -0.34995192587724822 -0.070116192960804249 0 -0.36843110820579178 -0.075527255856609146 0 -0.34995192587724822 -0.070116192960804249 0 -0.36608399240098949 -0.063120758007335118 0 -0.34995192587724822 -0.070116192960804249 0 -0.34475717967991132 -0.068595070548471249 0 -0.35494834161021771 -0.06194377696909157 0 -0.34995192587724822 -0.070116192960804249 0 -0.34475717967991132 -0.068595070548471249 0 -0.34995192587724822 -0.070116192960804249 0 -0.34475717967991132 -0.068595070548471249 0 -0.3453529791357649 -0.07211045902320197 0 -0.34995192587724822 -0.070116192960804249 0 -0.3453529791357649 -0.07211045902320197 0 -0.34995192587724822 -0.070116192960804249 0 -0.3453529791357649 -0.07211045902320197 0 -0.35645509357982358 -0.081628608772215283 0 -0.34475717967991132 -0.068595070548471249 0 -0.3453529791357649 -0.07211045902320197 0 -0.35038321981080389 -0.10179032851684799 0 -0.35645509357982358 -0.081628608772215283 0 -0.36747037526515469 -0.088210616938563927 0 -0.35038321981080389 -0.10179032851684799 0 -0.3453529791357649 -0.07211045902320197 0 -0.35645509357982358 -0.081628608772215283 0 -0.33692687914299491 -0.089632102483736459 0 -0.35038321981080389 -0.10179032851684799 0 -0.3453529791357649 -0.07211045902320197 0 -0.35038321981080389 -0.10179032851684799 0 -0.3453529791357649 -0.07211045902320197 0 -0.36747037526515469 -0.088210616938563927 0 -0.36843110820579178 -0.075527255856609146 0 -0.38691029053433551 -0.080938318752413793 0 -0.35645509357982358 -0.081628608772215283 0 -0.36747037526515469 -0.088210616938563927 0 -0.36843110820579178 -0.075527255856609146 0 -0.34995192587724822 -0.070116192960804249 0 -0.36843110820579178 -0.075527255856609146 0 -0.36608399240098949 -0.063120758007335118 0 -0.36843110820579178 -0.075527255856609146 0 -0.36608399240098949 -0.063120758007335118 0 -0.37978412082390189 -0.068029865631836883 0 -0.36608399240098949 -0.063120758007335118 0 -0.37085155020467431 -0.050438611479832557 0 -0.38221605892473098 -0.056125323053866277 0 -0.36608399240098949 -0.063120758007335118 0 -0.38221605892473098 -0.056125323053866277 0 -0.37085155020467431 -0.050438611479832557 0 -0.36177701350261748 -0.054750595911384127 0 -0.36329546327126672 -0.041142767418341691 0 -0.36608399240098949 -0.063120758007335118 0 -0.36177701350261748 -0.054750595911384127 0 -0.35494834161021771 -0.06194377696909157 0 -0.36608399240098949 -0.063120758007335118 0 -0.37085155020467431 -0.050438611479832557 0 -0.36177701350261748 -0.054750595911384127 0 -0.36177701350261748 -0.054750595911384127 0 -0.35494834161021771 -0.06194377696909157 0 -0.35217159659032232 -0.05313626741746251 0 -0.34475717967991132 -0.068595070548471249 0 -0.35217159659032232 -0.05313626741746251 0 -0.34008173660725832 -0.04100860914713586 0 -0.36177701350261748 -0.054750595911384127 0 -0.35217159659032232 -0.05313626741746251 0 -0.36329546327126672 -0.041142767418341691 0 -0.34475717967991132 -0.068595070548471249 0 -0.35494834161021771 -0.06194377696909157 0 -0.35217159659032232 -0.05313626741746251 0 -0.35217159659032232 -0.05313626741746251 0 -0.35233090603521772 -0.034345905606361089 0 -0.36329546327126672 -0.041142767418341691 0 -0.35217159659032232 -0.05313626741746251 0 -0.35233090603521772 -0.034345905606361089 0 -0.34008173660725832 -0.04100860914713586 0 -0.35233090603521772 -0.034345905606361089 0 -0.34677261788783459 -0.022263095799622792 0 -0.34008173660725832 -0.04100860914713586 0 -0.35233090603521772 -0.034345905606361089 0 -0.36329546327126672 -0.041142767418341691 0 -0.36125368123050811 -0.029816691131076791 0 -0.36329546327126672 -0.041142767418341691 0 -0.37015544225173291 -0.03012439130571171 0 -0.36125368123050811 -0.029816691131076791 0 -0.37085155020467431 -0.050438611479832557 0 -0.36329546327126672 -0.041142767418341691 0 -0.37439980638912518 -0.038891661293645137 0 -0.36329546327126672 -0.041142767418341691 0 -0.37439980638912518 -0.038891661293645137 0 -0.37015544225173291 -0.03012439130571171 0 -0.37439980638912518 -0.038891661293645137 0 -0.37015544225173291 -0.03012439130571171 0 -0.37866743010551202 -0.02906954498465647 0 -0.37015544225173291 -0.03012439130571171 0 -0.37402384376206249 -0.023759624541515059 0 -0.37866743010551202 -0.02906954498465647 0 -0.37015544225173291 -0.03012439130571171 0 -0.37402384376206249 -0.023759624541515059 0 -0.36652472594663232 -0.022500501643346649 0 -0.37402384376206249 -0.023759624541515059 0 -0.37465439862472261 -0.016787835852634068 0 -0.36652472594663232 -0.022500501643346649 0 -0.37465439862472261 -0.016787835852634068 0 -0.36652472594663232 -0.022500501643346649 0 -0.3596530522362773 -0.017262546391789129 0 -0.36652472594663232 -0.022500501643346649 0 -0.3596530522362773 -0.017262546391789129 0 -0.35649867437881472 -0.022585523222405649 0 -0.36652472594663232 -0.022500501643346649 0 -0.36125368123050811 -0.029816691131076791 0 -0.35649867437881472 -0.022585523222405649 0 -0.37015544225173291 -0.03012439130571171 0 -0.36652472594663232 -0.022500501643346649 0 -0.36125368123050811 -0.029816691131076791 0 -0.37465439862472261 -0.016787835852634068 0 -0.3596530522362773 -0.017262546391789129 0 -0.34857824671955512 -0.007874197240844389 0 -0.37465439862472261 -0.016787835852634068 0 -0.3597652811465577 -0.0058215117475868012 0 -0.34857824671955512 -0.007874197240844389 0 -0.37465439862472261 -0.016787835852634068 0 -0.34857824671955512 -0.007874197240844389 0 -0.37126952376897032 -0.00085078512189483576 0 -0.36867541047690239 -0.006920070417115203 0 -0.36494834593608783 -0.001298186014321303 0 -0.37126952376897032 -0.00085078512189483576 0 -0.37464851222799189 -0.0076089195940836872 0 -0.37774077980655368 -0.001289555558904682 0 -0.37126952376897032 -0.00085078512189483576 0 -0.37464851222799189 -0.0076089195940836872 0 -0.36867541047690239 -0.006920070417115203 0 -0.37465439862472261 -0.016787835852634068 0 -0.36867541047690239 -0.006920070417115203 0 -0.3597652811465577 -0.0058215117475868012 0 -0.37465439862472261 -0.016787835852634068 0 -0.37464851222799189 -0.0076089195940836872 0 -0.36867541047690239 -0.006920070417115203 0 -0.36867541047690239 -0.006920070417115203 0 -0.3597652811465577 -0.0058215117475868012 0 -0.36494834593608783 -0.001298186014321303 0 -0.3597652811465577 -0.0058215117475868012 0 -0.36494834593608783 -0.001298186014321303 0 -0.35900139338342918 0.0020097317905480609 0 -0.3597652811465577 -0.0058215117475868012 0 -0.35221409618436439 -0.0049109655465913588 0 -0.34857824671955512 -0.007874197240844389 0 -0.3597652811465577 -0.0058215117475868012 0 -0.35509488683577939 -0.0004162838960613095 0 -0.35900139338342918 0.0020097317905480609 0 -0.3597652811465577 -0.0058215117475868012 0 -0.35509488683577939 -0.0004162838960613095 0 -0.35221409618436439 -0.0049109655465913588 0 -0.3596530522362773 -0.017262546391789129 0 -0.34857824671955512 -0.007874197240844389 0 -0.35200921551166209 -0.0165646739997149 0 -0.34857824671955512 -0.007874197240844389 0 -0.34618108527798752 -0.01472783018749277 0 -0.35200921551166209 -0.0165646739997149 0 -0.35233090603521772 -0.034345905606361089 0 -0.36125368123050811 -0.029816691131076791 0 -0.35649867437881472 -0.022585523222405649 0 -0.35233090603521772 -0.034345905606361089 0 -0.35649867437881472 -0.022585523222405649 0 -0.34677261788783459 -0.022263095799622792 0 -0.35649867437881472 -0.022585523222405649 0 -0.35200921551166209 -0.0165646739997149 0 -0.34677261788783459 -0.022263095799622792 0 -0.3596530522362773 -0.017262546391789129 0 -0.35649867437881472 -0.022585523222405649 0 -0.35200921551166209 -0.0165646739997149 0 -0.34618108527798752 -0.01472783018749277 0 -0.35200921551166209 -0.0165646739997149 0 -0.34677261788783459 -0.022263095799622792 0 -0.33540629353460438 -0.01342214774580049 0 -0.31718310516035308 -0.038172790333745737 0 -0.34008173660725832 -0.04100860914713586 0 -0.33540629353460438 -0.01342214774580049 0 -0.34008173660725832 -0.04100860914713586 0 -0.34677261788783459 -0.022263095799622792 0 -0.33540629353460438 -0.01342214774580049 0 -0.34008173660725832 -0.04100860914713586 0 -0.34618108527798752 -0.01472783018749277 0 -0.34677261788783459 -0.022263095799622792 0 -0.33540629353460438 -0.01342214774580049 0 -0.33540629353460438 -0.01342214774580049 0 -0.3204068892458079 -0.0014125807301150939 0 -0.33073085046195078 0.01416431365553468 0 -0.34857824671955512 -0.007874197240844389 0 -0.33540629353460438 -0.01342214774580049 0 -0.33073085046195078 0.01416431365553468 0 -0.34857824671955512 -0.007874197240844389 0 -0.34618108527798752 -0.01472783018749277 0 -0.33540629353460438 -0.01342214774580049 0 -0.3025805037907468 -0.0027432771802810229 0 -0.31459326366374579 -0.01532774276474733 0 -0.3204068892458079 -0.0014125807301150939 0 -0.33540629353460438 -0.01342214774580049 0 -0.31459326366374579 -0.01532774276474733 0 -0.3204068892458079 -0.0014125807301150939 0 -0.33540629353460438 -0.01342214774580049 0 -0.31459326366374579 -0.01532774276474733 0 -0.31718310516035308 -0.038172790333745737 0 -0.31718310516035308 -0.038172790333745737 0 -0.3268834079531176 -0.05023453433316457 0 -0.34008173660725832 -0.04100860914713586 0 -0.31718310516035308 -0.038172790333745737 0 -0.31370341578724742 -0.051143824177853653 0 -0.3268834079531176 -0.05023453433316457 0 -0.31370341578724742 -0.051143824177853653 0 -0.31629816603535338 -0.060261719535131632 0 -0.32352590008436471 -0.062378140209921912 0 -0.31629816603535338 -0.060261719535131632 0 -0.32352590008436471 -0.062378140209921912 0 -0.32352590008436471 -0.062378140209921912 0 -0.3268834079531176 -0.05023453433316457 0 -0.33381205608116321 -0.055554088559673351 0 -0.31370341578724742 -0.051143824177853653 0 -0.32352590008436471 -0.062378140209921912 0 -0.3268834079531176 -0.05023453433316457 0 -0.34475717967991132 -0.068595070548471249 0 -0.32352590008436471 -0.062378140209921912 0 -0.33381205608116321 -0.055554088559673351 0 -0.34475717967991132 -0.068595070548471249 0 -0.33381205608116321 -0.055554088559673351 0 -0.34008173660725832 -0.04100860914713586 0 -0.3268834079531176 -0.05023453433316457 0 -0.33381205608116321 -0.055554088559673351 0 -0.34008173660725832 -0.04100860914713586 0 -0.34475717967991132 -0.068595070548471249 0 -0.34008173660725832 -0.04100860914713586 0 -0.29131753467172561 -0.25675805269722002 0 -0.30769212114973271 -0.24578220261295139 0 -0.29241592956139478 -0.23974284613727589 0 -0.30769212114973271 -0.24578220261295139 0 -0.30829656048542242 -0.23127198481015249 0 -0.29241592956139478 -0.23974284613727589 0 -0.30829656048542242 -0.23127198481015249 0 -0.29279532374442052 -0.2217612167757172 0 -0.3129652712195421 -0.2114706657937139 0 -0.30829656048542242 -0.23127198481015249 0 -0.29279532374442052 -0.2217612167757172 0 -0.29241592956139478 -0.23974284613727589 0 -0.29279532374442052 -0.2217612167757172 0 -0.29241592956139478 -0.23974284613727589 0 -0.27798049023744681 -0.23352671123603991 0 -0.29279532374442052 -0.2217612167757172 0 -0.27798049023744681 -0.23352671123603991 0 -0.27449661508218531 -0.21747639879007349 0 -0.29131753467172561 -0.25675805269722002 0 -0.29241592956139478 -0.23974284613727589 0 -0.27722523139620658 -0.24922189107985179 0 -0.29241592956139478 -0.23974284613727589 0 -0.27722523139620658 -0.24922189107985179 0 -0.27798049023744681 -0.23352671123603991 0 -0.27722523139620658 -0.24922189107985179 0 -0.25992972331208369 -0.2410680052130979 0 -0.27798049023744681 -0.23352671123603991 0 -0.26398002587916253 -0.25656090854441049 0 -0.27722523139620658 -0.24922189107985179 0 -0.25992972331208369 -0.2410680052130979 0 -0.25992972331208369 -0.2410680052130979 0 -0.25674041691710447 -0.22108212323078871 0 -0.27798049023744681 -0.23352671123603991 0 -0.2377451423251814 -0.23136366228574551 0 -0.25992972331208369 -0.2410680052130979 0 -0.25674041691710447 -0.22108212323078871 0 -0.25674041691710447 -0.22108212323078871 0 -0.27798049023744681 -0.23352671123603991 0 -0.27449661508218531 -0.21747639879007349 0 -0.27449661508218531 -0.21747639879007349 0 -0.25644706280453389 -0.1995927939493197 0 -0.27817485521465529 -0.19463925610534399 0 -0.27449661508218531 -0.21747639879007349 0 -0.27817485521465529 -0.19463925610534399 0 -0.25674041691710447 -0.22108212323078871 0 -0.27449661508218531 -0.21747639879007349 0 -0.25644706280453389 -0.1995927939493197 0 -0.25644706280453389 -0.1995927939493197 0 -0.27817485521465529 -0.19463925610534399 0 -0.26629571781906192 -0.18034234132084431 0 -0.27817485521465529 -0.19463925610534399 0 -0.29367807880863189 -0.20345752952089671 0 -0.29386082525749962 -0.1848532680646672 0 -0.27449661508218531 -0.21747639879007349 0 -0.27817485521465529 -0.19463925610534399 0 -0.29367807880863189 -0.20345752952089671 0 -0.29279532374442052 -0.2217612167757172 0 -0.27449661508218531 -0.21747639879007349 0 -0.29367807880863189 -0.20345752952089671 0 -0.29279532374442052 -0.2217612167757172 0 -0.29367807880863189 -0.20345752952089671 0 -0.3129652712195421 -0.2114706657937139 0 -0.29367807880863189 -0.20345752952089671 0 -0.30717411826112789 -0.1920401195635244 0 -0.29386082525749962 -0.1848532680646672 0 -0.29367807880863189 -0.20345752952089671 0 -0.30717411826112789 -0.1920401195635244 0 -0.3129652712195421 -0.2114706657937139 0 -0.30551265723832022 -0.17938492804960809 0 -0.29677214667513702 -0.1677956617280158 0 -0.29386082525749962 -0.1848532680646672 0 -0.30717411826112789 -0.1920401195635244 0 -0.30551265723832022 -0.17938492804960809 0 -0.29386082525749962 -0.1848532680646672 0 -0.30717411826112789 -0.1920401195635244 0 -0.30551265723832022 -0.17938492804960809 0 -0.31489114071409963 -0.18333745750317351 0 -0.30551265723832022 -0.17938492804960809 0 -0.31220508881165993 -0.16846949012138551 0 -0.29677214667513702 -0.1677956617280158 0 -0.30551265723832022 -0.17938492804960809 0 -0.31220508881165993 -0.16846949012138551 0 -0.31489114071409963 -0.18333745750317351 0 -0.31220508881165993 -0.16846949012138551 0 -0.2949530938874384 -0.15245549241185349 0 -0.31498630483336881 -0.15987728715749039 0 -0.31220508881165993 -0.16846949012138551 0 -0.2949530938874384 -0.15245549241185349 0 -0.31220508881165993 -0.16846949012138551 0 -0.29677214667513702 -0.1677956617280158 0 -0.2949530938874384 -0.15245549241185349 0 -0.28185309534712533 -0.17180211342061449 0 -0.28553133547959519 -0.14896497073588499 0 -0.29677214667513702 -0.1677956617280158 0 -0.28185309534712533 -0.17180211342061449 0 -0.2949530938874384 -0.15245549241185349 0 -0.28185309534712533 -0.17180211342061449 0 -0.28553133547959519 -0.14896497073588499 0 -0.2949530938874384 -0.15245549241185349 0 -0.27817485521465529 -0.19463925610534399 0 -0.28185309534712533 -0.17180211342061449 0 -0.29386082525749962 -0.1848532680646672 0 -0.29677214667513702 -0.1677956617280158 0 -0.28185309534712533 -0.17180211342061449 0 -0.29386082525749962 -0.1848532680646672 0 -0.27817485521465529 -0.19463925610534399 0 -0.28185309534712533 -0.17180211342061449 0 -0.27817485521465529 -0.19463925610534399 0 -0.28185309534712533 -0.17180211342061449 0 -0.26629571781906192 -0.18034234132084431 0 -0.26629571781906192 -0.18034234132084431 0 -0.25029992488695979 -0.1782534950292988 0 -0.25761979100978533 -0.16665415002795461 0 -0.25644706280453389 -0.1995927939493197 0 -0.26629571781906192 -0.18034234132084431 0 -0.25029992488695979 -0.1782534950292988 0 -0.26629571781906192 -0.18034234132084431 0 -0.25761979100978533 -0.16665415002795461 0 -0.26933386928146391 -0.16300442301689841 0 -0.24825300788518309 -0.1555077779107997 0 -0.25761979100978533 -0.16665415002795461 0 -0.26108146703715113 -0.15708396540124031 0 -0.25761979100978533 -0.16665415002795461 0 -0.26108146703715113 -0.15708396540124031 0 -0.26933386928146391 -0.16300442301689841 0 -0.28185309534712533 -0.17180211342061449 0 -0.27598770130958522 -0.15333886838191951 0 -0.28553133547959519 -0.14896497073588499 0 -0.28185309534712533 -0.17180211342061449 0 -0.26629571781906192 -0.18034234132084431 0 -0.26933386928146391 -0.16300442301689841 0 -0.26108146703715113 -0.15708396540124031 0 -0.26933386928146391 -0.16300442301689841 0 -0.26726071412102442 -0.15087550168963329 0 -0.28185309534712533 -0.17180211342061449 0 -0.26933386928146391 -0.16300442301689841 0 -0.27598770130958522 -0.15333886838191951 0 -0.27598770130958522 -0.15333886838191951 0 -0.271177428866754 -0.14364721368904659 0 -0.28553133547959519 -0.14896497073588499 0 -0.271177428866754 -0.14364721368904659 0 -0.28662611268527088 -0.1421678116724244 0 -0.28553133547959519 -0.14896497073588499 0 -0.271177428866754 -0.14364721368904659 0 -0.28553133547959519 -0.14896497073588499 0 -0.271177428866754 -0.14364721368904659 0 -0.26726071412102442 -0.15087550168963329 0 -0.25891484533836889 -0.13910423861407881 0 -0.271177428866754 -0.14364721368904659 0 -0.26726071412102442 -0.15087550168963329 0 -0.27598770130958522 -0.15333886838191951 0 -0.271177428866754 -0.14364721368904659 0 -0.26726071412102442 -0.15087550168963329 0 -0.26933386928146391 -0.16300442301689841 0 -0.27598770130958522 -0.15333886838191951 0 -0.26726071412102442 -0.15087550168963329 0 -0.2405789555143194 -0.1375116727892334 0 -0.25601133851015478 -0.1487044986697981 0 -0.25891484533836889 -0.13910423861407881 0 -0.26108146703715113 -0.15708396540124031 0 -0.26726071412102442 -0.15087550168963329 0 -0.25601133851015478 -0.1487044986697981 0 -0.271177428866754 -0.14364721368904659 0 -0.25891484533836889 -0.13910423861407881 0 -0.26726071412102442 -0.15087550168963329 0 -0.25601133851015478 -0.1487044986697981 0 -0.25891484533836889 -0.13910423861407881 0 -0.24825300788518309 -0.1555077779107997 0 -0.26108146703715113 -0.15708396540124031 0 -0.25601133851015478 -0.1487044986697981 0 -0.26009747564537128 -0.1202716976192799 0 -0.25054446979338107 -0.12912519928877991 0 -0.26697405985724948 -0.1304210152969853 0 -0.25054446979338107 -0.12912519928877991 0 -0.25891484533836889 -0.13910423861407881 0 -0.26697405985724948 -0.1304210152969853 0 -0.2405789555143194 -0.1375116727892334 0 -0.25054446979338107 -0.12912519928877991 0 -0.25891484533836889 -0.13910423861407881 0 -0.28368315898475188 -0.1205679176925603 0 -0.271177428866754 -0.14364721368904659 0 -0.26697405985724948 -0.1304210152969853 0 -0.28368315898475188 -0.1205679176925603 0 -0.271177428866754 -0.14364721368904659 0 -0.28514813781506088 -0.1345929107172644 0 -0.28368315898475188 -0.1205679176925603 0 -0.271177428866754 -0.14364721368904659 0 -0.271177428866754 -0.14364721368904659 0 -0.25891484533836889 -0.13910423861407881 0 -0.26697405985724948 -0.1304210152969853 0 -0.271177428866754 -0.14364721368904659 0 -0.28514813781506088 -0.1345929107172644 0 -0.28662611268527088 -0.1421678116724244 0 -0.28368315898475188 -0.1205679176925603 0 -0.29492821592448881 -0.13453805291007029 0 -0.28514813781506088 -0.1345929107172644 0 -0.28368315898475188 -0.1205679176925603 0 -0.29492821592448881 -0.13453805291007029 0 -0.30140371581860798 -0.1292511186866305 0 -0.29492821592448881 -0.13453805291007029 0 -0.2912775948780732 -0.1389862943003273 0 -0.28514813781506088 -0.1345929107172644 0 -0.29657756063899582 -0.140013172184488 0 -0.29492821592448881 -0.13453805291007029 0 -0.2912775948780732 -0.1389862943003273 0 -0.2912775948780732 -0.1389862943003273 0 -0.28514813781506088 -0.1345929107172644 0 -0.28662611268527088 -0.1421678116724244 0 -0.28662611268527088 -0.1421678116724244 0 -0.28553133547959519 -0.14896497073588499 0 -0.28662611268527088 -0.1421678116724244 0 -0.28553133547959519 -0.14896497073588499 0 -0.28937009998544028 -0.14621975116982991 0 -0.28553133547959519 -0.14896497073588499 0 -0.2922536480049423 -0.1499497578362777 0 -0.28937009998544028 -0.14621975116982991 0 -0.28553133547959519 -0.14896497073588499 0 -0.2922536480049423 -0.1499497578362777 0 -0.2949530938874384 -0.15245549241185349 0 -0.28553133547959519 -0.14896497073588499 0 -0.2949530938874384 -0.15245549241185349 0 -0.2922536480049423 -0.1499497578362777 0 -0.2949530938874384 -0.15245549241185349 0 -0.29617843115691228 -0.14802272380236281 0 -0.2922536480049423 -0.1499497578362777 0 -0.2949530938874384 -0.15245549241185349 0 -0.2912775948780732 -0.1389862943003273 0 -0.28662611268527088 -0.1421678116724244 0 -0.29310794732654949 -0.1436195240173895 0 -0.28662611268527088 -0.1421678116724244 0 -0.28937009998544028 -0.14621975116982991 0 -0.29310794732654949 -0.1436195240173895 0 -0.2922536480049423 -0.1499497578362777 0 -0.28937009998544028 -0.14621975116982991 0 -0.29310794732654949 -0.1436195240173895 0 -0.29617843115691228 -0.14802272380236281 0 -0.29310794732654949 -0.1436195240173895 0 -0.29956135480037449 -0.14472193576336759 0 -0.2922536480049423 -0.1499497578362777 0 -0.29617843115691228 -0.14802272380236281 0 -0.29310794732654949 -0.1436195240173895 0 -0.29657756063899582 -0.140013172184488 0 -0.2912775948780732 -0.1389862943003273 0 -0.29310794732654949 -0.1436195240173895 0 -0.29657756063899582 -0.140013172184488 0 -0.29310794732654949 -0.1436195240173895 0 -0.29956135480037449 -0.14472193576336759 0 -0.29956135480037449 -0.14472193576336759 0 -0.30554397810907652 -0.146919348525368 0 -0.30456114821214081 -0.13888567554976469 0 -0.2949530938874384 -0.15245549241185349 0 -0.30620642865757891 -0.15285211384445899 0 -0.31498630483336881 -0.15987728715749039 0 -0.2949530938874384 -0.15245549241185349 0 -0.31498630483336881 -0.15987728715749039 0 -0.29657756063899582 -0.140013172184488 0 -0.29956135480037449 -0.14472193576336759 0 -0.30456114821214081 -0.13888567554976469 0 -0.29617843115691228 -0.14802272380236281 0 -0.29956135480037449 -0.14472193576336759 0 -0.30052761464898298 -0.14908162957255741 0 -0.29956135480037449 -0.14472193576336759 0 -0.30052761464898298 -0.14908162957255741 0 -0.30554397810907652 -0.146919348525368 0 -0.2949530938874384 -0.15245549241185349 0 -0.30052761464898298 -0.14908162957255741 0 -0.30620642865757891 -0.15285211384445899 0 -0.2949530938874384 -0.15245549241185349 0 -0.29617843115691228 -0.14802272380236281 0 -0.30052761464898298 -0.14908162957255741 0 -0.30052761464898298 -0.14908162957255741 0 -0.30620642865757891 -0.15285211384445899 0 -0.30554397810907652 -0.146919348525368 0 -0.30620642865757891 -0.15285211384445899 0 -0.31211863317072019 -0.1538765410016501 0 -0.31498630483336881 -0.15987728715749039 0 -0.30620642865757891 -0.15285211384445899 0 -0.31071230574427161 -0.15022116190891349 0 -0.30554397810907652 -0.146919348525368 0 -0.30620642865757891 -0.15285211384445899 0 -0.31071230574427161 -0.15022116190891349 0 -0.31211863317072019 -0.1538765410016501 0 -0.31246836027323899 -0.14497521722301901 0 -0.31246708178415561 -0.13872402753426441 0 -0.30456114821214081 -0.13888567554976469 0 -0.30554397810907652 -0.146919348525368 0 -0.31246836027323899 -0.14497521722301901 0 -0.30456114821214081 -0.13888567554976469 0 -0.31071230574427161 -0.15022116190891349 0 -0.30554397810907652 -0.146919348525368 0 -0.31246836027323899 -0.14497521722301901 0 -0.30140371581860798 -0.1292511186866305 0 -0.30456114821214081 -0.13888567554976469 0 -0.31280589771709483 -0.13181614145056869 0 -0.31246708178415561 -0.13872402753426441 0 -0.30456114821214081 -0.13888567554976469 0 -0.31280589771709483 -0.13181614145056869 0 -0.30807566230962469 -0.12087427087378499 0 -0.30140371581860798 -0.1292511186866305 0 -0.31280589771709483 -0.13181614145056869 0 -0.29657756063899582 -0.140013172184488 0 -0.29492821592448881 -0.13453805291007029 0 -0.30456114821214081 -0.13888567554976469 0 -0.29492821592448881 -0.13453805291007029 0 -0.30140371581860798 -0.1292511186866305 0 -0.30456114821214081 -0.13888567554976469 0 -0.3226930215385343 -0.13395567837890529 0 -0.31855308997834159 -0.13934265221991729 0 -0.32506280578504959 -0.14064102607364051 0 -0.3226930215385343 -0.13395567837890529 0 -0.32506280578504959 -0.14064102607364051 0 -0.33047387389575927 -0.1369340691945744 0 -0.3226930215385343 -0.13395567837890529 0 -0.32807010768985068 -0.12986880773923029 0 -0.33047387389575927 -0.1369340691945744 0 -0.32007374605487132 -0.12494213909402439 0 -0.33441303965894859 -0.1249452932850653 0 -0.32807010768985068 -0.12986880773923029 0 -0.32007374605487132 -0.12494213909402439 0 -0.3226930215385343 -0.13395567837890529 0 -0.32807010768985068 -0.12986880773923029 0 -0.32007374605487132 -0.12494213909402439 0 -0.3226930215385343 -0.13395567837890529 0 -0.31280589771709483 -0.13181614145056869 0 -0.30807566230962469 -0.12087427087378499 0 -0.32007374605487132 -0.12494213909402439 0 -0.31280589771709483 -0.13181614145056869 0 -0.3226930215385343 -0.13395567837890529 0 -0.31280589771709483 -0.13181614145056869 0 -0.31855308997834159 -0.13934265221991729 0 -0.31246708178415561 -0.13872402753426441 0 -0.31280589771709483 -0.13181614145056869 0 -0.31855308997834159 -0.13934265221991729 0 -0.31246836027323899 -0.14497521722301901 0 -0.31246708178415561 -0.13872402753426441 0 -0.31855308997834159 -0.13934265221991729 0 -0.31246836027323899 -0.14497521722301901 0 -0.31855308997834159 -0.13934265221991729 0 -0.32096396999162452 -0.14503749675666289 0 -0.31246836027323899 -0.14497521722301901 0 -0.31722412851074311 -0.15248258895007169 0 -0.32096396999162452 -0.14503749675666289 0 -0.31211863317072019 -0.1538765410016501 0 -0.31722412851074311 -0.15248258895007169 0 -0.31498630483336881 -0.15987728715749039 0 -0.31071230574427161 -0.15022116190891349 0 -0.31246836027323899 -0.14497521722301901 0 -0.31722412851074311 -0.15248258895007169 0 -0.31071230574427161 -0.15022116190891349 0 -0.31211863317072019 -0.1538765410016501 0 -0.31722412851074311 -0.15248258895007169 0 -0.32096396999162452 -0.14503749675666289 0 -0.32506280578504959 -0.14064102607364051 0 -0.33039285730051032 -0.1475567648151897 0 -0.31722412851074311 -0.15248258895007169 0 -0.32096396999162452 -0.14503749675666289 0 -0.33039285730051032 -0.1475567648151897 0 -0.31855308997834159 -0.13934265221991729 0 -0.32096396999162452 -0.14503749675666289 0 -0.32506280578504959 -0.14064102607364051 0 -0.33039285730051032 -0.1475567648151897 0 -0.33813688440009898 -0.15615522653291031 0 -0.34198145815712638 -0.1395953898376964 0 -0.32506280578504959 -0.14064102607364051 0 -0.33039285730051032 -0.1475567648151897 0 -0.33047387389575927 -0.1369340691945744 0 -0.31722412851074311 -0.15248258895007169 0 -0.33039285730051032 -0.1475567648151897 0 -0.33813688440009898 -0.15615522653291031 0 -0.33039285730051032 -0.1475567648151897 0 -0.34198145815712638 -0.1395953898376964 0 -0.33047387389575927 -0.1369340691945744 0 -0.33813688440009898 -0.15615522653291031 0 -0.34198145815712638 -0.1395953898376964 0 -0.34954987665533299 -0.15424548639031271 0 -0.34198145815712638 -0.1395953898376964 0 -0.3337346198504213 -0.1328358900141379 0 -0.33047387389575927 -0.1369340691945744 0 -0.32807010768985068 -0.12986880773923029 0 -0.3337346198504213 -0.1328358900141379 0 -0.33047387389575927 -0.1369340691945744 0 -0.33441303965894859 -0.1249452932850653 0 -0.32807010768985068 -0.12986880773923029 0 -0.3337346198504213 -0.1328358900141379 0 -0.33441303965894859 -0.1249452932850653 0 -0.34198145815712638 -0.1395953898376964 0 -0.34272140335036932 -0.124947120862287 0 -0.33441303965894859 -0.1249452932850653 0 -0.34198145815712638 -0.1395953898376964 0 -0.33441303965894859 -0.1249452932850653 0 -0.34198145815712638 -0.1395953898376964 0 -0.3337346198504213 -0.1328358900141379 0 -0.34272140335036932 -0.124947120862287 0 -0.35413341494744088 -0.14719959415449421 0 -0.34272140335036932 -0.124947120862287 0 -0.35599685079288468 -0.13305792836185981 0 -0.35413341494744088 -0.14719959415449421 0 -0.34272140335036932 -0.124947120862287 0 -0.34198145815712638 -0.1395953898376964 0 -0.35413341494744088 -0.14719959415449421 0 -0.34272140335036932 -0.124947120862287 0 -0.36893450279197471 -0.1249528869149899 0 -0.35599685079288468 -0.13305792836185981 0 -0.35599685079288468 -0.13305792836185981 0 -0.36484224068191412 -0.14157370685753851 0 -0.35413341494744088 -0.14719959415449421 0 -0.36893450279197471 -0.1249528869149899 0 -0.35599685079288468 -0.13305792836185981 0 -0.36484224068191412 -0.14157370685753851 0 -0.36893450279197471 -0.1249528869149899 0 -0.36484224068191412 -0.14157370685753851 0 -0.3777566452334315 -0.14913711856379011 0 -0.3679743334396014 -0.15408772885571331 0 -0.37696591512674532 -0.1609827341034305 0 -0.3777566452334315 -0.14913711856379011 0 -0.3679743334396014 -0.15408772885571331 0 -0.36484224068191412 -0.14157370685753851 0 -0.3777566452334315 -0.14913711856379011 0 -0.3679743334396014 -0.15408772885571331 0 -0.36484224068191412 -0.14157370685753851 0 -0.35413341494744088 -0.14719959415449421 0 -0.35413341494744088 -0.14719959415449421 0 -0.34954987665533299 -0.15424548639031271 0 -0.35445721343992059 -0.1619675590177023 0 -0.34198145815712638 -0.1395953898376964 0 -0.34954987665533299 -0.15424548639031271 0 -0.34198145815712638 -0.1395953898376964 0 -0.35413341494744088 -0.14719959415449421 0 -0.34954987665533299 -0.15424548639031271 0 -0.33813688440009898 -0.15615522653291031 0 -0.34954987665533299 -0.15424548639031271 0 -0.34648545334868369 -0.16311147615285329 0 -0.34648545334868369 -0.16311147615285329 0 -0.35788001493839611 -0.17576831496813999 0 -0.33501951577929873 -0.16729908190312789 0 -0.34954987665533299 -0.15424548639031271 0 -0.34648545334868369 -0.16311147615285329 0 -0.35445721343992059 -0.1619675590177023 0 -0.35413341494744088 -0.14719959415449421 0 -0.35445721343992059 -0.1619675590177023 0 -0.36554542654456429 -0.16945206744667471 0 -0.35788001493839611 -0.17576831496813999 0 -0.33501951577929873 -0.16729908190312789 0 -0.34648545334868369 -0.16311147615285329 0 -0.35445721343992059 -0.1619675590177023 0 -0.35788001493839611 -0.17576831496813999 0 -0.35445721343992059 -0.1619675590177023 0 -0.36554542654456429 -0.16945206744667471 0 -0.35788001493839611 -0.17576831496813999 0 -0.35413341494744088 -0.14719959415449421 0 -0.36554542654456429 -0.16945206744667471 0 -0.3679743334396014 -0.15408772885571331 0 -0.35413341494744088 -0.14719959415449421 0 -0.36554542654456429 -0.16945206744667471 0 -0.3679743334396014 -0.15408772885571331 0 -0.36554542654456429 -0.16945206744667471 0 -0.37696591512674532 -0.1609827341034305 0 -0.37016556171889331 -0.18126023377528719 0 -0.3536864721015115 -0.18284124587119119 0 -0.37235342842372432 -0.19838340983925429 0 -0.36554542654456429 -0.16945206744667471 0 -0.37016556171889331 -0.18126023377528719 0 -0.38426477739238413 -0.17192867897072969 0 -0.37016556171889331 -0.18126023377528719 0 -0.3536864721015115 -0.18284124587119119 0 -0.35788001493839611 -0.17576831496813999 0 -0.36554542654456429 -0.16945206744667471 0 -0.37016556171889331 -0.18126023377528719 0 -0.35788001493839611 -0.17576831496813999 0 -0.3536864721015115 -0.18284124587119119 0 -0.33501951577929873 -0.16729908190312789 0 -0.3536864721015115 -0.18284124587119119 0 -0.35788001493839611 -0.17576831496813999 0 -0.33501951577929873 -0.16729908190312789 0 -0.3536864721015115 -0.18284124587119119 0 -0.32945708373588178 -0.18448348783091689 0 -0.33501951577929873 -0.16729908190312789 0 -0.31722412851074311 -0.15248258895007169 0 -0.33813688440009898 -0.15615522653291031 0 -0.33501951577929873 -0.16729908190312789 0 -0.33813688440009898 -0.15615522653291031 0 -0.34648545334868369 -0.16311147615285329 0 -0.33501951577929873 -0.16729908190312789 0 -0.31722412851074311 -0.15248258895007169 0 -0.33501951577929873 -0.16729908190312789 0 -0.31722412851074311 -0.15248258895007169 0 -0.33501951577929873 -0.16729908190312789 0 -0.31498630483336881 -0.15987728715749039 0 -0.31220508881165993 -0.16846949012138551 0 -0.33501951577929873 -0.16729908190312789 0 -0.31498630483336881 -0.15987728715749039 0 -0.33501951577929873 -0.16729908190312789 0 -0.31498630483336881 -0.15987728715749039 0 -0.31220508881165993 -0.16846949012138551 0 -0.32945708373588178 -0.18448348783091689 0 -0.31489114071409963 -0.18333745750317351 0 -0.31220508881165993 -0.16846949012138551 0 -0.32945708373588178 -0.18448348783091689 0 -0.31220508881165993 -0.16846949012138551 0 -0.32945708373588178 -0.18448348783091689 0 -0.33501951577929873 -0.16729908190312789 0 -0.32945708373588178 -0.18448348783091689 0 -0.31489114071409963 -0.18333745750317351 0 -0.32010675552350842 -0.19230926195043291 0 -0.30717411826112789 -0.1920401195635244 0 -0.32010675552350842 -0.19230926195043291 0 -0.3129652712195421 -0.2114706657937139 0 -0.32945708373588178 -0.18448348783091689 0 -0.32010675552350842 -0.19230926195043291 0 -0.32566449460190838 -0.20326261146105551 0 -0.32010675552350842 -0.19230926195043291 0 -0.3129652712195421 -0.2114706657937139 0 -0.32566449460190838 -0.20326261146105551 0 -0.30717411826112789 -0.1920401195635244 0 -0.31489114071409963 -0.18333745750317351 0 -0.32010675552350842 -0.19230926195043291 0 -0.3129652712195421 -0.2114706657937139 0 -0.32566449460190838 -0.20326261146105551 0 -0.33208474862113468 -0.21873250337862821 0 -0.33208474862113468 -0.21873250337862821 0 -0.34670907866010381 -0.20049748554044841 0 -0.34896881396179619 -0.22434135344573131 0 -0.32566449460190838 -0.20326261146105551 0 -0.33208474862113468 -0.21873250337862821 0 -0.34670907866010381 -0.20049748554044841 0 -0.3536864721015115 -0.18284124587119119 0 -0.32945708373588178 -0.18448348783091689 0 -0.34670907866010381 -0.20049748554044841 0 -0.32945708373588178 -0.18448348783091689 0 -0.32566449460190838 -0.20326261146105551 0 -0.34670907866010381 -0.20049748554044841 0 -0.32945708373588178 -0.18448348783091689 0 -0.34670907866010381 -0.20049748554044841 0 -0.3536864721015115 -0.18284124587119119 0 -0.35917751319241631 -0.19955840612521841 0 -0.34670907866010381 -0.20049748554044841 0 -0.3536864721015115 -0.18284124587119119 0 -0.37235342842372432 -0.19838340983925429 0 -0.3536864721015115 -0.18284124587119119 0 -0.35917751319241631 -0.19955840612521841 0 -0.37235342842372432 -0.19838340983925429 0 -0.37235342842372432 -0.19838340983925429 0 -0.36396107358432572 -0.21651148324997979 0 -0.37772562505684643 -0.22219038377974651 0 -0.35917751319241631 -0.19955840612521841 0 -0.37235342842372432 -0.19838340983925429 0 -0.36396107358432572 -0.21651148324997979 0 -0.34670907866010381 -0.20049748554044841 0 -0.36396107358432572 -0.21651148324997979 0 -0.34896881396179619 -0.22434135344573131 0 -0.34670907866010381 -0.20049748554044841 0 -0.36396107358432572 -0.21651148324997979 0 -0.35917751319241631 -0.19955840612521841 0 -0.34670907866010381 -0.20049748554044841 0 -0.36396107358432572 -0.21651148324997979 0 -0.34896881396179619 -0.22434135344573131 0 -0.36764811873304098 -0.23322730847002751 0 -0.35305879752332059 -0.24486073726717009 0 -0.36396107358432572 -0.21651148324997979 0 -0.36764811873304098 -0.23322730847002751 0 -0.37772562505684643 -0.22219038377974651 0 -0.36396107358432572 -0.21651148324997979 0 -0.34896881396179619 -0.22434135344573131 0 -0.36764811873304098 -0.23322730847002751 0 -0.37533687834285862 -0.25417213976024849 0 -0.36764811873304098 -0.23322730847002751 0 -0.35305879752332059 -0.24486073726717009 0 -0.34896881396179619 -0.22434135344573131 0 -0.35305879752332059 -0.24486073726717009 0 -0.33568364413539042 -0.23615154195274179 0 -0.33623326073948312 -0.25365348176558788 0 -0.33568364413539042 -0.23615154195274179 0 -0.32213598881581812 -0.2442700999577708 0 -0.33623326073948312 -0.25365348176558788 0 -0.35305879752332059 -0.24486073726717009 0 -0.33568364413539042 -0.23615154195274179 0 -0.33208474862113468 -0.21873250337862821 0 -0.33568364413539042 -0.23615154195274179 0 -0.32219037366776621 -0.22897372759534659 0 -0.33208474862113468 -0.21873250337862821 0 -0.34896881396179619 -0.22434135344573131 0 -0.33568364413539042 -0.23615154195274179 0 -0.30829656048542242 -0.23127198481015249 0 -0.3129652712195421 -0.2114706657937139 0 -0.32219037366776621 -0.22897372759534659 0 -0.3129652712195421 -0.2114706657937139 0 -0.33208474862113468 -0.21873250337862821 0 -0.32219037366776621 -0.22897372759534659 0 -0.30769212114973271 -0.24578220261295139 0 -0.30829656048542242 -0.23127198481015249 0 -0.32213598881581812 -0.2442700999577708 0 -0.30829656048542242 -0.23127198481015249 0 -0.32219037366776621 -0.22897372759534659 0 -0.32213598881581812 -0.2442700999577708 0 -0.31968345090478489 -0.25798973640781447 0 -0.30769212114973271 -0.24578220261295139 0 -0.32213598881581812 -0.2442700999577708 0 -0.33568364413539042 -0.23615154195274179 0 -0.32219037366776621 -0.22897372759534659 0 -0.32213598881581812 -0.2442700999577708 0 -0.43598079583492633 -0.24721882136819351 0 -0.42311134176242837 -0.2304528026464861 0 -0.41615383063077721 -0.2466412503256647 0 -0.43598079583492633 -0.24721882136819351 0 -0.42311134176242837 -0.2304528026464861 0 -0.43908324849522451 -0.2287046610080686 0 -0.42311134176242837 -0.2304528026464861 0 -0.41411505562058892 -0.2091502018577929 0 -0.42948217154750851 -0.21815887616964899 0 -0.42311134176242837 -0.2304528026464861 0 -0.42948217154750851 -0.21815887616964899 0 -0.43908324849522451 -0.2287046610080686 0 -0.42948217154750851 -0.21815887616964899 0 -0.43955036875351089 -0.21658504913102711 0 -0.43908324849522451 -0.2287046610080686 0 -0.40619246279161347 -0.2313797712556602 0 -0.41411505562058892 -0.2091502018577929 0 -0.42311134176242837 -0.2304528026464861 0 -0.40619246279161347 -0.2313797712556602 0 -0.41411505562058892 -0.2091502018577929 0 -0.39826986996263802 -0.25360934065352753 0 -0.41615383063077721 -0.2466412503256647 0 -0.40619246279161347 -0.2313797712556602 0 -0.42311134176242837 -0.2304528026464861 0 -0.41615383063077721 -0.2466412503256647 0 -0.40619246279161347 -0.2313797712556602 0 -0.39826986996263802 -0.25360934065352753 0 -0.38632210934187061 -0.2364082567837591 0 -0.40619246279161347 -0.2313797712556602 0 -0.39826986996263802 -0.25360934065352753 0 -0.40619246279161347 -0.2313797712556602 0 -0.37533687834285862 -0.25417213976024849 0 -0.36764811873304098 -0.23322730847002751 0 -0.38632210934187061 -0.2364082567837591 0 -0.37533687834285862 -0.25417213976024849 0 -0.39826986996263802 -0.25360934065352753 0 -0.38632210934187061 -0.2364082567837591 0 -0.36764811873304098 -0.23322730847002751 0 -0.38632210934187061 -0.2364082567837591 0 -0.37772562505684643 -0.22219038377974651 0 -0.38632210934187061 -0.2364082567837591 0 -0.37772562505684643 -0.22219038377974651 0 -0.39102038474593709 -0.2139255738073175 0 -0.38632210934187061 -0.2364082567837591 0 -0.40619246279161347 -0.2313797712556602 0 -0.39102038474593709 -0.2139255738073175 0 -0.39102038474593709 -0.2139255738073175 0 -0.40351751052996843 -0.1957217498792192 0 -0.41411505562058892 -0.2091502018577929 0 -0.40619246279161347 -0.2313797712556602 0 -0.39102038474593709 -0.2139255738073175 0 -0.41411505562058892 -0.2091502018577929 0 -0.37235342842372432 -0.19838340983925429 0 -0.39102038474593709 -0.2139255738073175 0 -0.37235342842372432 -0.19838340983925429 0 -0.37772562505684643 -0.22219038377974651 0 -0.39102038474593709 -0.2139255738073175 0 -0.37016556171889331 -0.18126023377528719 0 -0.37235342842372432 -0.19838340983925429 0 -0.38726325091278008 -0.18918768555573329 0 -0.37235342842372432 -0.19838340983925429 0 -0.39102038474593709 -0.2139255738073175 0 -0.38726325091278008 -0.18918768555573329 0 -0.38726325091278008 -0.18918768555573329 0 -0.40351751052996843 -0.1957217498792192 0 -0.40315121292097328 -0.17942465571532731 0 -0.39102038474593709 -0.2139255738073175 0 -0.38726325091278008 -0.18918768555573329 0 -0.40351751052996843 -0.1957217498792192 0 -0.41411505562058892 -0.2091502018577929 0 -0.42203764844956237 -0.18692063245992491 0 -0.40351751052996843 -0.1957217498792192 0 -0.41411505562058892 -0.2091502018577929 0 -0.42203764844956237 -0.18692063245992491 0 -0.41411505562058892 -0.2091502018577929 0 -0.42948217154750851 -0.21815887616964899 0 -0.43155084310578928 -0.2059016662048701 0 -0.42948217154750851 -0.21815887616964899 0 -0.43155084310578928 -0.2059016662048701 0 -0.43955036875351089 -0.21658504913102711 0 -0.42203764844956237 -0.18692063245992491 0 -0.44484374680150301 -0.19597231310248839 0 -0.41411505562058892 -0.2091502018577929 0 -0.43155084310578928 -0.2059016662048701 0 -0.42203764844956237 -0.18692063245992491 0 -0.43155084310578928 -0.2059016662048701 0 -0.42203764844956237 -0.18692063245992491 0 -0.44484374680150301 -0.19597231310248839 0 -0.42203764844956237 -0.18692063245992491 0 -0.44134853753678083 -0.18159229851429221 0 -0.44484374680150301 -0.19597231310248839 0 -0.42203764844956237 -0.18692063245992491 0 -0.42880774722037651 -0.1679247830322266 0 -0.42203764844956237 -0.18692063245992491 0 -0.42880774722037651 -0.1679247830322266 0 -0.44134853753678083 -0.18159229851429221 0 -0.42880774722037651 -0.1679247830322266 0 -0.43557784599118871 -0.14892893360452769 0 -0.44631139980808621 -0.1631836851414229 0 -0.42880774722037651 -0.1679247830322266 0 -0.43557784599118871 -0.14892893360452769 0 -0.42880774722037651 -0.1679247830322266 0 -0.41236960909879722 -0.16540507401591409 0 -0.42079860369606048 -0.15043713941075901 0 -0.42203764844956237 -0.18692063245992491 0 -0.42880774722037651 -0.1679247830322266 0 -0.41236960909879722 -0.16540507401591409 0 -0.40351751052996843 -0.1957217498792192 0 -0.42203764844956237 -0.18692063245992491 0 -0.40315121292097328 -0.17942465571532731 0 -0.42203764844956237 -0.18692063245992491 0 -0.40315121292097328 -0.17942465571532731 0 -0.42203764844956237 -0.18692063245992491 0 -0.41236960909879722 -0.16540507401591409 0 -0.40315121292097328 -0.17942465571532731 0 -0.38726325091278008 -0.18918768555573329 0 -0.40315121292097328 -0.17942465571532731 0 -0.38426477739238413 -0.17192867897072969 0 -0.40315121292097328 -0.17942465571532731 0 -0.38426477739238413 -0.17192867897072969 0 -0.37016556171889331 -0.18126023377528719 0 -0.38726325091278008 -0.18918768555573329 0 -0.38426477739238413 -0.17192867897072969 0 -0.36554542654456429 -0.16945206744667471 0 -0.38426477739238413 -0.17192867897072969 0 -0.37696591512674532 -0.1609827341034305 0 -0.38426477739238413 -0.17192867897072969 0 -0.37696591512674532 -0.1609827341034305 0 -0.39230106084837368 -0.15838844905994759 0 -0.40315121292097328 -0.17942465571532731 0 -0.38426477739238413 -0.17192867897072969 0 -0.39230106084837368 -0.15838844905994759 0 -0.41236960909879722 -0.16540507401591409 0 -0.39230106084837368 -0.15838844905994759 0 -0.40587711449475489 -0.1449624873806776 0 -0.41236960909879722 -0.16540507401591409 0 -0.40315121292097328 -0.17942465571532731 0 -0.39230106084837368 -0.15838844905994759 0 -0.39230106084837368 -0.15838844905994759 0 -0.39162863389564362 -0.14105630786861159 0 -0.40587711449475489 -0.1449624873806776 0 -0.39230106084837368 -0.15838844905994759 0 -0.39162863389564362 -0.14105630786861159 0 -0.3777566452334315 -0.14913711856379011 0 -0.37696591512674532 -0.1609827341034305 0 -0.39230106084837368 -0.15838844905994759 0 -0.3777566452334315 -0.14913711856379011 0 -0.36893450279197471 -0.1249528869149899 0 -0.39162863389564362 -0.14105630786861159 0 -0.3777566452334315 -0.14913711856379011 0 -0.36893450279197471 -0.1249528869149899 0 -0.39162863389564362 -0.14105630786861159 0 -0.39514760223357998 -0.1249586529677193 0 -0.39162863389564362 -0.14105630786861159 0 -0.40587711449475489 -0.1449624873806776 0 -0.39514760223357998 -0.1249586529677193 0 -0.40587711449475489 -0.1449624873806776 0 -0.39514760223357998 -0.1249586529677193 0 -0.42136070167518519 -0.1249644190204488 0 -0.40587711449475489 -0.1449624873806776 0 -0.42079860369606048 -0.15043713941075901 0 -0.42136070167518519 -0.1249644190204488 0 -0.41236960909879722 -0.16540507401591409 0 -0.40587711449475489 -0.1449624873806776 0 -0.42079860369606048 -0.15043713941075901 0 -0.42079860369606048 -0.15043713941075901 0 -0.43557784599118871 -0.14892893360452769 0 -0.42136070167518519 -0.1249644190204488 0 -0.42880774722037651 -0.1679247830322266 0 -0.42079860369606048 -0.15043713941075901 0 -0.43557784599118871 -0.14892893360452769 0 -0.43557784599118871 -0.14892893360452769 0 -0.42136070167518519 -0.1249644190204488 0 -0.44757380111679052 -0.12497018507317829 0 -0.43557784599118871 -0.14892893360452769 0 -0.45596445488588 -0.14427568033770541 0 -0.44757380111679052 -0.12497018507317829 0 -0.43557784599118871 -0.14892893360452769 0 -0.45596445488588 -0.14427568033770541 0 -0.44631139980808621 -0.1631836851414229 0 -0.45596445488588 -0.14427568033770541 0 -0.46278066629215481 -0.1610158872753634 0 -0.44631139980808621 -0.1631836851414229 0 -0.45596445488588 -0.14427568033770541 0 -0.47930750267908417 -0.1480635854121114 0 -0.46278066629215481 -0.1610158872753634 0 -0.45596445488588 -0.14427568033770541 0 -0.44757380111679052 -0.12497018507317829 0 -0.47378690055839578 -0.1249759511259078 0 -0.48827360080937021 -0.13531742911399189 0 -0.47930750267908417 -0.1480635854121114 0 -0.47378690055839578 -0.1249759511259078 0 -0.45596445488588 -0.14427568033770541 0 -0.47930750267908417 -0.1480635854121114 0 -0.47378690055839578 -0.1249759511259078 0 -0.48827360080937021 -0.13531742911399189 0 -0.5 -0.14324846273931111 0 -0.50000000000000111 -0.12498171717863731 0 -0.48827360080937021 -0.13531742911399189 0 -0.47378690055839578 -0.1249759511259078 0 -0.50000000000000111 -0.12498171717863731 0 -0.5 -0.14324846273931111 0 -0.47930750267908417 -0.1480635854121114 0 -0.49999999999999961 -0.161515208299985 0 -0.48827360080937021 -0.13531742911399189 0 -0.5 -0.14324846273931111 0 -0.47930750267908417 -0.1480635854121114 0 -0.47930750267908417 -0.1480635854121114 0 -0.47738728335761421 -0.1682509267597351 0 -0.46278066629215481 -0.1610158872753634 0 -0.47738728335761421 -0.1682509267597351 0 -0.49999999999999961 -0.161515208299985 0 -0.48839409620634278 -0.18039624849769001 0 -0.49999999999999961 -0.161515208299985 0 -0.48839409620634278 -0.18039624849769001 0 -0.47930750267908417 -0.1480635854121114 0 -0.47738728335761421 -0.1682509267597351 0 -0.49999999999999961 -0.161515208299985 0 -0.49999999999999961 -0.161515208299985 0 -0.5 -0.18618779176616679 0 -0.48839409620634278 -0.18039624849769001 0 -0.5 -0.18618779176616679 0 -0.48839409620634278 -0.18039624849769001 0 -0.48957789370491162 -0.19386933705848941 0 -0.47738728335761421 -0.1682509267597351 0 -0.48839409620634278 -0.18039624849769001 0 -0.47328693949397721 -0.18411760774338479 0 -0.47738728335761421 -0.1682509267597351 0 -0.47328693949397721 -0.18411760774338479 0 -0.45860677246597031 -0.17520894370368309 0 -0.47328693949397721 -0.18411760774338479 0 -0.45860677246597031 -0.17520894370368309 0 -0.45906836497473352 -0.19043479360484361 0 -0.47738728335761421 -0.1682509267597351 0 -0.45860677246597031 -0.17520894370368309 0 -0.46278066629215481 -0.1610158872753634 0 -0.45860677246597031 -0.17520894370368309 0 -0.46278066629215481 -0.1610158872753634 0 -0.44631139980808621 -0.1631836851414229 0 -0.42880774722037651 -0.1679247830322266 0 -0.44631139980808621 -0.1631836851414229 0 -0.44134853753678083 -0.18159229851429221 0 -0.45860677246597031 -0.17520894370368309 0 -0.44631139980808621 -0.1631836851414229 0 -0.44134853753678083 -0.18159229851429221 0 -0.45860677246597031 -0.17520894370368309 0 -0.44134853753678083 -0.18159229851429221 0 -0.45906836497473352 -0.19043479360484361 0 -0.44134853753678083 -0.18159229851429221 0 -0.45906836497473352 -0.19043479360484361 0 -0.44134853753678083 -0.18159229851429221 0 -0.44484374680150301 -0.19597231310248839 0 -0.45906836497473352 -0.19043479360484361 0 -0.43155084310578928 -0.2059016662048701 0 -0.44484374680150301 -0.19597231310248839 0 -0.44343463088850471 -0.20721188330797369 0 -0.43155084310578928 -0.2059016662048701 0 -0.44343463088850471 -0.20721188330797369 0 -0.43955036875351089 -0.21658504913102711 0 -0.44343463088850471 -0.20721188330797369 0 -0.43955036875351089 -0.21658504913102711 0 -0.44966782191270221 -0.21345696714665749 0 -0.44966782191270221 -0.21345696714665749 0 -0.45691127413918359 -0.218140336649912 0 -0.44903912237987481 -0.22310222333220869 0 -0.43955036875351089 -0.21658504913102711 0 -0.44966782191270221 -0.21345696714665749 0 -0.44903912237987481 -0.22310222333220869 0 -0.44484374680150301 -0.19597231310248839 0 -0.44343463088850471 -0.20721188330797369 0 -0.45285363365211462 -0.2065344908709397 0 -0.44343463088850471 -0.20721188330797369 0 -0.44966782191270221 -0.21345696714665749 0 -0.45285363365211462 -0.2065344908709397 0 -0.45285363365211462 -0.2065344908709397 0 -0.4586721235044201 -0.2110072970525271 0 -0.46764984515344349 -0.20502399374505181 0 -0.44966782191270221 -0.21345696714665749 0 -0.45285363365211462 -0.2065344908709397 0 -0.4586721235044201 -0.2110072970525271 0 -0.44966782191270221 -0.21345696714665749 0 -0.4586721235044201 -0.2110072970525271 0 -0.45691127413918359 -0.218140336649912 0 -0.4586721235044201 -0.2110072970525271 0 -0.45691127413918359 -0.218140336649912 0 -0.46757130244775341 -0.21427176676618889 0 -0.4586721235044201 -0.2110072970525271 0 -0.46757130244775341 -0.21427176676618889 0 -0.46764984515344349 -0.20502399374505181 0 -0.44484374680150301 -0.19597231310248839 0 -0.46764984515344349 -0.20502399374505181 0 -0.45906836497473352 -0.19043479360484361 0 -0.44484374680150301 -0.19597231310248839 0 -0.45285363365211462 -0.2065344908709397 0 -0.46764984515344349 -0.20502399374505181 0 -0.45906836497473352 -0.19043479360484361 0 -0.47678819241268611 -0.1992772886953951 0 -0.44484374680150301 -0.19597231310248839 0 -0.46764984515344349 -0.20502399374505181 0 -0.46764984515344349 -0.20502399374505181 0 -0.45906836497473352 -0.19043479360484361 0 -0.47678819241268611 -0.1992772886953951 0 -0.47328693949397721 -0.18411760774338479 0 -0.45906836497473352 -0.19043479360484361 0 -0.47678819241268611 -0.1992772886953951 0 -0.48839409620634278 -0.18039624849769001 0 -0.47328693949397721 -0.18411760774338479 0 -0.47678819241268611 -0.1992772886953951 0 -0.48839409620634278 -0.18039624849769001 0 -0.47678819241268611 -0.1992772886953951 0 -0.47678819241268611 -0.1992772886953951 0 -0.48957789370491162 -0.19386933705848941 0 -0.50000000000000222 -0.21086037523234849 0 -0.48839409620634278 -0.18039624849769001 0 -0.47678819241268611 -0.1992772886953951 0 -0.48957789370491162 -0.19386933705848941 0 -0.5 -0.18618779176616679 0 -0.48957789370491162 -0.19386933705848941 0 -0.50000000000000222 -0.21086037523234849 0 -0.50000000000000222 -0.21086037523234849 0 -0.48101414991814051 -0.21220490785157131 0 -0.4775447229854059 -0.22535576830415929 0 -0.47678819241268611 -0.1992772886953951 0 -0.50000000000000222 -0.21086037523234849 0 -0.47678819241268611 -0.1992772886953951 0 -0.50000000000000222 -0.21086037523234849 0 -0.48101414991814051 -0.21220490785157131 0 -0.46757130244775341 -0.21427176676618889 0 -0.47678819241268611 -0.1992772886953951 0 -0.48101414991814051 -0.21220490785157131 0 -0.46757130244775341 -0.21427176676618889 0 -0.47678819241268611 -0.1992772886953951 0 -0.46757130244775341 -0.21427176676618889 0 -0.46764984515344349 -0.20502399374505181 0 -0.47678819241268611 -0.1992772886953951 0 -0.46757130244775341 -0.21427176676618889 0 -0.48101414991814051 -0.21220490785157131 0 -0.4775447229854059 -0.22535576830415929 0 -0.46757130244775341 -0.21427176676618889 0 -0.4775447229854059 -0.22535576830415929 0 -0.46571952953094348 -0.22577651025912229 0 -0.4775447229854059 -0.22535576830415929 0 -0.4726071657750785 -0.240360200228666 0 -0.45676275941016609 -0.23628729483617639 0 -0.50000000000000222 -0.21086037523234849 0 -0.4775447229854059 -0.22535576830415929 0 -0.48548116721245049 -0.23774912910784329 0 -0.50000000000000222 -0.21086037523234849 0 -0.5 -0.2401545466321974 0 -0.48548116721245049 -0.23774912910784329 0 -0.48050148842732221 -0.25523221810557922 0 -0.5 -0.2401545466321974 0 -0.48548116721245049 -0.23774912910784329 0 -0.48050148842732221 -0.25523221810557922 0 -0.4726071657750785 -0.240360200228666 0 -0.46267023581878858 -0.24817136713935201 0 -0.48050148842732221 -0.25523221810557922 0 -0.48548116721245049 -0.23774912910784329 0 -0.4726071657750785 -0.240360200228666 0 -0.4775447229854059 -0.22535576830415929 0 -0.48548116721245049 -0.23774912910784329 0 -0.4726071657750785 -0.240360200228666 0 -0.4726071657750785 -0.240360200228666 0 -0.46267023581878858 -0.24817136713935201 0 -0.45676275941016609 -0.23628729483617639 0 -0.46267023581878858 -0.24817136713935201 0 -0.45676275941016609 -0.23628729483617639 0 -0.45139902778349827 -0.24711062934306771 0 -0.4775447229854059 -0.22535576830415929 0 -0.45676275941016609 -0.23628729483617639 0 -0.46571952953094348 -0.22577651025912229 0 -0.4775447229854059 -0.22535576830415929 0 -0.45676275941016609 -0.23628729483617639 0 -0.46757130244775341 -0.21427176676618889 0 -0.45835441248282049 -0.22926624483698249 0 -0.45691127413918359 -0.218140336649912 0 -0.46757130244775341 -0.21427176676618889 0 -0.45835441248282049 -0.22926624483698249 0 -0.46757130244775341 -0.21427176676618889 0 -0.46571952953094348 -0.22577651025912229 0 -0.45835441248282049 -0.22926624483698249 0 -0.45691127413918359 -0.218140336649912 0 -0.45835441248282049 -0.22926624483698249 0 -0.44903912237987481 -0.22310222333220869 0 -0.45676275941016609 -0.23628729483617639 0 -0.46571952953094348 -0.22577651025912229 0 -0.45835441248282049 -0.22926624483698249 0 -0.45676275941016609 -0.23628729483617639 0 -0.45835441248282049 -0.22926624483698249 0 -0.44784406772060242 -0.23291584907632601 0 -0.45835441248282049 -0.22926624483698249 0 -0.44784406772060242 -0.23291584907632601 0 -0.44903912237987481 -0.22310222333220869 0 -0.44784406772060242 -0.23291584907632601 0 -0.44903912237987481 -0.22310222333220869 0 -0.43908324849522451 -0.2287046610080686 0 -0.43955036875351089 -0.21658504913102711 0 -0.44903912237987481 -0.22310222333220869 0 -0.43908324849522451 -0.2287046610080686 0 -0.43598079583492633 -0.24721882136819351 0 -0.44784406772060242 -0.23291584907632601 0 -0.43908324849522451 -0.2287046610080686 0 -0.43598079583492633 -0.24721882136819351 0 -0.45676275941016609 -0.23628729483617639 0 -0.45139902778349827 -0.24711062934306771 0 -0.43598079583492633 -0.24721882136819351 0 -0.45676275941016609 -0.23628729483617639 0 -0.44784406772060242 -0.23291584907632601 0 -0.43598079583492633 -0.24721882136819351 0 -0.45676275941016609 -0.23628729483617639 0 -0.41513049604948221 -0.033942569896895612 0 -0.42680670243505803 -0.034615113076212713 0 -0.40073055052989021 -0.025701474464423758 0 -0.41513049604948221 -0.033942569896895612 0 -0.42462943043776058 -0.041038039404546971 0 -0.40237332615973681 -0.030676944162886681 0 -0.42462943043776058 -0.041038039404546971 0 -0.40237332615973681 -0.030676944162886681 0 -0.41105872637709778 -0.041104419315527559 0 -0.42462943043776058 -0.041038039404546971 0 -0.40237332615973681 -0.030676944162886681 0 -0.41795689190558921 -0.046390941043723911 0 -0.41105872637709778 -0.041104419315527559 0 -0.42462943043776058 -0.041038039404546971 0 -0.41513049604948221 -0.033942569896895612 0 -0.42462943043776058 -0.041038039404546971 0 -0.4243569293735685 -0.037306081984415762 0 -0.41105872637709778 -0.041104419315527559 0 -0.4050251302254127 -0.045922345921936697 0 -0.40306291723554027 -0.039039715031688543 0 -0.41795689190558921 -0.046390941043723911 0 -0.41105872637709778 -0.041104419315527559 0 -0.41174405323292163 -0.047949206462353358 0 -0.41105872637709778 -0.041104419315527559 0 -0.41174405323292163 -0.047949206462353358 0 -0.4050251302254127 -0.045922345921936697 0 -0.41174405323292163 -0.047949206462353358 0 -0.4050251302254127 -0.045922345921936697 0 -0.40603099279739802 -0.054788986838451827 0 -0.41174405323292163 -0.047949206462353358 0 -0.4187470457232762 -0.053937065845881961 0 -0.40603099279739802 -0.054788986838451827 0 -0.4187470457232762 -0.053937065845881961 0 -0.40603099279739802 -0.054788986838451827 0 -0.41284572228237681 -0.064006668923108523 0 -0.4187470457232762 -0.053937065845881961 0 -0.41284572228237681 -0.064006668923108523 0 -0.42746868386642678 -0.066478460468227696 0 -0.41795689190558921 -0.046390941043723911 0 -0.41174405323292163 -0.047949206462353358 0 -0.4187470457232762 -0.053937065845881961 0 -0.41795689190558921 -0.046390941043723911 0 -0.4187470457232762 -0.053937065845881961 0 -0.42320145590089769 -0.048540393412862697 0 -0.42320145590089769 -0.048540393412862697 0 -0.43147245553696489 -0.05279552735729795 0 -0.42462943043776058 -0.041038039404546971 0 -0.4187470457232762 -0.053937065845881961 0 -0.42320145590089769 -0.048540393412862697 0 -0.43147245553696489 -0.05279552735729795 0 -0.43147245553696489 -0.05279552735729795 0 -0.42462943043776058 -0.041038039404546971 0 -0.44688553471578463 -0.051399134646207288 0 -0.4187470457232762 -0.053937065845881961 0 -0.43147245553696489 -0.05279552735729795 0 -0.42746868386642678 -0.066478460468227696 0 -0.43147245553696489 -0.05279552735729795 0 -0.42746868386642678 -0.066478460468227696 0 -0.43950717444435422 -0.063784996514660589 0 -0.42818951741271921 -0.038310772776573528 0 -0.43628267576141971 -0.035329403205585218 0 -0.44688553471578463 -0.051399134646207288 0 -0.42462943043776058 -0.041038039404546971 0 -0.42818951741271921 -0.038310772776573528 0 -0.44688553471578463 -0.051399134646207288 0 -0.42462943043776058 -0.041038039404546971 0 -0.44688553471578463 -0.051399134646207288 0 -0.41795689190558921 -0.046390941043723911 0 -0.42320145590089769 -0.048540393412862697 0 -0.42462943043776058 -0.041038039404546971 0 -0.41513049604948221 -0.033942569896895612 0 -0.4243569293735685 -0.037306081984415762 0 -0.42680670243505803 -0.034615113076212713 0 -0.42462943043776058 -0.041038039404546971 0 -0.4243569293735685 -0.037306081984415762 0 -0.42818951741271921 -0.038310772776573528 0 -0.42818951741271921 -0.038310772776573528 0 -0.42680670243505803 -0.034615113076212713 0 -0.4243569293735685 -0.037306081984415762 0 -0.42818951741271921 -0.038310772776573528 0 -0.42680670243505803 -0.034615113076212713 0 -0.42818951741271921 -0.038310772776573528 0 -0.42680670243505803 -0.034615113076212713 0 -0.42995577540377822 -0.032900560567165532 0 -0.42818951741271921 -0.038310772776573528 0 -0.42995577540377822 -0.032900560567165532 0 -0.43628267576141971 -0.035329403205585218 0 -0.42995577540377822 -0.032900560567165532 0 -0.43628267576141971 -0.035329403205585218 0 -0.4327931004709421 -0.029092843067932112 0 -0.42680670243505803 -0.034615113076212713 0 -0.4285090787839364 -0.025262373234060161 0 -0.41794895562780338 -0.01094222954485795 0 -0.42680670243505803 -0.034615113076212713 0 -0.41794895562780338 -0.01094222954485795 0 -0.43628267576141971 -0.035329403205585218 0 -0.4327931004709421 -0.029092843067932112 0 -0.43710875721387199 -0.026668229939385779 0 -0.42995577540377822 -0.032900560567165532 0 -0.4327931004709421 -0.029092843067932112 0 -0.4285090787839364 -0.025262373234060161 0 -0.43210921519170409 -0.025303648393463829 0 -0.43710875721387199 -0.026668229939385779 0 -0.43108579893039811 -0.01948839847471974 0 -0.4327931004709421 -0.029092843067932112 0 -0.43210921519170409 -0.025303648393463829 0 -0.4285090787839364 -0.025262373234060161 0 -0.4327931004709421 -0.029092843067932112 0 -0.43210921519170409 -0.025303648393463829 0 -0.43710875721387199 -0.026668229939385779 0 -0.43108579893039811 -0.01948839847471974 0 -0.43397544616601241 -0.014244232554068349 0 -0.43928417642389239 -0.017661557407765791 0 -0.43710875721387199 -0.026668229939385779 0 -0.43108579893039811 -0.01948839847471974 0 -0.43928417642389239 -0.017661557407765791 0 -0.43210921519170409 -0.025303648393463829 0 -0.43108579893039811 -0.01948839847471974 0 -0.4285090787839364 -0.025262373234060161 0 -0.43108579893039811 -0.01948839847471974 0 -0.4285090787839364 -0.025262373234060161 0 -0.41794895562780338 -0.01094222954485795 0 -0.42680670243505803 -0.034615113076212713 0 -0.42995577540377822 -0.032900560567165532 0 -0.4285090787839364 -0.025262373234060161 0 -0.43591977417237449 -0.008065469867085449 0 -0.42907061680018699 -0.010664914002041091 0 -0.42583279771702431 0.00046528033667210148 0 -0.43108579893039811 -0.01948839847471974 0 -0.43397544616601241 -0.014244232554068349 0 -0.42907061680018699 -0.010664914002041091 0 -0.43591977417237449 -0.008065469867085449 0 -0.43397544616601241 -0.014244232554068349 0 -0.43928417642389239 -0.017661557407765791 0 -0.43591977417237449 -0.008065469867085449 0 -0.43397544616601241 -0.014244232554068349 0 -0.42907061680018699 -0.010664914002041091 0 -0.43108579893039811 -0.01948839847471974 0 -0.42907061680018699 -0.010664914002041091 0 -0.41794895562780338 -0.01094222954485795 0 -0.42907061680018699 -0.010664914002041091 0 -0.41794895562780338 -0.01094222954485795 0 -0.42583279771702431 0.00046528033667210148 0 -0.41794895562780338 -0.01094222954485795 0 -0.4102220184461346 -0.019351118920435541 0 -0.40021295305484711 -0.013852611056198059 0 -0.41794895562780338 -0.01094222954485795 0 -0.40352261506359649 -0.001038070178381474 0 -0.40021295305484711 -0.013852611056198059 0 -0.42680670243505803 -0.034615113076212713 0 -0.41794895562780338 -0.01094222954485795 0 -0.4102220184461346 -0.019351118920435541 0 -0.42680670243505803 -0.034615113076212713 0 -0.4102220184461346 -0.019351118920435541 0 -0.40073055052989021 -0.025701474464423758 0 -0.42680670243505803 -0.034615113076212713 0 -0.40073055052989021 -0.025701474464423758 0 -0.41513049604948221 -0.033942569896895612 0 -0.40073055052989021 -0.025701474464423758 0 -0.40237332615973681 -0.030676944162886681 0 -0.40073055052989021 -0.025701474464423758 0 -0.40237332615973681 -0.030676944162886681 0 -0.38011722188171299 -0.020315848921226409 0 -0.40237332615973681 -0.030676944162886681 0 -0.38011722188171299 -0.020315848921226409 0 -0.4102220184461346 -0.019351118920435541 0 -0.40073055052989021 -0.025701474464423758 0 -0.40021295305484711 -0.013852611056198059 0 -0.40073055052989021 -0.025701474464423758 0 -0.40021295305484711 -0.013852611056198059 0 -0.38745402304870558 -0.01483805838738575 0 -0.40352261506359649 -0.001038070178381474 0 -0.40021295305484711 -0.013852611056198059 0 -0.39408165103759368 -0.0019794594859314238 0 -0.40021295305484711 -0.013852611056198059 0 -0.39408165103759368 -0.0019794594859314238 0 -0.39005949432245718 -0.0085411321607220259 0 -0.40021295305484711 -0.013852611056198059 0 -0.39005949432245718 -0.0085411321607220259 0 -0.38745402304870558 -0.01483805838738575 0 -0.39408165103759368 -0.0019794594859314238 0 -0.3848191179490616 -0.0027051675553946518 0 -0.39005949432245718 -0.0085411321607220259 0 -0.3848191179490616 -0.0027051675553946518 0 -0.38372972652207787 -0.0093303643187002475 0 -0.39005949432245718 -0.0085411321607220259 0 -0.38372972652207787 -0.0093303643187002475 0 -0.38745402304870558 -0.01483805838738575 0 -0.3791207175096093 -0.01135650732177081 0 -0.38372972652207787 -0.0093303643187002475 0 -0.39005949432245718 -0.0085411321607220259 0 -0.38745402304870558 -0.01483805838738575 0 -0.37465439862472261 -0.016787835852634068 0 -0.37464851222799189 -0.0076089195940836872 0 -0.3791207175096093 -0.01135650732177081 0 -0.37465439862472261 -0.016787835852634068 0 -0.38745402304870558 -0.01483805838738575 0 -0.3791207175096093 -0.01135650732177081 0 -0.37464851222799189 -0.0076089195940836872 0 -0.3791207175096093 -0.01135650732177081 0 -0.37960876280762101 -0.0064231604720931881 0 -0.38372972652207787 -0.0093303643187002475 0 -0.3791207175096093 -0.01135650732177081 0 -0.37960876280762101 -0.0064231604720931881 0 -0.3848191179490616 -0.0027051675553946518 0 -0.38372972652207787 -0.0093303643187002475 0 -0.37960876280762101 -0.0064231604720931881 0 -0.37464851222799189 -0.0076089195940836872 0 -0.37960876280762101 -0.0064231604720931881 0 -0.37774077980655368 -0.001289555558904682 0 -0.3848191179490616 -0.0027051675553946518 0 -0.37960876280762101 -0.0064231604720931881 0 -0.37774077980655368 -0.001289555558904682 0 -0.37465439862472261 -0.016787835852634068 0 -0.40073055052989021 -0.025701474464423758 0 -0.38745402304870558 -0.01483805838738575 0 -0.40237332615973681 -0.030676944162886681 0 -0.38781453024876661 -0.02996800237218563 0 -0.38011722188171299 -0.020315848921226409 0 -0.37465439862472261 -0.016787835852634068 0 -0.40073055052989021 -0.025701474464423758 0 -0.38011722188171299 -0.020315848921226409 0 -0.37465439862472261 -0.016787835852634068 0 -0.40073055052989021 -0.025701474464423758 0 -0.37402384376206249 -0.023759624541515059 0 -0.37465439862472261 -0.016787835852634068 0 -0.38011722188171299 -0.020315848921226409 0 -0.37402384376206249 -0.023759624541515059 0 -0.38011722188171299 -0.020315848921226409 0 -0.37866743010551202 -0.02906954498465647 0 -0.38781453024876661 -0.02996800237218563 0 -0.38011722188171299 -0.020315848921226409 0 -0.37866743010551202 -0.02906954498465647 0 -0.37439980638912518 -0.038891661293645137 0 -0.37866743010551202 -0.02906954498465647 0 -0.38394575501216083 -0.036535335565972972 0 -0.37439980638912518 -0.038891661293645137 0 -0.37993408630244868 -0.045501240077299353 0 -0.38394575501216083 -0.036535335565972972 0 -0.37085155020467431 -0.050438611479832557 0 -0.37439980638912518 -0.038891661293645137 0 -0.37993408630244868 -0.045501240077299353 0 -0.37993408630244868 -0.045501240077299353 0 -0.38895054345211377 -0.045335196083553769 0 -0.38394575501216083 -0.036535335565972972 0 -0.38895054345211377 -0.045335196083553769 0 -0.38394575501216083 -0.036535335565972972 0 -0.39396365166307989 -0.03445798481758762 0 -0.38781453024876661 -0.02996800237218563 0 -0.38394575501216083 -0.036535335565972972 0 -0.39396365166307989 -0.03445798481758762 0 -0.38781453024876661 -0.02996800237218563 0 -0.37866743010551202 -0.02906954498465647 0 -0.38394575501216083 -0.036535335565972972 0 -0.40237332615973681 -0.030676944162886681 0 -0.38781453024876661 -0.02996800237218563 0 -0.39396365166307989 -0.03445798481758762 0 -0.39396365166307989 -0.03445798481758762 0 -0.39750411751227832 -0.042292212187568533 0 -0.39928834571923882 -0.035924112998793431 0 -0.38895054345211377 -0.045335196083553769 0 -0.39396365166307989 -0.03445798481758762 0 -0.39750411751227832 -0.042292212187568533 0 -0.39750411751227832 -0.042292212187568533 0 -0.4050251302254127 -0.045922345921936697 0 -0.40306291723554027 -0.039039715031688543 0 -0.39750411751227832 -0.042292212187568533 0 -0.40306291723554027 -0.039039715031688543 0 -0.39928834571923882 -0.035924112998793431 0 -0.40237332615973681 -0.030676944162886681 0 -0.39396365166307989 -0.03445798481758762 0 -0.39928834571923882 -0.035924112998793431 0 -0.41105872637709778 -0.041104419315527559 0 -0.40237332615973681 -0.030676944162886681 0 -0.40306291723554027 -0.039039715031688543 0 -0.40237332615973681 -0.030676944162886681 0 -0.40306291723554027 -0.039039715031688543 0 -0.39928834571923882 -0.035924112998793431 0 -0.40603099279739802 -0.054788986838451827 0 -0.39527915405366182 -0.064437672488960096 0 -0.41284572228237681 -0.064006668923108523 0 -0.40603099279739802 -0.054788986838451827 0 -0.39443592701229091 -0.053019652188425637 0 -0.39527915405366182 -0.064437672488960096 0 -0.4050251302254127 -0.045922345921936697 0 -0.40603099279739802 -0.054788986838451827 0 -0.39443592701229091 -0.053019652188425637 0 -0.39750411751227832 -0.042292212187568533 0 -0.4050251302254127 -0.045922345921936697 0 -0.39443592701229091 -0.053019652188425637 0 -0.38895054345211377 -0.045335196083553769 0 -0.39750411751227832 -0.042292212187568533 0 -0.39443592701229091 -0.053019652188425637 0 -0.39443592701229091 -0.053019652188425637 0 -0.38221605892473098 -0.056125323053866277 0 -0.39527915405366182 -0.064437672488960096 0 -0.36608399240098949 -0.063120758007335118 0 -0.38221605892473098 -0.056125323053866277 0 -0.37978412082390189 -0.068029865631836883 0 -0.38895054345211377 -0.045335196083553769 0 -0.39443592701229091 -0.053019652188425637 0 -0.38221605892473098 -0.056125323053866277 0 -0.37993408630244868 -0.045501240077299353 0 -0.38895054345211377 -0.045335196083553769 0 -0.38221605892473098 -0.056125323053866277 0 -0.37085155020467431 -0.050438611479832557 0 -0.37993408630244868 -0.045501240077299353 0 -0.38221605892473098 -0.056125323053866277 0 -0.36843110820579178 -0.075527255856609146 0 -0.37978412082390189 -0.068029865631836883 0 -0.38691029053433551 -0.080938318752413793 0 -0.37978412082390189 -0.068029865631836883 0 -0.38691029053433551 -0.080938318752413793 0 -0.39527915405366182 -0.064437672488960096 0 -0.38221605892473098 -0.056125323053866277 0 -0.37978412082390189 -0.068029865631836883 0 -0.39527915405366182 -0.064437672488960096 0 -0.37380044498630338 -0.100392191664622 0 -0.36747037526515469 -0.088210616938563927 0 -0.38691029053433551 -0.080938318752413793 0 -0.36843110820579178 -0.075527255856609146 0 -0.38691029053433551 -0.080938318752413793 0 -0.40007542381043809 -0.086939242353532731 0 -0.39460333317738627 -0.1006873657273652 0 -0.41352047356827321 -0.0909948847898496 0 -0.38691029053433551 -0.080938318752413793 0 -0.40007542381043809 -0.086939242353532731 0 -0.40767355229219521 -0.074626636544090755 0 -0.38691029053433551 -0.080938318752413793 0 -0.40007542381043809 -0.086939242353532731 0 -0.39460333317738627 -0.1006873657273652 0 -0.38691029053433551 -0.080938318752413793 0 -0.39527915405366182 -0.064437672488960096 0 -0.40767355229219521 -0.074626636544090755 0 -0.39527915405366182 -0.064437672488960096 0 -0.41284572228237681 -0.064006668923108523 0 -0.40767355229219521 -0.074626636544090755 0 -0.36893450279197471 -0.1249528869149899 0 -0.3789649235099295 -0.11270856972454819 0 -0.39514760223357998 -0.1249586529677193 0 -0.36893450279197471 -0.1249528869149899 0 -0.39514760223357998 -0.1249586529677193 0 -0.3789649235099295 -0.11270856972454819 0 -0.39460333317738627 -0.1006873657273652 0 -0.39514760223357998 -0.1249586529677193 0 -0.37380044498630338 -0.100392191664622 0 -0.38691029053433551 -0.080938318752413793 0 -0.39460333317738627 -0.1006873657273652 0 -0.37380044498630338 -0.100392191664622 0 -0.3789649235099295 -0.11270856972454819 0 -0.39460333317738627 -0.1006873657273652 0 -0.39460333317738627 -0.1006873657273652 0 -0.39514760223357998 -0.1249586529677193 0 -0.4114708495464785 -0.1093321351213095 0 -0.42136070167518519 -0.1249644190204488 0 -0.4114708495464785 -0.1093321351213095 0 -0.43272213707796769 -0.1050553531011644 0 -0.39514760223357998 -0.1249586529677193 0 -0.42136070167518519 -0.1249644190204488 0 -0.39514760223357998 -0.1249586529677193 0 -0.42136070167518519 -0.1249644190204488 0 -0.4114708495464785 -0.1093321351213095 0 -0.39460333317738627 -0.1006873657273652 0 -0.4114708495464785 -0.1093321351213095 0 -0.41352047356827321 -0.0909948847898496 0 -0.4114708495464785 -0.1093321351213095 0 -0.43272213707796769 -0.1050553531011644 0 -0.41352047356827321 -0.0909948847898496 0 -0.42136070167518519 -0.1249644190204488 0 -0.43272213707796769 -0.1050553531011644 0 -0.44757380111679052 -0.12497018507317829 0 -0.42136070167518519 -0.1249644190204488 0 -0.44757380111679052 -0.12497018507317829 0 -0.42023793718526542 -0.076451056482049876 0 -0.41284572228237681 -0.064006668923108523 0 -0.42746868386642678 -0.066478460468227696 0 -0.42023793718526542 -0.076451056482049876 0 -0.41284572228237681 -0.064006668923108523 0 -0.40767355229219521 -0.074626636544090755 0 -0.42023793718526542 -0.076451056482049876 0 -0.40767355229219521 -0.074626636544090755 0 -0.41352047356827321 -0.0909948847898496 0 -0.40007542381043809 -0.086939242353532731 0 -0.40767355229219521 -0.074626636544090755 0 -0.41352047356827321 -0.0909948847898496 0 -0.42023793718526542 -0.076451056482049876 0 -0.41352047356827321 -0.0909948847898496 0 -0.43051036701793649 -0.083964229305721505 0 -0.43272213707796769 -0.1050553531011644 0 -0.41352047356827321 -0.0909948847898496 0 -0.43051036701793649 -0.083964229305721505 0 -0.43272213707796769 -0.1050553531011644 0 -0.43051036701793649 -0.083964229305721505 0 -0.44869793539396702 -0.090613631575090198 0 -0.43051036701793649 -0.083964229305721505 0 -0.42746868386642678 -0.066478460468227696 0 -0.43938561630945938 -0.075374003134316428 0 -0.42023793718526542 -0.076451056482049876 0 -0.43051036701793649 -0.083964229305721505 0 -0.42746868386642678 -0.066478460468227696 0 -0.42746868386642678 -0.066478460468227696 0 -0.43950717444435422 -0.063784996514660589 0 -0.43938561630945938 -0.075374003134316428 0 -0.43950717444435422 -0.063784996514660589 0 -0.45074392082461212 -0.072028697807882153 0 -0.43938561630945938 -0.075374003134316428 0 -0.43051036701793649 -0.083964229305721505 0 -0.43938561630945938 -0.075374003134316428 0 -0.44869793539396702 -0.090613631575090198 0 -0.45074392082461212 -0.072028697807882153 0 -0.43938561630945938 -0.075374003134316428 0 -0.44869793539396702 -0.090613631575090198 0 -0.45074392082461212 -0.072028697807882153 0 -0.44869793539396702 -0.090613631575090198 0 -0.4647336852437608 -0.080388630180202481 0 -0.44869793539396702 -0.090613631575090198 0 -0.4647336852437608 -0.080388630180202481 0 -0.47380622041468068 -0.096022360055862885 0 -0.4647336852437608 -0.080388630180202481 0 -0.46264955769922828 -0.069236149835977229 0 -0.47254815090776853 -0.069469283055039688 0 -0.45074392082461212 -0.072028697807882153 0 -0.46264955769922828 -0.069236149835977229 0 -0.44688553471578463 -0.051399134646207288 0 -0.46264955769922828 -0.069236149835977229 0 -0.47254815090776853 -0.069469283055039688 0 -0.46914163899380801 -0.061760229887868598 0 -0.45074392082461212 -0.072028697807882153 0 -0.4647336852437608 -0.080388630180202481 0 -0.46264955769922828 -0.069236149835977229 0 -0.43272213707796769 -0.1050553531011644 0 -0.44757380111679052 -0.12497018507317829 0 -0.46022938895027038 -0.10869066194517669 0 -0.43272213707796769 -0.1050553531011644 0 -0.44869793539396702 -0.090613631575090198 0 -0.46022938895027038 -0.10869066194517669 0 -0.44869793539396702 -0.090613631575090198 0 -0.46022938895027038 -0.10869066194517669 0 -0.47380622041468068 -0.096022360055862885 0 -0.44757380111679052 -0.12497018507317829 0 -0.47378690055839578 -0.1249759511259078 0 -0.44757380111679052 -0.12497018507317829 0 -0.46022938895027038 -0.10869066194517669 0 -0.47378690055839578 -0.1249759511259078 0 -0.46022938895027038 -0.10869066194517669 0 -0.47378690055839578 -0.1249759511259078 0 -0.48374478807960558 -0.1092121363906397 0 -0.46022938895027038 -0.10869066194517669 0 -0.48374478807960558 -0.1092121363906397 0 -0.47380622041468068 -0.096022360055862885 0 -0.48374478807960558 -0.1092121363906397 0 -0.47380622041468068 -0.096022360055862885 0 -0.48832582805197727 -0.092109142267116931 0 -0.48374478807960558 -0.1092121363906397 0 -0.5 -0.10055386622176241 0 -0.48832582805197727 -0.092109142267116931 0 -0.47378690055839578 -0.1249759511259078 0 -0.48374478807960558 -0.1092121363906397 0 -0.50000000000000111 -0.12498171717863731 0 -0.48374478807960558 -0.1092121363906397 0 -0.5 -0.10055386622176241 0 -0.50000000000000111 -0.12498171717863731 0 -0.47378690055839578 -0.1249759511259078 0 -0.50000000000000111 -0.12498171717863731 0 -0.47254815090776853 -0.069469283055039688 0 -0.47913967023945842 -0.082463322467565006 0 -0.48457081949690362 -0.068943122576377761 0 -0.47913967023945842 -0.082463322467565006 0 -0.48808502354595151 -0.080031310268457945 0 -0.48457081949690362 -0.068943122576377761 0 -0.48457081949690362 -0.068943122576377761 0 -0.46914163899380801 -0.061760229887868598 0 -0.48457081949690362 -0.068943122576377761 0 -0.48230491698392047 -0.057318093012348498 0 -0.46914163899380801 -0.061760229887868598 0 -0.47254815090776853 -0.069469283055039688 0 -0.48457081949690362 -0.068943122576377761 0 -0.46914163899380801 -0.061760229887868598 0 -0.47254815090776853 -0.069469283055039688 0 -0.46914163899380801 -0.061760229887868598 0 -0.4647336852437608 -0.080388630180202481 0 -0.47254815090776853 -0.069469283055039688 0 -0.47913967023945842 -0.082463322467565006 0 -0.4647336852437608 -0.080388630180202481 0 -0.47380622041468068 -0.096022360055862885 0 -0.47913967023945842 -0.082463322467565006 0 -0.47380622041468068 -0.096022360055862885 0 -0.47913967023945842 -0.082463322467565006 0 -0.48832582805197727 -0.092109142267116931 0 -0.5 -0.10055386622176241 0 -0.48832582805197727 -0.092109142267116931 0 -0.499999999999999 -0.07612601526488752 0 -0.48808502354595151 -0.080031310268457945 0 -0.48832582805197727 -0.092109142267116931 0 -0.499999999999999 -0.07612601526488752 0 -0.47913967023945842 -0.082463322467565006 0 -0.48808502354595151 -0.080031310268457945 0 -0.48832582805197727 -0.092109142267116931 0 -0.499999999999999 -0.07612601526488752 0 -0.48457081949690362 -0.068943122576377761 0 -0.499999999999999 -0.07612601526488752 0 -0.48457081949690362 -0.068943122576377761 0 -0.5 -0.055081012739928707 0 -0.48808502354595151 -0.080031310268457945 0 -0.499999999999999 -0.07612601526488752 0 -0.48457081949690362 -0.068943122576377761 0 -0.48457081949690362 -0.068943122576377761 0 -0.5 -0.055081012739928707 0 -0.48230491698392047 -0.057318093012348498 0 -0.5 -0.055081012739928707 0 -0.48157039955536241 -0.044558511477442143 0 -0.48230491698392047 -0.057318093012348498 0 -0.5 -0.055081012739928707 0 -0.500000000000004 -0.034036010214970061 0 -0.48157039955536241 -0.044558511477442143 0 -0.500000000000004 -0.034036010214970061 0 -0.48157039955536241 -0.044558511477442143 0 -0.48148290990478199 -0.029591545163434652 0 -0.48157039955536241 -0.044558511477442143 0 -0.45768975774058179 -0.035844230274481748 0 -0.48148290990478199 -0.029591545163434652 0 -0.48157039955536241 -0.044558511477442143 0 -0.46914163899380801 -0.061760229887868598 0 -0.45768975774058179 -0.035844230274481748 0 -0.48157039955536241 -0.044558511477442143 0 -0.48230491698392047 -0.057318093012348498 0 -0.46914163899380801 -0.061760229887868598 0 -0.46914163899380801 -0.061760229887868598 0 -0.45768975774058179 -0.035844230274481748 0 -0.44688553471578463 -0.051399134646207288 0 -0.46914163899380801 -0.061760229887868598 0 -0.45768975774058179 -0.035844230274481748 0 -0.46264955769922828 -0.069236149835977229 0 -0.46914163899380801 -0.061760229887868598 0 -0.44688553471578463 -0.051399134646207288 0 -0.46914163899380801 -0.061760229887868598 0 -0.44688553471578463 -0.051399134646207288 0 -0.43628267576141971 -0.035329403205585218 0 -0.44354830351403418 -0.034418653902415733 0 -0.44688553471578463 -0.051399134646207288 0 -0.45768975774058179 -0.035844230274481748 0 -0.44354830351403418 -0.034418653902415733 0 -0.44688553471578463 -0.051399134646207288 0 -0.45768975774058179 -0.035844230274481748 0 -0.44354830351403418 -0.034418653902415733 0 -0.44312252706978628 -0.024928407146411868 0 -0.43628267576141971 -0.035329403205585218 0 -0.43710875721387199 -0.026668229939385779 0 -0.44354830351403418 -0.034418653902415733 0 -0.43950717444435422 -0.063784996514660589 0 -0.45074392082461212 -0.072028697807882153 0 -0.44688553471578463 -0.051399134646207288 0 -0.43147245553696489 -0.05279552735729795 0 -0.43950717444435422 -0.063784996514660589 0 -0.44688553471578463 -0.051399134646207288 0 -0.43591977417237449 -0.008065469867085449 0 -0.44623787648735791 -0.0099282306610938807 0 -0.43740981058492812 0.01004998492246997 0 -0.43591977417237449 -0.008065469867085449 0 -0.44623787648735791 -0.0099282306610938807 0 -0.43928417642389239 -0.017661557407765791 0 -0.43591977417237449 -0.008065469867085449 0 -0.44623787648735791 -0.0099282306610938807 0 -0.43710875721387199 -0.026668229939385779 0 -0.43928417642389239 -0.017661557407765791 0 -0.44312252706978628 -0.024928407146411868 0 -0.45768975774058179 -0.035844230274481748 0 -0.44623787648735791 -0.0099282306610938807 0 -0.44312252706978628 -0.024928407146411868 0 -0.45768975774058179 -0.035844230274481748 0 -0.44623787648735791 -0.0099282306610938807 0 -0.44623787648735791 -0.0099282306610938807 0 -0.43928417642389239 -0.017661557407765791 0 -0.44312252706978628 -0.024928407146411868 0 -0.43710875721387199 -0.026668229939385779 0 -0.44354830351403418 -0.034418653902415733 0 -0.44312252706978628 -0.024928407146411868 0 -0.45768975774058179 -0.035844230274481748 0 -0.44623787648735791 -0.0099282306610938807 0 -0.47146408957177099 -0.01448240150379307 0 -0.44623787648735791 -0.0099282306610938807 0 -0.47146408957177099 -0.01448240150379307 0 -0.44623787648735791 -0.0099282306610938807 0 -0.47146408957177099 -0.01448240150379307 0 -0.46048772545436639 0.0043098071123656434 0 -0.47146408957177099 -0.01448240150379307 0 -0.47882554305316488 -0.0018417715126103191 0 -0.46048772545436639 0.0043098071123656434 0 -0.47146408957177099 -0.01448240150379307 0 -0.47882554305316488 -0.0018417715126103191 0 -0.49669030265618502 -0.01903657234648758 0 -0.47146408957177099 -0.01448240150379307 0 -0.49669030265618502 -0.01903657234648758 0 -0.47146408957177099 -0.01448240150379307 0 -0.48148290990478199 -0.029591545163434652 0 -0.49669030265618502 -0.01903657234648758 0 -0.45768975774058179 -0.035844230274481748 0 -0.47146408957177099 -0.01448240150379307 0 -0.48148290990478199 -0.029591545163434652 0 -0.500000000000004 -0.034036010214970061 0 -0.48148290990478199 -0.029591545163434652 0 -0.49669030265618502 -0.01903657234648758 0 -0.49669030265618502 -0.01903657234648758 0 -0.50000000000000056 -0.019634082844440681 0 -0.500000000000004 -0.034036010214970061 0 -0.49669030265618502 -0.01903657234648758 0 -0.500000000000004 -0.034036010214970061 0 -0.49669030265618502 -0.01903657234648758 0 -0.50000000000000056 -0.019634082844440681 0 -0.47882554305316488 -0.0018417715126103191 0 -0.49669030265618502 -0.01903657234648758 0 -0.49160980924365538 0.0039880541876541054 0 -0.49669030265618502 -0.01903657234648758 0 -0.49160980924365538 0.0039880541876541054 0 -0.49669030265618502 -0.01903657234648758 0 -0.50000000000000056 -0.019634082844440681 0 -0.49160980924365538 0.0039880541876541054 0 -0.50000000000000056 -0.019634082844440681 0 -0.49160980924365538 0.0039880541876541054 0 -0.50000000000000033 0.009303662189531537 0 -0.49160980924365538 0.0039880541876541054 0 -0.48652931583112352 0.027012680721795381 0 -0.49160980924365538 0.0039880541876541054 0 -0.50000000000000033 0.009303662189531537 0 -0.48652931583112352 0.027012680721795381 0 -0.50000000000000033 0.009303662189531537 0 -0.5 0.03611151152349279 0 -0.49175907743105379 0.031398254416965428 0 -0.50000000000000033 0.009303662189531537 0 -0.49175907743105379 0.031398254416965428 0 -0.50000000000000033 0.009303662189531537 0 -0.48652931583112352 0.027012680721795381 0 -0.49175907743105379 0.031398254416965428 0 -0.48652931583112352 0.027012680721795381 0 -0.47387578833984401 0.016012254987208822 0 -0.46815351836101687 0.031449839152918539 0 -0.49160980924365538 0.0039880541876541054 0 -0.48652931583112352 0.027012680721795381 0 -0.47387578833984401 0.016012254987208822 0 -0.47882554305316488 -0.0018417715126103191 0 -0.49160980924365538 0.0039880541876541054 0 -0.47387578833984401 0.016012254987208822 0 -0.47882554305316488 -0.0018417715126103191 0 -0.47387578833984401 0.016012254987208822 0 -0.46048772545436639 0.0043098071123656434 0 -0.49282352307895688 0.045257754500502748 0 -0.5 0.03611151152349279 0 -0.5 0.062919360857453976 0 -0.49282352307895688 0.045257754500502748 0 -0.48351815486210709 0.053492846644399093 0 -0.5 0.062919360857453976 0 -0.49175907743105379 0.031398254416965428 0 -0.48144882241859149 0.050037307255936581 0 -0.48351815486210709 0.053492846644399093 0 -0.48652931583112352 0.027012680721795381 0 -0.49175907743105379 0.031398254416965428 0 -0.48144882241859149 0.050037307255936581 0 -0.49175907743105379 0.031398254416965428 0 -0.48351815486210709 0.053492846644399093 0 -0.49282352307895688 0.045257754500502748 0 -0.49175907743105379 0.031398254416965428 0 -0.48351815486210709 0.053492846644399093 0 -0.49282352307895688 0.045257754500502748 0 -0.5 0.03611151152349279 0 -0.49175907743105379 0.031398254416965428 0 -0.48144882241859149 0.050037307255936581 0 -0.4639696453013944 0.043374392403556838 0 -0.46815351836101687 0.031449839152918539 0 -0.48652931583112352 0.027012680721795381 0 -0.48144882241859149 0.050037307255936581 0 -0.48652931583112352 0.027012680721795381 0 -0.48144882241859149 0.050037307255936581 0 -0.46815351836101687 0.031449839152918539 0 -0.48144882241859149 0.050037307255936581 0 -0.45709786057011947 0.055708105081253657 0 -0.47636832900606041 0.073061933790077832 0 -0.48144882241859149 0.050037307255936581 0 -0.48351815486210709 0.053492846644399093 0 -0.47636832900606041 0.073061933790077832 0 -0.48144882241859149 0.050037307255936581 0 -0.47636832900606041 0.073061933790077832 0 -0.48144882241859149 0.050037307255936581 0 -0.45709786057011947 0.055708105081253657 0 -0.4639696453013944 0.043374392403556838 0 -0.45709786057011947 0.055708105081253657 0 -0.4639696453013944 0.043374392403556838 0 -0.45299045524759751 0.034902057762674861 0 -0.4639696453013944 0.043374392403556838 0 -0.46815351836101687 0.031449839152918539 0 -0.45299045524759751 0.034902057762674861 0 -0.46815351836101687 0.031449839152918539 0 -0.45299045524759751 0.034902057762674861 0 -0.45709786057011947 0.055708105081253657 0 -0.45299045524759751 0.034902057762674861 0 -0.43782739213417787 0.038354276372430232 0 -0.45299045524759751 0.034902057762674861 0 -0.43782739213417787 0.038354276372430232 0 -0.45299045524759751 0.034902057762674861 0 -0.43782739213417787 0.038354276372430232 0 -0.44297011017848281 0.02707887027054981 0 -0.45709786057011947 0.055708105081253657 0 -0.43782739213417787 0.038354276372430232 0 -0.43187248081207541 0.055496176207803817 0 -0.45709786057011947 0.055708105081253657 0 -0.43782739213417787 0.038354276372430232 0 -0.45709786057011947 0.055708105081253657 0 -0.43187248081207541 0.055496176207803817 0 -0.43763284036668942 0.072255399145110422 0 -0.47387578833984401 0.016012254987208822 0 -0.46048772545436639 0.0043098071123656434 0 -0.45598123469437257 0.020633802368031268 0 -0.47387578833984401 0.016012254987208822 0 -0.46815351836101687 0.031449839152918539 0 -0.45598123469437257 0.020633802368031268 0 -0.46815351836101687 0.031449839152918539 0 -0.45299045524759751 0.034902057762674861 0 -0.45598123469437257 0.020633802368031268 0 -0.45598123469437257 0.020633802368031268 0 -0.44297011017848281 0.02707887027054981 0 -0.43740981058492812 0.01004998492246997 0 -0.45299045524759751 0.034902057762674861 0 -0.45598123469437257 0.020633802368031268 0 -0.44297011017848281 0.02707887027054981 0 -0.46048772545436639 0.0043098071123656434 0 -0.45598123469437257 0.020633802368031268 0 -0.43740981058492812 0.01004998492246997 0 -0.44623787648735791 -0.0099282306610938807 0 -0.46048772545436639 0.0043098071123656434 0 -0.43740981058492812 0.01004998492246997 0 -0.44623787648735791 -0.0099282306610938807 0 -0.43740981058492812 0.01004998492246997 0 -0.43591977417237449 -0.008065469867085449 0 -0.43740981058492812 0.01004998492246997 0 -0.42583279771702431 0.00046528033667210148 0 -0.43740981058492812 0.01004998492246997 0 -0.42292027786463471 0.01349413118407828 0 -0.42583279771702431 0.00046528033667210148 0 -0.41794895562780338 -0.01094222954485795 0 -0.40909120882054839 0.01273065398649661 0 -0.41794895562780338 -0.01094222954485795 0 -0.40352261506359649 -0.001038070178381474 0 -0.40909120882054839 0.01273065398649661 0 -0.42292027786463471 0.01349413118407828 0 -0.42583279771702431 0.00046528033667210148 0 -0.40909120882054839 0.01273065398649661 0 -0.41794895562780338 -0.01094222954485795 0 -0.42583279771702431 0.00046528033667210148 0 -0.40909120882054839 0.01273065398649661 0 -0.40909120882054839 0.01273065398649661 0 -0.41494363987246979 0.023236645495722939 0 -0.40023346201329341 0.036403537517851137 0 -0.41494363987246979 0.023236645495722939 0 -0.41436175989852531 0.033604495869393458 0 -0.40023346201329341 0.036403537517851137 0 -0.42292027786463471 0.01349413118407828 0 -0.41494363987246979 0.023236645495722939 0 -0.424969395700869 0.026775135554755129 0 -0.42292027786463471 0.01349413118407828 0 -0.40909120882054839 0.01273065398649661 0 -0.41494363987246979 0.023236645495722939 0 -0.41494363987246979 0.023236645495722939 0 -0.41896391809246269 0.029132761591660509 0 -0.41436175989852531 0.033604495869393458 0 -0.41494363987246979 0.023236645495722939 0 -0.41896391809246269 0.029132761591660509 0 -0.424969395700869 0.026775135554755129 0 -0.41896391809246269 0.029132761591660509 0 -0.424969395700869 0.026775135554755129 0 -0.42158087689798668 0.032914769446770492 0 -0.424969395700869 0.026775135554755129 0 -0.42858174468249838 0.030028200506033911 0 -0.42158087689798668 0.032914769446770492 0 -0.44297011017848281 0.02707887027054981 0 -0.43740981058492812 0.01004998492246997 0 -0.42858174468249838 0.030028200506033911 0 -0.43740981058492812 0.01004998492246997 0 -0.42292027786463471 0.01349413118407828 0 -0.424969395700869 0.026775135554755129 0 -0.43740981058492812 0.01004998492246997 0 -0.42858174468249838 0.030028200506033911 0 -0.43740981058492812 0.01004998492246997 0 -0.424969395700869 0.026775135554755129 0 -0.42858174468249838 0.030028200506033911 0 -0.424969395700869 0.026775135554755129 0 -0.42858174468249838 0.030028200506033911 0 -0.43782739213417787 0.038354276372430232 0 -0.44297011017848281 0.02707887027054981 0 -0.42858174468249838 0.030028200506033911 0 -0.43782739213417787 0.038354276372430232 0 -0.42858174468249838 0.030028200506033911 0 -0.42345682706553001 0.041626064651069543 0 -0.43782739213417787 0.038354276372430232 0 -0.42345682706553001 0.041626064651069543 0 -0.43187248081207541 0.055496176207803817 0 -0.43782739213417787 0.038354276372430232 0 -0.42858174468249838 0.030028200506033911 0 -0.43782739213417787 0.038354276372430232 0 -0.42345682706553001 0.041626064651069543 0 -0.42858174468249838 0.030028200506033911 0 -0.42345682706553001 0.041626064651069543 0 -0.42158087689798668 0.032914769446770492 0 -0.42858174468249838 0.030028200506033911 0 -0.42345682706553001 0.041626064651069543 0 -0.42345682706553001 0.041626064651069543 0 -0.43187248081207541 0.055496176207803817 0 -0.4177568865966339 0.054525225210098782 0 -0.43187248081207541 0.055496176207803817 0 -0.4177568865966339 0.054525225210098782 0 -0.41753301535116211 0.067129086497859855 0 -0.42345682706553001 0.041626064651069543 0 -0.4177568865966339 0.054525225210098782 0 -0.40276573021624068 0.046336866753853997 0 -0.4177568865966339 0.054525225210098782 0 -0.40750332447406851 0.057375884956624552 0 -0.41753301535116211 0.067129086497859855 0 -0.42345682706553001 0.041626064651069543 0 -0.4177568865966339 0.054525225210098782 0 -0.4177568865966339 0.054525225210098782 0 -0.40750332447406851 0.057375884956624552 0 -0.40276573021624068 0.046336866753853997 0 -0.42345682706553001 0.041626064651069543 0 -0.40276573021624068 0.046336866753853997 0 -0.42345682706553001 0.041626064651069543 0 -0.41020444479839763 0.039492741198042178 0 -0.40276573021624068 0.046336866753853997 0 -0.42345682706553001 0.041626064651069543 0 -0.41436175989852531 0.033604495869393458 0 -0.42158087689798668 0.032914769446770492 0 -0.42345682706553001 0.041626064651069543 0 -0.41436175989852531 0.033604495869393458 0 -0.41020444479839763 0.039492741198042178 0 -0.41896391809246269 0.029132761591660509 0 -0.41436175989852531 0.033604495869393458 0 -0.42158087689798668 0.032914769446770492 0 -0.41436175989852531 0.033604495869393458 0 -0.41020444479839763 0.039492741198042178 0 -0.40023346201329341 0.036403537517851137 0 -0.40276573021624068 0.046336866753853997 0 -0.38207463336695202 0.051047668856640811 0 -0.38772007791329738 0.03985096685417347 0 -0.41020444479839763 0.039492741198042178 0 -0.40023346201329341 0.036403537517851137 0 -0.40276573021624068 0.046336866753853997 0 -0.40023346201329341 0.036403537517851137 0 -0.40276573021624068 0.046336866753853997 0 -0.38772007791329738 0.03985096685417347 0 -0.40023346201329341 0.036403537517851137 0 -0.38772007791329738 0.03985096685417347 0 -0.38925836826538629 0.030805614435688099 0 -0.40276573021624068 0.046336866753853997 0 -0.38207463336695202 0.051047668856640811 0 -0.40276573021624068 0.046336866753853997 0 -0.39689466156197101 0.057407184083191301 0 -0.38207463336695202 0.051047668856640811 0 -0.40750332447406851 0.057375884956624552 0 -0.39689466156197101 0.057407184083191301 0 -0.40210564328563447 0.066115584712721373 0 -0.40750332447406851 0.057375884956624552 0 -0.40276573021624068 0.046336866753853997 0 -0.39689466156197101 0.057407184083191301 0 -0.38207463336695202 0.051047668856640811 0 -0.38848633305814179 0.065600711414542545 0 -0.36891219827968119 0.060077996683558232 0 -0.39689466156197101 0.057407184083191301 0 -0.38207463336695202 0.051047668856640811 0 -0.38848633305814179 0.065600711414542545 0 -0.38772007791329738 0.03985096685417347 0 -0.37937813184432773 0.031366277704107569 0 -0.38925836826538629 0.030805614435688099 0 -0.38207463336695202 0.051047668856640811 0 -0.38772007791329738 0.03985096685417347 0 -0.37261014177358448 0.043145835856899219 0 -0.38772007791329738 0.03985096685417347 0 -0.37937813184432773 0.031366277704107569 0 -0.37261014177358448 0.043145835856899219 0 -0.37937813184432773 0.031366277704107569 0 -0.38391758338059062 0.022870450659759161 0 -0.37479293228070759 0.022502646493578662 0 -0.37937813184432773 0.031366277704107569 0 -0.38925836826538629 0.030805614435688099 0 -0.38391758338059062 0.022870450659759161 0 -0.38925836826538629 0.030805614435688099 0 -0.38391758338059062 0.022870450659759161 0 -0.3946160130735708 0.021551959563878339 0 -0.38391758338059062 0.022870450659759161 0 -0.38667067902898572 0.013842153393714489 0 -0.3946160130735708 0.021551959563878339 0 -0.38391758338059062 0.022870450659759161 0 -0.3778438638662554 0.014761087644765769 0 -0.38667067902898572 0.013842153393714489 0 -0.38391758338059062 0.022870450659759161 0 -0.3778438638662554 0.014761087644765769 0 -0.37479293228070759 0.022502646493578662 0 -0.3778438638662554 0.014761087644765769 0 -0.38165634421242611 0.0056742618597281089 0 -0.38667067902898572 0.013842153393714489 0 -0.3778438638662554 0.014761087644765769 0 -0.38165634421242611 0.0056742618597281089 0 -0.37464316483836829 0.0066416053135349984 0 -0.37774077980655368 -0.001289555558904682 0 -0.38165634421242611 0.0056742618597281089 0 -0.37464316483836829 0.0066416053135349984 0 -0.3848191179490616 -0.0027051675553946518 0 -0.37774077980655368 -0.001289555558904682 0 -0.38165634421242611 0.0056742618597281089 0 -0.3848191179490616 -0.0027051675553946518 0 -0.38165634421242611 0.0056742618597281089 0 -0.38845980705381639 0.0057813395070211177 0 -0.39408165103759368 -0.0019794594859314238 0 -0.3848191179490616 -0.0027051675553946518 0 -0.38845980705381639 0.0057813395070211177 0 -0.38845980705381639 0.0057813395070211177 0 -0.38667067902898572 0.013842153393714489 0 -0.39627830677719 0.008853295208583448 0 -0.38165634421242611 0.0056742618597281089 0 -0.38845980705381639 0.0057813395070211177 0 -0.38667067902898572 0.013842153393714489 0 -0.38667067902898572 0.013842153393714489 0 -0.39627830677719 0.008853295208583448 0 -0.3946160130735708 0.021551959563878339 0 -0.39408165103759368 -0.0019794594859314238 0 -0.38845980705381639 0.0057813395070211177 0 -0.39627830677719 0.008853295208583448 0 -0.40352261506359649 -0.001038070178381474 0 -0.39408165103759368 -0.0019794594859314238 0 -0.39627830677719 0.008853295208583448 0 -0.40352261506359649 -0.001038070178381474 0 -0.40909120882054839 0.01273065398649661 0 -0.39627830677719 0.008853295208583448 0 -0.40909120882054839 0.01273065398649661 0 -0.39627830677719 0.008853295208583448 0 -0.3946160130735708 0.021551959563878339 0 -0.40909120882054839 0.01273065398649661 0 -0.40023346201329341 0.036403537517851137 0 -0.3946160130735708 0.021551959563878339 0 -0.40909120882054839 0.01273065398649661 0 -0.40023346201329341 0.036403537517851137 0 -0.40023346201329341 0.036403537517851137 0 -0.38925836826538629 0.030805614435688099 0 -0.3946160130735708 0.021551959563878339 0 -0.38696142946532958 0.1003701901717608 0 -0.40164011277457379 0.081352107660276216 0 -0.40864304721671202 0.1107171055473533 0 -0.38750957741872682 0.11885909540365321 0 -0.40864304721671202 0.1107171055473533 0 -0.39401402549175851 0.1361747599337243 0 -0.38750957741872682 0.11885909540365321 0 -0.38696142946532958 0.1003701901717608 0 -0.40864304721671202 0.1107171055473533 0 -0.38750957741872682 0.11885909540365321 0 -0.38696142946532958 0.1003701901717608 0 -0.36904533532088801 0.1177582563576956 0 -0.38696142946532958 0.1003701901717608 0 -0.37090825683648998 0.098456277756480637 0 -0.36904533532088801 0.1177582563576956 0 -0.37929074908003868 0.077603726490867345 0 -0.40164011277457379 0.081352107660276216 0 -0.38696142946532958 0.1003701901717608 0 -0.37929074908003868 0.077603726490867345 0 -0.40164011277457379 0.081352107660276216 0 -0.38696142946532958 0.1003701901717608 0 -0.37929074908003868 0.077603726490867345 0 -0.37090825683648998 0.098456277756480637 0 -0.37929074908003868 0.077603726490867345 0 -0.38848633305814179 0.065600711414542545 0 -0.36891219827968119 0.060077996683558232 0 -0.37929074908003868 0.077603726490867345 0 -0.38848633305814179 0.065600711414542545 0 -0.40164011277457379 0.081352107660276216 0 -0.38848633305814179 0.065600711414542545 0 -0.40210564328563447 0.066115584712721373 0 -0.40164011277457379 0.081352107660276216 0 -0.39689466156197101 0.057407184083191301 0 -0.38848633305814179 0.065600711414542545 0 -0.40210564328563447 0.066115584712721373 0 -0.40164011277457379 0.081352107660276216 0 -0.42398947646910912 0.085100488829685086 0 -0.40164011277457379 0.081352107660276216 0 -0.42398947646910912 0.085100488829685086 0 -0.40864304721671202 0.1107171055473533 0 -0.40210564328563447 0.066115584712721373 0 -0.40164011277457379 0.081352107660276216 0 -0.41753301535116211 0.067129086497859855 0 -0.40164011277457379 0.081352107660276216 0 -0.41753301535116211 0.067129086497859855 0 -0.42398947646910912 0.085100488829685086 0 -0.40750332447406851 0.057375884956624552 0 -0.40210564328563447 0.066115584712721373 0 -0.41753301535116211 0.067129086497859855 0 -0.41753301535116211 0.067129086497859855 0 -0.42398947646910912 0.085100488829685086 0 -0.43763284036668942 0.072255399145110422 0 -0.43187248081207541 0.055496176207803817 0 -0.41753301535116211 0.067129086497859855 0 -0.43763284036668942 0.072255399145110422 0 -0.42398947646910912 0.085100488829685086 0 -0.44633884016364428 0.088848869999093971 0 -0.42398947646910912 0.085100488829685086 0 -0.43763284036668942 0.072255399145110422 0 -0.44633884016364428 0.088848869999093971 0 -0.42398947646910912 0.085100488829685086 0 -0.42906186480059683 0.10519001099972999 0 -0.44633884016364428 0.088848869999093971 0 -0.42398947646910912 0.085100488829685086 0 -0.42906186480059683 0.10519001099972999 0 -0.40864304721671202 0.1107171055473533 0 -0.40864304721671202 0.1107171055473533 0 -0.43267942878230348 0.12559175737704789 0 -0.42906186480059683 0.10519001099972999 0 -0.40864304721671202 0.1107171055473533 0 -0.43267942878230348 0.12559175737704789 0 -0.42906186480059683 0.10519001099972999 0 -0.4489383204882843 0.11104189391905871 0 -0.43267942878230348 0.12559175737704789 0 -0.4489383204882843 0.11104189391905871 0 -0.45289828098281221 0.1241297055338681 0 -0.43267942878230348 0.12559175737704789 0 -0.4489383204882843 0.11104189391905871 0 -0.43267942878230348 0.12559175737704789 0 -0.42906186480059683 0.10519001099972999 0 -0.4489383204882843 0.11104189391905871 0 -0.44633884016364428 0.088848869999093971 0 -0.4489383204882843 0.11104189391905871 0 -0.44633884016364428 0.088848869999093971 0 -0.47121921728662652 0.096397536200283296 0 -0.46607010556719342 0.11973313861048911 0 -0.47121921728662652 0.096397536200283296 0 -0.4489383204882843 0.11104189391905871 0 -0.46607010556719342 0.11973313861048911 0 -0.47121921728662652 0.096397536200283296 0 -0.4489383204882843 0.11104189391905871 0 -0.45289828098281221 0.1241297055338681 0 -0.46607010556719342 0.11973313861048911 0 -0.45709786057011947 0.055708105081253657 0 -0.43763284036668942 0.072255399145110422 0 -0.45544766770060358 0.07348919590478746 0 -0.43763284036668942 0.072255399145110422 0 -0.44633884016364428 0.088848869999093971 0 -0.45544766770060358 0.07348919590478746 0 -0.44633884016364428 0.088848869999093971 0 -0.45544766770060358 0.07348919590478746 0 -0.47121921728662652 0.096397536200283296 0 -0.45544766770060358 0.07348919590478746 0 -0.47636832900606041 0.073061933790077832 0 -0.47121921728662652 0.096397536200283296 0 -0.45709786057011947 0.055708105081253657 0 -0.47636832900606041 0.073061933790077832 0 -0.45709786057011947 0.055708105081253657 0 -0.45544766770060358 0.07348919590478746 0 -0.47636832900606041 0.073061933790077832 0 -0.48351815486210709 0.053492846644399093 0 -0.47636832900606041 0.073061933790077832 0 -0.49140909277123612 0.074197219851226057 0 -0.47636832900606041 0.073061933790077832 0 -0.48274454235378189 0.091705374172880549 0 -0.47121921728662652 0.096397536200283296 0 -0.47636832900606041 0.073061933790077832 0 -0.47121921728662652 0.096397536200283296 0 -0.47636832900606041 0.073061933790077832 0 -0.49715897998801373 0.091784747772784503 0 -0.5 0.089727210191415163 0 -0.49715897998801373 0.091784747772784503 0 -0.49140909277123612 0.074197219851226057 0 -0.47636832900606041 0.073061933790077832 0 -0.48274454235378189 0.091705374172880549 0 -0.49715897998801373 0.091784747772784503 0 -0.47636832900606041 0.073061933790077832 0 -0.49715897998801373 0.091784747772784503 0 -0.49140909277123612 0.074197219851226057 0 -0.5 0.089727210191415163 0 -0.5 0.062919360857453976 0 -0.49140909277123612 0.074197219851226057 0 -0.48351815486210709 0.053492846644399093 0 -0.5 0.062919360857453976 0 -0.49140909277123612 0.074197219851226057 0 -0.46607010556719342 0.11973313861048911 0 -0.48623164313442779 0.1055772789283768 0 -0.48453668432005692 0.123143207324586 0 -0.46607010556719342 0.11973313861048911 0 -0.47121921728662652 0.096397536200283296 0 -0.48623164313442779 0.1055772789283768 0 -0.48274454235378189 0.091705374172880549 0 -0.47121921728662652 0.096397536200283296 0 -0.48623164313442779 0.1055772789283768 0 -0.5 0.089727210191415163 0 -0.49715897998801373 0.091784747772784503 0 -0.5 0.1165350595253765 0 -0.49715897998801373 0.091784747772784503 0 -0.48623164313442779 0.1055772789283768 0 -0.5 0.1165350595253765 0 -0.48274454235378189 0.091705374172880549 0 -0.49715897998801373 0.091784747772784503 0 -0.48623164313442779 0.1055772789283768 0 -0.48623164313442779 0.1055772789283768 0 -0.5 0.1165350595253765 0 -0.48453668432005692 0.123143207324586 0 -0.5 0.1165350595253765 0 -0.48453668432005692 0.123143207324586 0 -0.5 0.1433429088593379 0 -0.48453668432005692 0.123143207324586 0 -0.48049738108946538 0.1379484740379 0 -0.5 0.1433429088593379 0 -0.46607010556719342 0.11973313861048911 0 -0.48453668432005692 0.123143207324586 0 -0.48049738108946538 0.1379484740379 0 -0.46607010556719342 0.11973313861048911 0 -0.48049738108946538 0.1379484740379 0 -0.46092099384776192 0.14306874102069511 0 -0.48464943840857888 0.15775282940309851 0 -0.46990863904630059 0.1670362475492525 0 -0.46092099384776192 0.14306874102069511 0 -0.48464943840857888 0.15775282940309851 0 -0.46092099384776192 0.14306874102069511 0 -0.48049738108946538 0.1379484740379 0 -0.48464943840857888 0.15775282940309851 0 -0.46092099384776192 0.14306874102069511 0 -0.48049738108946538 0.1379484740379 0 -0.5 0.1433429088593379 0 -0.48464943840857888 0.15775282940309851 0 -0.48464943840857888 0.15775282940309851 0 -0.5 0.17015075819329931 0 -0.4898809761324775 0.17912292006808481 0 -0.5 0.1433429088593379 0 -0.48464943840857888 0.15775282940309851 0 -0.5 0.17015075819329931 0 -0.48464943840857888 0.15775282940309851 0 -0.4898809761324775 0.17912292006808481 0 -0.47865635922375932 0.17909963177513319 0 -0.5 0.17015075819329931 0 -0.4898809761324775 0.17912292006808481 0 -0.5 0.19695860752726069 0 -0.4898809761324775 0.17912292006808481 0 -0.47865635922375932 0.17909963177513319 0 -0.48609908303004917 0.1916527734416324 0 -0.47865635922375932 0.17909963177513319 0 -0.47279817792341111 0.1948006201282925 0 -0.47865635922375932 0.17909963177513319 0 -0.46589335310649882 0.18744802338852329 0 -0.47279817792341111 0.1948006201282925 0 -0.47865635922375932 0.17909963177513319 0 -0.46927870962167312 0.17493875400548389 0 -0.46990863904630059 0.1670362475492525 0 -0.47865635922375932 0.17909963177513319 0 -0.46927870962167312 0.17493875400548389 0 -0.46555461593459269 0.18128722400797501 0 -0.47865635922375932 0.17909963177513319 0 -0.46589335310649882 0.18744802338852329 0 -0.46555461593459269 0.18128722400797501 0 -0.48464943840857888 0.15775282940309851 0 -0.47865635922375932 0.17909963177513319 0 -0.46990863904630059 0.1670362475492525 0 -0.45742932361540911 0.15889287394486271 0 -0.45393765338305497 0.17471700686903011 0 -0.46990863904630059 0.1670362475492525 0 -0.45742932361540911 0.15889287394486271 0 -0.46092099384776192 0.14306874102069511 0 -0.45742932361540911 0.15889287394486271 0 -0.46299522428203971 0.17233191268957501 0 -0.45393765338305497 0.17471700686903011 0 -0.46927870962167312 0.17493875400548389 0 -0.46990863904630059 0.1670362475492525 0 -0.46299522428203971 0.17233191268957501 0 -0.46990863904630059 0.1670362475492525 0 -0.45742932361540911 0.15889287394486271 0 -0.46299522428203971 0.17233191268957501 0 -0.46589335310649882 0.18744802338852329 0 -0.46555461593459269 0.18128722400797501 0 -0.45393765338305497 0.17471700686903011 0 -0.46589335310649882 0.18744802338852329 0 -0.46555461593459269 0.18128722400797501 0 -0.46927870962167312 0.17493875400548389 0 -0.46555461593459269 0.18128722400797501 0 -0.46299522428203971 0.17233191268957501 0 -0.46555461593459269 0.18128722400797501 0 -0.46299522428203971 0.17233191268957501 0 -0.45393765338305497 0.17471700686903011 0 -0.46589335310649882 0.18744802338852329 0 -0.45393765338305497 0.17471700686903011 0 -0.45393765338305497 0.17471700686903011 0 -0.44047241453070329 0.18324079402305421 0 -0.44820564853932793 0.20069426145875721 0 -0.45393765338305497 0.17471700686903011 0 -0.44047241453070329 0.18324079402305421 0 -0.44174290600336708 0.16173144065936321 0 -0.45742932361540911 0.15889287394486271 0 -0.44174290600336708 0.16173144065936321 0 -0.44616928685712581 0.1494742970518641 0 -0.45742932361540911 0.15889287394486271 0 -0.45393765338305497 0.17471700686903011 0 -0.44174290600336708 0.16173144065936321 0 -0.45393765338305497 0.17471700686903011 0 -0.44174290600336708 0.16173144065936321 0 -0.44174290600336708 0.16173144065936321 0 -0.44616928685712581 0.1494742970518641 0 -0.43187713239064979 0.1573343508491826 0 -0.44616928685712581 0.1494742970518641 0 -0.43700896048386301 0.14249666109927989 0 -0.43187713239064979 0.1573343508491826 0 -0.44616928685712581 0.1494742970518641 0 -0.44680021131503311 0.13433024919887079 0 -0.46092099384776192 0.14306874102069511 0 -0.44616928685712581 0.1494742970518641 0 -0.44680021131503311 0.13433024919887079 0 -0.43700896048386301 0.14249666109927989 0 -0.45289828098281221 0.1241297055338681 0 -0.44680021131503311 0.13433024919887079 0 -0.43267942878230348 0.12559175737704789 0 -0.44680021131503311 0.13433024919887079 0 -0.43267942878230348 0.12559175737704789 0 -0.43700896048386301 0.14249666109927989 0 -0.44680021131503311 0.13433024919887079 0 -0.43267942878230348 0.12559175737704789 0 -0.45289828098281221 0.1241297055338681 0 -0.44680021131503311 0.13433024919887079 0 -0.46092099384776192 0.14306874102069511 0 -0.46607010556719342 0.11973313861048911 0 -0.46092099384776192 0.14306874102069511 0 -0.45289828098281221 0.1241297055338681 0 -0.46607010556719342 0.11973313861048911 0 -0.46092099384776192 0.14306874102069511 0 -0.44680021131503311 0.13433024919887079 0 -0.46092099384776192 0.14306874102069511 0 -0.45742932361540911 0.15889287394486271 0 -0.46092099384776192 0.14306874102069511 0 -0.45742932361540911 0.15889287394486271 0 -0.44616928685712581 0.1494742970518641 0 -0.46092099384776192 0.14306874102069511 0 -0.46853242371352971 0.23544625301742969 0 -0.46993231893463527 0.26090691788180947 0 -0.48177750529808522 0.24619974485466931 0 -0.46853242371352971 0.23544625301742969 0 -0.46993231893463527 0.26090691788180947 0 -0.48177750529808522 0.24619974485466931 0 -0.48375626182904402 0.22755154475287301 0 -0.46853242371352971 0.23544625301742969 0 -0.48177750529808522 0.24619974485466931 0 -0.5 0.2461359573144368 0 -0.48375626182904402 0.22755154475287301 0 -0.5 0.2461359573144368 0 -0.48375626182904402 0.22755154475287301 0 -0.49999999999999978 0.22376645686122221 0 -0.48375626182904402 0.22755154475287301 0 -0.48639908896170481 0.20928353849475789 0 -0.5 0.2461359573144368 0 -0.49999999999999978 0.22376645686122221 0 -0.48375626182904402 0.22755154475287301 0 -0.47173343442327142 0.22048762952866541 0 -0.46713252849242448 0.20998558815304991 0 -0.46853242371352971 0.23544625301742969 0 -0.48375626182904402 0.22755154475287301 0 -0.47173343442327142 0.22048762952866541 0 -0.4670472636537164 0.20843482960316059 0 -0.48375626182904402 0.22755154475287301 0 -0.47173343442327142 0.22048762952866541 0 -0.46853242371352971 0.23544625301742969 0 -0.48375626182904402 0.22755154475287301 0 -0.4670472636537164 0.20843482960316059 0 -0.48639908896170481 0.20928353849475789 0 -0.47279817792341111 0.1948006201282925 0 -0.4670472636537164 0.20843482960316059 0 -0.48375626182904402 0.22755154475287301 0 -0.48639908896170481 0.20928353849475789 0 -0.4670472636537164 0.20843482960316059 0 -0.49999999999999978 0.22376645686122221 0 -0.48639908896170481 0.20928353849475789 0 -0.5 0.19695860752726069 0 -0.49999999999999978 0.22376645686122221 0 -0.48639908896170481 0.20928353849475789 0 -0.48639908896170481 0.20928353849475789 0 -0.5 0.19695860752726069 0 -0.48609908303004917 0.1916527734416324 0 -0.4898809761324775 0.17912292006808481 0 -0.5 0.19695860752726069 0 -0.48609908303004917 0.1916527734416324 0 -0.48639908896170481 0.20928353849475789 0 -0.48609908303004917 0.1916527734416324 0 -0.47279817792341111 0.1948006201282925 0 -0.47865635922375932 0.17909963177513319 0 -0.48609908303004917 0.1916527734416324 0 -0.47279817792341111 0.1948006201282925 0 -0.48639908896170481 0.20928353849475789 0 -0.47279817792341111 0.1948006201282925 0 -0.47279817792341111 0.1948006201282925 0 -0.4670472636537164 0.20843482960316059 0 -0.46589335310649882 0.18744802338852329 0 -0.47279817792341111 0.1948006201282925 0 -0.46589335310649882 0.18744802338852329 0 -0.4603250720810298 0.20074399020462361 0 -0.4670472636537164 0.20843482960316059 0 -0.46589335310649882 0.18744802338852329 0 -0.45393765338305497 0.17471700686903011 0 -0.44820564853932793 0.20069426145875721 0 -0.46589335310649882 0.18744802338852329 0 -0.4603250720810298 0.20074399020462361 0 -0.44820564853932793 0.20069426145875721 0 -0.46589335310649882 0.18744802338852329 0 -0.47279817792341111 0.1948006201282925 0 -0.4670472636537164 0.20843482960316059 0 -0.46589335310649882 0.18744802338852329 0 -0.4670472636537164 0.20843482960316059 0 -0.45393765338305497 0.17471700686903011 0 -0.44820564853932793 0.20069426145875721 0 -0.44820564853932793 0.20069426145875721 0 -0.45427794118362658 0.21265328965042851 0 -0.44247364369559788 0.22667151604848371 0 -0.44820564853932793 0.20069426145875721 0 -0.44247364369559788 0.22667151604848371 0 -0.44820564853932793 0.20069426145875721 0 -0.44247364369559788 0.22667151604848371 0 -0.42336320141575168 0.21609666274764849 0 -0.45880341375183131 0.2186303689721085 0 -0.45427794118362658 0.21265328965042851 0 -0.46188137931700068 0.21002659871962689 0 -0.45880341375183131 0.2186303689721085 0 -0.45427794118362658 0.21265328965042851 0 -0.4536201791639074 0.2236252940046442 0 -0.4603250720810298 0.20074399020462361 0 -0.45427794118362658 0.21265328965042851 0 -0.46188137931700068 0.21002659871962689 0 -0.4603250720810298 0.20074399020462361 0 -0.44820564853932793 0.20069426145875721 0 -0.45427794118362658 0.21265328965042851 0 -0.4603250720810298 0.20074399020462361 0 -0.46188137931700068 0.21002659871962689 0 -0.4670472636537164 0.20843482960316059 0 -0.4603250720810298 0.20074399020462361 0 -0.4670472636537164 0.20843482960316059 0 -0.46188137931700068 0.21002659871962689 0 -0.4670472636537164 0.20843482960316059 0 -0.46713252849242448 0.20998558815304991 0 -0.4670472636537164 0.20843482960316059 0 -0.46713252849242448 0.20998558815304991 0 -0.47173343442327142 0.22048762952866541 0 -0.4670472636537164 0.20843482960316059 0 -0.46713252849242448 0.20998558815304991 0 -0.45880341375183131 0.2186303689721085 0 -0.46188137931700068 0.21002659871962689 0 -0.46713252849242448 0.20998558815304991 0 -0.46713252849242448 0.20998558815304991 0 -0.45710504060219709 0.23686107433279269 0 -0.46713252849242448 0.20998558815304991 0 -0.45710504060219709 0.23686107433279269 0 -0.46853242371352971 0.23544625301742969 0 -0.45880341375183131 0.2186303689721085 0 -0.46713252849242448 0.20998558815304991 0 -0.45710504060219709 0.23686107433279269 0 -0.45880341375183131 0.2186303689721085 0 -0.4536201791639074 0.2236252940046442 0 -0.45710504060219709 0.23686107433279269 0 -0.46713252849242448 0.20998558815304991 0 -0.46853242371352971 0.23544625301742969 0 -0.45427794118362658 0.21265328965042851 0 -0.4536201791639074 0.2236252940046442 0 -0.44247364369559788 0.22667151604848371 0 -0.4536201791639074 0.2236252940046442 0 -0.44247364369559788 0.22667151604848371 0 -0.45710504060219709 0.23686107433279269 0 -0.44247364369559788 0.22667151604848371 0 -0.4367416388518679 0.25264877063821017 0 -0.44247364369559788 0.22667151604848371 0 -0.45710504060219709 0.23686107433279269 0 -0.4367416388518679 0.25264877063821017 0 -0.45710504060219709 0.23686107433279269 0 -0.46853242371352971 0.23544625301742969 0 -0.46993231893463527 0.26090691788180947 0 -0.41931835140954682 0.23739665832436521 0 -0.40367044579520373 0.24132688110038639 0 -0.41175872593851298 0.2549478601346914 0 -0.41931835140954682 0.23739665832436521 0 -0.40790513800462019 0.22799805468035339 0 -0.40367044579520373 0.24132688110038639 0 -0.41931835140954682 0.23739665832436521 0 -0.4367416388518679 0.25264877063821017 0 -0.41175872593851298 0.2549478601346914 0 -0.44247364369559788 0.22667151604848371 0 -0.41931835140954682 0.23739665832436521 0 -0.4367416388518679 0.25264877063821017 0 -0.44247364369559788 0.22667151604848371 0 -0.41931835140954682 0.23739665832436521 0 -0.42336320141575168 0.21609666274764849 0 -0.41931835140954682 0.23739665832436521 0 -0.40790513800462019 0.22799805468035339 0 -0.42336320141575168 0.21609666274764849 0 -0.40790513800462019 0.22799805468035339 0 -0.42336320141575168 0.21609666274764849 0 -0.40538393777915788 0.2123952851453417 0 -0.42336320141575168 0.21609666274764849 0 -0.42071240458675369 0.1920614743917832 0 -0.40538393777915788 0.2123952851453417 0 -0.44820564853932793 0.20069426145875721 0 -0.42336320141575168 0.21609666274764849 0 -0.42071240458675369 0.1920614743917832 0 -0.44047241453070329 0.18324079402305421 0 -0.44820564853932793 0.20069426145875721 0 -0.42071240458675369 0.1920614743917832 0 -0.42071240458675369 0.1920614743917832 0 -0.40538393777915788 0.2123952851453417 0 -0.42071240458675369 0.1920614743917832 0 -0.4022878927449296 0.1970928012265635 0 -0.40298680868332198 0.18508216307238631 0 -0.42071240458675369 0.1920614743917832 0 -0.4022878927449296 0.1970928012265635 0 -0.40538393777915788 0.2123952851453417 0 -0.4022878927449296 0.1970928012265635 0 -0.39286614404695941 0.1920732104686422 0 -0.40298680868332198 0.18508216307238631 0 -0.4022878927449296 0.1970928012265635 0 -0.39286614404695941 0.1920732104686422 0 -0.39380007669083689 0.206464460861051 0 -0.38422654444444693 0.2008322729754812 0 -0.38088029112643113 0.1825210369279657 0 -0.38422654444444693 0.2008322729754812 0 -0.38088029112643113 0.1825210369279657 0 -0.36802074197771562 0.19700904511440151 0 -0.38422654444444693 0.2008322729754812 0 -0.37368745339656201 0.20924711939208951 0 -0.36802074197771562 0.19700904511440151 0 -0.39286614404695941 0.1920732104686422 0 -0.38422654444444693 0.2008322729754812 0 -0.38088029112643113 0.1825210369279657 0 -0.39286614404695941 0.1920732104686422 0 -0.38422654444444693 0.2008322729754812 0 -0.39380007669083689 0.206464460861051 0 -0.38422654444444693 0.2008322729754812 0 -0.38757279776246373 0.21914350902299659 0 -0.38757279776246373 0.21914350902299659 0 -0.36800338097472479 0.22147713987588341 0 -0.37368745339656201 0.20924711939208951 0 -0.38422654444444693 0.2008322729754812 0 -0.39380007669083689 0.206464460861051 0 -0.38757279776246373 0.21914350902299659 0 -0.38422654444444693 0.2008322729754812 0 -0.38757279776246373 0.21914350902299659 0 -0.37368745339656201 0.20924711939208951 0 -0.39141353052387118 0.2186855059784025 0 -0.39380007669083689 0.206464460861051 0 -0.38757279776246373 0.21914350902299659 0 -0.39141353052387118 0.2186855059784025 0 -0.39380007669083689 0.206464460861051 0 -0.40538393777915788 0.2123952851453417 0 -0.4022878927449296 0.1970928012265635 0 -0.39380007669083689 0.206464460861051 0 -0.40538393777915788 0.2123952851453417 0 -0.40790513800462019 0.22799805468035339 0 -0.39005547097156312 0.23272909589890109 0 -0.40367044579520373 0.24132688110038639 0 -0.39141353052387118 0.2186855059784025 0 -0.40538393777915788 0.2123952851453417 0 -0.39005547097156312 0.23272909589890109 0 -0.40790513800462019 0.22799805468035339 0 -0.40538393777915788 0.2123952851453417 0 -0.39005547097156312 0.23272909589890109 0 -0.40538393777915788 0.2123952851453417 0 -0.39005547097156312 0.23272909589890109 0 -0.38757279776246373 0.21914350902299659 0 -0.39005547097156312 0.23272909589890109 0 -0.38757279776246373 0.21914350902299659 0 -0.36800338097472479 0.22147713987588341 0 -0.39141353052387118 0.2186855059784025 0 -0.38757279776246373 0.21914350902299659 0 -0.39005547097156312 0.23272909589890109 0 -0.38757279776246373 0.21914350902299659 0 -0.37939186114838758 0.22424627805714001 0 -0.36800338097472479 0.22147713987588341 0 -0.38757279776246373 0.21914350902299659 0 -0.37939186114838758 0.22424627805714001 0 -0.39005547097156312 0.23272909589890109 0 -0.39141353052387118 0.2186855059784025 0 -0.38757279776246373 0.21914350902299659 0 -0.37939186114838758 0.22424627805714001 0 -0.37477717689163992 0.25299635056682518 0 -0.39005547097156312 0.23272909589890109 0 -0.39384597734802013 0.25347135609337229 0 -0.37477717689163992 0.25299635056682518 0 -0.37939186114838758 0.22424627805714001 0 -0.39005547097156312 0.23272909589890109 0 -0.37477717689163992 0.25299635056682518 0 -0.39005547097156312 0.23272909589890109 0 -0.37477717689163992 0.25299635056682518 0 -0.40367044579520373 0.24132688110038639 0 -0.41175872593851298 0.2549478601346914 0 -0.39384597734802013 0.25347135609337229 0 -0.39005547097156312 0.23272909589890109 0 -0.39384597734802013 0.25347135609337229 0 -0.39005547097156312 0.23272909589890109 0 -0.40367044579520373 0.24132688110038639 0 -0.39384597734802013 0.25347135609337229 0 -0.41485942150404181 0.14153864215909739 0 -0.41553858058260518 0.15317901213210369 0 -0.42574561826610652 0.14613969243370301 0 -0.41553858058260518 0.15317901213210369 0 -0.42574561826610652 0.14613969243370301 0 -0.42127399236650492 0.15770626544657529 0 -0.41485942150404181 0.14153864215909739 0 -0.41553858058260518 0.15317901213210369 0 -0.4044664398419977 0.15594807455379561 0 -0.40864304721671202 0.1107171055473533 0 -0.41485942150404181 0.14153864215909739 0 -0.43267942878230348 0.12559175737704789 0 -0.41485942150404181 0.14153864215909739 0 -0.43267942878230348 0.12559175737704789 0 -0.42574561826610652 0.14613969243370301 0 -0.43267942878230348 0.12559175737704789 0 -0.43700896048386301 0.14249666109927989 0 -0.42574561826610652 0.14613969243370301 0 -0.41485942150404181 0.14153864215909739 0 -0.43267942878230348 0.12559175737704789 0 -0.42574561826610652 0.14613969243370301 0 -0.43187713239064979 0.1573343508491826 0 -0.42127399236650492 0.15770626544657529 0 -0.43700896048386301 0.14249666109927989 0 -0.42574561826610652 0.14613969243370301 0 -0.43187713239064979 0.1573343508491826 0 -0.43187713239064979 0.1573343508491826 0 -0.42946357341586749 0.17496324995209989 0 -0.4216380035134229 0.16659483191912641 0 -0.44174290600336708 0.16173144065936321 0 -0.43187713239064979 0.1573343508491826 0 -0.42946357341586749 0.17496324995209989 0 -0.43187713239064979 0.1573343508491826 0 -0.42127399236650492 0.15770626544657529 0 -0.4216380035134229 0.16659483191912641 0 -0.44047241453070329 0.18324079402305421 0 -0.44174290600336708 0.16173144065936321 0 -0.42946357341586749 0.17496324995209989 0 -0.44047241453070329 0.18324079402305421 0 -0.42071240458675369 0.1920614743917832 0 -0.42946357341586749 0.17496324995209989 0 -0.42071240458675369 0.1920614743917832 0 -0.42946357341586749 0.17496324995209989 0 -0.41235879422937732 0.17543682721938669 0 -0.42071240458675369 0.1920614743917832 0 -0.41235879422937732 0.17543682721938669 0 -0.40298680868332198 0.18508216307238631 0 -0.42946357341586749 0.17496324995209989 0 -0.41235879422937732 0.17543682721938669 0 -0.4216380035134229 0.16659483191912641 0 -0.41553858058260518 0.15317901213210369 0 -0.42127399236650492 0.15770626544657529 0 -0.41302135350813218 0.1630654313638546 0 -0.42127399236650492 0.15770626544657529 0 -0.4216380035134229 0.16659483191912641 0 -0.41302135350813218 0.1630654313638546 0 -0.41235879422937732 0.17543682721938669 0 -0.4216380035134229 0.16659483191912641 0 -0.41302135350813218 0.1630654313638546 0 -0.41235879422937732 0.17543682721938669 0 -0.41302135350813218 0.1630654313638546 0 -0.40449990094882532 0.16792382984329149 0 -0.41302135350813218 0.1630654313638546 0 -0.40449990094882532 0.16792382984329149 0 -0.4044664398419977 0.15594807455379561 0 -0.41553858058260518 0.15317901213210369 0 -0.41302135350813218 0.1630654313638546 0 -0.4044664398419977 0.15594807455379561 0 -0.3926733654842145 0.1692345557408807 0 -0.4044664398419977 0.15594807455379561 0 -0.40449990094882532 0.16792382984329149 0 -0.3926733654842145 0.1692345557408807 0 -0.40078474618547688 0.17571320347163299 0 -0.40449990094882532 0.16792382984329149 0 -0.3926733654842145 0.1692345557408807 0 -0.4044664398419977 0.15594807455379561 0 -0.3926733654842145 0.1692345557408807 0 -0.39703941422577987 0.15748552694114659 0 -0.4044664398419977 0.15594807455379561 0 -0.40298680868332198 0.18508216307238631 0 -0.40078474618547688 0.17571320347163299 0 -0.39301525059178999 0.18044652774840561 0 -0.41235879422937732 0.17543682721938669 0 -0.40298680868332198 0.18508216307238631 0 -0.40078474618547688 0.17571320347163299 0 -0.41235879422937732 0.17543682721938669 0 -0.40449990094882532 0.16792382984329149 0 -0.40078474618547688 0.17571320347163299 0 -0.3926733654842145 0.1692345557408807 0 -0.40078474618547688 0.17571320347163299 0 -0.39301525059178999 0.18044652774840561 0 -0.39286614404695941 0.1920732104686422 0 -0.40298680868332198 0.18508216307238631 0 -0.39301525059178999 0.18044652774840561 0 -0.39286614404695941 0.1920732104686422 0 -0.39301525059178999 0.18044652774840561 0 -0.38088029112643113 0.1825210369279657 0 -0.3926733654842145 0.1692345557408807 0 -0.38088029112643113 0.1825210369279657 0 -0.3926733654842145 0.1692345557408807 0 -0.39301525059178999 0.18044652774840561 0 -0.38088029112643113 0.1825210369279657 0 -0.3926733654842145 0.1692345557408807 0 -0.37921940694751782 0.17343241172319571 0 -0.38088029112643113 0.1825210369279657 0 -0.37921940694751782 0.17343241172319571 0 -0.38088029112643113 0.1825210369279657 0 -0.37921940694751782 0.17343241172319571 0 -0.38088029112643113 0.1825210369279657 0 -0.37283571032282492 0.1791450959532255 0 -0.3784015845151173 0.16895715591276281 0 -0.37283571032282492 0.1791450959532255 0 -0.37921940694751782 0.17343241172319571 0 -0.3784015845151173 0.16895715591276281 0 -0.37283571032282492 0.1791450959532255 0 -0.37921940694751782 0.17343241172319571 0 -0.37283571032282492 0.1791450959532255 0 -0.39703941422577987 0.15748552694114659 0 -0.37921940694751782 0.17343241172319571 0 -0.38193020105096481 0.16249827228531991 0 -0.3784015845151173 0.16895715591276281 0 -0.38193020105096481 0.16249827228531991 0 -0.37372345991800282 0.14335770613522919 0 -0.39703941422577987 0.15748552694114659 0 -0.37921940694751782 0.17343241172319571 0 -0.3926733654842145 0.1692345557408807 0 -0.39703941422577987 0.15748552694114659 0 -0.37921940694751782 0.17343241172319571 0 -0.39703941422577987 0.15748552694114659 0 -0.38193020105096481 0.16249827228531991 0 -0.38598126975628672 0.1494316781992327 0 -0.37921940694751782 0.17343241172319571 0 -0.3784015845151173 0.16895715591276281 0 -0.38193020105096481 0.16249827228531991 0 -0.3784015845151173 0.16895715591276281 0 -0.38193020105096481 0.16249827228531991 0 -0.37921940694751782 0.17343241172319571 0 -0.3784015845151173 0.16895715591276281 0 -0.38598126975628672 0.1494316781992327 0 -0.39401402549175851 0.1361747599337243 0 -0.37372345991800282 0.14335770613522919 0 -0.38193020105096481 0.16249827228531991 0 -0.38598126975628672 0.1494316781992327 0 -0.37372345991800282 0.14335770613522919 0 -0.3784015845151173 0.16895715591276281 0 -0.37372345991800282 0.14335770613522919 0 -0.39703941422577987 0.15748552694114659 0 -0.38598126975628672 0.1494316781992327 0 -0.39401402549175851 0.1361747599337243 0 -0.41485942150404181 0.14153864215909739 0 -0.39703941422577987 0.15748552694114659 0 -0.39401402549175851 0.1361747599337243 0 -0.41485942150404181 0.14153864215909739 0 -0.39703941422577987 0.15748552694114659 0 -0.4044664398419977 0.15594807455379561 0 -0.41485942150404181 0.14153864215909739 0 -0.39703941422577987 0.15748552694114659 0 -0.40864304721671202 0.1107171055473533 0 -0.41485942150404181 0.14153864215909739 0 -0.39401402549175851 0.1361747599337243 0 -0.38750957741872682 0.11885909540365321 0 -0.37372345991800282 0.14335770613522919 0 -0.36904533532088801 0.1177582563576956 0 -0.38750957741872682 0.11885909540365321 0 -0.39401402549175851 0.1361747599337243 0 -0.37372345991800282 0.14335770613522919 0 -0.35823941519022368 0.13573745574644491 0 -0.37372345991800282 0.14335770613522919 0 -0.36904533532088801 0.1177582563576956 0 -0.37372345991800282 0.14335770613522919 0 -0.36904533532088801 0.1177582563576956 0 -0.35823941519022368 0.13573745574644491 0 -0.34455851703438989 0.13305210298766909 0 -0.35158166360451942 0.11704707172714621 0 -0.35823941519022368 0.13573745574644491 0 -0.34455851703438989 0.13305210298766909 0 -0.34873147585397152 0.15030858297792049 0 -0.35823941519022368 0.13573745574644491 0 -0.34873147585397152 0.15030858297792049 0 -0.36179603940957061 0.15290101429300901 0 -0.34873147585397152 0.15030858297792049 0 -0.34720568730415252 0.1616956217090188 0 -0.33647431770126862 0.14798842126345041 0 -0.34873147585397152 0.15030858297792049 0 -0.36179603940957061 0.15290101429300901 0 -0.35552330674067661 0.16014073544654131 0 -0.35823941519022368 0.13573745574644491 0 -0.36179603940957061 0.15290101429300901 0 -0.37372345991800282 0.14335770613522919 0 -0.3784015845151173 0.16895715591276281 0 -0.36179603940957061 0.15290101429300901 0 -0.37372345991800282 0.14335770613522919 0 -0.3784015845151173 0.16895715591276281 0 -0.36179603940957061 0.15290101429300901 0 -0.3628088848288224 0.16705289795690309 0 -0.3784015845151173 0.16895715591276281 0 -0.3628088848288224 0.16705289795690309 0 -0.36959790597703868 0.17377317275203899 0 -0.36179603940957061 0.15290101429300901 0 -0.3628088848288224 0.16705289795690309 0 -0.35552330674067661 0.16014073544654131 0 -0.38088029112643113 0.1825210369279657 0 -0.37283571032282492 0.1791450959532255 0 -0.36802074197771562 0.19700904511440151 0 -0.37283571032282492 0.1791450959532255 0 -0.36399845157591232 0.19532107462703119 0 -0.37283571032282492 0.1791450959532255 0 -0.36261880381503758 0.18828806813974089 0 -0.3784015845151173 0.16895715591276281 0 -0.36959790597703868 0.17377317275203899 0 -0.37283571032282492 0.1791450959532255 0 -0.36959790597703868 0.17377317275203899 0 -0.37283571032282492 0.1791450959532255 0 -0.36409588864576692 0.17933358541092431 0 -0.3628088848288224 0.16705289795690309 0 -0.36959790597703868 0.17377317275203899 0 -0.36409588864576692 0.17933358541092431 0 -0.3628088848288224 0.16705289795690309 0 -0.36409588864576692 0.17933358541092431 0 -0.35614161380151321 0.17761165346375071 0 -0.36409588864576692 0.17933358541092431 0 -0.35797279878738592 0.18411861580098379 0 -0.35614161380151321 0.17761165346375071 0 -0.36409588864576692 0.17933358541092431 0 -0.35797279878738592 0.18411861580098379 0 -0.36261880381503758 0.18828806813974089 0 -0.37283571032282492 0.1791450959532255 0 -0.36409588864576692 0.17933358541092431 0 -0.36261880381503758 0.18828806813974089 0 -0.35797279878738592 0.18411861580098379 0 -0.35614161380151321 0.17761165346375071 0 -0.35065229879255438 0.18593262723135329 0 -0.35797279878738592 0.18411861580098379 0 -0.35065229879255438 0.18593262723135329 0 -0.35645772166264922 0.19211102842263869 0 -0.35614161380151321 0.17761165346375071 0 -0.34811061985946878 0.17434540014992381 0 -0.35436851446084039 0.1683048517912053 0 -0.35614161380151321 0.17761165346375071 0 -0.34811061985946878 0.17434540014992381 0 -0.35065229879255438 0.18593262723135329 0 -0.35065229879255438 0.18593262723135329 0 -0.34227569468909552 0.1811403169530669 0 -0.33993633525554889 0.19055096072852831 0 -0.34811061985946878 0.17434540014992381 0 -0.35065229879255438 0.18593262723135329 0 -0.34227569468909552 0.1811403169530669 0 -0.35552330674067661 0.16014073544654131 0 -0.35436851446084039 0.1683048517912053 0 -0.34720568730415252 0.1616956217090188 0 -0.3628088848288224 0.16705289795690309 0 -0.35614161380151321 0.17761165346375071 0 -0.35436851446084039 0.1683048517912053 0 -0.3628088848288224 0.16705289795690309 0 -0.35552330674067661 0.16014073544654131 0 -0.35436851446084039 0.1683048517912053 0 -0.34811061985946878 0.17434540014992381 0 -0.34720568730415252 0.1616956217090188 0 -0.33801991010865667 0.17138732975114751 0 -0.34811061985946878 0.17434540014992381 0 -0.35436851446084039 0.1683048517912053 0 -0.34720568730415252 0.1616956217090188 0 -0.34873147585397152 0.15030858297792049 0 -0.35552330674067661 0.16014073544654131 0 -0.34720568730415252 0.1616956217090188 0 -0.34720568730415252 0.1616956217090188 0 -0.33801991010865667 0.17138732975114751 0 -0.33092539158612982 0.1609515407851054 0 -0.34720568730415252 0.1616956217090188 0 -0.33092539158612982 0.1609515407851054 0 -0.33647431770126862 0.14798842126345041 0 -0.33801991010865667 0.17138732975114751 0 -0.33092539158612982 0.1609515407851054 0 -0.3265778886375873 0.17202186172735501 0 -0.34227569468909552 0.1811403169530669 0 -0.33183788287013261 0.1831818366374682 0 -0.33993633525554889 0.19055096072852831 0 -0.34811061985946878 0.17434540014992381 0 -0.33801991010865667 0.17138732975114751 0 -0.34227569468909552 0.1811403169530669 0 -0.33801991010865667 0.17138732975114751 0 -0.34227569468909552 0.1811403169530669 0 -0.33183788287013261 0.1831818366374682 0 -0.33801991010865667 0.17138732975114751 0 -0.33183788287013261 0.1831818366374682 0 -0.3265778886375873 0.17202186172735501 0 -0.3265778886375873 0.17202186172735501 0 -0.31632076704925127 0.18575639557221951 0 -0.3167678101826048 0.16359462978275929 0 -0.33183788287013261 0.1831818366374682 0 -0.3265778886375873 0.17202186172735501 0 -0.31632076704925127 0.18575639557221951 0 -0.33092539158612982 0.1609515407851054 0 -0.3167678101826048 0.16359462978275929 0 -0.32050673558250908 0.1490213804769015 0 -0.33092539158612982 0.1609515407851054 0 -0.3265778886375873 0.17202186172735501 0 -0.3167678101826048 0.16359462978275929 0 -0.32050673558250908 0.1490213804769015 0 -0.30739524272803709 0.15185112365938391 0 -0.31211500736378339 0.1240031522641292 0 -0.3167678101826048 0.16359462978275929 0 -0.32050673558250908 0.1490213804769015 0 -0.30739524272803709 0.15185112365938391 0 -0.32050673558250908 0.1490213804769015 0 -0.30739524272803709 0.15185112365938391 0 -0.32919359534549508 0.13424827028365749 0 -0.31211500736378339 0.1240031522641292 0 -0.33231339904552459 0.1171762944261375 0 -0.32050673558250908 0.1490213804769015 0 -0.32919359534549508 0.13424827028365749 0 -0.31211500736378339 0.1240031522641292 0 -0.34455851703438989 0.13305210298766909 0 -0.32919359534549508 0.13424827028365749 0 -0.33231339904552459 0.1171762944261375 0 -0.34455851703438989 0.13305210298766909 0 -0.32919359534549508 0.13424827028365749 0 -0.33647431770126862 0.14798842126345041 0 -0.32050673558250908 0.1490213804769015 0 -0.32919359534549508 0.13424827028365749 0 -0.33647431770126862 0.14798842126345041 0 -0.33092539158612982 0.1609515407851054 0 -0.32050673558250908 0.1490213804769015 0 -0.33647431770126862 0.14798842126345041 0 -0.34455851703438989 0.13305210298766909 0 -0.34873147585397152 0.15030858297792049 0 -0.33647431770126862 0.14798842126345041 0 -0.35416421148584648 0.23888623464626721 0 -0.34843396418698602 0.22381077072877051 0 -0.33845336435013867 0.242079554605789 0 -0.35416421148584648 0.23888623464626721 0 -0.33845336435013867 0.242079554605789 0 -0.35464358931248319 0.25491115920099722 0 -0.37939186114838758 0.22424627805714001 0 -0.37013679196984273 0.23750613219799629 0 -0.37477717689163992 0.25299635056682518 0 -0.37013679196984273 0.23750613219799629 0 -0.35464358931248319 0.25491115920099722 0 -0.37477717689163992 0.25299635056682518 0 -0.35416421148584648 0.23888623464626721 0 -0.37013679196984273 0.23750613219799629 0 -0.35464358931248319 0.25491115920099722 0 -0.35416421148584648 0.23888623464626721 0 -0.37013679196984273 0.23750613219799629 0 -0.36148561266771267 0.2305011068434443 0 -0.36148561266771267 0.2305011068434443 0 -0.36975441169016687 0.228432664243616 0 -0.36800338097472479 0.22147713987588341 0 -0.37013679196984273 0.23750613219799629 0 -0.36148561266771267 0.2305011068434443 0 -0.36975441169016687 0.228432664243616 0 -0.37939186114838758 0.22424627805714001 0 -0.37013679196984273 0.23750613219799629 0 -0.36975441169016687 0.228432664243616 0 -0.37939186114838758 0.22424627805714001 0 -0.36975441169016687 0.228432664243616 0 -0.36800338097472479 0.22147713987588341 0 -0.36800338097472479 0.22147713987588341 0 -0.34843396418698602 0.22381077072877051 0 -0.35516119282899983 0.21149705330083701 0 -0.36148561266771267 0.2305011068434443 0 -0.36800338097472479 0.22147713987588341 0 -0.34843396418698602 0.22381077072877051 0 -0.36800338097472479 0.22147713987588341 0 -0.34843396418698602 0.22381077072877051 0 -0.35416421148584648 0.23888623464626721 0 -0.36148561266771267 0.2305011068434443 0 -0.34843396418698602 0.22381077072877051 0 -0.34843396418698602 0.22381077072877051 0 -0.34802604401402371 0.21953575615482759 0 -0.33982416592956399 0.21665757569738961 0 -0.34802604401402371 0.21953575615482759 0 -0.34581283434165899 0.20861347152532789 0 -0.33982416592956399 0.21665757569738961 0 -0.34802604401402371 0.21953575615482759 0 -0.34581283434165899 0.20861347152532789 0 -0.35516119282899983 0.21149705330083701 0 -0.34843396418698602 0.22381077072877051 0 -0.34802604401402371 0.21953575615482759 0 -0.35516119282899983 0.21149705330083701 0 -0.34581283434165899 0.20861347152532789 0 -0.35516119282899983 0.21149705330083701 0 -0.35389383475621161 0.20092716755479181 0 -0.34802604401402371 0.21953575615482759 0 -0.35516119282899983 0.21149705330083701 0 -0.34843396418698602 0.22381077072877051 0 -0.35516119282899983 0.21149705330083701 0 -0.36800338097472479 0.22147713987588341 0 -0.35516119282899983 0.21149705330083701 0 -0.37368745339656201 0.20924711939208951 0 -0.35516119282899983 0.21149705330083701 0 -0.37368745339656201 0.20924711939208951 0 -0.36802074197771562 0.19700904511440151 0 -0.35516119282899983 0.21149705330083701 0 -0.36399845157591232 0.19532107462703119 0 -0.35516119282899983 0.21149705330083701 0 -0.36802074197771562 0.19700904511440151 0 -0.37283571032282492 0.1791450959532255 0 -0.36399845157591232 0.19532107462703119 0 -0.36261880381503758 0.18828806813974089 0 -0.37283571032282492 0.1791450959532255 0 -0.36399845157591232 0.19532107462703119 0 -0.36802074197771562 0.19700904511440151 0 -0.35516119282899983 0.21149705330083701 0 -0.36399845157591232 0.19532107462703119 0 -0.36802074197771562 0.19700904511440151 0 -0.38088029112643113 0.1825210369279657 0 -0.36802074197771562 0.19700904511440151 0 -0.36399845157591232 0.19532107462703119 0 -0.36261880381503758 0.18828806813974089 0 -0.35645772166264922 0.19211102842263869 0 -0.35797279878738592 0.18411861580098379 0 -0.36261880381503758 0.18828806813974089 0 -0.35645772166264922 0.19211102842263869 0 -0.35065229879255438 0.18593262723135329 0 -0.35645772166264922 0.19211102842263869 0 -0.34803897337183792 0.19709320989812409 0 -0.35516119282899983 0.21149705330083701 0 -0.36399845157591232 0.19532107462703119 0 -0.35389383475621161 0.20092716755479181 0 -0.35645772166264922 0.19211102842263869 0 -0.35389383475621161 0.20092716755479181 0 -0.34803897337183792 0.19709320989812409 0 -0.36399845157591232 0.19532107462703119 0 -0.35645772166264922 0.19211102842263869 0 -0.35389383475621161 0.20092716755479181 0 -0.34581283434165899 0.20861347152532789 0 -0.35389383475621161 0.20092716755479181 0 -0.34803897337183792 0.19709320989812409 0 -0.34581283434165899 0.20861347152532789 0 -0.34803897337183792 0.19709320989812409 0 -0.33933674095816863 0.19971543786353729 0 -0.35065229879255438 0.18593262723135329 0 -0.34803897337183792 0.19709320989812409 0 -0.33993633525554889 0.19055096072852831 0 -0.33993633525554889 0.19055096072852831 0 -0.33933674095816863 0.19971543786353729 0 -0.33069942903629101 0.19625725860753851 0 -0.34803897337183792 0.19709320989812409 0 -0.33993633525554889 0.19055096072852831 0 -0.33933674095816863 0.19971543786353729 0 -0.33933674095816863 0.19971543786353729 0 -0.33069942903629101 0.19625725860753851 0 -0.33422481296465362 0.2080963853910347 0 -0.33183788287013261 0.1831818366374682 0 -0.33993633525554889 0.19055096072852831 0 -0.33069942903629101 0.19625725860753851 0 -0.31632076704925127 0.18575639557221951 0 -0.33069942903629101 0.19625725860753851 0 -0.32036655352850157 0.2095523693350691 0 -0.33183788287013261 0.1831818366374682 0 -0.31632076704925127 0.18575639557221951 0 -0.33069942903629101 0.19625725860753851 0 -0.32036655352850157 0.2095523693350691 0 -0.32458589997660492 0.2266546254550818 0 -0.30779163400160159 0.21927945841494459 0 -0.32036655352850157 0.2095523693350691 0 -0.32934906837639222 0.21536895119528529 0 -0.32458589997660492 0.2266546254550818 0 -0.32036655352850157 0.2095523693350691 0 -0.32934906837639222 0.21536895119528529 0 -0.33422481296465362 0.2080963853910347 0 -0.32934906837639222 0.21536895119528529 0 -0.33422481296465362 0.2080963853910347 0 -0.33982416592956399 0.21665757569738961 0 -0.33069942903629101 0.19625725860753851 0 -0.32036655352850157 0.2095523693350691 0 -0.33422481296465362 0.2080963853910347 0 -0.34581283434165899 0.20861347152532789 0 -0.33933674095816863 0.19971543786353729 0 -0.33422481296465362 0.2080963853910347 0 -0.34581283434165899 0.20861347152532789 0 -0.33422481296465362 0.2080963853910347 0 -0.33982416592956399 0.21665757569738961 0 -0.34843396418698602 0.22381077072877051 0 -0.33982416592956399 0.21665757569738961 0 -0.32458589997660492 0.2266546254550818 0 -0.34843396418698602 0.22381077072877051 0 -0.32458589997660492 0.2266546254550818 0 -0.34843396418698602 0.22381077072877051 0 -0.32458589997660492 0.2266546254550818 0 -0.33845336435013867 0.242079554605789 0 -0.34843396418698602 0.22381077072877051 0 -0.33845336435013867 0.242079554605789 0 -0.32934906837639222 0.21536895119528529 0 -0.33982416592956399 0.21665757569738961 0 -0.32458589997660492 0.2266546254550818 0 -0.32458589997660492 0.2266546254550818 0 -0.30073783576622393 0.22949848018139329 0 -0.32458589997660492 0.2266546254550818 0 -0.32455092720978362 0.24357057421839101 0 -0.31122576982003303 0.23714335435801151 0 -0.32455092720978362 0.24357057421839101 0 -0.311575650220281 0.24878047680599949 0 -0.31122576982003303 0.23714335435801151 0 -0.32458589997660492 0.2266546254550818 0 -0.32455092720978362 0.24357057421839101 0 -0.33845336435013867 0.242079554605789 0 -0.32455092720978362 0.24357057421839101 0 -0.33845336435013867 0.242079554605789 0 -0.32847276451329022 0.26034833848280681 0 -0.29310990672191722 0.23613872254877591 0 -0.29467853592727078 0.23721261512919359 0 -0.28985028671148488 0.25537141990030859 0 -0.29310990672191722 0.23613872254877591 0 -0.27131573767068418 0.22826101281380451 0 -0.28058301219108422 0.24181621635705669 0 -0.29310990672191722 0.23613872254877591 0 -0.28985028671148488 0.25537141990030859 0 -0.29310990672191722 0.23613872254877591 0 -0.28058301219108422 0.24181621635705669 0 -0.28985028671148488 0.25537141990030859 0 -0.28058301219108422 0.24181621635705669 0 -0.28985028671148488 0.25537141990030859 0 -0.29310990672191722 0.23613872254877591 0 -0.29467853592727078 0.23721261512919359 0 -0.29467853592727078 0.23721261512919359 0 -0.31122576982003303 0.23714335435801151 0 -0.30073783576622393 0.22949848018139329 0 -0.29467853592727078 0.23721261512919359 0 -0.311575650220281 0.24878047680599949 0 -0.31122576982003303 0.23714335435801151 0 -0.29467853592727078 0.23721261512919359 0 -0.311575650220281 0.24878047680599949 0 -0.29467853592727078 0.23721261512919359 0 -0.311575650220281 0.24878047680599949 0 -0.29523766041035199 0.26325150879709891 0 -0.32458589997660492 0.2266546254550818 0 -0.30073783576622393 0.22949848018139329 0 -0.30779163400160159 0.21927945841494459 0 -0.32458589997660492 0.2266546254550818 0 -0.31122576982003303 0.23714335435801151 0 -0.30073783576622393 0.22949848018139329 0 -0.30073783576622393 0.22949848018139329 0 -0.30779163400160159 0.21927945841494459 0 -0.29448167989639912 0.22804486553003031 0 -0.29310990672191722 0.23613872254877591 0 -0.29448167989639912 0.22804486553003031 0 -0.27369133376421262 0.22284465576077489 0 -0.29448167989639912 0.22804486553003031 0 -0.2838712618875629 0.21479465795795599 0 -0.27369133376421262 0.22284465576077489 0 -0.29448167989639912 0.22804486553003031 0 -0.29413635243235581 0.21196267741475219 0 -0.29310990672191722 0.23613872254877591 0 -0.27369133376421262 0.22284465576077489 0 -0.29467853592727078 0.23721261512919359 0 -0.30073783576622393 0.22949848018139329 0 -0.29448167989639912 0.22804486553003031 0 -0.29310990672191722 0.23613872254877591 0 -0.29467853592727078 0.23721261512919359 0 -0.29448167989639912 0.22804486553003031 0 -0.29467853592727078 0.23721261512919359 0 -0.29448167989639912 0.22804486553003031 0 -0.29310990672191722 0.23613872254877591 0 -0.29448167989639912 0.22804486553003031 0 -0.29413635243235581 0.21196267741475219 0 -0.29878620084027852 0.20264695157314819 0 -0.29379102496831272 0.19588048929947419 0 -0.29448167989639912 0.22804486553003031 0 -0.29413635243235581 0.21196267741475219 0 -0.29878620084027852 0.20264695157314819 0 -0.29448167989639912 0.22804486553003031 0 -0.29878620084027852 0.20264695157314819 0 -0.29413635243235581 0.21196267741475219 0 -0.29379102496831272 0.19588048929947419 0 -0.28522308967114912 0.20452327137286261 0 -0.29413635243235581 0.21196267741475219 0 -0.29379102496831272 0.19588048929947419 0 -0.29448167989639912 0.22804486553003031 0 -0.2838712618875629 0.21479465795795599 0 -0.29413635243235581 0.21196267741475219 0 -0.2838712618875629 0.21479465795795599 0 -0.28522308967114912 0.20452327137286261 0 -0.29413635243235581 0.21196267741475219 0 -0.32036655352850157 0.2095523693350691 0 -0.30779163400160159 0.21927945841494459 0 -0.29878620084027852 0.20264695157314819 0 -0.30779163400160159 0.21927945841494459 0 -0.29448167989639912 0.22804486553003031 0 -0.29878620084027852 0.20264695157314819 0 -0.29878620084027852 0.20264695157314819 0 -0.29379102496831272 0.19588048929947419 0 -0.30309072178415769 0.17724903761626601 0 -0.31632076704925127 0.18575639557221951 0 -0.29878620084027852 0.20264695157314819 0 -0.30309072178415769 0.17724903761626601 0 -0.31632076704925127 0.18575639557221951 0 -0.32036655352850157 0.2095523693350691 0 -0.29878620084027852 0.20264695157314819 0 -0.29878620084027852 0.20264695157314819 0 -0.30309072178415769 0.17724903761626601 0 -0.28522308967114912 0.20452327137286261 0 -0.29379102496831272 0.19588048929947419 0 -0.28124953787461371 0.1935735916895788 0 -0.29379102496831272 0.19588048929947419 0 -0.28124953787461371 0.1935735916895788 0 -0.28752446549241689 0.1832489647230989 0 -0.28124953787461371 0.1935735916895788 0 -0.2659766044530758 0.19238405035351089 0 -0.27494974420821611 0.1793112011395637 0 -0.28522308967114912 0.20452327137286261 0 -0.28124953787461371 0.1935735916895788 0 -0.27431068871210279 0.20621206129374381 0 -0.28124953787461371 0.1935735916895788 0 -0.2659766044530758 0.19238405035351089 0 -0.27431068871210279 0.20621206129374381 0 -0.25427276080650663 0.20955058897277601 0 -0.24947341468037071 0.1874691479585941 0 -0.2659766044530758 0.19238405035351089 0 -0.25427276080650663 0.20955058897277601 0 -0.24947341468037071 0.1874691479585941 0 -0.2659766044530758 0.19238405035351089 0 -0.25427276080650663 0.20955058897277601 0 -0.27431068871210279 0.20621206129374381 0 -0.25427276080650663 0.20955058897277601 0 -0.27369133376421262 0.22284465576077489 0 -0.25427276080650663 0.20955058897277601 0 -0.25977281016601761 0.2185578892770178 0 -0.27369133376421262 0.22284465576077489 0 -0.25427276080650663 0.20955058897277601 0 -0.25561524088587501 0.21572724177218369 0 -0.25977281016601761 0.2185578892770178 0 -0.25427276080650663 0.20955058897277601 0 -0.25561524088587501 0.21572724177218369 0 -0.24333230173327219 0.21221501244476959 0 -0.25427276080650663 0.20955058897277601 0 -0.25561524088587501 0.21572724177218369 0 -0.25427276080650663 0.20955058897277601 0 -0.27431068871210279 0.20621206129374381 0 -0.27369133376421262 0.22284465576077489 0 -0.2838712618875629 0.21479465795795599 0 -0.27431068871210279 0.20621206129374381 0 -0.27369133376421262 0.22284465576077489 0 -0.2838712618875629 0.21479465795795599 0 -0.28522308967114912 0.20452327137286261 0 -0.27431068871210279 0.20621206129374381 0 -0.29310990672191722 0.23613872254877591 0 -0.27369133376421262 0.22284465576077489 0 -0.27131573767068418 0.22826101281380451 0 -0.27131573767068418 0.22826101281380451 0 -0.26439065681250729 0.2289784260688752 0 -0.26819560602517328 0.23507842756581021 0 -0.27131573767068418 0.22826101281380451 0 -0.26675876456119929 0.22568570462696191 0 -0.26439065681250729 0.2289784260688752 0 -0.27369133376421262 0.22284465576077489 0 -0.26675876456119929 0.22568570462696191 0 -0.26371349664181459 0.22286429712754721 0 -0.25977281016601761 0.2185578892770178 0 -0.27369133376421262 0.22284465576077489 0 -0.26371349664181459 0.22286429712754721 0 -0.27369133376421262 0.22284465576077489 0 -0.27131573767068418 0.22826101281380451 0 -0.26675876456119929 0.22568570462696191 0 -0.26675876456119929 0.22568570462696191 0 -0.26371349664181459 0.22286429712754721 0 -0.26068259791677789 0.22548013136380779 0 -0.26068259791677789 0.22548013136380779 0 -0.25678634991227811 0.22260498734460241 0 -0.2574101570832959 0.22971939663687391 0 -0.26371349664181459 0.22286429712754721 0 -0.26068259791677789 0.22548013136380779 0 -0.25678634991227811 0.22260498734460241 0 -0.25977281016601761 0.2185578892770178 0 -0.26371349664181459 0.22286429712754721 0 -0.25678634991227811 0.22260498734460241 0 -0.25561524088587501 0.21572724177218369 0 -0.25977281016601761 0.2185578892770178 0 -0.25678634991227811 0.22260498734460241 0 -0.25678634991227811 0.22260498734460241 0 -0.249817319625419 0.2274340479663062 0 -0.24904636230289101 0.22050689045355901 0 -0.25561524088587501 0.21572724177218369 0 -0.25678634991227811 0.22260498734460241 0 -0.24904636230289101 0.22050689045355901 0 -0.25109603964961891 0.234366577265785 0 -0.2574101570832959 0.22971939663687391 0 -0.249817319625419 0.2274340479663062 0 -0.25678634991227811 0.22260498734460241 0 -0.2574101570832959 0.22971939663687391 0 -0.249817319625419 0.2274340479663062 0 -0.2574101570832959 0.22971939663687391 0 -0.26439065681250729 0.2289784260688752 0 -0.26193406046231932 0.2344272911270443 0 -0.26068259791677789 0.22548013136380779 0 -0.2574101570832959 0.22971939663687391 0 -0.26439065681250729 0.2289784260688752 0 -0.26675876456119929 0.22568570462696191 0 -0.26068259791677789 0.22548013136380779 0 -0.26439065681250729 0.2289784260688752 0 -0.26439065681250729 0.2289784260688752 0 -0.26193406046231932 0.2344272911270443 0 -0.26819560602517328 0.23507842756581021 0 -0.26193406046231932 0.2344272911270443 0 -0.26614348890836192 0.24293385421211869 0 -0.26819560602517328 0.23507842756581021 0 -0.2574101570832959 0.22971939663687391 0 -0.26193406046231932 0.2344272911270443 0 -0.25699538715464082 0.23905233796863981 0 -0.26193406046231932 0.2344272911270443 0 -0.25699538715464082 0.23905233796863981 0 -0.26614348890836192 0.24293385421211869 0 -0.25109603964961891 0.234366577265785 0 -0.25699538715464082 0.23905233796863981 0 -0.2470081454867771 0.2422065880623451 0 -0.25109603964961891 0.234366577265785 0 -0.2574101570832959 0.22971939663687391 0 -0.25699538715464082 0.23905233796863981 0 -0.25699538715464082 0.23905233796863981 0 -0.25693865295534157 0.25278860643768353 0 -0.2470081454867771 0.2422065880623451 0 -0.25699538715464082 0.23905233796863981 0 -0.26614348890836192 0.24293385421211869 0 -0.25693865295534157 0.25278860643768353 0 -0.26614348890836192 0.24293385421211869 0 -0.2724296921133022 0.25217156250687062 0 -0.25693865295534157 0.25278860643768353 0 -0.26614348890836192 0.24293385421211869 0 -0.28058301219108422 0.24181621635705669 0 -0.2724296921133022 0.25217156250687062 0 -0.28058301219108422 0.24181621635705669 0 -0.28985028671148488 0.25537141990030859 0 -0.2724296921133022 0.25217156250687062 0 -0.26614348890836192 0.24293385421211869 0 -0.26819560602517328 0.23507842756581021 0 -0.28058301219108422 0.24181621635705669 0 -0.27131573767068418 0.22826101281380451 0 -0.26819560602517328 0.23507842756581021 0 -0.28058301219108422 0.24181621635705669 0 -0.27131573767068418 0.22826101281380451 0 -0.28058301219108422 0.24181621635705669 0 -0.29326612220823411 0.13512644163735801 0 -0.28648818467010168 0.15636331808772699 0 -0.27141175194646833 0.1445184244171912 0 -0.29326612220823411 0.13512644163735801 0 -0.30739524272803709 0.15185112365938391 0 -0.28648818467010168 0.15636331808772699 0 -0.30739524272803709 0.15185112365938391 0 -0.31211500736378339 0.1240031522641292 0 -0.29326612220823411 0.13512644163735801 0 -0.30739524272803709 0.15185112365938391 0 -0.31211500736378339 0.1240031522641292 0 -0.30739524272803709 0.15185112365938391 0 -0.28648818467010168 0.15636331808772699 0 -0.30739524272803709 0.15185112365938391 0 -0.30309072178415769 0.17724903761626601 0 -0.3167678101826048 0.16359462978275929 0 -0.30739524272803709 0.15185112365938391 0 -0.30309072178415769 0.17724903761626601 0 -0.30739524272803709 0.15185112365938391 0 -0.30309072178415769 0.17724903761626601 0 -0.28648818467010168 0.15636331808772699 0 -0.31632076704925127 0.18575639557221951 0 -0.3167678101826048 0.16359462978275929 0 -0.30309072178415769 0.17724903761626601 0 -0.30309072178415769 0.17724903761626601 0 -0.28752446549241689 0.1832489647230989 0 -0.28381669143151822 0.17107272026056419 0 -0.29379102496831272 0.19588048929947419 0 -0.30309072178415769 0.17724903761626601 0 -0.28752446549241689 0.1832489647230989 0 -0.28752446549241689 0.1832489647230989 0 -0.28381669143151822 0.17107272026056419 0 -0.27494974420821611 0.1793112011395637 0 -0.30309072178415769 0.17724903761626601 0 -0.28648818467010168 0.15636331808772699 0 -0.28381669143151822 0.17107272026056419 0 -0.28648818467010168 0.15636331808772699 0 -0.28381669143151822 0.17107272026056419 0 -0.26558112661216632 0.16087551251606999 0 -0.28381669143151822 0.17107272026056419 0 -0.27494974420821611 0.1793112011395637 0 -0.26558112661216632 0.16087551251606999 0 -0.28648818467010168 0.15636331808772699 0 -0.26558112661216632 0.16087551251606999 0 -0.27494974420821611 0.1793112011395637 0 -0.26084394980388648 0.17618123618614701 0 -0.26558112661216632 0.16087551251606999 0 -0.2659766044530758 0.19238405035351089 0 -0.27494974420821611 0.1793112011395637 0 -0.26084394980388648 0.17618123618614701 0 -0.28124953787461371 0.1935735916895788 0 -0.28752446549241689 0.1832489647230989 0 -0.27494974420821611 0.1793112011395637 0 -0.2659766044530758 0.19238405035351089 0 -0.26084394980388648 0.17618123618614701 0 -0.24947341468037071 0.1874691479585941 0 -0.26084394980388648 0.17618123618614701 0 -0.24467406855423091 0.1653877069444131 0 -0.24947341468037071 0.1874691479585941 0 -0.26558112661216632 0.16087551251606999 0 -0.24467406855423091 0.1653877069444131 0 -0.26558112661216632 0.16087551251606999 0 -0.2543915534089356 0.15018751405662761 0 -0.24467406855423091 0.1653877069444131 0 -0.26084394980388648 0.17618123618614701 0 -0.26558112661216632 0.16087551251606999 0 -0.24467406855423091 0.1653877069444131 0 -0.26558112661216632 0.16087551251606999 0 -0.2543915534089356 0.15018751405662761 0 -0.27141175194646833 0.1445184244171912 0 -0.2543915534089356 0.15018751405662761 0 -0.27141175194646833 0.1445184244171912 0 -0.25477231595188199 0.13792181725732239 0 -0.28648818467010168 0.15636331808772699 0 -0.26558112661216632 0.16087551251606999 0 -0.27141175194646833 0.1445184244171912 0 -0.29326612220823411 0.13512644163735801 0 -0.27141175194646833 0.1445184244171912 0 -0.27545980130109921 0.1239996051278405 0 -0.27141175194646833 0.1445184244171912 0 -0.25477231595188199 0.13792181725732239 0 -0.27545980130109921 0.1239996051278405 0 -0.25477231595188199 0.13792181725732239 0 -0.27545980130109921 0.1239996051278405 0 -0.25477231595188199 0.13792181725732239 0 -0.27545980130109921 0.1239996051278405 0 -0.2495823492922267 0.12121763785839371 0 -0.25610310449345419 0.1041046972302731 0 -0.27545980130109921 0.1239996051278405 0 -0.2495823492922267 0.12121763785839371 0 -0.25610310449345419 0.1041046972302731 0 -0.25413031243694739 0.089521027236778197 0 -0.2427234934652894 0.090762762990284518 0 -0.25610310449345419 0.1041046972302731 0 -0.26471001572300679 0.091779207982481292 0 -0.25413031243694739 0.089521027236778197 0 -0.25610310449345419 0.1041046972302731 0 -0.27632390472144541 0.10600366135062909 0 -0.26471001572300679 0.091779207982481292 0 -0.27632390472144541 0.10600366135062909 0 -0.27815219556391091 0.091433986845849968 0 -0.26471001572300679 0.091779207982481292 0 -0.27632390472144541 0.10600366135062909 0 -0.28783094919658059 0.096999283795453681 0 -0.27815219556391091 0.091433986845849968 0 -0.25610310449345419 0.1041046972302731 0 -0.27632390472144541 0.10600366135062909 0 -0.27545980130109921 0.1239996051278405 0 -0.27545980130109921 0.1239996051278405 0 -0.29614728665031642 0.1100773929983587 0 -0.29326612220823411 0.13512644163735801 0 -0.27545980130109921 0.1239996051278405 0 -0.29614728665031642 0.1100773929983587 0 -0.27632390472144541 0.10600366135062909 0 -0.27545980130109921 0.1239996051278405 0 -0.29614728665031642 0.1100773929983587 0 -0.27632390472144541 0.10600366135062909 0 -0.29614728665031642 0.1100773929983587 0 -0.28783094919658059 0.096999283795453681 0 -0.29614728665031642 0.1100773929983587 0 -0.28783094919658059 0.096999283795453681 0 -0.29903425758953422 0.090155638130954882 0 -0.29614728665031642 0.1100773929983587 0 -0.29903425758953422 0.090155638130954882 0 -0.31683477199953253 0.096155180868875256 0 -0.29614728665031642 0.1100773929983587 0 -0.31683477199953253 0.096155180868875256 0 -0.29614728665031642 0.1100773929983587 0 -0.31211500736378339 0.1240031522641292 0 -0.31683477199953253 0.096155180868875256 0 -0.29326612220823411 0.13512644163735801 0 -0.29614728665031642 0.1100773929983587 0 -0.31211500736378339 0.1240031522641292 0 -0.30635830999651792 0.07761242167179265 0 -0.30189037325813839 0.060543452134012458 0 -0.32146679815367007 0.068824891797761426 0 -0.30635830999651792 0.07761242167179265 0 -0.29256534898171721 0.072382945427359638 0 -0.30189037325813839 0.060543452134012458 0 -0.30635830999651792 0.07761242167179265 0 -0.29903425758953422 0.090155638130954882 0 -0.29256534898171721 0.072382945427359638 0 -0.30635830999651792 0.07761242167179265 0 -0.29903425758953422 0.090155638130954882 0 -0.31683477199953253 0.096155180868875256 0 -0.29903425758953422 0.090155638130954882 0 -0.28572263353681682 0.08337299634339973 0 -0.29256534898171721 0.072382945427359638 0 -0.28783094919658059 0.096999283795453681 0 -0.29903425758953422 0.090155638130954882 0 -0.28572263353681682 0.08337299634339973 0 -0.28783094919658059 0.096999283795453681 0 -0.28572263353681682 0.08337299634339973 0 -0.27815219556391091 0.091433986845849968 0 -0.28572263353681682 0.08337299634339973 0 -0.29256534898171721 0.072382945427359638 0 -0.28059357561043269 0.073644623599786935 0 -0.29256534898171721 0.072382945427359638 0 -0.29088471103165969 0.062671374321780771 0 -0.30189037325813839 0.060543452134012458 0 -0.29256534898171721 0.072382945427359638 0 -0.29088471103165969 0.062671374321780771 0 -0.28261649390190829 0.064291953838756216 0 -0.29256534898171721 0.072382945427359638 0 -0.28261649390190829 0.064291953838756216 0 -0.28059357561043269 0.073644623599786935 0 -0.28261649390190829 0.064291953838756216 0 -0.27678196032587499 0.069585006034529676 0 -0.27195195811963518 0.06635492754641531 0 -0.26855373331756138 0.063547936276670339 0 -0.27195195811963518 0.06635492754641531 0 -0.25743728825439521 0.07924270920583569 0 -0.28261649390190829 0.064291953838756216 0 -0.27678196032587499 0.069585006034529676 0 -0.28059357561043269 0.073644623599786935 0 -0.27678196032587499 0.069585006034529676 0 -0.27196581367152378 0.074048519153160283 0 -0.27195195811963518 0.06635492754641531 0 -0.27678196032587499 0.069585006034529676 0 -0.28059357561043269 0.073644623599786935 0 -0.27196581367152378 0.074048519153160283 0 -0.28059357561043269 0.073644623599786935 0 -0.27196581367152378 0.074048519153160283 0 -0.27303575277029413 0.081855029780232597 0 -0.27196581367152378 0.074048519153160283 0 -0.27195195811963518 0.06635492754641531 0 -0.25743728825439521 0.07924270920583569 0 -0.28572263353681682 0.08337299634339973 0 -0.27815219556391091 0.091433986845849968 0 -0.27303575277029413 0.081855029780232597 0 -0.28572263353681682 0.08337299634339973 0 -0.28059357561043269 0.073644623599786935 0 -0.27303575277029413 0.081855029780232597 0 -0.27196581367152378 0.074048519153160283 0 -0.27303575277029413 0.081855029780232597 0 -0.25743728825439521 0.07924270920583569 0 -0.27815219556391091 0.091433986845849968 0 -0.27303575277029413 0.081855029780232597 0 -0.26471001572300679 0.091779207982481292 0 -0.26471001572300679 0.091779207982481292 0 -0.25743728825439521 0.07924270920583569 0 -0.25413031243694739 0.089521027236778197 0 -0.27303575277029413 0.081855029780232597 0 -0.26471001572300679 0.091779207982481292 0 -0.25743728825439521 0.07924270920583569 0 -0.25743728825439521 0.07924270920583569 0 -0.25064083865024739 0.073628726666345984 0 -0.24857020570659841 0.081659589420377987 0 -0.25743728825439521 0.07924270920583569 0 -0.25413031243694739 0.089521027236778197 0 -0.24857020570659841 0.081659589420377987 0 -0.26855373331756138 0.063547936276670339 0 -0.25743728825439521 0.07924270920583569 0 -0.25064083865024739 0.073628726666345984 0 -0.26855373331756138 0.063547936276670339 0 -0.25064083865024739 0.073628726666345984 0 -0.2562734301216873 0.062061687155910393 0 -0.26855373331756138 0.063547936276670339 0 -0.25064083865024739 0.073628726666345984 0 -0.27195195811963518 0.06635492754641531 0 -0.25743728825439521 0.07924270920583569 0 -0.25064083865024739 0.073628726666345984 0 -0.2562734301216873 0.062061687155910393 0 -0.24829977196364941 0.065213336215906109 0 -0.2623477931936597 0.053657636987073307 0 -0.25116276906762952 0.054241108780248931 0 -0.26153642505613889 0.036367366133998442 0 -0.2562734301216873 0.062061687155910393 0 -0.2623477931936597 0.053657636987073307 0 -0.25116276906762952 0.054241108780248931 0 -0.2562734301216873 0.062061687155910393 0 -0.25116276906762952 0.054241108780248931 0 -0.24829977196364941 0.065213336215906109 0 -0.26855373331756138 0.063547936276670339 0 -0.2562734301216873 0.062061687155910393 0 -0.2623477931936597 0.053657636987073307 0 -0.25116276906762952 0.054241108780248931 0 -0.26153642505613889 0.036367366133998442 0 -0.239388393447095 0.04766651035075449 0 -0.2623477931936597 0.053657636987073307 0 -0.26153642505613889 0.036367366133998442 0 -0.27323710809808138 0.049716314049096537 0 -0.26153642505613889 0.036367366133998442 0 -0.28732673365434691 0.040933413293477772 0 -0.26153642505613889 0.036367366133998442 0 -0.2825074511423824 0.030310297232740709 0 -0.28732673365434691 0.040933413293477772 0 -0.26153642505613889 0.036367366133998442 0 -0.27323710809808138 0.049716314049096537 0 -0.28732673365434691 0.040933413293477772 0 -0.26855373331756138 0.063547936276670339 0 -0.27195195811963518 0.06635492754641531 0 -0.28646662798487532 0.053467145886994819 0 -0.26855373331756138 0.063547936276670339 0 -0.28646662798487532 0.053467145886994819 0 -0.26855373331756138 0.063547936276670339 0 -0.27323710809808138 0.049716314049096537 0 -0.28646662798487532 0.053467145886994819 0 -0.27195195811963518 0.06635492754641531 0 -0.28646662798487532 0.053467145886994819 0 -0.28261649390190829 0.064291953838756216 0 -0.27195195811963518 0.06635492754641531 0 -0.28646662798487532 0.053467145886994819 0 -0.26855373331756138 0.063547936276670339 0 -0.2623477931936597 0.053657636987073307 0 -0.27323710809808138 0.049716314049096537 0 -0.26176261374782622 0.0098260211376069873 0 -0.24854849079604721 0.020569936005881421 0 -0.24598119983726671 0.0037338506766126851 0 -0.26003022337954462 -0.0038093911555793728 0 -0.26176261374782622 0.0098260211376069873 0 -0.24598119983726671 0.0037338506766126851 0 -0.26003022337954462 -0.0038093911555793728 0 -0.27433688946420332 -0.0007833753365484626 0 -0.26176261374782622 0.0098260211376069873 0 -0.26153642505613889 0.036367366133998442 0 -0.26176261374782622 0.0098260211376069873 0 -0.24854849079604721 0.020569936005881421 0 -0.26153642505613889 0.036367366133998442 0 -0.26176261374782622 0.0098260211376069873 0 -0.27684491432135683 0.017453585025194441 0 -0.26153642505613889 0.036367366133998442 0 -0.27684491432135683 0.017453585025194441 0 -0.2825074511423824 0.030310297232740709 0 -0.27433688946420332 -0.0007833753365484626 0 -0.26176261374782622 0.0098260211376069873 0 -0.27684491432135683 0.017453585025194441 0 -0.27433688946420332 -0.0007833753365484626 0 -0.27684491432135683 0.017453585025194441 0 -0.28842838408131971 0.0076205693905790281 0 -0.28842838408131971 0.0076205693905790281 0 -0.29131927560690712 0.022062190579302341 0 -0.29989828236451899 0.011495108916467369 0 -0.27684491432135683 0.017453585025194441 0 -0.29131927560690712 0.022062190579302341 0 -0.2825074511423824 0.030310297232740709 0 -0.27684491432135683 0.017453585025194441 0 -0.28842838408131971 0.0076205693905790281 0 -0.29131927560690712 0.022062190579302341 0 -0.29131927560690712 0.022062190579302341 0 -0.2825074511423824 0.030310297232740709 0 -0.29550990707316249 0.034734931131730561 0 -0.29131927560690712 0.022062190579302341 0 -0.30587597075389272 0.02137954460474218 0 -0.29550990707316249 0.034734931131730561 0 -0.30587597075389272 0.02137954460474218 0 -0.29550990707316249 0.034734931131730561 0 -0.30859873922341308 0.03381572977126493 0 -0.29131927560690712 0.022062190579302341 0 -0.30587597075389272 0.02137954460474218 0 -0.29989828236451899 0.011495108916467369 0 -0.3025805037907468 -0.0027432771802810229 0 -0.3204068892458079 -0.0014125807301150939 0 -0.31128727758972891 0.0091565171879943417 0 -0.30587597075389272 0.02137954460474218 0 -0.29989828236451899 0.011495108916467369 0 -0.31128727758972891 0.0091565171879943417 0 -0.3025805037907468 -0.0027432771802810229 0 -0.29989828236451899 0.011495108916467369 0 -0.31128727758972891 0.0091565171879943417 0 -0.3025805037907468 -0.0027432771802810229 0 -0.28842838408131971 0.0076205693905790281 0 -0.29989828236451899 0.011495108916467369 0 -0.28646662798487532 0.053467145886994819 0 -0.304010183261538 0.043594207608826187 0 -0.29088471103165969 0.062671374321780771 0 -0.28646662798487532 0.053467145886994819 0 -0.30189037325813839 0.060543452134012458 0 -0.29088471103165969 0.062671374321780771 0 -0.28261649390190829 0.064291953838756216 0 -0.28646662798487532 0.053467145886994819 0 -0.27323710809808138 0.049716314049096537 0 -0.28646662798487532 0.053467145886994819 0 -0.28732673365434691 0.040933413293477772 0 -0.28646662798487532 0.053467145886994819 0 -0.29550990707316249 0.034734931131730561 0 -0.30859873922341308 0.03381572977126493 0 -0.28646662798487532 0.053467145886994819 0 -0.28732673365434691 0.040933413293477772 0 -0.29550990707316249 0.034734931131730561 0 -0.2825074511423824 0.030310297232740709 0 -0.28732673365434691 0.040933413293477772 0 -0.29550990707316249 0.034734931131730561 0 -0.28646662798487532 0.053467145886994819 0 -0.30859873922341308 0.03381572977126493 0 -0.28646662798487532 0.053467145886994819 0 -0.304010183261538 0.043594207608826187 0 -0.30859873922341308 0.03381572977126493 0 -0.304010183261538 0.043594207608826187 0 -0.30859873922341308 0.03381572977126493 0 -0.32155373853820057 0.033721269330657687 0 -0.304010183261538 0.043594207608826187 0 -0.3137915997446068 0.051476736654279882 0 -0.31549181974187701 0.042926529004151233 0 -0.28646662798487532 0.053467145886994819 0 -0.304010183261538 0.043594207608826187 0 -0.30189037325813839 0.060543452134012458 0 -0.30189037325813839 0.060543452134012458 0 -0.3137915997446068 0.051476736654279882 0 -0.32146679815367007 0.068824891797761426 0 -0.304010183261538 0.043594207608826187 0 -0.30189037325813839 0.060543452134012458 0 -0.3137915997446068 0.051476736654279882 0 -0.3137915997446068 0.051476736654279882 0 -0.32609882430781029 0.041494602726648067 0 -0.32146679815367007 0.068824891797761426 0 -0.32609882430781029 0.041494602726648067 0 -0.32146679815367007 0.068824891797761426 0 -0.3137915997446068 0.051476736654279882 0 -0.31549181974187701 0.042926529004151233 0 -0.32609882430781029 0.041494602726648067 0 -0.304010183261538 0.043594207608826187 0 -0.31549181974187701 0.042926529004151233 0 -0.32155373853820057 0.033721269330657687 0 -0.304010183261538 0.043594207608826187 0 -0.32155373853820057 0.033721269330657687 0 -0.31549181974187701 0.042926529004151233 0 -0.32155373853820057 0.033721269330657687 0 -0.32609882430781029 0.041494602726648067 0 -0.32609882430781029 0.041494602726648067 0 -0.34385517732675519 0.031131612817745031 0 -0.35163198926140088 0.046228739452983239 0 -0.32609882430781029 0.041494602726648067 0 -0.338272543408071 0.060603673933957783 0 -0.32146679815367007 0.068824891797761426 0 -0.32609882430781029 0.041494602726648067 0 -0.338272543408071 0.060603673933957783 0 -0.35163198926140088 0.046228739452983239 0 -0.3204068892458079 -0.0014125807301150939 0 -0.31128727758972891 0.0091565171879943417 0 -0.33073085046195078 0.01416431365553468 0 -0.30587597075389272 0.02137954460474218 0 -0.31128727758972891 0.0091565171879943417 0 -0.33073085046195078 0.01416431365553468 0 -0.30859873922341308 0.03381572977126493 0 -0.33073085046195078 0.01416431365553468 0 -0.30587597075389272 0.02137954460474218 0 -0.30859873922341308 0.03381572977126493 0 -0.33073085046195078 0.01416431365553468 0 -0.32155373853820057 0.033721269330657687 0 -0.32609882430781029 0.041494602726648067 0 -0.33073085046195078 0.01416431365553468 0 -0.30859873922341308 0.03381572977126493 0 -0.32155373853820057 0.033721269330657687 0 -0.33073085046195078 0.01416431365553468 0 -0.32609882430781029 0.041494602726648067 0 -0.33073085046195078 0.01416431365553468 0 -0.33073085046195078 0.01416431365553468 0 -0.34385517732675519 0.031131612817745031 0 -0.35381837275022032 0.01853105722209741 0 -0.32609882430781029 0.041494602726648067 0 -0.33073085046195078 0.01416431365553468 0 -0.34385517732675519 0.031131612817745031 0 -0.33540629353460438 -0.01342214774580049 0 -0.33073085046195078 0.01416431365553468 0 -0.35221409618436439 -0.0049109655465913588 0 -0.33073085046195078 0.01416431365553468 0 -0.35221409618436439 -0.0049109655465913588 0 -0.34857824671955512 -0.007874197240844389 0 -0.33073085046195078 0.01416431365553468 0 -0.35221409618436439 -0.0049109655465913588 0 -0.33073085046195078 0.01416431365553468 0 -0.34939877662876639 0.0070576099193848619 0 -0.33073085046195078 0.01416431365553468 0 -0.34939877662876639 0.0070576099193848619 0 -0.35381837275022032 0.01853105722209741 0 -0.35900139338342918 0.0020097317905480609 0 -0.34939877662876639 0.0070576099193848619 0 -0.35834074471334648 0.0096788928264882005 0 -0.35509488683577939 -0.0004162838960613095 0 -0.35900139338342918 0.0020097317905480609 0 -0.34939877662876639 0.0070576099193848619 0 -0.35509488683577939 -0.0004162838960613095 0 -0.35221409618436439 -0.0049109655465913588 0 -0.34939877662876639 0.0070576099193848619 0 -0.34939877662876639 0.0070576099193848619 0 -0.35834074471334648 0.0096788928264882005 0 -0.35381837275022032 0.01853105722209741 0 -0.34385517732675519 0.031131612817745031 0 -0.35381837275022032 0.01853105722209741 0 -0.36551724687399623 0.028318485711261141 0 -0.37937813184432773 0.031366277704107569 0 -0.36551724687399623 0.028318485711261141 0 -0.37479293228070759 0.022502646493578662 0 -0.36551724687399623 0.028318485711261141 0 -0.37479293228070759 0.022502646493578662 0 -0.36730783543836809 0.01519693074799966 0 -0.3778438638662554 0.014761087644765769 0 -0.37479293228070759 0.022502646493578662 0 -0.36730783543836809 0.01519693074799966 0 -0.35381837275022032 0.01853105722209741 0 -0.36551724687399623 0.028318485711261141 0 -0.36730783543836809 0.01519693074799966 0 -0.35834074471334648 0.0096788928264882005 0 -0.36730783543836809 0.01519693074799966 0 -0.36603012090457948 0.0050917054244422654 0 -0.35834074471334648 0.0096788928264882005 0 -0.35381837275022032 0.01853105722209741 0 -0.36730783543836809 0.01519693074799966 0 -0.36730783543836809 0.01519693074799966 0 -0.37464316483836829 0.0066416053135349984 0 -0.36603012090457948 0.0050917054244422654 0 -0.3778438638662554 0.014761087644765769 0 -0.36730783543836809 0.01519693074799966 0 -0.37464316483836829 0.0066416053135349984 0 -0.37126952376897032 -0.00085078512189483576 0 -0.37774077980655368 -0.001289555558904682 0 -0.37464316483836829 0.0066416053135349984 0 -0.37126952376897032 -0.00085078512189483576 0 -0.37464316483836829 0.0066416053135349984 0 -0.36603012090457948 0.0050917054244422654 0 -0.37126952376897032 -0.00085078512189483576 0 -0.36494834593608783 -0.001298186014321303 0 -0.36603012090457948 0.0050917054244422654 0 -0.36494834593608783 -0.001298186014321303 0 -0.35900139338342918 0.0020097317905480609 0 -0.36603012090457948 0.0050917054244422654 0 -0.35900139338342918 0.0020097317905480609 0 -0.35834074471334648 0.0096788928264882005 0 -0.36603012090457948 0.0050917054244422654 0 -0.35163198926140088 0.046228739452983239 0 -0.36891219827968119 0.060077996683558232 0 -0.35298131256760962 0.063034912088641357 0 -0.338272543408071 0.060603673933957783 0 -0.35163198926140088 0.046228739452983239 0 -0.35298131256760962 0.063034912088641357 0 -0.34385517732675519 0.031131612817745031 0 -0.36551724687399623 0.028318485711261141 0 -0.35163198926140088 0.046228739452983239 0 -0.36551724687399623 0.028318485711261141 0 -0.35163198926140088 0.046228739452983239 0 -0.37261014177358448 0.043145835856899219 0 -0.37937813184432773 0.031366277704107569 0 -0.36551724687399623 0.028318485711261141 0 -0.37261014177358448 0.043145835856899219 0 -0.35163198926140088 0.046228739452983239 0 -0.37261014177358448 0.043145835856899219 0 -0.36891219827968119 0.060077996683558232 0 -0.38207463336695202 0.051047668856640811 0 -0.37261014177358448 0.043145835856899219 0 -0.36891219827968119 0.060077996683558232 0 -0.37929074908003868 0.077603726490867345 0 -0.35694138538550352 0.073855345321458488 0 -0.37929074908003868 0.077603726490867345 0 -0.36891219827968119 0.060077996683558232 0 -0.35694138538550352 0.073855345321458488 0 -0.36891219827968119 0.060077996683558232 0 -0.35298131256760962 0.063034912088641357 0 -0.35694138538550352 0.073855345321458488 0 -0.35298131256760962 0.063034912088641357 0 -0.35694138538550352 0.073855345321458488 0 -0.34914844650339177 0.074408805051249083 0 -0.35694138538550352 0.073855345321458488 0 -0.34914844650339177 0.074408805051249083 0 -0.35387282561504041 0.085789381247760657 0 -0.338272543408071 0.060603673933957783 0 -0.35298131256760962 0.063034912088641357 0 -0.34914844650339177 0.074408805051249083 0 -0.34914844650339177 0.074408805051249083 0 -0.35387282561504041 0.085789381247760657 0 -0.33299160925146271 0.085281992960062933 0 -0.35694138538550352 0.073855345321458488 0 -0.35387282561504041 0.085789381247760657 0 -0.36438159895332511 0.085691586513687634 0 -0.35387282561504041 0.085789381247760657 0 -0.36438159895332511 0.085691586513687634 0 -0.35579278546844412 0.098564625017930646 0 -0.37929074908003868 0.077603726490867345 0 -0.35694138538550352 0.073855345321458488 0 -0.36438159895332511 0.085691586513687634 0 -0.37929074908003868 0.077603726490867345 0 -0.36438159895332511 0.085691586513687634 0 -0.37090825683648998 0.098456277756480637 0 -0.37090825683648998 0.098456277756480637 0 -0.36904533532088801 0.1177582563576956 0 -0.35579278546844412 0.098564625017930646 0 -0.36438159895332511 0.085691586513687634 0 -0.37090825683648998 0.098456277756480637 0 -0.35579278546844412 0.098564625017930646 0 -0.35823941519022368 0.13573745574644491 0 -0.36904533532088801 0.1177582563576956 0 -0.35158166360451942 0.11704707172714621 0 -0.36904533532088801 0.1177582563576956 0 -0.35158166360451942 0.11704707172714621 0 -0.35579278546844412 0.098564625017930646 0 -0.35158166360451942 0.11704707172714621 0 -0.35579278546844412 0.098564625017930646 0 -0.34047962299512569 0.099373871294989508 0 -0.35387282561504041 0.085789381247760657 0 -0.35579278546844412 0.098564625017930646 0 -0.34047962299512569 0.099373871294989508 0 -0.34047962299512569 0.099373871294989508 0 -0.33231339904552459 0.1171762944261375 0 -0.31683477199953253 0.096155180868875256 0 -0.34455851703438989 0.13305210298766909 0 -0.35158166360451942 0.11704707172714621 0 -0.33231339904552459 0.1171762944261375 0 -0.35158166360451942 0.11704707172714621 0 -0.34047962299512569 0.099373871294989508 0 -0.33231339904552459 0.1171762944261375 0 -0.31211500736378339 0.1240031522641292 0 -0.31683477199953253 0.096155180868875256 0 -0.31211500736378339 0.1240031522641292 0 -0.33231339904552459 0.1171762944261375 0 -0.31683477199953253 0.096155180868875256 0 -0.30635830999651792 0.07761242167179265 0 -0.31683477199953253 0.096155180868875256 0 -0.32146679815367007 0.068824891797761426 0 -0.31683477199953253 0.096155180868875256 0 -0.32146679815367007 0.068824891797761426 0 -0.33299160925146271 0.085281992960062933 0 -0.31683477199953253 0.096155180868875256 0 -0.32146679815367007 0.068824891797761426 0 -0.31683477199953253 0.096155180868875256 0 -0.33299160925146271 0.085281992960062933 0 -0.338272543408071 0.060603673933957783 0 -0.32146679815367007 0.068824891797761426 0 -0.33576809196089219 0.072507027900731907 0 -0.32146679815367007 0.068824891797761426 0 -0.33576809196089219 0.072507027900731907 0 -0.33299160925146271 0.085281992960062933 0 -0.34914844650339177 0.074408805051249083 0 -0.33576809196089219 0.072507027900731907 0 -0.33299160925146271 0.085281992960062933 0 -0.338272543408071 0.060603673933957783 0 -0.34914844650339177 0.074408805051249083 0 -0.33576809196089219 0.072507027900731907 0 -0.35387282561504041 0.085789381247760657 0 -0.34047962299512569 0.099373871294989508 0 -0.33299160925146271 0.085281992960062933 0 -0.34914844650339177 0.074408805051249083 0 -0.33299160925146271 0.085281992960062933 0 -0.34047962299512569 0.099373871294989508 0 -0.31683477199953253 0.096155180868875256 0 -0.33299160925146271 0.085281992960062933 0 -0.3938434845513461 0.48000301234504228 0 -0.4154786193197833 0.47000451851756458 0 -0.40908183102320411 0.4845696213484928 0 -0.3938434845513461 0.48000301234504228 0 -0.40110135887996978 0.47332954189399812 0 -0.4154786193197833 0.47000451851756458 0 -0.3938434845513461 0.48000301234504228 0 -0.4154786193197833 0.47000451851756458 0 -0.3938434845513461 0.48000301234504228 0 -0.40110135887996978 0.47332954189399812 0 -0.38930270813857232 0.46778113184491188 0 -0.3938434845513461 0.48000301234504228 0 -0.39546946259238258 0.49128185561313598 0 -0.40908183102320411 0.4845696213484928 0 -0.40521342881326272 0.5 0 -0.39546946259238258 0.49128185561313598 0 -0.37789332191386737 0.5 0 -0.40521342881326272 0.5 0 -0.39546946259238258 0.49128185561313598 0 -0.40908183102320411 0.4845696213484928 0 -0.3938434845513461 0.48000301234504228 0 -0.39546946259238258 0.49128185561313598 0 -0.38517353549973538 0.49039659604947999 0 -0.3938434845513461 0.48000301234504228 0 -0.37220834978290879 0.49000150617251997 0 -0.39546946259238258 0.49128185561313598 0 -0.38517353549973538 0.49039659604947999 0 -0.37789332191386737 0.5 0 -0.3938434845513461 0.48000301234504228 0 -0.38517353549973538 0.49039659604947999 0 -0.37220834978290879 0.49000150617251997 0 -0.38517353549973538 0.49039659604947999 0 -0.37789332191386737 0.5 0 -0.37220834978290879 0.49000150617251997 0 -0.3938434845513461 0.48000301234504228 0 -0.37805640255927542 0.47903421333972468 0 -0.3842367001720054 0.47454362448235632 0 -0.3938434845513461 0.48000301234504228 0 -0.37805640255927542 0.47903421333972468 0 -0.37220834978290879 0.49000150617251997 0 -0.3842367001720054 0.47454362448235632 0 -0.37701653082709469 0.46900635458093531 0 -0.38930270813857232 0.46778113184491188 0 -0.3938434845513461 0.48000301234504228 0 -0.3842367001720054 0.47454362448235632 0 -0.38930270813857232 0.46778113184491188 0 -0.37805640255927542 0.47903421333972468 0 -0.3842367001720054 0.47454362448235632 0 -0.37701653082709469 0.46900635458093531 0 -0.37701653082709469 0.46900635458093531 0 -0.38677844954541418 0.45747132953460651 0 -0.37376195539900242 0.45249759326054367 0 -0.37701653082709469 0.46900635458093531 0 -0.38677844954541418 0.45747132953460651 0 -0.38930270813857232 0.46778113184491188 0 -0.38473584783684761 0.44354080077547992 0 -0.36778315087773072 0.43214877602771662 0 -0.37376195539900242 0.45249759326054367 0 -0.38677844954541418 0.45747132953460651 0 -0.38473584783684761 0.44354080077547992 0 -0.37376195539900242 0.45249759326054367 0 -0.38677844954541418 0.45747132953460651 0 -0.38473584783684761 0.44354080077547992 0 -0.39843898125590987 0.45231631840454728 0 -0.39843898125590987 0.45231631840454728 0 -0.4072920944712265 0.44499890251068641 0 -0.39856520721893041 0.43647578570475237 0 -0.38473584783684761 0.44354080077547992 0 -0.39843898125590987 0.45231631840454728 0 -0.39856520721893041 0.43647578570475237 0 -0.39843898125590987 0.45231631840454728 0 -0.39841490533913748 0.46178879282826651 0 -0.41709791082295028 0.45456801136960878 0 -0.40110135887996978 0.47332954189399812 0 -0.39841490533913748 0.46178879282826651 0 -0.41709791082295028 0.45456801136960878 0 -0.38677844954541418 0.45747132953460651 0 -0.38930270813857232 0.46778113184491188 0 -0.39841490533913748 0.46178879282826651 0 -0.40110135887996978 0.47332954189399812 0 -0.38930270813857232 0.46778113184491188 0 -0.39841490533913748 0.46178879282826651 0 -0.38677844954541418 0.45747132953460651 0 -0.39843898125590987 0.45231631840454728 0 -0.39841490533913748 0.46178879282826651 0 -0.40110135887996978 0.47332954189399812 0 -0.41709791082295028 0.45456801136960878 0 -0.4154786193197833 0.47000451851756458 0 -0.40110135887996978 0.47332954189399812 0 -0.41709791082295028 0.45456801136960878 0 -0.41709791082295028 0.45456801136960878 0 -0.42692569345801529 0.46340213249295897 0 -0.4154786193197833 0.47000451851756458 0 -0.41709791082295028 0.45456801136960878 0 -0.43309446276593089 0.43580648084521972 0 -0.41506627858711548 0.4366354945638371 0 -0.39843898125590987 0.45231631840454728 0 -0.41709791082295028 0.45456801136960878 0 -0.4072920944712265 0.44499890251068641 0 -0.4072920944712265 0.44499890251068641 0 -0.41506627858711548 0.4366354945638371 0 -0.39856520721893041 0.43647578570475237 0 -0.41709791082295028 0.45456801136960878 0 -0.4072920944712265 0.44499890251068641 0 -0.41506627858711548 0.4366354945638371 0 -0.41709791082295028 0.45456801136960878 0 -0.43251943231727258 0.45189802077753072 0 -0.43309446276593089 0.43580648084521972 0 -0.41709791082295028 0.45456801136960878 0 -0.43309446276593089 0.43580648084521972 0 -0.43251943231727258 0.45189802077753072 0 -0.44285055445462801 0.44408738363144917 0 -0.43309446276593089 0.43580648084521972 0 -0.43251943231727258 0.45189802077753072 0 -0.42692569345801529 0.46340213249295897 0 -0.44262854008483871 0.46162609554841733 0 -0.42692569345801529 0.46340213249295897 0 -0.43014133963940671 0.47900644757454591 0 -0.44262854008483871 0.46162609554841733 0 -0.41709791082295028 0.45456801136960878 0 -0.43251943231727258 0.45189802077753072 0 -0.42692569345801529 0.46340213249295897 0 -0.42692569345801529 0.46340213249295897 0 -0.43014133963940671 0.47900644757454591 0 -0.4154786193197833 0.47000451851756458 0 -0.43014133963940671 0.47900644757454591 0 -0.4154786193197833 0.47000451851756458 0 -0.40908183102320411 0.4845696213484928 0 -0.40521342881326272 0.5 0 -0.40908183102320411 0.4845696213484928 0 -0.43253353571265801 0.5 0 -0.43014133963940671 0.47900644757454591 0 -0.40908183102320411 0.4845696213484928 0 -0.43253353571265801 0.5 0 -0.43014133963940671 0.47900644757454591 0 -0.43253353571265801 0.5 0 -0.44984012809851409 0.48033494727474779 0 -0.43253353571265801 0.5 0 -0.44984012809851409 0.48033494727474779 0 -0.45985364261205308 0.50000000000000111 0 -0.43014133963940671 0.47900644757454591 0 -0.44984012809851409 0.48033494727474779 0 -0.44262854008483871 0.46162609554841733 0 -0.44984012809851409 0.48033494727474779 0 -0.47312811744354261 0.47395110078869013 0 -0.45820768181792781 0.46325373185340701 0 -0.45985364261205308 0.50000000000000111 0 -0.47312811744354261 0.47395110078869013 0 -0.44984012809851409 0.48033494727474779 0 -0.45985364261205308 0.50000000000000111 0 -0.47312811744354261 0.47395110078869013 0 -0.5 0.5 0 -0.47312811744354261 0.47395110078869013 0 -0.49999999999999972 0.44664233614409321 0 -0.45985364261205308 0.50000000000000111 0 -0.5 0.5 0 -0.47312811744354261 0.47395110078869013 0 -0.48640259227503152 0.44790220157737892 0 -0.49999999999999972 0.44664233614409321 0 -0.47883616718389621 0.43347798499105172 0 -0.49999999999999972 0.44664233614409321 0 -0.47883616718389621 0.43347798499105172 0 -0.47312811744354261 0.47395110078869013 0 -0.48640259227503152 0.44790220157737892 0 -0.49999999999999972 0.44664233614409321 0 -0.47312811744354261 0.47395110078869013 0 -0.48640259227503152 0.44790220157737892 0 -0.47312811744354261 0.47395110078869013 0 -0.48640259227503152 0.44790220157737892 0 -0.46932328621444303 0.45009797021529852 0 -0.46932328621444303 0.45009797021529852 0 -0.46288197751253979 0.435741310408158 0 -0.47883616718389621 0.43347798499105172 0 -0.48640259227503152 0.44790220157737892 0 -0.46932328621444303 0.45009797021529852 0 -0.47883616718389621 0.43347798499105172 0 -0.46932328621444303 0.45009797021529852 0 -0.45653044061400749 0.44574373859450739 0 -0.46288197751253979 0.435741310408158 0 -0.46932328621444303 0.45009797021529852 0 -0.45653044061400749 0.44574373859450739 0 -0.45820768181792781 0.46325373185340701 0 -0.45653044061400749 0.44574373859450739 0 -0.44988321330808601 0.43264183945635343 0 -0.46288197751253979 0.435741310408158 0 -0.47312811744354261 0.47395110078869013 0 -0.46932328621444303 0.45009797021529852 0 -0.45820768181792781 0.46325373185340701 0 -0.45653044061400749 0.44574373859450739 0 -0.45820768181792781 0.46325373185340701 0 -0.44262854008483871 0.46162609554841733 0 -0.44984012809851409 0.48033494727474779 0 -0.45820768181792781 0.46325373185340701 0 -0.44262854008483871 0.46162609554841733 0 -0.43251943231727258 0.45189802077753072 0 -0.44262854008483871 0.46162609554841733 0 -0.44285055445462801 0.44408738363144917 0 -0.45653044061400749 0.44574373859450739 0 -0.44262854008483871 0.46162609554841733 0 -0.44285055445462801 0.44408738363144917 0 -0.44285055445462801 0.44408738363144917 0 -0.44988321330808601 0.43264183945635343 0 -0.43309446276593089 0.43580648084521972 0 -0.45653044061400749 0.44574373859450739 0 -0.44285055445462801 0.44408738363144917 0 -0.44988321330808601 0.43264183945635343 0 -0.44909101470891138 0.41704495032083061 0 -0.43309446276593089 0.43580648084521972 0 -0.44988321330808601 0.43264183945635343 0 -0.44909101470891138 0.41704495032083061 0 -0.43309446276593089 0.43580648084521972 0 -0.44988321330808601 0.43264183945635343 0 -0.44909101470891138 0.41704495032083061 0 -0.45767233436779298 0.42031363383801013 0 -0.44909101470891138 0.41704495032083061 0 -0.43642708593841462 0.41129790334070748 0 -0.43309446276593089 0.43580648084521972 0 -0.44909101470891138 0.41704495032083061 0 -0.44923652684218601 0.40651161443480333 0 -0.43642708593841462 0.41129790334070748 0 -0.44909101470891138 0.41704495032083061 0 -0.46310762304278369 0.4136785712167641 0 -0.46508756665189233 0.39828341979644161 0 -0.44909101470891138 0.41704495032083061 0 -0.46508756665189233 0.39828341979644161 0 -0.44909101470891138 0.41704495032083061 0 -0.44923652684218601 0.40651161443480333 0 -0.46508756665189233 0.39828341979644161 0 -0.44909101470891138 0.41704495032083061 0 -0.45767233436779298 0.42031363383801013 0 -0.46310762304278369 0.4136785712167641 0 -0.45767233436779298 0.42031363383801013 0 -0.46310762304278369 0.4136785712167641 0 -0.4689935185142321 0.42014913325858988 0 -0.46310762304278369 0.4136785712167641 0 -0.47635794946245552 0.41312634298853379 0 -0.46508756665189233 0.39828341979644161 0 -0.45767233436779298 0.42031363383801013 0 -0.47883616718389621 0.43347798499105172 0 -0.4689935185142321 0.42014913325858988 0 -0.45767233436779298 0.42031363383801013 0 -0.46288197751253979 0.435741310408158 0 -0.47883616718389621 0.43347798499105172 0 -0.45767233436779298 0.42031363383801013 0 -0.47883616718389621 0.43347798499105172 0 -0.44988321330808601 0.43264183945635343 0 -0.45767233436779298 0.42031363383801013 0 -0.46288197751253979 0.435741310408158 0 -0.47883616718389621 0.43347798499105172 0 -0.47635794946245552 0.41312634298853379 0 -0.48714440641974271 0.42351608680749347 0 -0.47883616718389621 0.43347798499105172 0 -0.4689935185142321 0.42014913325858988 0 -0.47635794946245552 0.41312634298853379 0 -0.46310762304278369 0.4136785712167641 0 -0.4689935185142321 0.42014913325858988 0 -0.47635794946245552 0.41312634298853379 0 -0.47635794946245552 0.41312634298853379 0 -0.48901457958177968 0.41012265573874179 0 -0.48254378332594611 0.39722493186941499 0 -0.47635794946245552 0.41312634298853379 0 -0.48901457958177968 0.41012265573874179 0 -0.48714440641974271 0.42351608680749347 0 -0.48901457958177968 0.41012265573874179 0 -0.5 0.42140439004324071 0 -0.49999999999999978 0.39616644394238798 0 -0.48901457958177968 0.41012265573874179 0 -0.5 0.42140439004324071 0 -0.48714440641974271 0.42351608680749347 0 -0.49999999999999972 0.44664233614409321 0 -0.47883616718389621 0.43347798499105172 0 -0.48714440641974271 0.42351608680749347 0 -0.49999999999999972 0.44664233614409321 0 -0.5 0.42140439004324071 0 -0.48714440641974271 0.42351608680749347 0 -0.49007778645481631 0.38142997617552599 0 -0.49999999999999978 0.39616644394238798 0 -0.50000000000000311 0.3685517992903854 0 -0.49007778645481631 0.38142997617552599 0 -0.47611467569506138 0.38535029247959018 0 -0.48714178473823078 0.37241716516273898 0 -0.49999999999999978 0.39616644394238798 0 -0.48254378332594611 0.39722493186941499 0 -0.48901457958177968 0.41012265573874179 0 -0.49999999999999978 0.39616644394238798 0 -0.48254378332594611 0.39722493186941499 0 -0.49007778645481631 0.38142997617552599 0 -0.49999999999999978 0.39616644394238798 0 -0.48254378332594611 0.39722493186941499 0 -0.48254378332594611 0.39722493186941499 0 -0.46508756665189233 0.39828341979644161 0 -0.47635794946245552 0.41312634298853379 0 -0.48254378332594611 0.39722493186941499 0 -0.46508756665189233 0.39828341979644161 0 -0.48254378332594611 0.39722493186941499 0 -0.47611467569506138 0.38535029247959018 0 -0.46508756665189233 0.39828341979644161 0 -0.47611467569506138 0.38535029247959018 0 -0.46508756665189233 0.39828341979644161 0 -0.49007778645481631 0.38142997617552599 0 -0.48254378332594611 0.39722493186941499 0 -0.47611467569506138 0.38535029247959018 0 -0.47611467569506138 0.38535029247959018 0 -0.47397397291215421 0.37493689296344251 0 -0.48714178473823078 0.37241716516273898 0 -0.47611467569506138 0.38535029247959018 0 -0.48714178473823078 0.37241716516273898 0 -0.46871814716203669 0.37906981455344119 0 -0.46360543106569913 0.37231654924431878 0 -0.47397397291215421 0.37493689296344251 0 -0.47611467569506138 0.38535029247959018 0 -0.46871814716203669 0.37906981455344119 0 -0.47397397291215421 0.37493689296344251 0 -0.46871814716203669 0.37906981455344119 0 -0.46117850897523233 0.38367552352641338 0 -0.46360543106569913 0.37231654924431878 0 -0.47611467569506138 0.38535029247959018 0 -0.46871814716203669 0.37906981455344119 0 -0.46117850897523233 0.38367552352641338 0 -0.47611467569506138 0.38535029247959018 0 -0.46117850897523233 0.38367552352641338 0 -0.46508756665189233 0.39828341979644161 0 -0.46117850897523233 0.38367552352641338 0 -0.45400385251667602 0.39093091030285698 0 -0.45110956684876158 0.38402681738971201 0 -0.46117850897523233 0.38367552352641338 0 -0.45110956684876158 0.38402681738971201 0 -0.44813402172652672 0.37354371539476261 0 -0.46117850897523233 0.38367552352641338 0 -0.44813402172652672 0.37354371539476261 0 -0.46360543106569913 0.37231654924431878 0 -0.44923652684218601 0.40651161443480333 0 -0.46508756665189233 0.39828341979644161 0 -0.44634044006952572 0.39942018428123321 0 -0.46508756665189233 0.39828341979644161 0 -0.45400385251667602 0.39093091030285698 0 -0.44634044006952572 0.39942018428123321 0 -0.46508756665189233 0.39828341979644161 0 -0.44634044006952572 0.39942018428123321 0 -0.46117850897523233 0.38367552352641338 0 -0.46508756665189233 0.39828341979644161 0 -0.45400385251667602 0.39093091030285698 0 -0.45400385251667602 0.39093091030285698 0 -0.44634044006952572 0.39942018428123321 0 -0.44518347515021223 0.38837251913440451 0 -0.44634044006952572 0.39942018428123321 0 -0.44518347515021223 0.38837251913440451 0 -0.43728617553129168 0.39370672697544878 0 -0.44923652684218601 0.40651161443480333 0 -0.44634044006952572 0.39942018428123321 0 -0.43642708593841462 0.41129790334070748 0 -0.45110956684876158 0.38402681738971201 0 -0.44480856609964842 0.38185924381796288 0 -0.44813402172652672 0.37354371539476261 0 -0.45400385251667602 0.39093091030285698 0 -0.45110956684876158 0.38402681738971201 0 -0.44518347515021223 0.38837251913440451 0 -0.45110956684876158 0.38402681738971201 0 -0.44518347515021223 0.38837251913440451 0 -0.44480856609964842 0.38185924381796288 0 -0.44518347515021223 0.38837251913440451 0 -0.43913693036841173 0.38484964203092692 0 -0.43002747341826991 0.3864772557201327 0 -0.44518347515021223 0.38837251913440451 0 -0.43002747341826991 0.3864772557201327 0 -0.44518347515021223 0.38837251913440451 0 -0.43913693036841173 0.38484964203092692 0 -0.44480856609964842 0.38185924381796288 0 -0.44480856609964842 0.38185924381796288 0 -0.4393591315165738 0.37762743775392832 0 -0.44813402172652672 0.37354371539476261 0 -0.43913693036841173 0.38484964203092692 0 -0.44480856609964842 0.38185924381796288 0 -0.4393591315165738 0.37762743775392832 0 -0.43913693036841173 0.38484964203092692 0 -0.43173797726570751 0.37658334167695551 0 -0.43913693036841173 0.38484964203092692 0 -0.43173797726570751 0.37658334167695551 0 -0.43002747341826991 0.3864772557201327 0 -0.43913693036841173 0.38484964203092692 0 -0.4393591315165738 0.37762743775392832 0 -0.43173797726570751 0.37658334167695551 0 -0.4393591315165738 0.37762743775392832 0 -0.43173797726570751 0.37658334167695551 0 -0.4325639091043616 0.37180597819459837 0 -0.43173797726570751 0.37658334167695551 0 -0.43002747341826991 0.3864772557201327 0 -0.44518347515021223 0.38837251913440451 0 -0.43002747341826991 0.3864772557201327 0 -0.43728617553129168 0.39370672697544878 0 -0.43002747341826991 0.3864772557201327 0 -0.41472776448615789 0.38456402166930481 0 -0.42117367656598032 0.39254991666010941 0 -0.43002747341826991 0.3864772557201327 0 -0.41472776448615789 0.38456402166930481 0 -0.43002747341826991 0.3864772557201327 0 -0.42328890360694349 0.38021744503538613 0 -0.41472776448615789 0.38456402166930481 0 -0.43173797726570751 0.37658334167695551 0 -0.43002747341826991 0.3864772557201327 0 -0.42328890360694349 0.38021744503538613 0 -0.43173797726570751 0.37658334167695551 0 -0.42328890360694349 0.38021744503538613 0 -0.42689564018809201 0.37117335838025439 0 -0.40881671944059661 0.37920357314115732 0 -0.42689564018809201 0.37117335838025439 0 -0.42328890360694349 0.38021744503538613 0 -0.40881671944059661 0.37920357314115732 0 -0.42689564018809201 0.37117335838025439 0 -0.42328890360694349 0.38021744503538613 0 -0.41472776448615789 0.38456402166930481 0 -0.40881671944059661 0.37920357314115732 0 -0.41472776448615789 0.38456402166930481 0 -0.40724106840129259 0.39428871981441299 0 -0.42117367656598032 0.39254991666010941 0 -0.41472776448615789 0.38456402166930481 0 -0.40826438028753348 0.3817067557430866 0 -0.39942805555404642 0.38265078761847338 0 -0.41472776448615789 0.38456402166930481 0 -0.40724106840129259 0.39428871981441299 0 -0.39942805555404642 0.38265078761847338 0 -0.41472776448615789 0.38456402166930481 0 -0.39942805555404642 0.38265078761847338 0 -0.40881671944059661 0.37920357314115732 0 -0.39942805555404642 0.38265078761847338 0 -0.41098055992701871 0.3693971202961519 0 -0.40826438028753348 0.3817067557430866 0 -0.40881671944059661 0.37920357314115732 0 -0.41472776448615789 0.38456402166930481 0 -0.40826438028753348 0.3817067557430866 0 -0.40881671944059661 0.37920357314115732 0 -0.40724106840129259 0.39428871981441299 0 -0.4157685575788832 0.40127396331749671 0 -0.40157856791931718 0.40704460823596672 0 -0.42117367656598032 0.39254991666010941 0 -0.4157685575788832 0.40127396331749671 0 -0.42759331348715912 0.40055694876602499 0 -0.40724106840129259 0.39428871981441299 0 -0.42117367656598032 0.39254991666010941 0 -0.4157685575788832 0.40127396331749671 0 -0.4157685575788832 0.40127396331749671 0 -0.42759331348715912 0.40055694876602499 0 -0.44634044006952572 0.39942018428123321 0 -0.42759331348715912 0.40055694876602499 0 -0.44634044006952572 0.39942018428123321 0 -0.42759331348715912 0.40055694876602499 0 -0.43728617553129168 0.39370672697544878 0 -0.44634044006952572 0.39942018428123321 0 -0.42759331348715912 0.40055694876602499 0 -0.43642708593841462 0.41129790334070748 0 -0.43002747341826991 0.3864772557201327 0 -0.42117367656598032 0.39254991666010941 0 -0.42759331348715912 0.40055694876602499 0 -0.43002747341826991 0.3864772557201327 0 -0.42759331348715912 0.40055694876602499 0 -0.43002747341826991 0.3864772557201327 0 -0.42759331348715912 0.40055694876602499 0 -0.43728617553129168 0.39370672697544878 0 -0.43642708593841462 0.41129790334070748 0 -0.42449994900394461 0.41844961959922572 0 -0.43309446276593089 0.43580648084521972 0 -0.42759331348715912 0.40055694876602499 0 -0.43642708593841462 0.41129790334070748 0 -0.42449994900394461 0.41844961959922572 0 -0.4157685575788832 0.40127396331749671 0 -0.42759331348715912 0.40055694876602499 0 -0.42449994900394461 0.41844961959922572 0 -0.42759331348715912 0.40055694876602499 0 -0.42449994900394461 0.41844961959922572 0 -0.42449994900394461 0.41844961959922572 0 -0.43309446276593089 0.43580648084521972 0 -0.41506627858711548 0.4366354945638371 0 -0.42449994900394461 0.41844961959922572 0 -0.41506627858711548 0.4366354945638371 0 -0.40746949035714619 0.42222882353716701 0 -0.41506627858711548 0.4366354945638371 0 -0.40746949035714619 0.42222882353716701 0 -0.39856520721893041 0.43647578570475237 0 -0.42449994900394461 0.41844961959922572 0 -0.40746949035714619 0.42222882353716701 0 -0.41232914121482278 0.41224925367246401 0 -0.4157685575788832 0.40127396331749671 0 -0.42449994900394461 0.41844961959922572 0 -0.41232914121482278 0.41224925367246401 0 -0.4157685575788832 0.40127396331749671 0 -0.41232914121482278 0.41224925367246401 0 -0.40157856791931718 0.40704460823596672 0 -0.40746949035714619 0.42222882353716701 0 -0.41232914121482278 0.41224925367246401 0 -0.40157856791931718 0.40704460823596672 0 -0.40746949035714619 0.42222882353716701 0 -0.40157856791931718 0.40704460823596672 0 -0.39298749241221759 0.42119507937603923 0 -0.40746949035714619 0.42222882353716701 0 -0.39298749241221759 0.42119507937603923 0 -0.39856520721893041 0.43647578570475237 0 -0.39298749241221759 0.42119507937603923 0 -0.39856520721893041 0.43647578570475237 0 -0.38373994498284608 0.43043669407259588 0 -0.38373994498284608 0.43043669407259588 0 -0.37668454372729859 0.41206883315114529 0 -0.36778315087773072 0.43214877602771662 0 -0.38473584783684761 0.44354080077547992 0 -0.38373994498284608 0.43043669407259588 0 -0.36778315087773072 0.43214877602771662 0 -0.38473584783684761 0.44354080077547992 0 -0.39856520721893041 0.43647578570475237 0 -0.38373994498284608 0.43043669407259588 0 -0.40157856791931718 0.40704460823596672 0 -0.39298749241221759 0.42119507937603923 0 -0.37668454372729859 0.41206883315114529 0 -0.39298749241221759 0.42119507937603923 0 -0.38373994498284608 0.43043669407259588 0 -0.37668454372729859 0.41206883315114529 0 -0.40157856791931718 0.40704460823596672 0 -0.37668454372729859 0.41206883315114529 0 -0.37668454372729859 0.41206883315114529 0 -0.37844474563582792 0.390355182046278 0 -0.39076978830337122 0.39764902138512792 0 -0.40157856791931718 0.40704460823596672 0 -0.37668454372729859 0.41206883315114529 0 -0.39076978830337122 0.39764902138512792 0 -0.38141148745950948 0.38039780936179463 0 -0.39942805555404642 0.38265078761847338 0 -0.37844474563582792 0.390355182046278 0 -0.39942805555404642 0.38265078761847338 0 -0.38141148745950948 0.38039780936179463 0 -0.37844474563582792 0.390355182046278 0 -0.39942805555404642 0.38265078761847338 0 -0.37844474563582792 0.390355182046278 0 -0.39942805555404642 0.38265078761847338 0 -0.39076978830337122 0.39764902138512792 0 -0.38141148745950948 0.38039780936179463 0 -0.39942805555404642 0.38265078761847338 0 -0.39128338495032239 0.36719877308275878 0 -0.40826438028753348 0.3817067557430866 0 -0.40881671944059661 0.37920357314115732 0 -0.39942805555404642 0.38265078761847338 0 -0.40881671944059661 0.37920357314115732 0 -0.39942805555404642 0.38265078761847338 0 -0.40724106840129259 0.39428871981441299 0 -0.40157856791931718 0.40704460823596672 0 -0.39076978830337122 0.39764902138512792 0 -0.40724106840129259 0.39428871981441299 0 -0.39942805555404642 0.38265078761847338 0 -0.39076978830337122 0.39764902138512792 0 -0.39259889148010241 0.34864188780489069 0 -0.39999637464883392 0.35559476271013252 0 -0.38966798311544332 0.35610238881872369 0 -0.39259889148010241 0.34864188780489069 0 -0.39999637464883392 0.35559476271013252 0 -0.40046159691170069 0.34164056661102238 0 -0.39999637464883392 0.35559476271013252 0 -0.40046159691170069 0.34164056661102238 0 -0.41381361947694889 0.35655778899711688 0 -0.39999637464883392 0.35559476271013252 0 -0.40397412088998857 0.3623881668075713 0 -0.41381361947694889 0.35655778899711688 0 -0.39128338495032239 0.36719877308275878 0 -0.41098055992701871 0.3693971202961519 0 -0.40397412088998857 0.3623881668075713 0 -0.39128338495032239 0.36719877308275878 0 -0.41098055992701871 0.3693971202961519 0 -0.39942805555404642 0.38265078761847338 0 -0.39128338495032239 0.36719877308275878 0 -0.41098055992701871 0.3693971202961519 0 -0.39999637464883392 0.35559476271013252 0 -0.39128338495032239 0.36719877308275878 0 -0.38966798311544332 0.35610238881872369 0 -0.39999637464883392 0.35559476271013252 0 -0.40397412088998857 0.3623881668075713 0 -0.39128338495032239 0.36719877308275878 0 -0.39128338495032239 0.36719877308275878 0 -0.38070440212728118 0.35956436367519867 0 -0.38966798311544332 0.35610238881872369 0 -0.39128338495032239 0.36719877308275878 0 -0.38070440212728118 0.35956436367519867 0 -0.37158620997362618 0.36500042586936587 0 -0.39128338495032239 0.36719877308275878 0 -0.37158620997362618 0.36500042586936587 0 -0.38141148745950948 0.38039780936179463 0 -0.39128338495032239 0.36719877308275878 0 -0.37158620997362618 0.36500042586936587 0 -0.38070440212728118 0.35956436367519867 0 -0.38259242285128608 0.34975193996759602 0 -0.36960199921418602 0.35731180584905542 0 -0.38259242285128608 0.34975193996759602 0 -0.37580907906339922 0.33647878059299557 0 -0.36960199921418602 0.35731180584905542 0 -0.38070440212728118 0.35956436367519867 0 -0.38966798311544332 0.35610238881872369 0 -0.38259242285128608 0.34975193996759602 0 -0.39259889148010241 0.34864188780489069 0 -0.38966798311544332 0.35610238881872369 0 -0.38259242285128608 0.34975193996759602 0 -0.39259889148010241 0.34864188780489069 0 -0.38259242285128608 0.34975193996759602 0 -0.38794720083446621 0.34059934721089508 0 -0.38259242285128608 0.34975193996759602 0 -0.37580907906339922 0.33647878059299557 0 -0.38794720083446621 0.34059934721089508 0 -0.37580907906339922 0.33647878059299557 0 -0.38794720083446621 0.34059934721089508 0 -0.38710957434645199 0.32672334422492838 0 -0.37580907906339922 0.33647878059299557 0 -0.38201615891261242 0.31564575533693578 0 -0.38201615891261242 0.31564575533693578 0 -0.38336946241093189 0.30974931290420182 0 -0.36531193472093021 0.32454274932608829 0 -0.37580907906339922 0.33647878059299557 0 -0.38201615891261242 0.31564575533693578 0 -0.38710957434645199 0.32672334422492838 0 -0.38201615891261242 0.31564575533693578 0 -0.39350880394476312 0.31593875705230262 0 -0.38336946241093189 0.30974931290420182 0 -0.38201615891261242 0.31564575533693578 0 -0.38710957434645199 0.32672334422492838 0 -0.39350880394476312 0.31593875705230262 0 -0.38710957434645199 0.32672334422492838 0 -0.39350880394476312 0.31593875705230262 0 -0.39921774374196328 0.327754485124091 0 -0.39350880394476312 0.31593875705230262 0 -0.39921774374196328 0.327754485124091 0 -0.40602554896887638 0.32011992980008452 0 -0.39921774374196328 0.327754485124091 0 -0.40602554896887638 0.32011992980008452 0 -0.40814721749945931 0.33505042297199122 0 -0.38794720083446621 0.34059934721089508 0 -0.38710957434645199 0.32672334422492838 0 -0.40046159691170069 0.34164056661102238 0 -0.39259889148010241 0.34864188780489069 0 -0.38794720083446621 0.34059934721089508 0 -0.40046159691170069 0.34164056661102238 0 -0.38710957434645199 0.32672334422492838 0 -0.39921774374196328 0.327754485124091 0 -0.40046159691170069 0.34164056661102238 0 -0.38710957434645199 0.32672334422492838 0 -0.40046159691170069 0.34164056661102238 0 -0.39921774374196328 0.327754485124091 0 -0.40046159691170069 0.34164056661102238 0 -0.40814721749945931 0.33505042297199122 0 -0.40814721749945931 0.33505042297199122 0 -0.41954562432067788 0.33058053440738988 0 -0.41381361947694889 0.35655778899711688 0 -0.41954562432067788 0.33058053440738988 0 -0.41381361947694889 0.35655778899711688 0 -0.40602554896887638 0.32011992980008452 0 -0.40814721749945931 0.33505042297199122 0 -0.41954562432067788 0.33058053440738988 0 -0.40602554896887638 0.32011992980008452 0 -0.41954562432067788 0.33058053440738988 0 -0.42527762916440792 0.30460327981766322 0 -0.41954562432067788 0.33058053440738988 0 -0.42527762916440792 0.30460327981766322 0 -0.41954562432067788 0.33058053440738988 0 -0.44001701522470671 0.31606260091672289 0 -0.42527762916440792 0.30460327981766322 0 -0.41954562432067788 0.33058053440738988 0 -0.42420657124029282 0.3485159257420361 0 -0.43843079740841773 0.33787066219507811 0 -0.41954562432067788 0.33058053440738988 0 -0.43843079740841773 0.33787066219507811 0 -0.44001701522470671 0.31606260091672289 0 -0.42420657124029282 0.3485159257420361 0 -0.43459164588172849 0.36007712215754689 0 -0.43843079740841773 0.33787066219507811 0 -0.42420657124029282 0.3485159257420361 0 -0.41381361947694889 0.35655778899711688 0 -0.43459164588172849 0.36007712215754689 0 -0.41381361947694889 0.35655778899711688 0 -0.43459164588172849 0.36007712215754689 0 -0.43459164588172849 0.36007712215754689 0 -0.43843079740841773 0.33787066219507811 0 -0.40046159691170069 0.34164056661102238 0 -0.40814721749945931 0.33505042297199122 0 -0.41381361947694889 0.35655778899711688 0 -0.41954562432067788 0.33058053440738988 0 -0.42420657124029282 0.3485159257420361 0 -0.41381361947694889 0.35655778899711688 0 -0.39999637464883392 0.35559476271013252 0 -0.41381361947694889 0.35655778899711688 0 -0.40046159691170069 0.34164056661102238 0 -0.41381361947694889 0.35655778899711688 0 -0.41381361947694889 0.35655778899711688 0 -0.41098055992701871 0.3693971202961519 0 -0.42689564018809201 0.37117335838025439 0 -0.41098055992701871 0.3693971202961519 0 -0.42689564018809201 0.37117335838025439 0 -0.40881671944059661 0.37920357314115732 0 -0.41098055992701871 0.3693971202961519 0 -0.42689564018809201 0.37117335838025439 0 -0.40881671944059661 0.37920357314115732 0 -0.41098055992701871 0.3693971202961519 0 -0.40397412088998857 0.3623881668075713 0 -0.41381361947694889 0.35655778899711688 0 -0.41098055992701871 0.3693971202961519 0 -0.41381361947694889 0.35655778899711688 0 -0.41098055992701871 0.3693971202961519 0 -0.41381361947694889 0.35655778899711688 0 -0.42689564018809201 0.37117335838025439 0 -0.41381361947694889 0.35655778899711688 0 -0.42907199843085347 0.36486274908666949 0 -0.43459164588172849 0.36007712215754689 0 -0.42689564018809201 0.37117335838025439 0 -0.42907199843085347 0.36486274908666949 0 -0.42980351636605002 0.37149789839679431 0 -0.43173797726570751 0.37658334167695551 0 -0.42689564018809201 0.37117335838025439 0 -0.43173797726570751 0.37658334167695551 0 -0.42689564018809201 0.37117335838025439 0 -0.42980351636605002 0.37149789839679431 0 -0.42689564018809201 0.37117335838025439 0 -0.42980351636605002 0.37149789839679431 0 -0.41381361947694889 0.35655778899711688 0 -0.42689564018809201 0.37117335838025439 0 -0.42907199843085347 0.36486274908666949 0 -0.43459164588172849 0.36007712215754689 0 -0.4325639091043616 0.37180597819459837 0 -0.42907199843085347 0.36486274908666949 0 -0.43459164588172849 0.36007712215754689 0 -0.4325639091043616 0.37180597819459837 0 -0.43173797726570751 0.37658334167695551 0 -0.4325639091043616 0.37180597819459837 0 -0.43173797726570751 0.37658334167695551 0 -0.4325639091043616 0.37180597819459837 0 -0.42980351636605002 0.37149789839679431 0 -0.4325639091043616 0.37180597819459837 0 -0.42980351636605002 0.37149789839679431 0 -0.42907199843085347 0.36486274908666949 0 -0.4325639091043616 0.37180597819459837 0 -0.42980351636605002 0.37149789839679431 0 -0.4393591315165738 0.37762743775392832 0 -0.4325639091043616 0.37180597819459837 0 -0.44813402172652672 0.37354371539476261 0 -0.4325639091043616 0.37180597819459837 0 -0.44813402172652672 0.37354371539476261 0 -0.4325639091043616 0.37180597819459837 0 -0.44813402172652672 0.37354371539476261 0 -0.45404419213644692 0.3625975043188554 0 -0.43459164588172849 0.36007712215754689 0 -0.45404419213644692 0.3625975043188554 0 -0.43459164588172849 0.36007712215754689 0 -0.4325639091043616 0.37180597819459837 0 -0.45404419213644692 0.3625975043188554 0 -0.4325639091043616 0.37180597819459837 0 -0.45404419213644692 0.3625975043188554 0 -0.43459164588172849 0.36007712215754689 0 -0.44549025602952702 0.35300777224981977 0 -0.45404419213644692 0.3625975043188554 0 -0.44549025602952702 0.35300777224981977 0 -0.45575207180717081 0.34762579988211101 0 -0.43843079740841773 0.33787066219507811 0 -0.43459164588172849 0.36007712215754689 0 -0.44549025602952702 0.35300777224981977 0 -0.43843079740841773 0.33787066219507811 0 -0.44549025602952702 0.35300777224981977 0 -0.45575207180717081 0.34762579988211101 0 -0.45404419213644692 0.3625975043188554 0 -0.45575207180717081 0.34762579988211101 0 -0.46674234051517471 0.35793515390827568 0 -0.45404419213644692 0.3625975043188554 0 -0.45575207180717081 0.34762579988211101 0 -0.46674234051517471 0.35793515390827568 0 -0.46933267881425472 0.34565439271282838 0 -0.45404419213644692 0.3625975043188554 0 -0.47441064506165659 0.36523629740895902 0 -0.46674234051517471 0.35793515390827568 0 -0.45404419213644692 0.3625975043188554 0 -0.47441064506165659 0.36523629740895902 0 -0.45404419213644692 0.3625975043188554 0 -0.46360543106569913 0.37231654924431878 0 -0.47441064506165659 0.36523629740895902 0 -0.44813402172652672 0.37354371539476261 0 -0.45404419213644692 0.3625975043188554 0 -0.46360543106569913 0.37231654924431878 0 -0.46674234051517471 0.35793515390827568 0 -0.45404419213644692 0.3625975043188554 0 -0.46360543106569913 0.37231654924431878 0 -0.47397397291215421 0.37493689296344251 0 -0.47441064506165659 0.36523629740895902 0 -0.47441064506165659 0.36523629740895902 0 -0.48058358620238051 0.35168401037216412 0 -0.49477709798686631 0.36787509049906381 0 -0.47397397291215421 0.37493689296344251 0 -0.47441064506165659 0.36523629740895902 0 -0.48714178473823078 0.37241716516273898 0 -0.46674234051517471 0.35793515390827568 0 -0.47441064506165659 0.36523629740895902 0 -0.48058358620238051 0.35168401037216412 0 -0.46674234051517471 0.35793515390827568 0 -0.46933267881425472 0.34565439271282838 0 -0.48058358620238051 0.35168401037216412 0 -0.46933267881425472 0.34565439271282838 0 -0.48058358620238051 0.35168401037216412 0 -0.48121002056386808 0.3369363626790518 0 -0.48058358620238051 0.35168401037216412 0 -0.49703354506598713 0.34759711953555122 0 -0.48121002056386808 0.3369363626790518 0 -0.49703354506598713 0.34759711953555122 0 -0.5 0.34812631329607491 0 -0.49477709798686631 0.36787509049906381 0 -0.48058358620238051 0.35168401037216412 0 -0.49703354506598713 0.34759711953555122 0 -0.49477709798686631 0.36787509049906381 0 -0.49703354506598713 0.34759711953555122 0 -0.49477709798686631 0.36787509049906381 0 -0.5 0.34812631329607491 0 -0.50000000000000311 0.3685517992903854 0 -0.49477709798686631 0.36787509049906381 0 -0.47441064506165659 0.36523629740895902 0 -0.49477709798686631 0.36787509049906381 0 -0.48714178473823078 0.37241716516273898 0 -0.47441064506165659 0.36523629740895902 0 -0.49477709798686631 0.36787509049906381 0 -0.49007778645481631 0.38142997617552599 0 -0.50000000000000311 0.3685517992903854 0 -0.49477709798686631 0.36787509049906381 0 -0.50000000000000311 0.3685517992903854 0 -0.49477709798686631 0.36787509049906381 0 -0.49007778645481631 0.38142997617552599 0 -0.49477709798686631 0.36787509049906381 0 -0.48714178473823078 0.37241716516273898 0 -0.4992899921451075 0.32731914857203848 0 -0.47890896772952718 0.31636292681222472 0 -0.4992899921451075 0.32731914857203848 0 -0.48121002056386808 0.3369363626790518 0 -0.47890896772952718 0.31636292681222472 0 -0.49999999999999989 0.32093853419885771 0 -0.47890896772952718 0.31636292681222472 0 -0.48920120729889771 0.30786362236022019 0 -0.49999999999999989 0.32093853419885771 0 -0.4992899921451075 0.32731914857203848 0 -0.47890896772952718 0.31636292681222472 0 -0.49999999999999989 0.32093853419885771 0 -0.4992899921451075 0.32731914857203848 0 -0.49703354506598713 0.34759711953555122 0 -0.4992899921451075 0.32731914857203848 0 -0.49703354506598713 0.34759711953555122 0 -0.4992899921451075 0.32731914857203848 0 -0.48121002056386808 0.3369363626790518 0 -0.49703354506598713 0.34759711953555122 0 -0.5 0.34812631329607491 0 -0.4992899921451075 0.32731914857203848 0 -0.46933267881425472 0.34565439271282838 0 -0.48121002056386808 0.3369363626790518 0 -0.46237537498267961 0.3340906367225393 0 -0.48121002056386808 0.3369363626790518 0 -0.47890896772952718 0.31636292681222472 0 -0.46237537498267961 0.3340906367225393 0 -0.47890896772952718 0.31636292681222472 0 -0.45636509730576869 0.32029680939338251 0 -0.45852794331394758 0.30540670505240958 0 -0.47890896772952718 0.31636292681222472 0 -0.45636509730576869 0.32029680939338251 0 -0.46237537498267961 0.3340906367225393 0 -0.45575207180717081 0.34762579988211101 0 -0.46933267881425472 0.34565439271282838 0 -0.46237537498267961 0.3340906367225393 0 -0.45575207180717081 0.34762579988211101 0 -0.46237537498267961 0.3340906367225393 0 -0.43843079740841773 0.33787066219507811 0 -0.45636509730576869 0.32029680939338251 0 -0.46237537498267961 0.3340906367225393 0 -0.43843079740841773 0.33787066219507811 0 -0.45636509730576869 0.32029680939338251 0 -0.43843079740841773 0.33787066219507811 0 -0.44001701522470671 0.31606260091672289 0 -0.45636509730576869 0.32029680939338251 0 -0.44001701522470671 0.31606260091672289 0 -0.45852794331394758 0.30540670505240958 0 -0.4381469188983681 0.2944504832925946 0 -0.45852794331394758 0.30540670505240958 0 -0.44001701522470671 0.31606260091672289 0 -0.4381469188983681 0.2944504832925946 0 -0.45852794331394758 0.30540670505240958 0 -0.4381469188983681 0.2944504832925946 0 -0.4447805513699985 0.27737231294201392 0 -0.43100963400813791 0.27862602522793672 0 -0.4381469188983681 0.2944504832925946 0 -0.45724976864254441 0.28334965182257721 0 -0.4447805513699985 0.27737231294201392 0 -0.4381469188983681 0.2944504832925946 0 -0.45724976864254441 0.28334965182257721 0 -0.45852794331394758 0.30540670505240958 0 -0.45724976864254441 0.28334965182257721 0 -0.45852794331394758 0.30540670505240958 0 -0.47789586146606378 0.29814868652574811 0 -0.47890896772952718 0.31636292681222472 0 -0.45852794331394758 0.30540670505240958 0 -0.47890896772952718 0.31636292681222472 0 -0.47789586146606378 0.29814868652574811 0 -0.48920120729889771 0.30786362236022019 0 -0.47890896772952718 0.31636292681222472 0 -0.45852794331394758 0.30540670505240958 0 -0.47789586146606378 0.29814868652574811 0 -0.45724976864254441 0.28334965182257721 0 -0.47789586146606378 0.29814868652574811 0 -0.48102565218130672 0.27929705551177292 0 -0.5 0.29600434190405073 0 -0.5 0.27107014960924369 0 -0.48102565218130672 0.27929705551177292 0 -0.47789586146606378 0.29814868652574811 0 -0.5 0.29600434190405073 0 -0.48102565218130672 0.27929705551177292 0 -0.47789586146606378 0.29814868652574811 0 -0.5 0.29600434190405073 0 -0.48920120729889771 0.30786362236022019 0 -0.49999999999999989 0.32093853419885771 0 -0.5 0.29600434190405073 0 -0.48920120729889771 0.30786362236022019 0 -0.48177750529808522 0.24619974485466931 0 -0.5 0.2461359573144368 0 -0.48654709528280549 0.26072196503438649 0 -0.5 0.2461359573144368 0 -0.48654709528280549 0.26072196503438649 0 -0.5 0.27107014960924369 0 -0.48654709528280549 0.26072196503438649 0 -0.5 0.27107014960924369 0 -0.48102565218130672 0.27929705551177292 0 -0.48654709528280549 0.26072196503438649 0 -0.48102565218130672 0.27929705551177292 0 -0.46993231893463527 0.26090691788180947 0 -0.45724976864254441 0.28334965182257721 0 -0.48102565218130672 0.27929705551177292 0 -0.46993231893463527 0.26090691788180947 0 -0.48177750529808522 0.24619974485466931 0 -0.48654709528280549 0.26072196503438649 0 -0.46993231893463527 0.26090691788180947 0 -0.45710504060219709 0.23686107433279269 0 -0.46993231893463527 0.26090691788180947 0 -0.44707755271196942 0.2637365605125353 0 -0.45724976864254441 0.28334965182257721 0 -0.46993231893463527 0.26090691788180947 0 -0.44707755271196942 0.2637365605125353 0 -0.45724976864254441 0.28334965182257721 0 -0.4447805513699985 0.27737231294201392 0 -0.44707755271196942 0.2637365605125353 0 -0.4447805513699985 0.27737231294201392 0 -0.44707755271196942 0.2637365605125353 0 -0.43100963400813791 0.27862602522793672 0 -0.45710504060219709 0.23686107433279269 0 -0.44707755271196942 0.2637365605125353 0 -0.44707755271196942 0.2637365605125353 0 -0.4367416388518679 0.25264877063821017 0 -0.43100963400813791 0.27862602522793672 0 -0.45710504060219709 0.23686107433279269 0 -0.44707755271196942 0.2637365605125353 0 -0.4367416388518679 0.25264877063821017 0 -0.4367416388518679 0.25264877063821017 0 -0.41175872593851298 0.2549478601346914 0 -0.41885046316002428 0.26850948483906401 0 -0.41175872593851298 0.2549478601346914 0 -0.41885046316002428 0.26850948483906401 0 -0.3976364837244763 0.27421361628784369 0 -0.41885046316002428 0.26850948483906401 0 -0.41710583327712653 0.28211115190663788 0 -0.3976364837244763 0.27421361628784369 0 -0.41885046316002428 0.26850948483906401 0 -0.43100963400813791 0.27862602522793672 0 -0.41710583327712653 0.28211115190663788 0 -0.4367416388518679 0.25264877063821017 0 -0.43100963400813791 0.27862602522793672 0 -0.4367416388518679 0.25264877063821017 0 -0.41885046316002428 0.26850948483906401 0 -0.43100963400813791 0.27862602522793672 0 -0.4381469188983681 0.2944504832925946 0 -0.43100963400813791 0.27862602522793672 0 -0.42527762916440792 0.30460327981766322 0 -0.43100963400813791 0.27862602522793672 0 -0.42527762916440792 0.30460327981766322 0 -0.41710583327712653 0.28211115190663788 0 -0.43100963400813791 0.27862602522793672 0 -0.42527762916440792 0.30460327981766322 0 -0.44001701522470671 0.31606260091672289 0 -0.4381469188983681 0.2944504832925946 0 -0.42527762916440792 0.30460327981766322 0 -0.40602554896887638 0.32011992980008452 0 -0.42527762916440792 0.30460327981766322 0 -0.4014269901009333 0.29495587648231503 0 -0.41710583327712653 0.28211115190663788 0 -0.4014269901009333 0.29495587648231503 0 -0.42527762916440792 0.30460327981766322 0 -0.41710583327712653 0.28211115190663788 0 -0.4014269901009333 0.29495587648231503 0 -0.41710583327712653 0.28211115190663788 0 -0.4014269901009333 0.29495587648231503 0 -0.3976364837244763 0.27421361628784369 0 -0.4014269901009333 0.29495587648231503 0 -0.38389766901197209 0.2919764357376447 0 -0.3976364837244763 0.27421361628784369 0 -0.4014269901009333 0.29495587648231503 0 -0.3976364837244763 0.27421361628784369 0 -0.39350880394476312 0.31593875705230262 0 -0.40602554896887638 0.32011992980008452 0 -0.4014269901009333 0.29495587648231503 0 -0.4014269901009333 0.29495587648231503 0 -0.38336946241093189 0.30974931290420182 0 -0.40602554896887638 0.32011992980008452 0 -0.4014269901009333 0.29495587648231503 0 -0.39350880394476312 0.31593875705230262 0 -0.4014269901009333 0.29495587648231503 0 -0.38336946241093189 0.30974931290420182 0 -0.38336946241093189 0.30974931290420182 0 -0.38389766901197209 0.2919764357376447 0 -0.36596935852520629 0.30787018431111951 0 -0.4014269901009333 0.29495587648231503 0 -0.38336946241093189 0.30974931290420182 0 -0.38389766901197209 0.2919764357376447 0 -0.38389766901197209 0.2919764357376447 0 -0.3839238193794226 0.27871888045260418 0 -0.3976364837244763 0.27421361628784369 0 -0.38389766901197209 0.2919764357376447 0 -0.3839238193794226 0.27871888045260418 0 -0.3703732677084236 0.2804332674389724 0 -0.3839238193794226 0.27871888045260418 0 -0.38378785707281859 0.2682522023459562 0 -0.3703732677084236 0.2804332674389724 0 -0.38378785707281859 0.2682522023459562 0 -0.37477717689163992 0.25299635056682518 0 -0.3703732677084236 0.2804332674389724 0 -0.3839238193794226 0.27871888045260418 0 -0.38378785707281859 0.2682522023459562 0 -0.3976364837244763 0.27421361628784369 0 -0.38378785707281859 0.2682522023459562 0 -0.39384597734802013 0.25347135609337229 0 -0.37477717689163992 0.25299635056682518 0 -0.39384597734802013 0.25347135609337229 0 -0.3976364837244763 0.27421361628784369 0 -0.41175872593851298 0.2549478601346914 0 -0.39384597734802013 0.25347135609337229 0 -0.3976364837244763 0.27421361628784369 0 -0.38378785707281859 0.2682522023459562 0 -0.39384597734802013 0.25347135609337229 0 -0.3976364837244763 0.27421361628784369 0 -0.35834524103505527 0.27479395617319979 0 -0.34490227433735798 0.27909378963084902 0 -0.35045174428906722 0.28677843618767362 0 -0.35834524103505527 0.27479395617319979 0 -0.34490227433735798 0.27909378963084902 0 -0.34728570068091402 0.2661688508290645 0 -0.34728570068091402 0.2661688508290645 0 -0.35464358931248319 0.25491115920099722 0 -0.34150965816976359 0.25817059719828012 0 -0.33845336435013867 0.242079554605789 0 -0.35464358931248319 0.25491115920099722 0 -0.34150965816976359 0.25817059719828012 0 -0.35834524103505527 0.27479395617319979 0 -0.34728570068091402 0.2661688508290645 0 -0.35464358931248319 0.25491115920099722 0 -0.35834524103505527 0.27479395617319979 0 -0.37477717689163992 0.25299635056682518 0 -0.35834524103505527 0.27479395617319979 0 -0.35464358931248319 0.25491115920099722 0 -0.37477717689163992 0.25299635056682518 0 -0.37477717689163992 0.25299635056682518 0 -0.3703732677084236 0.2804332674389724 0 -0.35834524103505527 0.27479395617319979 0 -0.37477717689163992 0.25299635056682518 0 -0.3703732677084236 0.2804332674389724 0 -0.3703732677084236 0.2804332674389724 0 -0.36596935852520629 0.30787018431111951 0 -0.38389766901197209 0.2919764357376447 0 -0.3703732677084236 0.2804332674389724 0 -0.36596935852520629 0.30787018431111951 0 -0.35834524103505527 0.27479395617319979 0 -0.3703732677084236 0.2804332674389724 0 -0.35925388220638338 0.290827281626163 0 -0.3703732677084236 0.2804332674389724 0 -0.36596935852520629 0.30787018431111951 0 -0.35925388220638338 0.290827281626163 0 -0.36596935852520629 0.30787018431111951 0 -0.35645499353340299 0.30154574554434233 0 -0.35925388220638338 0.290827281626163 0 -0.36596935852520629 0.30787018431111951 0 -0.35645499353340299 0.30154574554434233 0 -0.35774913989266272 0.31391262040183171 0 -0.35645499353340299 0.30154574554434233 0 -0.35013945535461871 0.3105838988596446 0 -0.35774913989266272 0.31391262040183171 0 -0.35645499353340299 0.30154574554434233 0 -0.34780240298166087 0.30288468022079579 0 -0.35285886900803182 0.29452238055293539 0 -0.34780240298166087 0.30288468022079579 0 -0.34622635383862083 0.29383585221412489 0 -0.33932813284697128 0.29730713825443927 0 -0.34780240298166087 0.30288468022079579 0 -0.35285886900803182 0.29452238055293539 0 -0.34622635383862083 0.29383585221412489 0 -0.34780240298166087 0.30288468022079579 0 -0.34514961405368982 0.30758965292055213 0 -0.33997231501418312 0.30473657218964828 0 -0.35645499353340299 0.30154574554434233 0 -0.34780240298166087 0.30288468022079579 0 -0.35013945535461871 0.3105838988596446 0 -0.34780240298166087 0.30288468022079579 0 -0.34514961405368982 0.30758965292055213 0 -0.35013945535461871 0.3105838988596446 0 -0.34514961405368982 0.30758965292055213 0 -0.35013945535461871 0.3105838988596446 0 -0.34268428286429659 0.31215346041211978 0 -0.35834524103505527 0.27479395617319979 0 -0.35925388220638338 0.290827281626163 0 -0.35045174428906722 0.28677843618767362 0 -0.35645499353340299 0.30154574554434233 0 -0.35925388220638338 0.290827281626163 0 -0.35285886900803182 0.29452238055293539 0 -0.35925388220638338 0.290827281626163 0 -0.35285886900803182 0.29452238055293539 0 -0.35045174428906722 0.28677843618767362 0 -0.35285886900803182 0.29452238055293539 0 -0.34622635383862083 0.29383585221412489 0 -0.35045174428906722 0.28677843618767362 0 -0.34622635383862083 0.29383585221412489 0 -0.35045174428906722 0.28677843618767362 0 -0.34088660642111013 0.2879281286912172 0 -0.34490227433735798 0.27909378963084902 0 -0.35045174428906722 0.28677843618767362 0 -0.34088660642111013 0.2879281286912172 0 -0.34490227433735798 0.27909378963084902 0 -0.34088660642111013 0.2879281286912172 0 -0.33262910378125132 0.278293493462413 0 -0.34088660642111013 0.2879281286912172 0 -0.33227483086849752 0.29261385498347509 0 -0.33932813284697128 0.29730713825443927 0 -0.34622635383862083 0.29383585221412489 0 -0.34088660642111013 0.2879281286912172 0 -0.33932813284697128 0.29730713825443927 0 -0.33227483086849752 0.29261385498347509 0 -0.32398535199451511 0.28524421774589648 0 -0.33262910378125132 0.278293493462413 0 -0.34088660642111013 0.2879281286912172 0 -0.33227483086849752 0.29261385498347509 0 -0.33262910378125132 0.278293493462413 0 -0.33718535734333338 0.30882123026638569 0 -0.34268428286429659 0.31215346041211978 0 -0.33477104767585758 0.31524888829805342 0 -0.33718535734333338 0.30882123026638569 0 -0.34268428286429659 0.31215346041211978 0 -0.33997231501418312 0.30473657218964828 0 -0.34514961405368982 0.30758965292055213 0 -0.34268428286429659 0.31215346041211978 0 -0.33997231501418312 0.30473657218964828 0 -0.33718535734333338 0.30882123026638569 0 -0.33997231501418312 0.30473657218964828 0 -0.33396296217470239 0.30554582684384218 0 -0.33997231501418312 0.30473657218964828 0 -0.33932813284697128 0.29730713825443927 0 -0.33396296217470239 0.30554582684384218 0 -0.34780240298166087 0.30288468022079579 0 -0.33997231501418312 0.30473657218964828 0 -0.33932813284697128 0.29730713825443927 0 -0.33227483086849752 0.29261385498347509 0 -0.33396296217470239 0.30554582684384218 0 -0.32251037119006698 0.3031431883822347 0 -0.33227483086849752 0.29261385498347509 0 -0.33932813284697128 0.29730713825443927 0 -0.33396296217470239 0.30554582684384218 0 -0.33718535734333338 0.30882123026638569 0 -0.33396296217470239 0.30554582684384218 0 -0.33477104767585758 0.31524888829805342 0 -0.33396296217470239 0.30554582684384218 0 -0.32251037119006698 0.3031431883822347 0 -0.33219148171911272 0.31730370811833031 0 -0.32251037119006698 0.3031431883822347 0 -0.31456388983813333 0.31636814557902659 0 -0.33219148171911272 0.31730370811833031 0 -0.32251037119006698 0.3031431883822347 0 -0.31282926066102218 0.28898266864613842 0 -0.30402337591517081 0.3051012194244167 0 -0.32251037119006698 0.3031431883822347 0 -0.30402337591517081 0.3051012194244167 0 -0.31456388983813333 0.31636814557902659 0 -0.32251037119006698 0.3031431883822347 0 -0.33219148171911272 0.31730370811833031 0 -0.33227483086849752 0.29261385498347509 0 -0.32251037119006698 0.3031431883822347 0 -0.32398535199451511 0.28524421774589648 0 -0.32251037119006698 0.3031431883822347 0 -0.32398535199451511 0.28524421774589648 0 -0.31282926066102218 0.28898266864613842 0 -0.32251037119006698 0.3031431883822347 0 -0.31282926066102218 0.28898266864613842 0 -0.31282926066102218 0.28898266864613842 0 -0.32065101258715689 0.274665503564473 0 -0.32398535199451511 0.28524421774589648 0 -0.31282926066102218 0.28898266864613842 0 -0.32065101258715689 0.274665503564473 0 -0.32065101258715689 0.274665503564473 0 -0.32847276451329022 0.26034833848280681 0 -0.31199410965335322 0.26463258327439948 0 -0.32065101258715689 0.274665503564473 0 -0.33262910378125132 0.278293493462413 0 -0.32847276451329022 0.26034833848280681 0 -0.31282926066102218 0.28898266864613842 0 -0.32065101258715689 0.274665503564473 0 -0.30403346053568642 0.27611708872161922 0 -0.32065101258715689 0.274665503564473 0 -0.32847276451329022 0.26034833848280681 0 -0.32398535199451511 0.28524421774589648 0 -0.32065101258715689 0.274665503564473 0 -0.33262910378125132 0.278293493462413 0 -0.33262910378125132 0.278293493462413 0 -0.33869287199199061 0.26734508287274228 0 -0.32847276451329022 0.26034833848280681 0 -0.34490227433735798 0.27909378963084902 0 -0.34728570068091402 0.2661688508290645 0 -0.33869287199199061 0.26734508287274228 0 -0.34490227433735798 0.27909378963084902 0 -0.33262910378125132 0.278293493462413 0 -0.33869287199199061 0.26734508287274228 0 -0.33845336435013867 0.242079554605789 0 -0.34150965816976359 0.25817059719828012 0 -0.32847276451329022 0.26034833848280681 0 -0.33845336435013867 0.242079554605789 0 -0.32847276451329022 0.26034833848280681 0 -0.34728570068091402 0.2661688508290645 0 -0.33869287199199061 0.26734508287274228 0 -0.34150965816976359 0.25817059719828012 0 -0.33869287199199061 0.26734508287274228 0 -0.34150965816976359 0.25817059719828012 0 -0.32847276451329022 0.26034833848280681 0 -0.33869287199199061 0.26734508287274228 0 -0.32847276451329022 0.26034833848280681 0 -0.311575650220281 0.24878047680599949 0 -0.32847276451329022 0.26034833848280681 0 -0.311575650220281 0.24878047680599949 0 -0.32847276451329022 0.26034833848280681 0 -0.31199410965335322 0.26463258327439948 0 -0.32455092720978362 0.24357057421839101 0 -0.311575650220281 0.24878047680599949 0 -0.32847276451329022 0.26034833848280681 0 -0.311575650220281 0.24878047680599949 0 -0.31199410965335322 0.26463258327439948 0 -0.29523766041035199 0.26325150879709891 0 -0.30403346053568642 0.27611708872161922 0 -0.29523766041035199 0.26325150879709891 0 -0.29574151564778611 0.28671646758259889 0 -0.31199410965335322 0.26463258327439948 0 -0.30403346053568642 0.27611708872161922 0 -0.29523766041035199 0.26325150879709891 0 -0.32065101258715689 0.274665503564473 0 -0.31199410965335322 0.26463258327439948 0 -0.30403346053568642 0.27611708872161922 0 -0.30403346053568642 0.27611708872161922 0 -0.29523766041035199 0.26325150879709891 0 -0.28985028671148488 0.25537141990030859 0 -0.26863301980023729 0.26794771562718522 0 -0.28534189936007232 0.28197220440765719 0 -0.29523766041035199 0.26325150879709891 0 -0.29574151564778611 0.28671646758259889 0 -0.29523766041035199 0.26325150879709891 0 -0.29574151564778611 0.28671646758259889 0 -0.28534189936007232 0.28197220440765719 0 -0.28985028671148488 0.25537141990030859 0 -0.29523766041035199 0.26325150879709891 0 -0.28534189936007232 0.28197220440765719 0 -0.28985028671148488 0.25537141990030859 0 -0.28534189936007232 0.28197220440765719 0 -0.29467853592727078 0.23721261512919359 0 -0.29523766041035199 0.26325150879709891 0 -0.29467853592727078 0.23721261512919359 0 -0.28985028671148488 0.25537141990030859 0 -0.29523766041035199 0.26325150879709891 0 -0.28985028671148488 0.25537141990030859 0 -0.29523766041035199 0.26325150879709891 0 -0.28985028671148488 0.25537141990030859 0 -0.2724296921133022 0.25217156250687062 0 -0.26863301980023729 0.26794771562718522 0 -0.2724296921133022 0.25217156250687062 0 -0.26863301980023729 0.26794771562718522 0 -0.25693865295534157 0.25278860643768353 0 -0.26863301980023729 0.26794771562718522 0 -0.26277913973510902 0.29023342414179659 0 -0.28534189936007232 0.28197220440765719 0 -0.26277913973510902 0.29023342414179659 0 -0.2447247674615598 0.2718938593685879 0 -0.26863301980023729 0.26794771562718522 0 -0.26277913973510902 0.29023342414179659 0 -0.2447247674615598 0.2718938593685879 0 -0.26863301980023729 0.26794771562718522 0 -0.25693865295534157 0.25278860643768353 0 -0.2447247674615598 0.2718938593685879 0 -0.26277913973510902 0.29023342414179659 0 -0.25757488899104952 0.31786411623381933 0 -0.2366570207200871 0.30010935915934539 0 -0.26277913973510902 0.29023342414179659 0 -0.28083351200865853 0.30857298891500562 0 -0.28534189936007232 0.28197220440765719 0 -0.26277913973510902 0.29023342414179659 0 -0.28083351200865853 0.30857298891500562 0 -0.26277913973510902 0.29023342414179659 0 -0.28083351200865853 0.30857298891500562 0 -0.25757488899104952 0.31786411623381933 0 -0.28083351200865853 0.30857298891500562 0 -0.29574151564778611 0.28671646758259889 0 -0.30402337591517081 0.3051012194244167 0 -0.28083351200865853 0.30857298891500562 0 -0.29574151564778611 0.28671646758259889 0 -0.28534189936007232 0.28197220440765719 0 -0.28083351200865853 0.30857298891500562 0 -0.28534189936007232 0.28197220440765719 0 -0.31282926066102218 0.28898266864613842 0 -0.29574151564778611 0.28671646758259889 0 -0.30402337591517081 0.3051012194244167 0 -0.31282926066102218 0.28898266864613842 0 -0.30403346053568642 0.27611708872161922 0 -0.29574151564778611 0.28671646758259889 0 -0.31282926066102218 0.28898266864613842 0 -0.30403346053568642 0.27611708872161922 0 -0.31282926066102218 0.28898266864613842 0 -0.30402337591517081 0.3051012194244167 0 -0.30402337591517081 0.3051012194244167 0 -0.29932851783868691 0.32736014762988469 0 -0.31456388983813333 0.31636814557902659 0 -0.29932851783868691 0.32736014762988469 0 -0.31400963374603508 0.33178692824556621 0 -0.31456388983813333 0.31636814557902659 0 -0.29582778577295937 0.3462701483728044 0 -0.31354931950312093 0.34747342072874071 0 -0.31400963374603508 0.33178692824556621 0 -0.29582778577295937 0.3462701483728044 0 -0.31400963374603508 0.33178692824556621 0 -0.29932851783868691 0.32736014762988469 0 -0.29582778577295937 0.3462701483728044 0 -0.31400963374603508 0.33178692824556621 0 -0.29932851783868691 0.32736014762988469 0 -0.27670802547122531 0.33291454828341721 0 -0.29582778577295937 0.3462701483728044 0 -0.27670802547122531 0.33291454828341721 0 -0.29582778577295937 0.3462701483728044 0 -0.28186865011063378 0.34863084123191301 0 -0.28083351200865853 0.30857298891500562 0 -0.30402337591517081 0.3051012194244167 0 -0.29932851783868691 0.32736014762988469 0 -0.28083351200865853 0.30857298891500562 0 -0.29932851783868691 0.32736014762988469 0 -0.28083351200865853 0.30857298891500562 0 -0.29932851783868691 0.32736014762988469 0 -0.27670802547122531 0.33291454828341721 0 -0.28083351200865853 0.30857298891500562 0 -0.27670802547122531 0.33291454828341721 0 -0.25757488899104952 0.31786411623381933 0 -0.28083351200865853 0.30857298891500562 0 -0.27670802547122531 0.33291454828341721 0 -0.27670802547122531 0.33291454828341721 0 -0.25757488899104952 0.31786411623381933 0 -0.25368472498167011 0.34420349485172652 0 -0.2613799420943046 0.36179346951182628 0 -0.25453646971320443 0.37462232419521813 0 -0.26689531734350652 0.36931705260985792 0 -0.2613799420943046 0.36179346951182628 0 -0.25453646971320443 0.37462232419521813 0 -0.24822911175635759 0.36217347122335058 0 -0.25368472498167011 0.34420349485172652 0 -0.27258253893379292 0.35725610765182902 0 -0.2613799420943046 0.36179346951182628 0 -0.25368472498167011 0.34420349485172652 0 -0.24822911175635759 0.36217347122335058 0 -0.2613799420943046 0.36179346951182628 0 -0.25368472498167011 0.34420349485172652 0 -0.27258253893379292 0.35725610765182902 0 -0.27670802547122531 0.33291454828341721 0 -0.27258253893379292 0.35725610765182902 0 -0.27670802547122531 0.33291454828341721 0 -0.27258253893379292 0.35725610765182902 0 -0.28186865011063378 0.34863084123191301 0 -0.27670802547122531 0.33291454828341721 0 -0.25368472498167011 0.34420349485172652 0 -0.27258253893379292 0.35725610765182902 0 -0.27258253893379292 0.35725610765182902 0 -0.27764593779988228 0.36075336850004069 0 -0.28186865011063378 0.34863084123191301 0 -0.27258253893379292 0.35725610765182902 0 -0.27764593779988228 0.36075336850004069 0 -0.27764593779988228 0.36075336850004069 0 -0.27110701654299552 0.36596211494311248 0 -0.28943519450698252 0.3688961411714532 0 -0.27110701654299552 0.36596211494311248 0 -0.28943519450698252 0.3688961411714532 0 -0.27110701654299552 0.36596211494311248 0 -0.28943519450698252 0.3688961411714532 0 -0.28084635904778937 0.37544065550995409 0 -0.27258253893379292 0.35725610765182902 0 -0.27764593779988228 0.36075336850004069 0 -0.27110701654299552 0.36596211494311248 0 -0.27764593779988228 0.36075336850004069 0 -0.27110701654299552 0.36596211494311248 0 -0.2613799420943046 0.36179346951182628 0 -0.27258253893379292 0.35725610765182902 0 -0.27110701654299552 0.36596211494311248 0 -0.2613799420943046 0.36179346951182628 0 -0.27110701654299552 0.36596211494311248 0 -0.26689531734350652 0.36931705260985792 0 -0.27258253893379292 0.35725610765182902 0 -0.27110701654299552 0.36596211494311248 0 -0.27110701654299552 0.36596211494311248 0 -0.26689531734350652 0.36931705260985792 0 -0.27110701654299552 0.36596211494311248 0 -0.28084635904778937 0.37544065550995409 0 -0.27663284499009211 0.37939207802828528 0 -0.28943519450698252 0.3688961411714532 0 -0.28685204816290072 0.37621819500323123 0 -0.28084635904778937 0.37544065550995409 0 -0.27764593779988228 0.36075336850004069 0 -0.28943519450698252 0.3688961411714532 0 -0.29551252006441958 0.37309371542857861 0 -0.28943519450698252 0.3688961411714532 0 -0.28685204816290072 0.37621819500323123 0 -0.29551252006441958 0.37309371542857861 0 -0.28943519450698252 0.3688961411714532 0 -0.27764593779988228 0.36075336850004069 0 -0.29582778577295937 0.3462701483728044 0 -0.27764593779988228 0.36075336850004069 0 -0.29582778577295937 0.3462701483728044 0 -0.28186865011063378 0.34863084123191301 0 -0.28943519450698252 0.3688961411714532 0 -0.29582778577295937 0.3462701483728044 0 -0.30300283950081008 0.36051339397403093 0 -0.27764593779988228 0.36075336850004069 0 -0.28943519450698252 0.3688961411714532 0 -0.29582778577295937 0.3462701483728044 0 -0.29582778577295937 0.3462701483728044 0 -0.30300283950081008 0.36051339397403093 0 -0.31354931950312093 0.34747342072874071 0 -0.28943519450698252 0.3688961411714532 0 -0.31408843612631249 0.37197903781600761 0 -0.28943519450698252 0.3688961411714532 0 -0.30300283950081008 0.36051339397403093 0 -0.31408843612631249 0.37197903781600761 0 -0.29551252006441958 0.37309371542857861 0 -0.28943519450698252 0.3688961411714532 0 -0.31408843612631249 0.37197903781600761 0 -0.30300283950081008 0.36051339397403093 0 -0.31408843612631249 0.37197903781600761 0 -0.32472866683278162 0.35786931268145811 0 -0.31408843612631249 0.37197903781600761 0 -0.32472866683278162 0.35786931268145811 0 -0.33874167774564268 0.3750619344605613 0 -0.31408843612631249 0.37197903781600761 0 -0.33874167774564268 0.3750619344605613 0 -0.33942470910854639 0.36092010030626542 0 -0.32472866683278162 0.35786931268145811 0 -0.33874167774564268 0.3750619344605613 0 -0.33942470910854639 0.36092010030626542 0 -0.3497530714632448 0.36534695126967459 0 -0.33874167774564268 0.3750619344605613 0 -0.33815763529499693 0.35089104021064632 0 -0.32472866683278162 0.35786931268145811 0 -0.33017767166301859 0.34092732036984391 0 -0.33815763529499693 0.35089104021064632 0 -0.33017767166301859 0.34092732036984391 0 -0.34251680356524339 0.34321741671518669 0 -0.33815763529499693 0.35089104021064632 0 -0.3460879504978186 0.35511096805544279 0 -0.34556584107983002 0.34849125976349993 0 -0.33815763529499693 0.35089104021064632 0 -0.34251680356524339 0.34321741671518669 0 -0.34556584107983002 0.34849125976349993 0 -0.33942470910854639 0.36092010030626542 0 -0.33815763529499693 0.35089104021064632 0 -0.3460879504978186 0.35511096805544279 0 -0.33942470910854639 0.36092010030626542 0 -0.33815763529499693 0.35089104021064632 0 -0.32472866683278162 0.35786931268145811 0 -0.31354931950312093 0.34747342072874071 0 -0.32472866683278162 0.35786931268145811 0 -0.33017767166301859 0.34092732036984391 0 -0.30300283950081008 0.36051339397403093 0 -0.31354931950312093 0.34747342072874071 0 -0.32472866683278162 0.35786931268145811 0 -0.31400963374603508 0.33178692824556621 0 -0.33219148171911272 0.31730370811833031 0 -0.33017767166301859 0.34092732036984391 0 -0.31354931950312093 0.34747342072874071 0 -0.31400963374603508 0.33178692824556621 0 -0.33017767166301859 0.34092732036984391 0 -0.31400963374603508 0.33178692824556621 0 -0.33219148171911272 0.31730370811833031 0 -0.31400963374603508 0.33178692824556621 0 -0.31456388983813333 0.31636814557902659 0 -0.33219148171911272 0.31730370811833031 0 -0.33477104767585758 0.31524888829805342 0 -0.33219148171911272 0.31730370811833031 0 -0.34795343649956839 0.3209401758966518 0 -0.33219148171911272 0.31730370811833031 0 -0.34725440703092858 0.33933618574797492 0 -0.34795343649956839 0.3209401758966518 0 -0.33396296217470239 0.30554582684384218 0 -0.33477104767585758 0.31524888829805342 0 -0.33219148171911272 0.31730370811833031 0 -0.33477104767585758 0.31524888829805342 0 -0.33219148171911272 0.31730370811833031 0 -0.34268428286429659 0.31215346041211978 0 -0.33477104767585758 0.31524888829805342 0 -0.34795343649956839 0.3209401758966518 0 -0.33219148171911272 0.31730370811833031 0 -0.34725440703092858 0.33933618574797492 0 -0.33219148171911272 0.31730370811833031 0 -0.33017767166301859 0.34092732036984391 0 -0.34725440703092858 0.33933618574797492 0 -0.33017767166301859 0.34092732036984391 0 -0.34251680356524339 0.34321741671518669 0 -0.34725440703092858 0.33933618574797492 0 -0.34725440703092858 0.33933618574797492 0 -0.34795343649956839 0.3209401758966518 0 -0.36531193472093021 0.32454274932608829 0 -0.34251680356524339 0.34321741671518669 0 -0.35002774160894051 0.34339273059465159 0 -0.34725440703092858 0.33933618574797492 0 -0.34725440703092858 0.33933618574797492 0 -0.35848812135385522 0.33902175933596412 0 -0.36531193472093021 0.32454274932608829 0 -0.34725440703092858 0.33933618574797492 0 -0.36531193472093021 0.32454274932608829 0 -0.34251680356524339 0.34321741671518669 0 -0.34725440703092858 0.33933618574797492 0 -0.35002774160894051 0.34339273059465159 0 -0.34725440703092858 0.33933618574797492 0 -0.35002774160894051 0.34339273059465159 0 -0.35848812135385522 0.33902175933596412 0 -0.35712059876301439 0.34740413424876382 0 -0.35002774160894051 0.34339273059465159 0 -0.34725440703092858 0.33933618574797492 0 -0.35848812135385522 0.33902175933596412 0 -0.34795343649956839 0.3209401758966518 0 -0.35774913989266272 0.31391262040183171 0 -0.36531193472093021 0.32454274932608829 0 -0.35013945535461871 0.3105838988596446 0 -0.34268428286429659 0.31215346041211978 0 -0.34795343649956839 0.3209401758966518 0 -0.35013945535461871 0.3105838988596446 0 -0.34795343649956839 0.3209401758966518 0 -0.35774913989266272 0.31391262040183171 0 -0.38336946241093189 0.30974931290420182 0 -0.36596935852520629 0.30787018431111951 0 -0.36531193472093021 0.32454274932608829 0 -0.36596935852520629 0.30787018431111951 0 -0.35774913989266272 0.31391262040183171 0 -0.36531193472093021 0.32454274932608829 0 -0.37580907906339922 0.33647878059299557 0 -0.38201615891261242 0.31564575533693578 0 -0.36531193472093021 0.32454274932608829 0 -0.38336946241093189 0.30974931290420182 0 -0.36531193472093021 0.32454274932608829 0 -0.35848812135385522 0.33902175933596412 0 -0.36629538785756799 0.33494858662202331 0 -0.36491865814174967 0.34450616947628299 0 -0.35848812135385522 0.33902175933596412 0 -0.36491865814174967 0.34450616947628299 0 -0.35712059876301439 0.34740413424876382 0 -0.35848812135385522 0.33902175933596412 0 -0.36531193472093021 0.32454274932608829 0 -0.36629538785756799 0.33494858662202331 0 -0.37580907906339922 0.33647878059299557 0 -0.36531193472093021 0.32454274932608829 0 -0.36629538785756799 0.33494858662202331 0 -0.37580907906339922 0.33647878059299557 0 -0.36629538785756799 0.33494858662202331 0 -0.36491865814174967 0.34450616947628299 0 -0.37580907906339922 0.33647878059299557 0 -0.36491865814174967 0.34450616947628299 0 -0.36960199921418602 0.35731180584905542 0 -0.37580907906339922 0.33647878059299557 0 -0.36960199921418602 0.35731180584905542 0 -0.36491865814174967 0.34450616947628299 0 -0.36204010283369881 0.35293053614415609 0 -0.35712059876301439 0.34740413424876382 0 -0.36491865814174967 0.34450616947628299 0 -0.36204010283369881 0.35293053614415609 0 -0.36960199921418602 0.35731180584905542 0 -0.36231373349064938 0.3583368008115923 0 -0.36204010283369881 0.35293053614415609 0 -0.35577634304253192 0.35617190760009498 0 -0.36231373349064938 0.3583368008115923 0 -0.36204010283369881 0.35293053614415609 0 -0.36960199921418602 0.35731180584905542 0 -0.36960199921418602 0.35731180584905542 0 -0.36339491936497281 0.37814483110511521 0 -0.36960199921418602 0.35731180584905542 0 -0.37158620997362618 0.36500042586936587 0 -0.36339491936497281 0.37814483110511521 0 -0.36960199921418602 0.35731180584905542 0 -0.36108579844600058 0.36545797327707619 0 -0.36339491936497281 0.37814483110511521 0 -0.38141148745950948 0.38039780936179463 0 -0.37158620997362618 0.36500042586936587 0 -0.36339491936497281 0.37814483110511521 0 -0.38070440212728118 0.35956436367519867 0 -0.36960199921418602 0.35731180584905542 0 -0.37158620997362618 0.36500042586936587 0 -0.36231373349064938 0.3583368008115923 0 -0.36108579844600058 0.36545797327707619 0 -0.35577634304253192 0.35617190760009498 0 -0.36231373349064938 0.3583368008115923 0 -0.36960199921418602 0.35731180584905542 0 -0.36108579844600058 0.36545797327707619 0 -0.36108579844600058 0.36545797327707619 0 -0.3497530714632448 0.36534695126967459 0 -0.35577634304253192 0.35617190760009498 0 -0.3497530714632448 0.36534695126967459 0 -0.36339491936497281 0.37814483110511521 0 -0.33874167774564268 0.3750619344605613 0 -0.36108579844600058 0.36545797327707619 0 -0.3497530714632448 0.36534695126967459 0 -0.36339491936497281 0.37814483110511521 0 -0.33942470910854639 0.36092010030626542 0 -0.3497530714632448 0.36534695126967459 0 -0.3460879504978186 0.35511096805544279 0 -0.3497530714632448 0.36534695126967459 0 -0.3460879504978186 0.35511096805544279 0 -0.35577634304253192 0.35617190760009498 0 -0.3460879504978186 0.35511096805544279 0 -0.35103907443215082 0.34984414324157243 0 -0.35577634304253192 0.35617190760009498 0 -0.3460879504978186 0.35511096805544279 0 -0.34556584107983002 0.34849125976349993 0 -0.35103907443215082 0.34984414324157243 0 -0.34251680356524339 0.34321741671518669 0 -0.35002774160894051 0.34339273059465159 0 -0.34556584107983002 0.34849125976349993 0 -0.35002774160894051 0.34339273059465159 0 -0.34556584107983002 0.34849125976349993 0 -0.35103907443215082 0.34984414324157243 0 -0.35103907443215082 0.34984414324157243 0 -0.35712059876301439 0.34740413424876382 0 -0.35577634304253192 0.35617190760009498 0 -0.35002774160894051 0.34339273059465159 0 -0.35103907443215082 0.34984414324157243 0 -0.35712059876301439 0.34740413424876382 0 -0.36204010283369881 0.35293053614415609 0 -0.35712059876301439 0.34740413424876382 0 -0.35577634304253192 0.35617190760009498 0 -0.35746143571760969 0.39805957647408341 0 -0.33700984602307921 0.4055687403903776 0 -0.35746143571760969 0.39805957647408341 0 -0.36339491936497281 0.37814483110511521 0 -0.33874167774564268 0.3750619344605613 0 -0.36339491936497281 0.37814483110511521 0 -0.33874167774564268 0.3750619344605613 0 -0.38141148745950948 0.38039780936179463 0 -0.37844474563582792 0.390355182046278 0 -0.36339491936497281 0.37814483110511521 0 -0.37844474563582792 0.390355182046278 0 -0.35746143571760969 0.39805957647408341 0 -0.36339491936497281 0.37814483110511521 0 -0.35746143571760969 0.39805957647408341 0 -0.36339491936497281 0.37814483110511521 0 -0.38141148745950948 0.38039780936179463 0 -0.36339491936497281 0.37814483110511521 0 -0.37668454372729859 0.41206883315114529 0 -0.37844474563582792 0.390355182046278 0 -0.35746143571760969 0.39805957647408341 0 -0.37844474563582792 0.390355182046278 0 -0.35746143571760969 0.39805957647408341 0 -0.37668454372729859 0.41206883315114529 0 -0.36778315087773072 0.43214877602771662 0 -0.35179051953527918 0.41709305806631919 0 -0.37668454372729859 0.41206883315114529 0 -0.35746143571760969 0.39805957647408341 0 -0.35179051953527918 0.41709305806631919 0 -0.37668454372729859 0.41206883315114529 0 -0.35179051953527918 0.41709305806631919 0 -0.36778315087773072 0.43214877602771662 0 -0.35179051953527918 0.41709305806631919 0 -0.34355933144160938 0.44471966407244162 0 -0.35179051953527918 0.41709305806631919 0 -0.34355933144160938 0.44471966407244162 0 -0.35746143571760969 0.39805957647408341 0 -0.35179051953527918 0.41709305806631919 0 -0.33700984602307921 0.4055687403903776 0 -0.35746143571760969 0.39805957647408341 0 -0.35179051953527918 0.41709305806631919 0 -0.35179051953527918 0.41709305806631919 0 -0.33092261172728182 0.42130471390500562 0 -0.33700984602307921 0.4055687403903776 0 -0.35179051953527918 0.41709305806631919 0 -0.33092261172728182 0.42130471390500562 0 -0.33092261172728182 0.42130471390500562 0 -0.31655825632854873 0.41307790430667191 0 -0.33700984602307921 0.4055687403903776 0 -0.35179051953527918 0.41709305806631919 0 -0.33092261172728182 0.42130471390500562 0 -0.34355933144160938 0.44471966407244162 0 -0.33092261172728182 0.42130471390500562 0 -0.32304151796324199 0.43794530689545591 0 -0.34355933144160938 0.44471966407244162 0 -0.33092261172728182 0.42130471390500562 0 -0.31005470391928353 0.42551636974368717 0 -0.32304151796324199 0.43794530689545591 0 -0.33092261172728182 0.42130471390500562 0 -0.31005470391928353 0.42551636974368717 0 -0.31005470391928353 0.42551636974368717 0 -0.30636015846579262 0.44081646755455739 0 -0.32304151796324199 0.43794530689545591 0 -0.31655825632854873 0.41307790430667191 0 -0.32178824989383492 0.40044082628072353 0 -0.33700984602307921 0.4055687403903776 0 -0.33092261172728182 0.42130471390500562 0 -0.31655825632854873 0.41307790430667191 0 -0.31005470391928353 0.42551636974368717 0 -0.31655825632854873 0.41307790430667191 0 -0.33700984602307921 0.4055687403903776 0 -0.31655825632854873 0.41307790430667191 0 -0.32178824989383492 0.40044082628072353 0 -0.30820761894760612 0.40180007281058999 0 -0.31589124725359768 0.39098578459502642 0 -0.32178824989383492 0.40044082628072353 0 -0.30820761894760612 0.40180007281058999 0 -0.31589124725359768 0.39098578459502642 0 -0.32178824989383492 0.40044082628072353 0 -0.33127428091634248 0.39077162930095188 0 -0.35746143571760969 0.39805957647408341 0 -0.33127428091634248 0.39077162930095188 0 -0.33700984602307921 0.4055687403903776 0 -0.32178824989383492 0.40044082628072353 0 -0.33127428091634248 0.39077162930095188 0 -0.33700984602307921 0.4055687403903776 0 -0.35746143571760969 0.39805957647408341 0 -0.33127428091634248 0.39077162930095188 0 -0.33874167774564268 0.3750619344605613 0 -0.31408843612631249 0.37197903781600761 0 -0.33127428091634248 0.39077162930095188 0 -0.33874167774564268 0.3750619344605613 0 -0.31408843612631249 0.37197903781600761 0 -0.31589124725359768 0.39098578459502642 0 -0.33127428091634248 0.39077162930095188 0 -0.29551252006441958 0.37309371542857861 0 -0.31408843612631249 0.37197903781600761 0 -0.30568017353146049 0.38157918508743732 0 -0.31408843612631249 0.37197903781600761 0 -0.31589124725359768 0.39098578459502642 0 -0.30568017353146049 0.38157918508743732 0 -0.31589124725359768 0.39098578459502642 0 -0.30568017353146049 0.38157918508743732 0 -0.30603649680964828 0.39194203915736708 0 -0.30568017353146049 0.38157918508743732 0 -0.29743858983336929 0.38628170497916159 0 -0.30603649680964828 0.39194203915736708 0 -0.29551252006441958 0.37309371542857861 0 -0.30568017353146049 0.38157918508743732 0 -0.29743858983336929 0.38628170497916159 0 -0.31589124725359768 0.39098578459502642 0 -0.30820761894760612 0.40180007281058999 0 -0.30603649680964828 0.39194203915736708 0 -0.30820761894760612 0.40180007281058999 0 -0.30603649680964828 0.39194203915736708 0 -0.29604813782321171 0.40003827384795049 0 -0.29743858983336929 0.38628170497916159 0 -0.30603649680964828 0.39194203915736708 0 -0.29604813782321171 0.40003827384795049 0 -0.30820761894760612 0.40180007281058999 0 -0.29604813782321171 0.40003827384795049 0 -0.2987408814332651 0.40933989620534528 0 -0.29604813782321171 0.40003827384795049 0 -0.28905057763704689 0.40562835892549581 0 -0.28392778011776681 0.39892722844600809 0 -0.29604813782321171 0.40003827384795049 0 -0.28905057763704689 0.40562835892549581 0 -0.2987408814332651 0.40933989620534528 0 -0.29604813782321171 0.40003827384795049 0 -0.28980128107673031 0.39400368344191522 0 -0.28392778011776681 0.39892722844600809 0 -0.29743858983336929 0.38628170497916159 0 -0.29604813782321171 0.40003827384795049 0 -0.28980128107673031 0.39400368344191522 0 -0.28980128107673031 0.39400368344191522 0 -0.28179061653257348 0.3907675264945405 0 -0.28392778011776681 0.39892722844600809 0 -0.28905057763704689 0.40562835892549581 0 -0.28392778011776681 0.39892722844600809 0 -0.27817781655911977 0.40726136879628272 0 -0.29743858983336929 0.38628170497916159 0 -0.28980128107673031 0.39400368344191522 0 -0.28179061653257348 0.3907675264945405 0 -0.29743858983336929 0.38628170497916159 0 -0.28179061653257348 0.3907675264945405 0 -0.28819376848868639 0.38228739672622841 0 -0.29743858983336929 0.38628170497916159 0 -0.28179061653257348 0.3907675264945405 0 -0.29551252006441958 0.37309371542857861 0 -0.29743858983336929 0.38628170497916159 0 -0.28819376848868639 0.38228739672622841 0 -0.29551252006441958 0.37309371542857861 0 -0.28819376848868639 0.38228739672622841 0 -0.28685204816290072 0.37621819500323123 0 -0.28179061653257348 0.3907675264945405 0 -0.28158428542699082 0.38279668863870758 0 -0.28819376848868639 0.38228739672622841 0 -0.28158428542699082 0.38279668863870758 0 -0.28819376848868639 0.38228739672622841 0 -0.28685204816290072 0.37621819500323123 0 -0.28158428542699082 0.38279668863870758 0 -0.28685204816290072 0.37621819500323123 0 -0.28084635904778937 0.37544065550995409 0 -0.27110701654299552 0.36596211494311248 0 -0.26614264323177789 0.39525334800991979 0 -0.27110701654299552 0.36596211494311248 0 -0.27663284499009211 0.37939207802828528 0 -0.27229768174870289 0.38438446135480281 0 -0.27110701654299552 0.36596211494311248 0 -0.27229768174870289 0.38438446135480281 0 -0.26614264323177789 0.39525334800991979 0 -0.27110701654299552 0.36596211494311248 0 -0.26689531734350652 0.36931705260985792 0 -0.26614264323177789 0.39525334800991979 0 -0.28158428542699082 0.38279668863870758 0 -0.28084635904778937 0.37544065550995409 0 -0.27663284499009211 0.37939207802828528 0 -0.27229768174870289 0.38438446135480281 0 -0.27641046434025379 0.38710393959788297 0 -0.26614264323177789 0.39525334800991979 0 -0.28179061653257348 0.3907675264945405 0 -0.28158428542699082 0.38279668863870758 0 -0.27641046434025379 0.38710393959788297 0 -0.27663284499009211 0.37939207802828528 0 -0.27229768174870289 0.38438446135480281 0 -0.27641046434025379 0.38710393959788297 0 -0.28158428542699082 0.38279668863870758 0 -0.27663284499009211 0.37939207802828528 0 -0.27641046434025379 0.38710393959788297 0 -0.28179061653257348 0.3907675264945405 0 -0.27641046434025379 0.38710393959788297 0 -0.26614264323177789 0.39525334800991979 0 -0.28179061653257348 0.3907675264945405 0 -0.27661435207820328 0.39472461325581981 0 -0.26614264323177789 0.39525334800991979 0 -0.28179061653257348 0.3907675264945405 0 -0.28392778011776681 0.39892722844600809 0 -0.27661435207820328 0.39472461325581981 0 -0.28179061653257348 0.3907675264945405 0 -0.26614264323177789 0.39525334800991979 0 -0.28392778011776681 0.39892722844600809 0 -0.27661435207820328 0.39472461325581981 0 -0.27572094251528112 0.40196054452149499 0 -0.28392778011776681 0.39892722844600809 0 -0.27572094251528112 0.40196054452149499 0 -0.27817781655911977 0.40726136879628272 0 -0.27572094251528112 0.40196054452149499 0 -0.26416382130603389 0.40692896758786917 0 -0.27817781655911977 0.40726136879628272 0 -0.27661435207820328 0.39472461325581981 0 -0.27572094251528112 0.40196054452149499 0 -0.26416382130603389 0.40692896758786917 0 -0.27661435207820328 0.39472461325581981 0 -0.26614264323177789 0.39525334800991979 0 -0.26416382130603389 0.40692896758786917 0 -0.27661435207820328 0.39472461325581981 0 -0.26416382130603389 0.40692896758786917 0 -0.26614264323177789 0.39525334800991979 0 -0.24781733580734391 0.38604582424895789 0 -0.24388213391773941 0.40163479241199579 0 -0.26614264323177789 0.39525334800991979 0 -0.25157066981256843 0.40894445920752592 0 -0.24388213391773941 0.40163479241199579 0 -0.26614264323177789 0.39525334800991979 0 -0.24388213391773941 0.40163479241199579 0 -0.26614264323177789 0.39525334800991979 0 -0.26416382130603389 0.40692896758786917 0 -0.26614264323177789 0.39525334800991979 0 -0.25157066981256843 0.40894445920752592 0 -0.26416382130603389 0.40692896758786917 0 -0.25453646971320443 0.37462232419521813 0 -0.26614264323177789 0.39525334800991979 0 -0.24781733580734391 0.38604582424895789 0 -0.25453646971320443 0.37462232419521813 0 -0.26689531734350652 0.36931705260985792 0 -0.26614264323177789 0.39525334800991979 0 -0.26107936510946472 0.42512814796255138 0 -0.25799490891289278 0.4433273283372331 0 -0.26107936510946472 0.42512814796255138 0 -0.27138668263498972 0.43431468825499642 0 -0.25799490891289278 0.4433273283372331 0 -0.26107936510946472 0.42512814796255138 0 -0.25799490891289278 0.4433273283372331 0 -0.24263019791012411 0.42803682032005991 0 -0.25799490891289278 0.4433273283372331 0 -0.24263019791012411 0.42803682032005991 0 -0.26107936510946472 0.42512814796255138 0 -0.26416382130603389 0.40692896758786917 0 -0.26107936510946472 0.42512814796255138 0 -0.26416382130603389 0.40692896758786917 0 -0.24263019791012411 0.42803682032005991 0 -0.26416382130603389 0.40692896758786917 0 -0.24263019791012411 0.42803682032005991 0 -0.25157066981256843 0.40894445920752592 0 -0.26416382130603389 0.40692896758786917 0 -0.24263019791012411 0.42803682032005991 0 -0.26107936510946472 0.42512814796255138 0 -0.26416382130603389 0.40692896758786917 0 -0.27370875903762831 0.41905129137381081 0 -0.26416382130603389 0.40692896758786917 0 -0.27817781655911977 0.40726136879628272 0 -0.27370875903762831 0.41905129137381081 0 -0.27817781655911977 0.40726136879628272 0 -0.27370875903762831 0.41905129137381081 0 -0.28647403122915938 0.41490769911839809 0 -0.27370875903762831 0.41905129137381081 0 -0.27138668263498972 0.43431468825499642 0 -0.28359142860916292 0.42646623900898489 0 -0.26107936510946472 0.42512814796255138 0 -0.27370875903762831 0.41905129137381081 0 -0.27138668263498972 0.43431468825499642 0 -0.27138668263498972 0.43431468825499642 0 -0.28359142860916292 0.42646623900898489 0 -0.28426041238301858 0.43930471826406531 0 -0.28359142860916292 0.42646623900898489 0 -0.29576073289665422 0.43347565529899762 0 -0.28426041238301858 0.43930471826406531 0 -0.28359142860916292 0.42646623900898489 0 -0.29576073289665422 0.43347565529899762 0 -0.29610666663401819 0.4205870682229661 0 -0.28905057763704689 0.40562835892549581 0 -0.27817781655911977 0.40726136879628272 0 -0.28647403122915938 0.41490769911839809 0 -0.27370875903762831 0.41905129137381081 0 -0.28359142860916292 0.42646623900898489 0 -0.28647403122915938 0.41490769911839809 0 -0.28359142860916292 0.42646623900898489 0 -0.28647403122915938 0.41490769911839809 0 -0.29610666663401819 0.4205870682229661 0 -0.28647403122915938 0.41490769911839809 0 -0.29610666663401819 0.4205870682229661 0 -0.2987408814332651 0.40933989620534528 0 -0.28905057763704689 0.40562835892549581 0 -0.28647403122915938 0.41490769911839809 0 -0.2987408814332651 0.40933989620534528 0 -0.31655825632854873 0.41307790430667191 0 -0.29610666663401819 0.4205870682229661 0 -0.2987408814332651 0.40933989620534528 0 -0.31655825632854873 0.41307790430667191 0 -0.29610666663401819 0.4205870682229661 0 -0.31005470391928353 0.42551636974368717 0 -0.31655825632854873 0.41307790430667191 0 -0.29610666663401819 0.4205870682229661 0 -0.31655825632854873 0.41307790430667191 0 -0.30820761894760612 0.40180007281058999 0 -0.2987408814332651 0.40933989620534528 0 -0.29576073289665422 0.43347565529899762 0 -0.31005470391928353 0.42551636974368717 0 -0.30636015846579262 0.44081646755455739 0 -0.29576073289665422 0.43347565529899762 0 -0.29610666663401819 0.4205870682229661 0 -0.31005470391928353 0.42551636974368717 0 -0.29576073289665422 0.43347565529899762 0 -0.30636015846579262 0.44081646755455739 0 -0.2944743431310044 0.45228094752776682 0 -0.30636015846579262 0.44081646755455739 0 -0.30512100021830008 0.46490456032657962 0 -0.30636015846579262 0.44081646755455739 0 -0.30512100021830008 0.46490456032657962 0 -0.2944743431310044 0.45228094752776682 0 -0.30636015846579262 0.44081646755455739 0 -0.30512100021830008 0.46490456032657962 0 -0.32381548421637429 0.45642326981327008 0 -0.30512100021830008 0.46490456032657962 0 -0.2944743431310044 0.45228094752776682 0 -0.28858619761816889 0.47377087817814589 0 -0.2944743431310044 0.45228094752776682 0 -0.27329055326553048 0.45854910325768988 0 -0.28858619761816889 0.47377087817814589 0 -0.2944743431310044 0.45228094752776682 0 -0.28426041238301858 0.43930471826406531 0 -0.27329055326553048 0.45854910325768988 0 -0.29576073289665422 0.43347565529899762 0 -0.2944743431310044 0.45228094752776682 0 -0.28426041238301858 0.43930471826406531 0 -0.27138668263498972 0.43431468825499642 0 -0.28426041238301858 0.43930471826406531 0 -0.27329055326553048 0.45854910325768988 0 -0.27138668263498972 0.43431468825499642 0 -0.27329055326553048 0.45854910325768988 0 -0.25799490891289278 0.4433273283372331 0 -0.27329055326553048 0.45854910325768988 0 -0.25799490891289278 0.4433273283372331 0 -0.27329055326553048 0.45854910325768988 0 -0.28858619761816889 0.47377087817814589 0 -0.27329055326553048 0.45854910325768988 0 -0.25438198006151169 0.46464464965965441 0 -0.25799490891289278 0.4433273283372331 0 -0.27329055326553048 0.45854910325768988 0 -0.25438198006151169 0.46464464965965441 0 -0.26859377699614329 0.4811575177290362 0 -0.25438198006151169 0.46464464965965441 0 -0.25799490891289278 0.4433273283372331 0 -0.25438198006151169 0.46464464965965441 0 -0.25799490891289278 0.4433273283372331 0 -0.24356894722331929 0.44821508210096461 0 -0.25080144613104921 0.5 0 -0.26859377699614329 0.4811575177290362 0 -0.2467553297522557 0.48147402383551691 0 -0.25080144613104921 0.5 0 -0.26859377699614329 0.4811575177290362 0 -0.27705851983630159 0.5 0 -0.25438198006151169 0.46464464965965441 0 -0.26859377699614329 0.4811575177290362 0 -0.2467553297522557 0.48147402383551691 0 -0.27329055326553048 0.45854910325768988 0 -0.26859377699614329 0.4811575177290362 0 -0.28858619761816889 0.47377087817814589 0 -0.26859377699614329 0.4811575177290362 0 -0.27705851983630159 0.5 0 -0.28830299895955541 0.48893487857068268 0 -0.27705851983630159 0.5 0 -0.28830299895955541 0.48893487857068268 0 -0.30331559354155391 0.49999999999999939 0 -0.26859377699614329 0.4811575177290362 0 -0.28830299895955541 0.48893487857068268 0 -0.28858619761816889 0.47377087817814589 0 -0.28830299895955541 0.48893487857068268 0 -0.28858619761816889 0.47377087817814589 0 -0.30388184197080759 0.48899265309860168 0 -0.28858619761816889 0.47377087817814589 0 -0.30388184197080759 0.48899265309860168 0 -0.30512100021830008 0.46490456032657962 0 -0.30388184197080759 0.48899265309860168 0 -0.30512100021830008 0.46490456032657962 0 -0.30388184197080759 0.48899265309860168 0 -0.31654611508668351 0.48621885406126381 0 -0.30512100021830008 0.46490456032657962 0 -0.28858619761816889 0.47377087817814589 0 -0.30388184197080759 0.48899265309860168 0 -0.30331559354155391 0.49999999999999939 0 -0.30388184197080759 0.48899265309860168 0 -0.28830299895955541 0.48893487857068268 0 -0.30331559354155391 0.49999999999999939 0 -0.30388184197080759 0.48899265309860168 0 -0.30388184197080759 0.48899265309860168 0 -0.31494260619507058 0.500000000000002 0 -0.31654611508668351 0.48621885406126381 0 -0.30331559354155391 0.49999999999999939 0 -0.30388184197080759 0.48899265309860168 0 -0.31494260619507058 0.500000000000002 0 -0.30388184197080759 0.48899265309860168 0 -0.31494260619507058 0.500000000000002 0 -0.31654611508668351 0.48621885406126381 0 -0.33275791060477139 0.5 0 -0.32602721644446891 0.47719705688113462 0 -0.31494260619507058 0.500000000000002 0 -0.31654611508668351 0.48621885406126381 0 -0.33275791060477139 0.5 0 -0.33275791060477139 0.5 0 -0.34200011506365208 0.48331572161184322 0 -0.32602721644446891 0.47719705688113462 0 -0.33275791060477139 0.5 0 -0.34200011506365208 0.48331572161184322 0 -0.35057321501447208 0.49999999999999872 0 -0.34200011506365208 0.48331572161184322 0 -0.32602721644446891 0.47719705688113462 0 -0.33593075250063148 0.46750731867274542 0 -0.34200011506365208 0.48331572161184322 0 -0.33593075250063148 0.46750731867274542 0 -0.35201810675435108 0.4676562019538536 0 -0.30512100021830008 0.46490456032657962 0 -0.31654611508668351 0.48621885406126381 0 -0.32602721644446891 0.47719705688113462 0 -0.30512100021830008 0.46490456032657962 0 -0.32602721644446891 0.47719705688113462 0 -0.32381548421637429 0.45642326981327008 0 -0.30636015846579262 0.44081646755455739 0 -0.32381548421637429 0.45642326981327008 0 -0.32304151796324199 0.43794530689545591 0 -0.32381548421637429 0.45642326981327008 0 -0.32304151796324199 0.43794530689545591 0 -0.34355933144160938 0.44471966407244162 0 -0.32381548421637429 0.45642326981327008 0 -0.34355933144160938 0.44471966407244162 0 -0.33593075250063148 0.46750731867274542 0 -0.32602721644446891 0.47719705688113462 0 -0.32381548421637429 0.45642326981327008 0 -0.33593075250063148 0.46750731867274542 0 -0.35201810675435108 0.4676562019538536 0 -0.36028404822733179 0.44939908513577981 0 -0.36566353784044697 0.46257036423753561 0 -0.34355933144160938 0.44471966407244162 0 -0.35201810675435108 0.4676562019538536 0 -0.36028404822733179 0.44939908513577981 0 -0.34355933144160938 0.44471966407244162 0 -0.33593075250063148 0.46750731867274542 0 -0.35201810675435108 0.4676562019538536 0 -0.36778315087773072 0.43214877602771662 0 -0.34355933144160938 0.44471966407244162 0 -0.36028404822733179 0.44939908513577981 0 -0.36778315087773072 0.43214877602771662 0 -0.36028404822733179 0.44939908513577981 0 -0.37376195539900242 0.45249759326054367 0 -0.37701653082709469 0.46900635458093531 0 -0.37376195539900242 0.45249759326054367 0 -0.36566353784044697 0.46257036423753561 0 -0.36028404822733179 0.44939908513577981 0 -0.37376195539900242 0.45249759326054367 0 -0.36566353784044697 0.46257036423753561 0 -0.36552159823955549 0.47691699748014749 0 -0.37220834978290879 0.49000150617251997 0 -0.35595833756876799 0.48470827593500232 0 -0.37701653082709469 0.46900635458093531 0 -0.36566353784044697 0.46257036423753561 0 -0.36552159823955549 0.47691699748014749 0 -0.37805640255927542 0.47903421333972468 0 -0.37701653082709469 0.46900635458093531 0 -0.36552159823955549 0.47691699748014749 0 -0.35201810675435108 0.4676562019538536 0 -0.36566353784044697 0.46257036423753561 0 -0.36552159823955549 0.47691699748014749 0 -0.37805640255927542 0.47903421333972468 0 -0.36552159823955549 0.47691699748014749 0 -0.37220834978290879 0.49000150617251997 0 -0.37220834978290879 0.49000150617251997 0 -0.35057321501447208 0.49999999999999872 0 -0.35595833756876799 0.48470827593500232 0 -0.37789332191386737 0.5 0 -0.37220834978290879 0.49000150617251997 0 -0.35057321501447208 0.49999999999999872 0 -0.37220834978290879 0.49000150617251997 0 -0.35057321501447208 0.49999999999999872 0 -0.34200011506365208 0.48331572161184322 0 -0.35057321501447208 0.49999999999999872 0 -0.35595833756876799 0.48470827593500232 0 -0.34200011506365208 0.48331572161184322 0 -0.35201810675435108 0.4676562019538536 0 -0.35595833756876799 0.48470827593500232 0 -0.35201810675435108 0.4676562019538536 0 -0.36552159823955549 0.47691699748014749 0 -0.35595833756876799 0.48470827593500232 0 -0.142080771754234 0.48212662116497451 0 -0.14744519938683801 0.47523243684594829 0 -0.1380962150490555 0.47248515407185221 0 -0.142080771754234 0.48212662116497451 0 -0.14744519938683801 0.47523243684594829 0 -0.15313912830386001 0.48632871978955722 0 -0.14744519938683801 0.47523243684594829 0 -0.1380962150490555 0.47248515407185221 0 -0.1446941887002707 0.46454185114692792 0 -0.14744519938683801 0.47523243684594829 0 -0.1446941887002707 0.46454185114692792 0 -0.15815775643206659 0.473198332503178 0 -0.14744519938683801 0.47523243684594829 0 -0.15313912830386001 0.48632871978955722 0 -0.15815775643206659 0.473198332503178 0 -0.142080771754234 0.48212662116497451 0 -0.15313912830386001 0.48632871978955722 0 -0.13803845513632401 0.5 0 -0.15313912830386001 0.48632871978955722 0 -0.13803845513632401 0.5 0 -0.1663114266205577 0.50000000000000011 0 -0.142080771754234 0.48212662116497451 0 -0.13803845513632401 0.5 0 -0.12908554574303099 0.47755934496718438 0 -0.13803845513632401 0.5 0 -0.12908554574303099 0.47755934496718438 0 -0.1160402402672886 0.48503019582547341 0 -0.142080771754234 0.48212662116497451 0 -0.12908554574303099 0.47755934496718438 0 -0.1380962150490555 0.47248515407185221 0 -0.12908554574303099 0.47755934496718438 0 -0.1380962150490555 0.47248515407185221 0 -0.13097929143795109 0.46459511115351071 0 -0.12908554574303099 0.47755934496718438 0 -0.13097929143795109 0.46459511115351071 0 -0.1176294132596279 0.46872710166108278 0 -0.13097929143795109 0.46459511115351071 0 -0.1351896940807357 0.45304119368279389 0 -0.1204057133641486 0.45504160574272429 0 -0.13097929143795109 0.46459511115351071 0 -0.1351896940807357 0.45304119368279389 0 -0.1446941887002707 0.46454185114692792 0 -0.1380962150490555 0.47248515407185221 0 -0.13097929143795109 0.46459511115351071 0 -0.1446941887002707 0.46454185114692792 0 -0.1351896940807357 0.45304119368279389 0 -0.13889501351409689 0.43598263237980822 0 -0.1242648033483075 0.43981492828754482 0 -0.1351896940807357 0.45304119368279389 0 -0.1242648033483075 0.43981492828754482 0 -0.1204057133641486 0.45504160574272429 0 -0.15017718620881049 0.45777983735391498 0 -0.13889501351409689 0.43598263237980822 0 -0.1351896940807357 0.45304119368279389 0 -0.15017718620881049 0.45777983735391498 0 -0.13889501351409689 0.43598263237980822 0 -0.15995177900170021 0.44572512983606088 0 -0.15376963845050121 0.4328235067909087 0 -0.13889501351409689 0.43598263237980822 0 -0.15017718620881049 0.45777983735391498 0 -0.15995177900170021 0.44572512983606088 0 -0.13889501351409689 0.43598263237980822 0 -0.15017718620881049 0.45777983735391498 0 -0.15995177900170021 0.44572512983606088 0 -0.1446941887002707 0.46454185114692792 0 -0.15017718620881049 0.45777983735391498 0 -0.1351896940807357 0.45304119368279389 0 -0.1446941887002707 0.46454185114692792 0 -0.15017718620881049 0.45777983735391498 0 -0.1446941887002707 0.46454185114692792 0 -0.15017718620881049 0.45777983735391498 0 -0.15815775643206659 0.473198332503178 0 -0.15017718620881049 0.45777983735391498 0 -0.15868634814382429 0.46531473325554851 0 -0.15815775643206659 0.473198332503178 0 -0.15017718620881049 0.45777983735391498 0 -0.15815775643206659 0.473198332503178 0 -0.160558198289461 0.46047642425523388 0 -0.1655661766345953 0.45099185016729298 0 -0.16585225164495951 0.46980433890986678 0 -0.1655661766345953 0.45099185016729298 0 -0.17867327812258871 0.46114583139567922 0 -0.16585225164495951 0.46980433890986678 0 -0.1655661766345953 0.45099185016729298 0 -0.16585225164495951 0.46980433890986678 0 -0.15868634814382429 0.46531473325554851 0 -0.160558198289461 0.46047642425523388 0 -0.16585225164495951 0.46980433890986678 0 -0.15017718620881049 0.45777983735391498 0 -0.15868634814382429 0.46531473325554851 0 -0.160558198289461 0.46047642425523388 0 -0.15017718620881049 0.45777983735391498 0 -0.160558198289461 0.46047642425523388 0 -0.15995177900170021 0.44572512983606088 0 -0.15995177900170021 0.44572512983606088 0 -0.1655661766345953 0.45099185016729298 0 -0.1697263717945888 0.43367042231820602 0 -0.160558198289461 0.46047642425523388 0 -0.15995177900170021 0.44572512983606088 0 -0.1655661766345953 0.45099185016729298 0 -0.15995177900170021 0.44572512983606088 0 -0.1697263717945888 0.43367042231820602 0 -0.1655661766345953 0.45099185016729298 0 -0.1926513277646352 0.45119866261047992 0 -0.1697263717945888 0.43367042231820602 0 -0.1926513277646352 0.45119866261047992 0 -0.1697263717945888 0.43367042231820602 0 -0.1926513277646352 0.45119866261047992 0 -0.18693863061853061 0.43491447939059907 0 -0.1697263717945888 0.43367042231820602 0 -0.1655661766345953 0.45099185016729298 0 -0.17867327812258871 0.46114583139567922 0 -0.1926513277646352 0.45119866261047992 0 -0.17867327812258871 0.46114583139567922 0 -0.17876854714149509 0.47093865696285842 0 -0.16585225164495951 0.46980433890986678 0 -0.17867327812258871 0.46114583139567922 0 -0.1899884502156329 0.46461586120334353 0 -0.1926513277646352 0.45119866261047992 0 -0.17867327812258871 0.46114583139567922 0 -0.17876854714149509 0.47093865696285842 0 -0.1899884502156329 0.46461586120334353 0 -0.17876854714149509 0.47093865696285842 0 -0.19138341924764241 0.47827032896460842 0 -0.1899884502156329 0.46461586120334353 0 -0.1757986315986971 0.48088398659212228 0 -0.17876854714149509 0.47093865696285842 0 -0.19138341924764241 0.47827032896460842 0 -0.1757986315986971 0.48088398659212228 0 -0.17876854714149509 0.47093865696285842 0 -0.16585225164495951 0.46980433890986678 0 -0.16585225164495951 0.46980433890986678 0 -0.16613832665532341 0.48861682765244069 0 -0.16585225164495951 0.46980433890986678 0 -0.15815775643206659 0.473198332503178 0 -0.16613832665532341 0.48861682765244069 0 -0.1757986315986971 0.48088398659212228 0 -0.16585225164495951 0.46980433890986678 0 -0.16613832665532341 0.48861682765244069 0 -0.15313912830386001 0.48632871978955722 0 -0.15815775643206659 0.473198332503178 0 -0.16613832665532341 0.48861682765244069 0 -0.15815775643206659 0.473198332503178 0 -0.16613832665532341 0.48861682765244069 0 -0.15868634814382429 0.46531473325554851 0 -0.16585225164495951 0.46980433890986678 0 -0.15815775643206659 0.473198332503178 0 -0.15313912830386001 0.48632871978955722 0 -0.16613832665532341 0.48861682765244069 0 -0.1663114266205577 0.50000000000000011 0 -0.16613832665532341 0.48861682765244069 0 -0.1720302250152923 0.50000000000000022 0 -0.16613832665532341 0.48861682765244069 0 -0.1663114266205577 0.50000000000000011 0 -0.1720302250152923 0.50000000000000022 0 -0.16613832665532341 0.48861682765244069 0 -0.1663114266205577 0.50000000000000011 0 -0.16613832665532341 0.48861682765244069 0 -0.17430115969348189 0.49501483184612438 0 -0.1720302250152923 0.50000000000000022 0 -0.17430115969348189 0.49501483184612438 0 -0.1720302250152923 0.50000000000000022 0 -0.1982872987205446 0.5 0 -0.1757986315986971 0.48088398659212228 0 -0.17430115969348189 0.49501483184612438 0 -0.19138341924764241 0.47827032896460842 0 -0.17430115969348189 0.49501483184612438 0 -0.19138341924764241 0.47827032896460842 0 -0.1757986315986971 0.48088398659212228 0 -0.16613832665532341 0.48861682765244069 0 -0.17430115969348189 0.49501483184612438 0 -0.17430115969348189 0.49501483184612438 0 -0.1982872987205446 0.5 0 -0.19138341924764241 0.47827032896460842 0 -0.1982872987205446 0.5 0 -0.19138341924764241 0.47827032896460842 0 -0.21217809917650449 0.48030286392854288 0 -0.19138341924764241 0.47827032896460842 0 -0.208465678801803 0.46152582608309223 0 -0.19138341924764241 0.47827032896460842 0 -0.21217809917650449 0.48030286392854288 0 -0.208465678801803 0.46152582608309223 0 -0.1982872987205446 0.5 0 -0.21217809917650449 0.48030286392854288 0 -0.22454437242579681 0.5 0 -0.22454437242579681 0.5 0 -0.2288960980978284 0.47674808914996208 0 -0.2467553297522557 0.48147402383551691 0 -0.21217809917650449 0.48030286392854288 0 -0.22454437242579681 0.5 0 -0.2288960980978284 0.47674808914996208 0 -0.21217809917650449 0.48030286392854288 0 -0.2288960980978284 0.47674808914996208 0 -0.22325063631842021 0.46203708915627778 0 -0.25438198006151169 0.46464464965965441 0 -0.2467553297522557 0.48147402383551691 0 -0.2372897108761052 0.46028528898629889 0 -0.2288960980978284 0.47674808914996208 0 -0.2467553297522557 0.48147402383551691 0 -0.2372897108761052 0.46028528898629889 0 -0.25080144613104921 0.5 0 -0.22454437242579681 0.5 0 -0.2467553297522557 0.48147402383551691 0 -0.24356894722331929 0.44821508210096461 0 -0.22554793835596351 0.44478132320157598 0 -0.24263019791012411 0.42803682032005991 0 -0.24356894722331929 0.44821508210096461 0 -0.2372897108761052 0.46028528898629889 0 -0.22554793835596351 0.44478132320157598 0 -0.25799490891289278 0.4433273283372331 0 -0.24356894722331929 0.44821508210096461 0 -0.24263019791012411 0.42803682032005991 0 -0.25438198006151169 0.46464464965965441 0 -0.24356894722331929 0.44821508210096461 0 -0.2372897108761052 0.46028528898629889 0 -0.2288960980978284 0.47674808914996208 0 -0.2372897108761052 0.46028528898629889 0 -0.22325063631842021 0.46203708915627778 0 -0.2372897108761052 0.46028528898629889 0 -0.22325063631842021 0.46203708915627778 0 -0.22554793835596351 0.44478132320157598 0 -0.22325063631842021 0.46203708915627778 0 -0.22554793835596351 0.44478132320157598 0 -0.208465678801803 0.46152582608309223 0 -0.22554793835596351 0.44478132320157598 0 -0.20785557032720109 0.44518798724498809 0 -0.21437917226951189 0.43588067273166847 0 -0.22554793835596351 0.44478132320157598 0 -0.20785557032720109 0.44518798724498809 0 -0.208465678801803 0.46152582608309223 0 -0.22554793835596351 0.44478132320157598 0 -0.208465678801803 0.46152582608309223 0 -0.21217809917650449 0.48030286392854288 0 -0.22325063631842021 0.46203708915627778 0 -0.208465678801803 0.46152582608309223 0 -0.19138341924764241 0.47827032896460842 0 -0.208465678801803 0.46152582608309223 0 -0.1899884502156329 0.46461586120334353 0 -0.208465678801803 0.46152582608309223 0 -0.1899884502156329 0.46461586120334353 0 -0.1926513277646352 0.45119866261047992 0 -0.20785557032720109 0.44518798724498809 0 -0.1926513277646352 0.45119866261047992 0 -0.18693863061853061 0.43491447939059907 0 -0.20785557032720109 0.44518798724498809 0 -0.208465678801803 0.46152582608309223 0 -0.1926513277646352 0.45119866261047992 0 -0.19176926968858449 0.42488004754311998 0 -0.20430089696141959 0.42856004989685992 0 -0.18693863061853061 0.43491447939059907 0 -0.20785557032720109 0.44518798724498809 0 -0.20430089696141959 0.42856004989685992 0 -0.18693863061853061 0.43491447939059907 0 -0.19176926968858449 0.42488004754311998 0 -0.19667758679306771 0.41738623802377928 0 -0.20430089696141959 0.42856004989685992 0 -0.19667758679306771 0.41738623802377928 0 -0.19460267291041519 0.40299123798476227 0 -0.182164522352502 0.41833083015148409 0 -0.19460267291041519 0.40299123798476227 0 -0.182164522352502 0.41833083015148409 0 -0.19176926968858449 0.42488004754311998 0 -0.19667758679306771 0.41738623802377928 0 -0.182164522352502 0.41833083015148409 0 -0.19667758679306771 0.41738623802377928 0 -0.2074030129404133 0.4163894186605448 0 -0.20430089696141959 0.42856004989685992 0 -0.19667758679306771 0.41738623802377928 0 -0.2074030129404133 0.4163894186605448 0 -0.19460267291041519 0.40299123798476227 0 -0.2074030129404133 0.4163894186605448 0 -0.21981228343346321 0.42499333058324978 0 -0.22162162460370111 0.40801623681407218 0 -0.2074030129404133 0.4163894186605448 0 -0.22162162460370111 0.40801623681407218 0 -0.19460267291041519 0.40299123798476227 0 -0.20785557032720109 0.44518798724498809 0 -0.20430089696141959 0.42856004989685992 0 -0.21437917226951189 0.43588067273166847 0 -0.2074030129404133 0.4163894186605448 0 -0.20430089696141959 0.42856004989685992 0 -0.21981228343346321 0.42499333058324978 0 -0.20430089696141959 0.42856004989685992 0 -0.21437917226951189 0.43588067273166847 0 -0.21981228343346321 0.42499333058324978 0 -0.22554793835596351 0.44478132320157598 0 -0.24263019791012411 0.42803682032005991 0 -0.22554793835596351 0.44478132320157598 0 -0.2313941741476824 0.42795323546389102 0 -0.24263019791012411 0.42803682032005991 0 -0.22554793835596351 0.44478132320157598 0 -0.21437917226951189 0.43588067273166847 0 -0.21981228343346321 0.42499333058324978 0 -0.22554793835596351 0.44478132320157598 0 -0.2313941741476824 0.42795323546389102 0 -0.21981228343346321 0.42499333058324978 0 -0.2313941741476824 0.42795323546389102 0 -0.21981228343346321 0.42499333058324978 0 -0.2301621318308705 0.41771135234831969 0 -0.2313941741476824 0.42795323546389102 0 -0.2301621318308705 0.41771135234831969 0 -0.23881831920799079 0.42424335086624981 0 -0.21981228343346321 0.42499333058324978 0 -0.22162162460370111 0.40801623681407218 0 -0.2301621318308705 0.41771135234831969 0 -0.22162162460370111 0.40801623681407218 0 -0.2301621318308705 0.41771135234831969 0 -0.241034552697166 0.41286836770778501 0 -0.25157066981256843 0.40894445920752592 0 -0.241034552697166 0.41286836770778501 0 -0.24263019791012411 0.42803682032005991 0 -0.241034552697166 0.41286836770778501 0 -0.24263019791012411 0.42803682032005991 0 -0.23881831920799079 0.42424335086624981 0 -0.22162162460370111 0.40801623681407218 0 -0.241034552697166 0.41286836770778501 0 -0.24388213391773941 0.40163479241199579 0 -0.2301621318308705 0.41771135234831969 0 -0.241034552697166 0.41286836770778501 0 -0.23881831920799079 0.42424335086624981 0 -0.25157066981256843 0.40894445920752592 0 -0.241034552697166 0.41286836770778501 0 -0.24388213391773941 0.40163479241199579 0 -0.2313941741476824 0.42795323546389102 0 -0.24263019791012411 0.42803682032005991 0 -0.23881831920799079 0.42424335086624981 0 -0.24263019791012411 0.42803682032005991 0 -0.23881831920799079 0.42424335086624981 0 -0.25453646971320443 0.37462232419521813 0 -0.24781733580734391 0.38604582424895789 0 -0.23735930512057779 0.37349779701461089 0 -0.2365264908337599 0.38834162546439549 0 -0.24781733580734391 0.38604582424895789 0 -0.23735930512057779 0.37349779701461089 0 -0.2365264908337599 0.38834162546439549 0 -0.24781733580734391 0.38604582424895789 0 -0.24388213391773941 0.40163479241199579 0 -0.22162162460370111 0.40801623681407218 0 -0.24388213391773941 0.40163479241199579 0 -0.22162162460370111 0.40801623681407218 0 -0.2365264908337599 0.38834162546439549 0 -0.2225569648072106 0.38059728391652659 0 -0.22162162460370111 0.40801623681407218 0 -0.2365264908337599 0.38834162546439549 0 -0.24388213391773941 0.40163479241199579 0 -0.2365264908337599 0.38834162546439549 0 -0.2225569648072106 0.38059728391652659 0 -0.23735930512057779 0.37349779701461089 0 -0.2225569648072106 0.38059728391652659 0 -0.20545957084956781 0.38789926664213359 0 -0.1994770785436861 0.36691897370504389 0 -0.22162162460370111 0.40801623681407218 0 -0.2225569648072106 0.38059728391652659 0 -0.20545957084956781 0.38789926664213359 0 -0.22162162460370111 0.40801623681407218 0 -0.20545957084956781 0.38789926664213359 0 -0.19460267291041519 0.40299123798476227 0 -0.20545957084956781 0.38789926664213359 0 -0.19460267291041519 0.40299123798476227 0 -0.18736095772118591 0.3836472042370111 0 -0.20545957084956781 0.38789926664213359 0 -0.18736095772118591 0.3836472042370111 0 -0.1994770785436861 0.36691897370504389 0 -0.18736095772118591 0.3836472042370111 0 -0.16248792359233191 0.38534127627451031 0 -0.17644948136236779 0.3976803029940168 0 -0.18736095772118591 0.3836472042370111 0 -0.16248792359233191 0.38534127627451031 0 -0.1741500565645078 0.37123080613525078 0 -0.16248792359233191 0.38534127627451031 0 -0.16330635783110381 0.4038062271485704 0 -0.14438589058212131 0.3948348353259919 0 -0.16248792359233191 0.38534127627451031 0 -0.16330635783110381 0.4038062271485704 0 -0.17644948136236779 0.3976803029940168 0 -0.19460267291041519 0.40299123798476227 0 -0.17644948136236779 0.3976803029940168 0 -0.17778078602166139 0.40821888849324761 0 -0.19460267291041519 0.40299123798476227 0 -0.18736095772118591 0.3836472042370111 0 -0.17644948136236779 0.3976803029940168 0 -0.16330635783110381 0.4038062271485704 0 -0.17644948136236779 0.3976803029940168 0 -0.17778078602166139 0.40821888849324761 0 -0.19460267291041519 0.40299123798476227 0 -0.182164522352502 0.41833083015148409 0 -0.17778078602166139 0.40821888849324761 0 -0.182164522352502 0.41833083015148409 0 -0.1723808956519178 0.41828584418740389 0 -0.17778078602166139 0.40821888849324761 0 -0.19176926968858449 0.42488004754311998 0 -0.182164522352502 0.41833083015148409 0 -0.18693863061853061 0.43491447939059907 0 -0.182164522352502 0.41833083015148409 0 -0.18693863061853061 0.43491447939059907 0 -0.1697263717945888 0.43367042231820602 0 -0.182164522352502 0.41833083015148409 0 -0.1697263717945888 0.43367042231820602 0 -0.182164522352502 0.41833083015148409 0 -0.1723808956519178 0.41828584418740389 0 -0.1697263717945888 0.43367042231820602 0 -0.15995177900170021 0.44572512983606088 0 -0.1697263717945888 0.43367042231820602 0 -0.15376963845050121 0.4328235067909087 0 -0.1697263717945888 0.43367042231820602 0 -0.14650538949161929 0.41591584262955861 0 -0.15376963845050121 0.4328235067909087 0 -0.1697263717945888 0.43367042231820602 0 -0.14650538949161929 0.41591584262955861 0 -0.1723808956519178 0.41828584418740389 0 -0.1697263717945888 0.43367042231820602 0 -0.14650538949161929 0.41591584262955861 0 -0.1723808956519178 0.41828584418740389 0 -0.14650538949161929 0.41591584262955861 0 -0.16330635783110381 0.4038062271485704 0 -0.1723808956519178 0.41828584418740389 0 -0.14650538949161929 0.41591584262955861 0 -0.16330635783110381 0.4038062271485704 0 -0.1723808956519178 0.41828584418740389 0 -0.17778078602166139 0.40821888849324761 0 -0.14650538949161929 0.41591584262955861 0 -0.15376963845050121 0.4328235067909087 0 -0.13889501351409689 0.43598263237980822 0 -0.13889501351409689 0.43598263237980822 0 -0.12761284081938409 0.41418542740570108 0 -0.14650538949161929 0.41591584262955861 0 -0.13889501351409689 0.43598263237980822 0 -0.12761284081938409 0.41418542740570108 0 -0.13889501351409689 0.43598263237980822 0 -0.12761284081938409 0.41418542740570108 0 -0.1242648033483075 0.43981492828754482 0 -0.14650538949161929 0.41591584262955861 0 -0.12761284081938409 0.41418542740570108 0 -0.12644786621320531 0.40058001872868543 0 -0.14650538949161929 0.41591584262955861 0 -0.12644786621320531 0.40058001872868543 0 -0.14650538949161929 0.41591584262955861 0 -0.12761284081938409 0.41418542740570108 0 -0.14650538949161929 0.41591584262955861 0 -0.12644786621320531 0.40058001872868543 0 -0.14438589058212131 0.3948348353259919 0 -0.12644786621320531 0.40058001872868543 0 -0.12826940643264259 0.38638828685515292 0 -0.14438589058212131 0.3948348353259919 0 -0.1399268433138337 0.37661104245066729 0 -0.12826940643264259 0.38638828685515292 0 -0.1198206075896991 0.37069234566290138 0 -0.1399268433138337 0.37661104245066729 0 -0.12826940643264259 0.38638828685515292 0 -0.14438589058212131 0.3948348353259919 0 -0.16248792359233191 0.38534127627451031 0 -0.1399268433138337 0.37661104245066729 0 -0.1571746455416145 0.36408416689185819 0 -0.16248792359233191 0.38534127627451031 0 -0.1399268433138337 0.37661104245066729 0 -0.14438589058212131 0.3948348353259919 0 -0.16330635783110381 0.4038062271485704 0 -0.14650538949161929 0.41591584262955861 0 -0.14438589058212131 0.3948348353259919 0 -0.1367685514822152 0.35851885971508118 0 -0.13367478836053351 0.33932016938713638 0 -0.15331730601663701 0.3395623532820784 0 -0.1367685514822152 0.35851885971508118 0 -0.15331730601663701 0.3395623532820784 0 -0.1571746455416145 0.36408416689185819 0 -0.1399268433138337 0.37661104245066729 0 -0.1367685514822152 0.35851885971508118 0 -0.1571746455416145 0.36408416689185819 0 -0.1399268433138337 0.37661104245066729 0 -0.1367685514822152 0.35851885971508118 0 -0.1198206075896991 0.37069234566290138 0 -0.1367685514822152 0.35851885971508118 0 -0.13367478836053351 0.33932016938713638 0 -0.1173066256070304 0.35104950557859033 0 -0.13367478836053351 0.33932016938713638 0 -0.1262409447270301 0.3211703831111522 0 -0.1175879007316586 0.33497855513245622 0 -0.13367478836053351 0.33932016938713638 0 -0.1262409447270301 0.3211703831111522 0 -0.14995133854557879 0.31573290008088639 0 -0.1262409447270301 0.3211703831111522 0 -0.14995133854557879 0.31573290008088639 0 -0.13170636281121431 0.30540396541675668 0 -0.13367478836053351 0.33932016938713638 0 -0.14995133854557879 0.31573290008088639 0 -0.15331730601663701 0.3395623532820784 0 -0.15331730601663701 0.3395623532820784 0 -0.17079439025487569 0.32494122108339912 0 -0.1763971922801616 0.3532406634935612 0 -0.14995133854557879 0.31573290008088639 0 -0.17079439025487569 0.32494122108339912 0 -0.167164841548782 0.29891422322321631 0 -0.14995133854557879 0.31573290008088639 0 -0.15331730601663701 0.3395623532820784 0 -0.17079439025487569 0.32494122108339912 0 -0.17079439025487569 0.32494122108339912 0 -0.19256976679114979 0.33165381796875049 0 -0.19699128312530151 0.30504565645142051 0 -0.17079439025487569 0.32494122108339912 0 -0.1763971922801616 0.3532406634935612 0 -0.19256976679114979 0.33165381796875049 0 -0.15331730601663701 0.3395623532820784 0 -0.1763971922801616 0.3532406634935612 0 -0.1571746455416145 0.36408416689185819 0 -0.15331730601663701 0.3395623532820784 0 -0.1763971922801616 0.3532406634935612 0 -0.1763971922801616 0.3532406634935612 0 -0.1571746455416145 0.36408416689185819 0 -0.1741500565645078 0.37123080613525078 0 -0.16248792359233191 0.38534127627451031 0 -0.1571746455416145 0.36408416689185819 0 -0.1741500565645078 0.37123080613525078 0 -0.18736095772118591 0.3836472042370111 0 -0.1741500565645078 0.37123080613525078 0 -0.1994770785436861 0.36691897370504389 0 -0.1763971922801616 0.3532406634935612 0 -0.1741500565645078 0.37123080613525078 0 -0.1994770785436861 0.36691897370504389 0 -0.1763971922801616 0.3532406634935612 0 -0.1994770785436861 0.36691897370504389 0 -0.1763971922801616 0.3532406634935612 0 -0.20127160642404629 0.34878804965207372 0 -0.19256976679114979 0.33165381796875049 0 -0.1763971922801616 0.3532406634935612 0 -0.1994770785436861 0.36691897370504389 0 -0.20127160642404629 0.34878804965207372 0 -0.1994770785436861 0.36691897370504389 0 -0.20127160642404629 0.34878804965207372 0 -0.22480168799342179 0.35512276170724633 0 -0.20127160642404629 0.34878804965207372 0 -0.22480168799342179 0.35512276170724633 0 -0.2131123065118124 0.33700403138576668 0 -0.2225569648072106 0.38059728391652659 0 -0.1994770785436861 0.36691897370504389 0 -0.2225569648072106 0.38059728391652659 0 -0.1994770785436861 0.36691897370504389 0 -0.22480168799342179 0.35512276170724633 0 -0.2225569648072106 0.38059728391652659 0 -0.22480168799342179 0.35512276170724633 0 -0.23735930512057779 0.37349779701461089 0 -0.25368472498167011 0.34420349485172652 0 -0.22480168799342179 0.35512276170724633 0 -0.24822911175635759 0.36217347122335058 0 -0.22480168799342179 0.35512276170724633 0 -0.24822911175635759 0.36217347122335058 0 -0.23735930512057779 0.37349779701461089 0 -0.25453646971320443 0.37462232419521813 0 -0.24822911175635759 0.36217347122335058 0 -0.23735930512057779 0.37349779701461089 0 -0.25757488899104952 0.31786411623381933 0 -0.23478691102954721 0.33115088205162452 0 -0.2366570207200871 0.30010935915934539 0 -0.25368472498167011 0.34420349485172652 0 -0.22480168799342179 0.35512276170724633 0 -0.23478691102954721 0.33115088205162452 0 -0.25368472498167011 0.34420349485172652 0 -0.23478691102954721 0.33115088205162452 0 -0.25757488899104952 0.31786411623381933 0 -0.25368472498167011 0.34420349485172652 0 -0.23478691102954721 0.33115088205162452 0 -0.23478691102954721 0.33115088205162452 0 -0.2158890970774244 0.31809826925152251 0 -0.2131123065118124 0.33700403138576668 0 -0.22480168799342179 0.35512276170724633 0 -0.23478691102954721 0.33115088205162452 0 -0.2131123065118124 0.33700403138576668 0 -0.23478691102954721 0.33115088205162452 0 -0.2158890970774244 0.31809826925152251 0 -0.2366570207200871 0.30010935915934539 0 -0.23478691102954721 0.33115088205162452 0 -0.2158890970774244 0.31809826925152251 0 -0.2158890970774244 0.31809826925152251 0 -0.2131123065118124 0.33700403138576668 0 -0.19256976679114979 0.33165381796875049 0 -0.20127160642404629 0.34878804965207372 0 -0.2131123065118124 0.33700403138576668 0 -0.19256976679114979 0.33165381796875049 0 -0.2158890970774244 0.31809826925152251 0 -0.19256976679114979 0.33165381796875049 0 -0.19699128312530151 0.30504565645142051 0 -0.19699128312530151 0.30504565645142051 0 -0.2044220976180971 0.2747921468301005 0 -0.18537993383704029 0.28397978744787411 0 -0.19699128312530151 0.30504565645142051 0 -0.21636901433909059 0.29447561219915308 0 -0.2044220976180971 0.2747921468301005 0 -0.2158890970774244 0.31809826925152251 0 -0.19699128312530151 0.30504565645142051 0 -0.21636901433909059 0.29447561219915308 0 -0.2158890970774244 0.31809826925152251 0 -0.19699128312530151 0.30504565645142051 0 -0.2158890970774244 0.31809826925152251 0 -0.21636901433909059 0.29447561219915308 0 -0.2366570207200871 0.30010935915934539 0 -0.21636901433909059 0.29447561219915308 0 -0.2366570207200871 0.30010935915934539 0 -0.2235041758045673 0.27405874977876837 0 -0.26277913973510902 0.29023342414179659 0 -0.2366570207200871 0.30010935915934539 0 -0.2447247674615598 0.2718938593685879 0 -0.2366570207200871 0.30010935915934539 0 -0.2447247674615598 0.2718938593685879 0 -0.2235041758045673 0.27405874977876837 0 -0.25693865295534157 0.25278860643768353 0 -0.2416444700809012 0.25186566196455601 0 -0.2447247674615598 0.2718938593685879 0 -0.2416444700809012 0.25186566196455601 0 -0.2447247674615598 0.2718938593685879 0 -0.22667039518801041 0.25355429459537898 0 -0.2447247674615598 0.2718938593685879 0 -0.22667039518801041 0.25355429459537898 0 -0.2447247674615598 0.2718938593685879 0 -0.2235041758045673 0.27405874977876837 0 -0.22667039518801041 0.25355429459537898 0 -0.2235041758045673 0.27405874977876837 0 -0.22667039518801041 0.25355429459537898 0 -0.21218175950055909 0.24952722652004439 0 -0.2044220976180971 0.2747921468301005 0 -0.1929026130837673 0.25762258695206858 0 -0.21218175950055909 0.24952722652004439 0 -0.2044220976180971 0.2747921468301005 0 -0.21218175950055909 0.24952722652004439 0 -0.2235041758045673 0.27405874977876837 0 -0.2044220976180971 0.2747921468301005 0 -0.21218175950055909 0.24952722652004439 0 -0.21636901433909059 0.29447561219915308 0 -0.2235041758045673 0.27405874977876837 0 -0.2044220976180971 0.2747921468301005 0 -0.2044220976180971 0.2747921468301005 0 -0.1929026130837673 0.25762258695206858 0 -0.18537993383704029 0.28397978744787411 0 -0.1929026130837673 0.25762258695206858 0 -0.16582228118094081 0.26466105519565358 0 -0.18651378479530609 0.23505073182760211 0 -0.1929026130837673 0.25762258695206858 0 -0.16582228118094081 0.26466105519565358 0 -0.18537993383704029 0.28397978744787411 0 -0.16582228118094081 0.26466105519565358 0 -0.167164841548782 0.29891422322321631 0 -0.14136362158270599 0.28508793949713551 0 -0.16582228118094081 0.26466105519565358 0 -0.18537993383704029 0.28397978744787411 0 -0.167164841548782 0.29891422322321631 0 -0.19699128312530151 0.30504565645142051 0 -0.18537993383704029 0.28397978744787411 0 -0.167164841548782 0.29891422322321631 0 -0.17079439025487569 0.32494122108339912 0 -0.19699128312530151 0.30504565645142051 0 -0.167164841548782 0.29891422322321631 0 -0.167164841548782 0.29891422322321631 0 -0.14136362158270599 0.28508793949713551 0 -0.14995133854557879 0.31573290008088639 0 -0.167164841548782 0.29891422322321631 0 -0.14136362158270599 0.28508793949713551 0 -0.14995133854557879 0.31573290008088639 0 -0.14136362158270599 0.28508793949713551 0 -0.13170636281121431 0.30540396541675668 0 -0.1262409447270301 0.3211703831111522 0 -0.13170636281121431 0.30540396541675668 0 -0.1173504618646501 0.30916380798395637 0 -0.14136362158270599 0.28508793949713551 0 -0.13170636281121431 0.30540396541675668 0 -0.1202787732923796 0.29457691953651272 0 -0.14136362158270599 0.28508793949713551 0 -0.1196693143642453 0.28329908912575552 0 -0.1202787732923796 0.29457691953651272 0 -0.14136362158270599 0.28508793949713551 0 -0.1155624016166297 0.27126165577105521 0 -0.1196693143642453 0.28329908912575552 0 -0.14136362158270599 0.28508793949713551 0 -0.1155624016166297 0.27126165577105521 0 -0.12872708527658799 0.25991420809329241 0 -0.1416417428525672 0.26777243923482702 0 -0.1155624016166297 0.27126165577105521 0 -0.14136362158270599 0.28508793949713551 0 -0.1416417428525672 0.26777243923482702 0 -0.1155624016166297 0.27126165577105521 0 -0.12872708527658799 0.25991420809329241 0 -0.14534546737678511 0.25129379472131641 0 -0.1416417428525672 0.26777243923482702 0 -0.12872708527658799 0.25991420809329241 0 -0.14534546737678511 0.25129379472131641 0 -0.12470300375741469 0.2457033751303839 0 -0.16582228118094081 0.26466105519565358 0 -0.14534546737678511 0.25129379472131641 0 -0.1416417428525672 0.26777243923482702 0 -0.16582228118094081 0.26466105519565358 0 -0.14136362158270599 0.28508793949713551 0 -0.1416417428525672 0.26777243923482702 0 -0.1083690905562489 0.27746201143443072 0 -0.10470287070229969 0.27376422074294909 0 -0.09206590757372593 0.27740472432850488 0 -0.099741497972773749 0.27068482051400677 0 -0.1098053558875477 0.27272524579145851 0 -0.092391857727521592 0.25884509119311472 0 -0.1155624016166297 0.27126165577105521 0 -0.1098053558875477 0.27272524579145851 0 -0.092391857727521592 0.25884509119311472 0 -0.099741497972773749 0.27068482051400677 0 -0.09206590757372593 0.27740472432850488 0 -0.092391857727521592 0.25884509119311472 0 -0.10470287070229969 0.27376422074294909 0 -0.099741497972773749 0.27068482051400677 0 -0.1098053558875477 0.27272524579145851 0 -0.1083690905562489 0.27746201143443072 0 -0.1098053558875477 0.27272524579145851 0 -0.1083690905562489 0.27746201143443072 0 -0.10470287070229969 0.27376422074294909 0 -0.1098053558875477 0.27272524579145851 0 -0.10470287070229969 0.27376422074294909 0 -0.099741497972773749 0.27068482051400677 0 -0.09206590757372593 0.27740472432850488 0 -0.1155624016166297 0.27126165577105521 0 -0.092391857727521592 0.25884509119311472 0 -0.11076524853809321 0.25238606884059173 0 -0.1155624016166297 0.27126165577105521 0 -0.092391857727521592 0.25884509119311472 0 -0.11076524853809321 0.25238606884059173 0 -0.1199394347971814 0.25731632695883078 0 -0.1155624016166297 0.27126165577105521 0 -0.12872708527658799 0.25991420809329241 0 -0.1199394347971814 0.25731632695883078 0 -0.12470300375741469 0.2457033751303839 0 -0.11076524853809321 0.25238606884059173 0 -0.1199394347971814 0.25731632695883078 0 -0.12470300375741469 0.2457033751303839 0 -0.12872708527658799 0.25991420809329241 0 -0.1199394347971814 0.25731632695883078 0 -0.1155624016166297 0.27126165577105521 0 -0.12872708527658799 0.25991420809329241 0 -0.1155624016166297 0.27126165577105521 0 -0.1083690905562489 0.27746201143443072 0 -0.1155624016166297 0.27126165577105521 0 -0.1196693143642453 0.28329908912575552 0 -0.1083690905562489 0.27746201143443072 0 -0.1155624016166297 0.27126165577105521 0 -0.1098053558875477 0.27272524579145851 0 -0.1083690905562489 0.27746201143443072 0 -0.1155624016166297 0.27126165577105521 0 -0.1083690905562489 0.27746201143443072 0 -0.1202787732923796 0.29457691953651272 0 -0.1003457715998239 0.30392270831765028 0 -0.1083690905562489 0.27746201143443072 0 -0.1196693143642453 0.28329908912575552 0 -0.1202787732923796 0.29457691953651272 0 -0.1202787732923796 0.29457691953651272 0 -0.1173504618646501 0.30916380798395637 0 -0.1003457715998239 0.30392270831765028 0 -0.13170636281121431 0.30540396541675668 0 -0.1202787732923796 0.29457691953651272 0 -0.1173504618646501 0.30916380798395637 0 -0.1173504618646501 0.30916380798395637 0 -0.1003457715998239 0.30392270831765028 0 -0.1081804568928026 0.32074506353771021 0 -0.1083690905562489 0.27746201143443072 0 -0.08834593029567378 0.29472120043351602 0 -0.09206590757372593 0.27740472432850488 0 -0.1083690905562489 0.27746201143443072 0 -0.1003457715998239 0.30392270831765028 0 -0.08834593029567378 0.29472120043351602 0 -0.1083690905562489 0.27746201143443072 0 -0.1003457715998239 0.30392270831765028 0 -0.1083690905562489 0.27746201143443072 0 -0.08834593029567378 0.29472120043351602 0 -0.08834593029567378 0.29472120043351602 0 -0.079344374197139078 0.28508182268507098 0 -0.09206590757372593 0.27740472432850488 0 -0.08834593029567378 0.29472120043351602 0 -0.072463929930227558 0.29930610977545041 0 -0.077617967212061698 0.29366907382828078 0 -0.08834593029567378 0.29472120043351602 0 -0.079344374197139078 0.28508182268507098 0 -0.077617967212061698 0.29366907382828078 0 -0.08834593029567378 0.29472120043351602 0 -0.087527931766016032 0.31235393694025021 0 -0.08121949171140587 0.31012908581564408 0 -0.08834593029567378 0.29472120043351602 0 -0.068322770035098762 0.31198038943260148 0 -0.1003457715998239 0.30392270831765028 0 -0.08834593029567378 0.29472120043351602 0 -0.087527931766016032 0.31235393694025021 0 -0.08834593029567378 0.29472120043351602 0 -0.08121949171140587 0.31012908581564408 0 -0.069852456288818351 0.31207980665071 0 -0.08834593029567378 0.29472120043351602 0 -0.068322770035098762 0.31198038943260148 0 -0.069852456288818351 0.31207980665071 0 -0.08834593029567378 0.29472120043351602 0 -0.072463929930227558 0.29930610977545041 0 -0.068322770035098762 0.31198038943260148 0 -0.072463929930227558 0.29930610977545041 0 -0.064179569528432873 0.29754197169583518 0 -0.063962500348327456 0.30379626580195229 0 -0.072463929930227558 0.29930610977545041 0 -0.063962500348327456 0.30379626580195229 0 -0.068322770035098762 0.31198038943260148 0 -0.068322770035098762 0.31198038943260148 0 -0.069852456288818351 0.31207980665071 0 -0.079344374197139078 0.28508182268507098 0 -0.070510141993048517 0.29225124769799787 0 -0.067485792004003509 0.28106498521306011 0 -0.079344374197139078 0.28508182268507098 0 -0.077617967212061698 0.29366907382828078 0 -0.070510141993048517 0.29225124769799787 0 -0.072463929930227558 0.29930610977545041 0 -0.077617967212061698 0.29366907382828078 0 -0.070510141993048517 0.29225124769799787 0 -0.064179569528432873 0.29754197169583518 0 -0.070510141993048517 0.29225124769799787 0 -0.059799020663136082 0.29068729405280619 0 -0.072463929930227558 0.29930610977545041 0 -0.064179569528432873 0.29754197169583518 0 -0.070510141993048517 0.29225124769799787 0 -0.070510141993048517 0.29225124769799787 0 -0.067485792004003509 0.28106498521306011 0 -0.059799020663136082 0.29068729405280619 0 -0.079344374197139078 0.28508182268507098 0 -0.077112635008727601 0.26938653581869981 0 -0.067485792004003509 0.28106498521306011 0 -0.077112635008727601 0.26938653581869981 0 -0.067485792004003509 0.28106498521306011 0 -0.060296114269721542 0.26705395206363342 0 -0.079344374197139078 0.28508182268507098 0 -0.077112635008727601 0.26938653581869981 0 -0.09206590757372593 0.27740472432850488 0 -0.077112635008727601 0.26938653581869981 0 -0.09206590757372593 0.27740472432850488 0 -0.092391857727521592 0.25884509119311472 0 -0.092391857727521592 0.25884509119311472 0 -0.069221313838413207 0.24642852661517459 0 -0.077112635008727601 0.26938653581869981 0 -0.092391857727521592 0.25884509119311472 0 -0.069221313838413207 0.24642852661517459 0 -0.077112635008727601 0.26938653581869981 0 -0.060296114269721542 0.26705395206363342 0 -0.069221313838413207 0.24642852661517459 0 -0.048126263350958612 0.25465777805589501 0 -0.060296114269721542 0.26705395206363342 0 -0.069221313838413207 0.24642852661517459 0 -0.048126263350958612 0.25465777805589501 0 -0.060296114269721542 0.26705395206363342 0 -0.041784573477856593 0.2719242686623195 0 -0.055384127889045079 0.27986410773994991 0 -0.060296114269721542 0.26705395206363342 0 -0.041784573477856593 0.2719242686623195 0 -0.055384127889045079 0.27986410773994991 0 -0.041784573477856593 0.2719242686623195 0 -0.044370237993260717 0.29032640624232281 0 -0.067485792004003509 0.28106498521306011 0 -0.055384127889045079 0.27986410773994991 0 -0.060296114269721542 0.26705395206363342 0 -0.041784573477856593 0.2719242686623195 0 -0.028053557715267439 0.25838243531431121 0 -0.02550209953536561 0.27186686885002359 0 -0.041784573477856593 0.2719242686623195 0 -0.02550209953536561 0.27186686885002359 0 -0.031040102747703489 0.28267752730564011 0 -0.048126263350958612 0.25465777805589501 0 -0.041784573477856593 0.2719242686623195 0 -0.028053557715267439 0.25838243531431121 0 -0.048126263350958612 0.25465777805589501 0 -0.028053557715267439 0.25838243531431121 0 -0.033382390283993792 0.24359412621706661 0 -0.028053557715267439 0.25838243531431121 0 -0.01504563196256534 0.26333196488375049 0 -0.01778818590069102 0.2421293126167848 0 -0.01504563196256534 0.26333196488375049 0 -0.01778818590069102 0.2421293126167848 0 -0.028053557715267439 0.25838243531431121 0 -0.02550209953536561 0.27186686885002359 0 -0.01504563196256534 0.26333196488375049 0 -0.028053557715267439 0.25838243531431121 0 -0.01504563196256534 0.26333196488375049 0 -0.02550209953536561 0.27186686885002359 0 -0.01214761008608776 0.28573653795517551 0 -0.031040102747703489 0.28267752730564011 0 -0.02550209953536561 0.27186686885002359 0 -0.01504563196256534 0.26333196488375049 0 -0.01214761008608776 0.28573653795517551 0 -0.001267499687089951 0.2776013217203892 0 -0.01504563196256534 0.26333196488375049 0 -0.01214761008608776 0.28573653795517551 0 -0.01504563196256534 0.26333196488375049 0 -0.01214761008608776 0.28573653795517551 0 -0.00067809962666212902 0.26216505597133072 0 -0.01504563196256534 0.26333196488375049 0 0.010965700908337589 0.27322930467739909 0 -0.001267499687089951 0.2776013217203892 0 -0.01504563196256534 0.26333196488375049 0 0.010965700908337589 0.27322930467739909 0 -0.01504563196256534 0.26333196488375049 0 0.010965700908337589 0.27322930467739909 0 -0.0087132352456033638 0.25173417187717928 0 -0.01504563196256534 0.26333196488375049 0 -0.01778818590069102 0.2421293126167848 0 -0.00067809962666212902 0.26216505597133072 0 -0.0087132352456033638 0.25173417187717928 0 0.0027594708259384838 0.25829047161104352 0 -0.00067809962666212902 0.26216505597133072 0 -0.0087132352456033638 0.25173417187717928 0 -0.01504563196256534 0.26333196488375049 0 -0.009249588209606344 0.30814111102660002 0 -0.01214761008608776 0.28573653795517551 0 0.0038021096493471361 0.29689124930627131 0 -0.009249588209606344 0.30814111102660002 0 -0.01214761008608776 0.28573653795517551 0 -0.01214761008608776 0.28573653795517551 0 0.002380999114604244 0.28599596302517022 0 0.0038021096493471361 0.29689124930627131 0 -0.001267499687089951 0.2776013217203892 0 -0.01214761008608776 0.28573653795517551 0 0.002380999114604244 0.28599596302517022 0 -0.009249588209606344 0.30814111102660002 0 -0.01214761008608776 0.28573653795517551 0 -0.02711874363180217 0.2953884665518679 0 -0.01214761008608776 0.28573653795517551 0 -0.031040102747703489 0.28267752730564011 0 -0.02711874363180217 0.2953884665518679 0 -0.009249588209606344 0.30814111102660002 0 -0.02711874363180217 0.2953884665518679 0 -0.038786179122352507 0.31006075022960111 0 -0.009249588209606344 0.30814111102660002 0 -0.038786179122352507 0.31006075022960111 0 -0.02711874363180217 0.2953884665518679 0 -0.038786179122352507 0.31006075022960111 0 -0.044370237993260717 0.29032640624232281 0 -0.038786179122352507 0.31006075022960111 0 -0.044370237993260717 0.29032640624232281 0 -0.054162254707424723 0.30166894115096898 0 -0.031040102747703489 0.28267752730564011 0 -0.02711874363180217 0.2953884665518679 0 -0.044370237993260717 0.29032640624232281 0 -0.041784573477856593 0.2719242686623195 0 -0.031040102747703489 0.28267752730564011 0 -0.044370237993260717 0.29032640624232281 0 -0.055384127889045079 0.27986410773994991 0 -0.044370237993260717 0.29032640624232281 0 -0.059799020663136082 0.29068729405280619 0 -0.044370237993260717 0.29032640624232281 0 -0.059799020663136082 0.29068729405280619 0 -0.054162254707424723 0.30166894115096898 0 -0.064179569528432873 0.29754197169583518 0 -0.059799020663136082 0.29068729405280619 0 -0.054162254707424723 0.30166894115096898 0 -0.067485792004003509 0.28106498521306011 0 -0.055384127889045079 0.27986410773994991 0 -0.059799020663136082 0.29068729405280619 0 -0.068322770035098762 0.31198038943260148 0 -0.038786179122352507 0.31006075022960111 0 -0.068322770035098762 0.31198038943260148 0 -0.038786179122352507 0.31006075022960111 0 -0.054162254707424723 0.30166894115096898 0 -0.064179569528432873 0.29754197169583518 0 -0.063962500348327456 0.30379626580195229 0 -0.054162254707424723 0.30166894115096898 0 -0.063962500348327456 0.30379626580195229 0 -0.068322770035098762 0.31198038943260148 0 -0.054162254707424723 0.30166894115096898 0 -0.068322770035098762 0.31198038943260148 0 -0.038786179122352507 0.31006075022960111 0 -0.053879496619987192 0.32442993198196868 0 -0.068322770035098762 0.31198038943260148 0 -0.053879496619987192 0.32442993198196868 0 -0.059045099567240703 0.33862263320968672 0 -0.059976501396798443 0.34640013057040159 0 -0.068046633572776155 0.34513696516333192 0 -0.053879496619987192 0.32442993198196868 0 -0.059045099567240703 0.33862263320968672 0 -0.06815446288386498 0.3263880450875648 0 -0.053879496619987192 0.32442993198196868 0 -0.059045099567240703 0.33862263320968672 0 -0.049717572699208172 0.33977374392884352 0 -0.053879496619987192 0.32442993198196868 0 -0.049717572699208172 0.33977374392884352 0 -0.039436223204876379 0.33687947453133682 0 -0.059045099567240703 0.33862263320968672 0 -0.049717572699208172 0.33977374392884352 0 -0.052933118771744558 0.34753778728834739 0 -0.049717572699208172 0.33977374392884352 0 -0.039436223204876379 0.33687947453133682 0 -0.045752302425533672 0.34929255203680049 0 -0.053879496619987192 0.32442993198196868 0 -0.039436223204876379 0.33687947453133682 0 -0.039359444206513459 0.32419621080282812 0 -0.053879496619987192 0.32442993198196868 0 -0.039436223204876379 0.33687947453133682 0 -0.039436223204876379 0.33687947453133682 0 -0.039359444206513459 0.32419621080282812 0 -0.02531264429424256 0.33765677836634578 0 -0.039436223204876379 0.33687947453133682 0 -0.02531264429424256 0.33765677836634578 0 -0.034795741464765127 0.3466441775467104 0 -0.038786179122352507 0.31006075022960111 0 -0.053879496619987192 0.32442993198196868 0 -0.039359444206513459 0.32419621080282812 0 -0.038786179122352507 0.31006075022960111 0 -0.039359444206513459 0.32419621080282812 0 -0.024068293084679539 0.32272721199300619 0 -0.009249588209606344 0.30814111102660002 0 -0.038786179122352507 0.31006075022960111 0 -0.024068293084679539 0.32272721199300619 0 -0.024068293084679539 0.32272721199300619 0 -0.02531264429424256 0.33765677836634578 0 -0.005758602284471958 0.33512988219008361 0 -0.039359444206513459 0.32419621080282812 0 -0.024068293084679539 0.32272721199300619 0 -0.02531264429424256 0.33765677836634578 0 -0.005758602284471958 0.33512988219008361 0 -0.0077202170519437719 0.34710906184019069 0 0.0082446038140756572 0.34376242611402219 0 -0.02531264429424256 0.33765677836634578 0 -0.005758602284471958 0.33512988219008361 0 -0.0077202170519437719 0.34710906184019069 0 -0.009249588209606344 0.30814111102660002 0 -0.005758602284471958 0.33512988219008361 0 0.0094307060340404689 0.32376070079746733 0 -0.009249588209606344 0.30814111102660002 0 -0.005758602284471958 0.33512988219008361 0 -0.009249588209606344 0.30814111102660002 0 -0.024068293084679539 0.32272721199300619 0 -0.005758602284471958 0.33512988219008361 0 -0.0045677851665312944 0.36532665559408428 0 -0.0087141207398781558 0.37710904293520409 0 0.0077169544749549623 0.36306791211952738 0 -0.0045677851665312944 0.36532665559408428 0 -0.019623601183504629 0.35541479533684739 0 -0.0087141207398781558 0.37710904293520409 0 -0.0087141207398781558 0.37710904293520409 0 0.0077169544749549623 0.36306791211952738 0 -0.0077202170519437719 0.34710906184019069 0 -0.019623601183504629 0.35541479533684739 0 0.0038095970876644218 0.35606187191015221 0 -0.019623601183504629 0.35541479533684739 0 0.0038095970876644218 0.35606187191015221 0 -0.0045677851665312944 0.36532665559408428 0 -0.019623601183504629 0.35541479533684739 0 0.0038095970876644218 0.35606187191015221 0 -0.02531264429424256 0.33765677836634578 0 -0.019623601183504629 0.35541479533684739 0 -0.034795741464765127 0.3466441775467104 0 -0.02531264429424256 0.33765677836634578 0 -0.0077202170519437719 0.34710906184019069 0 -0.019623601183504629 0.35541479533684739 0 -0.019623601183504629 0.35541479533684739 0 -0.034100997704691827 0.37295894625721099 0 -0.0087141207398781558 0.37710904293520409 0 -0.019623601183504629 0.35541479533684739 0 -0.034100997704691827 0.37295894625721099 0 -0.043056799454673583 0.35476771876354157 0 -0.034100997704691827 0.37295894625721099 0 -0.047131069669461997 0.36807368878450081 0 -0.054593457040109393 0.3822816536988497 0 -0.034100997704691827 0.37295894625721099 0 -0.043056799454673583 0.35476771876354157 0 -0.034100997704691827 0.37295894625721099 0 -0.043056799454673583 0.35476771876354157 0 -0.047131069669461997 0.36807368878450081 0 -0.019623601183504629 0.35541479533684739 0 -0.043056799454673583 0.35476771876354157 0 -0.019623601183504629 0.35541479533684739 0 -0.034795741464765127 0.3466441775467104 0 -0.043056799454673583 0.35476771876354157 0 -0.043056799454673583 0.35476771876354157 0 -0.045752302425533672 0.34929255203680049 0 -0.039436223204876379 0.33687947453133682 0 -0.034795741464765127 0.3466441775467104 0 -0.045752302425533672 0.34929255203680049 0 -0.034795741464765127 0.3466441775467104 0 -0.043056799454673583 0.35476771876354157 0 -0.045752302425533672 0.34929255203680049 0 -0.043056799454673583 0.35476771876354157 0 -0.052933118771744558 0.34753778728834739 0 -0.059881153675432383 0.35430313662024071 0 -0.043056799454673583 0.35476771876354157 0 -0.059881153675432383 0.35430313662024071 0 -0.051828064233363932 0.36038047858465339 0 -0.043056799454673583 0.35476771876354157 0 -0.059881153675432383 0.35430313662024071 0 -0.043056799454673583 0.35476771876354157 0 -0.045752302425533672 0.34929255203680049 0 -0.052933118771744558 0.34753778728834739 0 -0.049717572699208172 0.33977374392884352 0 -0.045752302425533672 0.34929255203680049 0 -0.052933118771744558 0.34753778728834739 0 -0.059881153675432383 0.35430313662024071 0 -0.051828064233363932 0.36038047858465339 0 -0.058626870601395778 0.36023180910453118 0 -0.059045099567240703 0.33862263320968672 0 -0.052933118771744558 0.34753778728834739 0 -0.059976501396798443 0.34640013057040159 0 -0.052933118771744558 0.34753778728834739 0 -0.059881153675432383 0.35430313662024071 0 -0.059976501396798443 0.34640013057040159 0 -0.047131069669461997 0.36807368878450081 0 -0.054116187566776573 0.36544526432200969 0 -0.058148679921659119 0.37186744297544022 0 -0.047131069669461997 0.36807368878450081 0 -0.058148679921659119 0.37186744297544022 0 -0.054593457040109393 0.3822816536988497 0 -0.043056799454673583 0.35476771876354157 0 -0.047131069669461997 0.36807368878450081 0 -0.051828064233363932 0.36038047858465339 0 -0.047131069669461997 0.36807368878450081 0 -0.051828064233363932 0.36038047858465339 0 -0.054116187566776573 0.36544526432200969 0 -0.054116187566776573 0.36544526432200969 0 -0.058626870601395778 0.36023180910453118 0 -0.058148679921659119 0.37186744297544022 0 -0.051828064233363932 0.36038047858465339 0 -0.054116187566776573 0.36544526432200969 0 -0.058626870601395778 0.36023180910453118 0 -0.058626870601395778 0.36023180910453118 0 -0.058148679921659119 0.37186744297544022 0 -0.076275814730551866 0.38330479896731001 0 -0.058626870601395778 0.36023180910453118 0 -0.071157696118109362 0.36170448025062218 0 -0.076275814730551866 0.38330479896731001 0 -0.071157696118109362 0.36170448025062218 0 -0.084299133686975572 0.35684410208409001 0 -0.076275814730551866 0.38330479896731001 0 -0.058626870601395778 0.36023180910453118 0 -0.076275814730551866 0.38330479896731001 0 -0.084299133686975572 0.35684410208409001 0 -0.089436666146690338 0.3774527594588406 0 -0.076275814730551866 0.38330479896731001 0 -0.084299133686975572 0.35684410208409001 0 -0.076275814730551866 0.38330479896731001 0 -0.093494049974744503 0.36523362229143391 0 -0.084299133686975572 0.35684410208409001 0 -0.089436666146690338 0.3774527594588406 0 -0.084299133686975572 0.35684410208409001 0 -0.076705507896191183 0.35383855447693902 0 -0.080753986599573127 0.33990497651870988 0 -0.084299133686975572 0.35684410208409001 0 -0.092322452643399749 0.33038340520087017 0 -0.095141502753968779 0.35097174187852381 0 -0.093494049974744503 0.36523362229143391 0 -0.084299133686975572 0.35684410208409001 0 -0.095141502753968779 0.35097174187852381 0 -0.059881153675432383 0.35430313662024071 0 -0.071157696118109362 0.36170448025062218 0 -0.076705507896191183 0.35383855447693902 0 -0.076705507896191183 0.35383855447693902 0 -0.068046633572776155 0.34513696516333192 0 -0.080753986599573127 0.33990497651870988 0 -0.059881153675432383 0.35430313662024071 0 -0.076705507896191183 0.35383855447693902 0 -0.068046633572776155 0.34513696516333192 0 -0.059881153675432383 0.35430313662024071 0 -0.076705507896191183 0.35383855447693902 0 -0.071157696118109362 0.36170448025062218 0 -0.084299133686975572 0.35684410208409001 0 -0.076705507896191183 0.35383855447693902 0 -0.059881153675432383 0.35430313662024071 0 -0.058626870601395778 0.36023180910453118 0 -0.071157696118109362 0.36170448025062218 0 -0.059881153675432383 0.35430313662024071 0 -0.059976501396798443 0.34640013057040159 0 -0.068046633572776155 0.34513696516333192 0 -0.06815446288386498 0.3263880450875648 0 -0.079151648495115301 0.32136139923810009 0 -0.080753986599573127 0.33990497651870988 0 -0.068046633572776155 0.34513696516333192 0 -0.06815446288386498 0.3263880450875648 0 -0.080753986599573127 0.33990497651870988 0 -0.059045099567240703 0.33862263320968672 0 -0.068046633572776155 0.34513696516333192 0 -0.06815446288386498 0.3263880450875648 0 -0.068322770035098762 0.31198038943260148 0 -0.069852456288818351 0.31207980665071 0 -0.06815446288386498 0.3263880450875648 0 -0.068322770035098762 0.31198038943260148 0 -0.053879496619987192 0.32442993198196868 0 -0.06815446288386498 0.3263880450875648 0 -0.08121949171140587 0.31012908581564408 0 -0.069852456288818351 0.31207980665071 0 -0.079151648495115301 0.32136139923810009 0 -0.069852456288818351 0.31207980665071 0 -0.06815446288386498 0.3263880450875648 0 -0.079151648495115301 0.32136139923810009 0 -0.087527931766016032 0.31235393694025021 0 -0.079151648495115301 0.32136139923810009 0 -0.092322452643399749 0.33038340520087017 0 -0.1003457715998239 0.30392270831765028 0 -0.087527931766016032 0.31235393694025021 0 -0.092322452643399749 0.33038340520087017 0 -0.087527931766016032 0.31235393694025021 0 -0.08121949171140587 0.31012908581564408 0 -0.079151648495115301 0.32136139923810009 0 -0.084299133686975572 0.35684410208409001 0 -0.092322452643399749 0.33038340520087017 0 -0.079151648495115301 0.32136139923810009 0 -0.092322452643399749 0.33038340520087017 0 -0.080753986599573127 0.33990497651870988 0 -0.084299133686975572 0.35684410208409001 0 -0.092322452643399749 0.33038340520087017 0 -0.080753986599573127 0.33990497651870988 0 -0.092322452643399749 0.33038340520087017 0 -0.10472406897533799 0.34168768652513631 0 -0.095141502753968779 0.35097174187852381 0 -0.092322452643399749 0.33038340520087017 0 -0.10472406897533799 0.34168768652513631 0 -0.1081804568928026 0.32074506353771021 0 -0.1003457715998239 0.30392270831765028 0 -0.092322452643399749 0.33038340520087017 0 -0.1003457715998239 0.30392270831765028 0 -0.092322452643399749 0.33038340520087017 0 -0.1081804568928026 0.32074506353771021 0 -0.1262409447270301 0.3211703831111522 0 -0.1173504618646501 0.30916380798395637 0 -0.1081804568928026 0.32074506353771021 0 -0.1262409447270301 0.3211703831111522 0 -0.1081804568928026 0.32074506353771021 0 -0.1175879007316586 0.33497855513245622 0 -0.13367478836053351 0.33932016938713638 0 -0.1175879007316586 0.33497855513245622 0 -0.1173066256070304 0.35104950557859033 0 -0.10472406897533799 0.34168768652513631 0 -0.1081804568928026 0.32074506353771021 0 -0.1175879007316586 0.33497855513245622 0 -0.10472406897533799 0.34168768652513631 0 -0.1175879007316586 0.33497855513245622 0 -0.1173066256070304 0.35104950557859033 0 -0.1173066256070304 0.35104950557859033 0 -0.1198206075896991 0.37069234566290138 0 -0.1030551893938276 0.35978992576853291 0 -0.1367685514822152 0.35851885971508118 0 -0.1173066256070304 0.35104950557859033 0 -0.1198206075896991 0.37069234566290138 0 -0.1198206075896991 0.37069234566290138 0 -0.1030551893938276 0.35978992576853291 0 -0.10026372758235801 0.37465761506622741 0 -0.093494049974744503 0.36523362229143391 0 -0.10026372758235801 0.37465761506622741 0 -0.089436666146690338 0.3774527594588406 0 -0.093494049974744503 0.36523362229143391 0 -0.1030551893938276 0.35978992576853291 0 -0.10026372758235801 0.37465761506622741 0 -0.10472406897533799 0.34168768652513631 0 -0.1030551893938276 0.35978992576853291 0 -0.095141502753968779 0.35097174187852381 0 -0.093494049974744503 0.36523362229143391 0 -0.1030551893938276 0.35978992576853291 0 -0.095141502753968779 0.35097174187852381 0 -0.10472406897533799 0.34168768652513631 0 -0.1173066256070304 0.35104950557859033 0 -0.1030551893938276 0.35978992576853291 0 -0.101128536279416 0.3977608810528192 0 -0.11378235269799521 0.38746486633725291 0 -0.11258596611237601 0.40408595479252452 0 -0.101128536279416 0.3977608810528192 0 -0.095244926421122186 0.38729621463576269 0 -0.11378235269799521 0.38746486633725291 0 -0.101128536279416 0.3977608810528192 0 -0.11258596611237601 0.40408595479252452 0 -0.097808874238227678 0.41145560844912898 0 -0.101128536279416 0.3977608810528192 0 -0.097808874238227678 0.41145560844912898 0 -0.087042344484389883 0.39738020370821953 0 -0.101128536279416 0.3977608810528192 0 -0.095244926421122186 0.38729621463576269 0 -0.087042344484389883 0.39738020370821953 0 -0.10026372758235801 0.37465761506622741 0 -0.095244926421122186 0.38729621463576269 0 -0.11378235269799521 0.38746486633725291 0 -0.10026372758235801 0.37465761506622741 0 -0.095244926421122186 0.38729621463576269 0 -0.089436666146690338 0.3774527594588406 0 -0.1198206075896991 0.37069234566290138 0 -0.10026372758235801 0.37465761506622741 0 -0.11378235269799521 0.38746486633725291 0 -0.12826940643264259 0.38638828685515292 0 -0.1198206075896991 0.37069234566290138 0 -0.11378235269799521 0.38746486633725291 0 -0.12644786621320531 0.40058001872868543 0 -0.12826940643264259 0.38638828685515292 0 -0.11378235269799521 0.38746486633725291 0 -0.12761284081938409 0.41418542740570108 0 -0.11378235269799521 0.38746486633725291 0 -0.12761284081938409 0.41418542740570108 0 -0.12644786621320531 0.40058001872868543 0 -0.11378235269799521 0.38746486633725291 0 -0.12761284081938409 0.41418542740570108 0 -0.11378235269799521 0.38746486633725291 0 -0.11258596611237601 0.40408595479252452 0 -0.12761284081938409 0.41418542740570108 0 -0.11258596611237601 0.40408595479252452 0 -0.097808874238227678 0.41145560844912898 0 -0.12761284081938409 0.41418542740570108 0 -0.1126245701039178 0.4308246085444013 0 -0.097808874238227678 0.41145560844912898 0 -0.12761284081938409 0.41418542740570108 0 -0.097808874238227678 0.41145560844912898 0 -0.12761284081938409 0.41418542740570108 0 -0.1126245701039178 0.4308246085444013 0 -0.1242648033483075 0.43981492828754482 0 -0.1126245701039178 0.4308246085444013 0 -0.096605527178418776 0.42311346390882398 0 -0.097170403390676049 0.43571281837191522 0 -0.1126245701039178 0.4308246085444013 0 -0.097170403390676049 0.43571281837191522 0 -0.10338783084247161 0.44098956532991213 0 -0.1126245701039178 0.4308246085444013 0 -0.097808874238227678 0.41145560844912898 0 -0.1126245701039178 0.4308246085444013 0 -0.096605527178418776 0.42311346390882398 0 -0.097808874238227678 0.41145560844912898 0 -0.096605527178418776 0.42311346390882398 0 -0.097808874238227678 0.41145560844912898 0 -0.090623427087895073 0.41079747558654428 0 -0.097808874238227678 0.41145560844912898 0 -0.090623427087895073 0.41079747558654428 0 -0.096605527178418776 0.42311346390882398 0 -0.090623427087895073 0.41079747558654428 0 -0.084800361071377284 0.4267768085921303 0 -0.090623427087895073 0.41079747558654428 0 -0.084347825254610875 0.40943513047528779 0 -0.084800361071377284 0.4267768085921303 0 -0.084800361071377284 0.4267768085921303 0 -0.074925168374781331 0.40278603401425761 0 -0.084347825254610875 0.40943513047528779 0 -0.084800361071377284 0.4267768085921303 0 -0.074925168374781331 0.40278603401425761 0 -0.097808874238227678 0.41145560844912898 0 -0.090623427087895073 0.41079747558654428 0 -0.087042344484389883 0.39738020370821953 0 -0.096605527178418776 0.42311346390882398 0 -0.097170403390676049 0.43571281837191522 0 -0.084800361071377284 0.4267768085921303 0 -0.084800361071377284 0.4267768085921303 0 -0.077689053426030094 0.43734830183904833 0 -0.073740177733494089 0.43015549729097768 0 -0.084800361071377284 0.4267768085921303 0 -0.077689053426030094 0.43734830183904833 0 -0.085627028266785254 0.44117175463919189 0 -0.077689053426030094 0.43734830183904833 0 -0.073740177733494089 0.43015549729097768 0 -0.069373851585076945 0.43677151010665521 0 -0.084800361071377284 0.4267768085921303 0 -0.073740177733494089 0.43015549729097768 0 -0.074963529381557356 0.42372471124402672 0 -0.084800361071377284 0.4267768085921303 0 -0.074963529381557356 0.42372471124402672 0 -0.074207610301873977 0.415826985147286 0 -0.073740177733494089 0.43015549729097768 0 -0.07134827269677288 0.42521816639912852 0 -0.067010261651664849 0.42692585223643509 0 -0.073740177733494089 0.43015549729097768 0 -0.074963529381557356 0.42372471124402672 0 -0.07134827269677288 0.42521816639912852 0 -0.074963529381557356 0.42372471124402672 0 -0.07134827269677288 0.42521816639912852 0 -0.069903249343569923 0.42035209495099629 0 -0.06803153127557314 0.42418340705062968 0 -0.063864341410284964 0.42423751461595932 0 -0.069903249343569923 0.42035209495099629 0 -0.07134827269677288 0.42521816639912852 0 -0.06803153127557314 0.42418340705062968 0 -0.067010261651664849 0.42692585223643509 0 -0.07134827269677288 0.42521816639912852 0 -0.06803153127557314 0.42418340705062968 0 -0.069903249343569923 0.42035209495099629 0 -0.06803153127557314 0.42418340705062968 0 -0.063864341410284964 0.42423751461595932 0 -0.067010261651664849 0.42692585223643509 0 -0.063864341410284964 0.42423751461595932 0 -0.067010261651664849 0.42692585223643509 0 -0.067010261651664849 0.42692585223643509 0 -0.06657591115514655 0.43192586875325267 0 -0.062357688865182517 0.42920641545622512 0 -0.063864341410284964 0.42423751461595932 0 -0.067010261651664849 0.42692585223643509 0 -0.062357688865182517 0.42920641545622512 0 -0.063864341410284964 0.42423751461595932 0 -0.062357688865182517 0.42920641545622512 0 -0.073740177733494089 0.43015549729097768 0 -0.067010261651664849 0.42692585223643509 0 -0.06657591115514655 0.43192586875325267 0 -0.073740177733494089 0.43015549729097768 0 -0.06657591115514655 0.43192586875325267 0 -0.069373851585076945 0.43677151010665521 0 -0.06657591115514655 0.43192586875325267 0 -0.062750456602468974 0.43554137489064498 0 -0.062357688865182517 0.42920641545622512 0 -0.06657591115514655 0.43192586875325267 0 -0.062750456602468974 0.43554137489064498 0 -0.069373851585076945 0.43677151010665521 0 -0.063864341410284964 0.42423751461595932 0 -0.069903249343569923 0.42035209495099629 0 -0.070070078070418332 0.40377115679163461 0 -0.074207610301873977 0.415826985147286 0 -0.069903249343569923 0.42035209495099629 0 -0.070070078070418332 0.40377115679163461 0 -0.063864341410284964 0.42423751461595932 0 -0.070070078070418332 0.40377115679163461 0 -0.058881304157308093 0.40804381518971672 0 -0.063864341410284964 0.42423751461595932 0 -0.070070078070418332 0.40377115679163461 0 -0.084800361071377284 0.4267768085921303 0 -0.074207610301873977 0.415826985147286 0 -0.074925168374781331 0.40278603401425761 0 -0.074207610301873977 0.415826985147286 0 -0.070070078070418332 0.40377115679163461 0 -0.074925168374781331 0.40278603401425761 0 -0.074963529381557356 0.42372471124402672 0 -0.074207610301873977 0.415826985147286 0 -0.069903249343569923 0.42035209495099629 0 -0.070070078070418332 0.40377115679163461 0 -0.064506344576777661 0.39145758865641178 0 -0.076275814730551866 0.38330479896731001 0 -0.070070078070418332 0.40377115679163461 0 -0.074925168374781331 0.40278603401425761 0 -0.076275814730551866 0.38330479896731001 0 -0.070070078070418332 0.40377115679163461 0 -0.076275814730551866 0.38330479896731001 0 -0.070070078070418332 0.40377115679163461 0 -0.064506344576777661 0.39145758865641178 0 -0.057086028466031037 0.39647274516785291 0 -0.074925168374781331 0.40278603401425761 0 -0.087042344484389883 0.39738020370821953 0 -0.076275814730551866 0.38330479896731001 0 -0.084347825254610875 0.40943513047528779 0 -0.074925168374781331 0.40278603401425761 0 -0.087042344484389883 0.39738020370821953 0 -0.097808874238227678 0.41145560844912898 0 -0.087042344484389883 0.39738020370821953 0 -0.090623427087895073 0.41079747558654428 0 -0.084347825254610875 0.40943513047528779 0 -0.087042344484389883 0.39738020370821953 0 -0.087042344484389883 0.39738020370821953 0 -0.089436666146690338 0.3774527594588406 0 -0.076275814730551866 0.38330479896731001 0 -0.095244926421122186 0.38729621463576269 0 -0.087042344484389883 0.39738020370821953 0 -0.089436666146690338 0.3774527594588406 0 -0.087042344484389883 0.39738020370821953 0 -0.076275814730551866 0.38330479896731001 0 -0.064506344576777661 0.39145758865641178 0 -0.076275814730551866 0.38330479896731001 0 -0.054593457040109393 0.3822816536988497 0 -0.058148679921659119 0.37186744297544022 0 -0.076275814730551866 0.38330479896731001 0 -0.054593457040109393 0.3822816536988497 0 -0.064506344576777661 0.39145758865641178 0 -0.054593457040109393 0.3822816536988497 0 -0.057086028466031037 0.39647274516785291 0 -0.054593457040109393 0.3822816536988497 0 -0.057086028466031037 0.39647274516785291 0 -0.042391572779214973 0.39096282696345341 0 -0.057086028466031037 0.39647274516785291 0 -0.042391572779214973 0.39096282696345341 0 -0.044504768682498037 0.40769384418342008 0 -0.070070078070418332 0.40377115679163461 0 -0.057086028466031037 0.39647274516785291 0 -0.058881304157308093 0.40804381518971672 0 -0.057086028466031037 0.39647274516785291 0 -0.044504768682498037 0.40769384418342008 0 -0.058881304157308093 0.40804381518971672 0 -0.02514519595471108 0.39115017375088101 0 -0.044504768682498037 0.40769384418342008 0 -0.042391572779214973 0.39096282696345341 0 -0.02514519595471108 0.39115017375088101 0 -0.044504768682498037 0.40769384418342008 0 -0.034100997704691827 0.37295894625721099 0 -0.054593457040109393 0.3822816536988497 0 -0.042391572779214973 0.39096282696345341 0 -0.034100997704691827 0.37295894625721099 0 -0.042391572779214973 0.39096282696345341 0 -0.02514519595471108 0.39115017375088101 0 -0.034100997704691827 0.37295894625721099 0 -0.02514519595471108 0.39115017375088101 0 -0.034100997704691827 0.37295894625721099 0 -0.02514519595471108 0.39115017375088101 0 -0.0087141207398781558 0.37710904293520409 0 -0.02514519595471108 0.39115017375088101 0 -0.0087141207398781558 0.37710904293520409 0 -0.02514519595471108 0.39115017375088101 0 -0.014810785045769751 0.41214166341376801 0 -0.02514519595471108 0.39115017375088101 0 -0.014810785045769751 0.41214166341376801 0 -0.044504768682498037 0.40769384418342008 0 -0.0068648610501423502 0.39382000907293813 0 -0.014810785045769751 0.41214166341376801 0 0.0046995574085186929 0.41194005205042061 0 -0.02514519595471108 0.39115017375088101 0 -0.0068648610501423502 0.39382000907293813 0 -0.014810785045769751 0.41214166341376801 0 -0.02514519595471108 0.39115017375088101 0 -0.0068648610501423502 0.39382000907293813 0 -0.0087141207398781558 0.37710904293520409 0 -0.0068648610501423502 0.39382000907293813 0 -0.0087141207398781558 0.37710904293520409 0 0.0053185270157129726 0.37689571945341471 0 -0.0044763741368290672 0.43313315307665529 0 -0.014810785045769751 0.41214166341376801 0 -0.0044763741368290672 0.43313315307665529 0 -0.014810785045769751 0.41214166341376801 0 -0.026116443713473419 0.4246575807879529 0 -0.0044763741368290672 0.43313315307665529 0 -0.014810785045769751 0.41214166341376801 0 0.0046995574085186929 0.41194005205042061 0 -0.014810785045769751 0.41214166341376801 0 -0.026116443713473419 0.4246575807879529 0 -0.044504768682498037 0.40769384418342008 0 -0.0044763741368290672 0.43313315307665529 0 -0.026116443713473419 0.4246575807879529 0 -0.02623027688729573 0.44118750916919391 0 -0.026116443713473419 0.4246575807879529 0 -0.040560013814974517 0.42913173409672722 0 -0.02623027688729573 0.44118750916919391 0 -0.040560013814974517 0.42913173409672722 0 -0.048293098329248912 0.43867666423002288 0 -0.039090066940739521 0.44352471403713711 0 -0.026116443713473419 0.4246575807879529 0 -0.040560013814974517 0.42913173409672722 0 -0.044504768682498037 0.40769384418342008 0 -0.040560013814974517 0.42913173409672722 0 -0.044504768682498037 0.40769384418342008 0 -0.051886787429848112 0.42350176277299723 0 -0.063864341410284964 0.42423751461595932 0 -0.044504768682498037 0.40769384418342008 0 -0.058881304157308093 0.40804381518971672 0 -0.063864341410284964 0.42423751461595932 0 -0.044504768682498037 0.40769384418342008 0 -0.051886787429848112 0.42350176277299723 0 -0.063864341410284964 0.42423751461595932 0 -0.044504768682498037 0.40769384418342008 0 -0.053936434918908913 0.43159717611494758 0 -0.057641003333182179 0.44086754716312743 0 -0.048293098329248912 0.43867666423002288 0 -0.040560013814974517 0.42913173409672722 0 -0.053936434918908913 0.43159717611494758 0 -0.048293098329248912 0.43867666423002288 0 -0.040560013814974517 0.42913173409672722 0 -0.053936434918908913 0.43159717611494758 0 -0.051886787429848112 0.42350176277299723 0 -0.053936434918908913 0.43159717611494758 0 -0.051886787429848112 0.42350176277299723 0 -0.062357688865182517 0.42920641545622512 0 -0.063864341410284964 0.42423751461595932 0 -0.051886787429848112 0.42350176277299723 0 -0.062357688865182517 0.42920641545622512 0 -0.062750456602468974 0.43554137489064498 0 -0.053936434918908913 0.43159717611494758 0 -0.062357688865182517 0.42920641545622512 0 -0.062750456602468974 0.43554137489064498 0 -0.053936434918908913 0.43159717611494758 0 -0.057641003333182179 0.44086754716312743 0 -0.062750456602468974 0.43554137489064498 0 -0.057641003333182179 0.44086754716312743 0 -0.065491549478626135 0.44200233464982802 0 -0.057641003333182179 0.44086754716312743 0 -0.062398417199954148 0.4499603094023914 0 -0.065491549478626135 0.44200233464982802 0 -0.057641003333182179 0.44086754716312743 0 -0.062398417199954148 0.4499603094023914 0 -0.050237972638439453 0.44826214973817502 0 -0.057641003333182179 0.44086754716312743 0 -0.050237972638439453 0.44826214973817502 0 -0.048293098329248912 0.43867666423002288 0 -0.062398417199954148 0.4499603094023914 0 -0.050230730183752688 0.46259696058471089 0 -0.064501224992871267 0.46542691543905351 0 -0.062398417199954148 0.4499603094023914 0 -0.050237972638439453 0.44826214973817502 0 -0.050230730183752688 0.46259696058471089 0 -0.050230730183752688 0.46259696058471089 0 -0.035748626011326709 0.45858167758110602 0 -0.046040344352481867 0.47841272498986082 0 -0.050237972638439453 0.44826214973817502 0 -0.050230730183752688 0.46259696058471089 0 -0.035748626011326709 0.45858167758110602 0 -0.035748626011326709 0.45858167758110602 0 -0.039090066940739521 0.44352471403713711 0 -0.02623027688729573 0.44118750916919391 0 -0.050237972638439453 0.44826214973817502 0 -0.048293098329248912 0.43867666423002288 0 -0.039090066940739521 0.44352471403713711 0 -0.050237972638439453 0.44826214973817502 0 -0.035748626011326709 0.45858167758110602 0 -0.039090066940739521 0.44352471403713711 0 -0.040560013814974517 0.42913173409672722 0 -0.039090066940739521 0.44352471403713711 0 -0.02623027688729573 0.44118750916919391 0 -0.035748626011326709 0.45858167758110602 0 -0.02623027688729573 0.44118750916919391 0 -0.01728298942402769 0.45556140426229003 0 -0.0044763741368290672 0.43313315307665529 0 -0.02623027688729573 0.44118750916919391 0 -0.01728298942402769 0.45556140426229003 0 -0.035748626011326709 0.45858167758110602 0 -0.01728298942402769 0.45556140426229003 0 -0.022784747477638551 0.4775754860453762 0 -0.01728298942402769 0.45556140426229003 0 -0.0062093312902834459 0.46527566221073008 0 0.006403582431216831 0.45126676372832991 0 -0.01728298942402769 0.45556140426229003 0 -0.0062093312902834459 0.46527566221073008 0 -0.022784747477638551 0.4775754860453762 0 -0.0044763741368290672 0.43313315307665529 0 -0.01728298942402769 0.45556140426229003 0 0.006403582431216831 0.45126676372832991 0 -0.0062093312902834459 0.46527566221073008 0 -0.022784747477638551 0.4775754860453762 0 0.0095498935665802413 0.47810272379952351 0 -0.022784747477638551 0.4775754860453762 0 -0.021427984417146221 0.5 0 0.0095498935665802413 0.47810272379952351 0 -0.021427984417146221 0.5 0 0.0095498935665802413 0.47810272379952351 0 0.0086042794582089632 0.5 0 -0.022784747477638551 0.4775754860453762 0 -0.021427984417146221 0.5 0 -0.046040344352481867 0.47841272498986082 0 -0.021427984417146221 0.5 0 -0.046040344352481867 0.47841272498986082 0 -0.051460248292501398 0.5 0 -0.035748626011326709 0.45858167758110602 0 -0.022784747477638551 0.4775754860453762 0 -0.046040344352481867 0.47841272498986082 0 -0.046040344352481867 0.47841272498986082 0 -0.067939054777113927 0.48291587414950521 0 -0.064501224992871267 0.46542691543905351 0 -0.050230730183752688 0.46259696058471089 0 -0.046040344352481867 0.47841272498986082 0 -0.064501224992871267 0.46542691543905351 0 -0.046040344352481867 0.47841272498986082 0 -0.051460248292501398 0.5 0 -0.067939054777113927 0.48291587414950521 0 -0.051460248292501398 0.5 0 -0.081492512167856565 0.50000000000000011 0 -0.067939054777113927 0.48291587414950521 0 -0.081492512167856565 0.50000000000000011 0 -0.085878896958769185 0.47675925450649242 0 -0.067939054777113927 0.48291587414950521 0 -0.081492512167856565 0.50000000000000011 0 -0.085878896958769185 0.47675925450649242 0 -0.099362977551805121 0.48745008538217821 0 -0.081492512167856565 0.50000000000000011 0 -0.085878896958769185 0.47675925450649242 0 -0.085878896958769185 0.47675925450649242 0 -0.075452149305044958 0.46933040044586682 0 -0.067939054777113927 0.48291587414950521 0 -0.075452149305044958 0.46933040044586682 0 -0.067939054777113927 0.48291587414950521 0 -0.064501224992871267 0.46542691543905351 0 -0.064501224992871267 0.46542691543905351 0 -0.075214053997903707 0.45912990264989012 0 -0.070315415620740368 0.45334812155980347 0 -0.062398417199954148 0.4499603094023914 0 -0.064501224992871267 0.46542691543905351 0 -0.070315415620740368 0.45334812155980347 0 -0.075214053997903707 0.45912990264989012 0 -0.070315415620740368 0.45334812155980347 0 -0.081419329692844739 0.44979703694502599 0 -0.075452149305044958 0.46933040044586682 0 -0.064501224992871267 0.46542691543905351 0 -0.075214053997903707 0.45912990264989012 0 -0.075452149305044958 0.46933040044586682 0 -0.075214053997903707 0.45912990264989012 0 -0.082509194984251868 0.46007906520350089 0 -0.069373851585076945 0.43677151010665521 0 -0.065491549478626135 0.44200233464982802 0 -0.073041418115067244 0.44511613748665291 0 -0.062750456602468974 0.43554137489064498 0 -0.069373851585076945 0.43677151010665521 0 -0.065491549478626135 0.44200233464982802 0 -0.062398417199954148 0.4499603094023914 0 -0.065491549478626135 0.44200233464982802 0 -0.073041418115067244 0.44511613748665291 0 -0.062398417199954148 0.4499603094023914 0 -0.070315415620740368 0.45334812155980347 0 -0.073041418115067244 0.44511613748665291 0 -0.070315415620740368 0.45334812155980347 0 -0.073041418115067244 0.44511613748665291 0 -0.081419329692844739 0.44979703694502599 0 -0.073041418115067244 0.44511613748665291 0 -0.07941018481149445 0.44345804230003222 0 -0.081419329692844739 0.44979703694502599 0 -0.077689053426030094 0.43734830183904833 0 -0.069373851585076945 0.43677151010665521 0 -0.073041418115067244 0.44511613748665291 0 -0.077689053426030094 0.43734830183904833 0 -0.073041418115067244 0.44511613748665291 0 -0.07941018481149445 0.44345804230003222 0 -0.097170403390676049 0.43571281837191522 0 -0.084800361071377284 0.4267768085921303 0 -0.094675553767973264 0.45076758317000298 0 -0.084800361071377284 0.4267768085921303 0 -0.094675553767973264 0.45076758317000298 0 -0.084800361071377284 0.4267768085921303 0 -0.085627028266785254 0.44117175463919189 0 -0.094675553767973264 0.45076758317000298 0 -0.085627028266785254 0.44117175463919189 0 -0.07941018481149445 0.44345804230003222 0 -0.081419329692844739 0.44979703694502599 0 -0.077689053426030094 0.43734830183904833 0 -0.085627028266785254 0.44117175463919189 0 -0.07941018481149445 0.44345804230003222 0 -0.085627028266785254 0.44117175463919189 0 -0.081419329692844739 0.44979703694502599 0 -0.088082484801868088 0.44854024150695748 0 -0.081419329692844739 0.44979703694502599 0 -0.086047819819581178 0.45134535453790131 0 -0.088082484801868088 0.44854024150695748 0 -0.085627028266785254 0.44117175463919189 0 -0.088082484801868088 0.44854024150695748 0 -0.094675553767973264 0.45076758317000298 0 -0.086047819819581178 0.45134535453790131 0 -0.088082484801868088 0.44854024150695748 0 -0.090265281749681819 0.45351850901298468 0 -0.088082484801868088 0.44854024150695748 0 -0.090265281749681819 0.45351850901298468 0 -0.094675553767973264 0.45076758317000298 0 -0.085878896958769185 0.47675925450649242 0 -0.075452149305044958 0.46933040044586682 0 -0.082509194984251868 0.46007906520350089 0 -0.085878896958769185 0.47675925450649242 0 -0.090265281749681819 0.45351850901298468 0 -0.085878896958769185 0.47675925450649242 0 -0.090265281749681819 0.45351850901298468 0 -0.093944937474792503 0.46462082789344678 0 -0.085878896958769185 0.47675925450649242 0 -0.082509194984251868 0.46007906520350089 0 -0.090265281749681819 0.45351850901298468 0 -0.081419329692844739 0.44979703694502599 0 -0.086047819819581178 0.45134535453790131 0 -0.082509194984251868 0.46007906520350089 0 -0.075214053997903707 0.45912990264989012 0 -0.081419329692844739 0.44979703694502599 0 -0.082509194984251868 0.46007906520350089 0 -0.090265281749681819 0.45351850901298468 0 -0.093944937474792503 0.46462082789344678 0 -0.094675553767973264 0.45076758317000298 0 -0.086047819819581178 0.45134535453790131 0 -0.082509194984251868 0.46007906520350089 0 -0.090265281749681819 0.45351850901298468 0 -0.093944937474792503 0.46462082789344678 0 -0.094675553767973264 0.45076758317000298 0 -0.1045507464645692 0.47475835774787573 0 -0.094675553767973264 0.45076758317000298 0 -0.1045507464645692 0.47475835774787573 0 -0.1087715055698807 0.4588247561088431 0 -0.094675553767973264 0.45076758317000298 0 -0.1045507464645692 0.47475835774787573 0 -0.1126245701039178 0.4308246085444013 0 -0.1090807961073193 0.44665325123332839 0 -0.10338783084247161 0.44098956532991213 0 -0.097170403390676049 0.43571281837191522 0 -0.094675553767973264 0.45076758317000298 0 -0.10338783084247161 0.44098956532991213 0 -0.1087715055698807 0.4588247561088431 0 -0.094675553767973264 0.45076758317000298 0 -0.1090807961073193 0.44665325123332839 0 -0.094675553767973264 0.45076758317000298 0 -0.1090807961073193 0.44665325123332839 0 -0.10338783084247161 0.44098956532991213 0 -0.1126245701039178 0.4308246085444013 0 -0.1090807961073193 0.44665325123332839 0 -0.1242648033483075 0.43981492828754482 0 -0.1090807961073193 0.44665325123332839 0 -0.1242648033483075 0.43981492828754482 0 -0.1204057133641486 0.45504160574272429 0 -0.1087715055698807 0.4588247561088431 0 -0.1176294132596279 0.46872710166108278 0 -0.1045507464645692 0.47475835774787573 0 -0.1087715055698807 0.4588247561088431 0 -0.1204057133641486 0.45504160574272429 0 -0.1176294132596279 0.46872710166108278 0 -0.1087715055698807 0.4588247561088431 0 -0.1090807961073193 0.44665325123332839 0 -0.1204057133641486 0.45504160574272429 0 -0.13097929143795109 0.46459511115351071 0 -0.1204057133641486 0.45504160574272429 0 -0.1176294132596279 0.46872710166108278 0 -0.12908554574303099 0.47755934496718438 0 -0.1176294132596279 0.46872710166108278 0 -0.1160402402672886 0.48503019582547341 0 -0.1176294132596279 0.46872710166108278 0 -0.1160402402672886 0.48503019582547341 0 -0.1045507464645692 0.47475835774787573 0 -0.13803845513632401 0.5 0 -0.1097654836520903 0.5 0 -0.1160402402672886 0.48503019582547341 0 -0.1097654836520903 0.5 0 -0.1160402402672886 0.48503019582547341 0 -0.099362977551805121 0.48745008538217821 0 -0.081492512167856565 0.50000000000000011 0 -0.1097654836520903 0.5 0 -0.099362977551805121 0.48745008538217821 0 -0.085878896958769185 0.47675925450649242 0 -0.093944937474792503 0.46462082789344678 0 -0.1045507464645692 0.47475835774787573 0 -0.085878896958769185 0.47675925450649242 0 -0.099362977551805121 0.48745008538217821 0 -0.1045507464645692 0.47475835774787573 0 -0.1160402402672886 0.48503019582547341 0 -0.099362977551805121 0.48745008538217821 0 -0.1045507464645692 0.47475835774787573 0 -0.15850742705232401 0.077073165420907211 0 -0.17832815471062741 0.080370175701138483 0 -0.15596223049933161 0.089669487892629185 0 -0.17128916945913089 0.092189477241546317 0 -0.17832815471062741 0.080370175701138483 0 -0.15596223049933161 0.089669487892629185 0 -0.17832815471062741 0.080370175701138483 0 -0.15596223049933161 0.089669487892629185 0 -0.15850742705232401 0.077073165420907211 0 -0.16907692184479731 0.071953328836937142 0 -0.17832815471062741 0.080370175701138483 0 -0.15850742705232401 0.077073165420907211 0 -0.15722519427174569 0.065058312825911402 0 -0.16907692184479731 0.071953328836937142 0 -0.16907692184479731 0.071953328836937142 0 -0.1809864334298861 0.069780609401686525 0 -0.17832815471062741 0.080370175701138483 0 -0.16907692184479731 0.071953328836937142 0 -0.1809864334298861 0.069780609401686525 0 -0.18167022033174851 0.056262687610226528 0 -0.1809864334298861 0.069780609401686525 0 -0.17832815471062741 0.080370175701138483 0 -0.20069407892192309 0.071070863509647808 0 -0.1809864334298861 0.069780609401686525 0 -0.18167022033174851 0.056262687610226528 0 -0.1876556690991136 0.063313821709693935 0 -0.17128916945913089 0.092189477241546317 0 -0.18444466814129201 0.081023499242751457 0 -0.17631468167186989 0.1066384650542631 0 -0.17128916945913089 0.092189477241546317 0 -0.18444466814129201 0.081023499242751457 0 -0.17832815471062741 0.080370175701138483 0 -0.18444466814129201 0.081023499242751457 0 -0.17631468167186989 0.1066384650542631 0 -0.19937405773042491 0.1071019237599893 0 -0.17631468167186989 0.1066384650542631 0 -0.16393492635195239 0.1245978723337525 0 -0.1795193575176991 0.1294692331289829 0 -0.17631468167186989 0.1066384650542631 0 -0.19937405773042491 0.1071019237599893 0 -0.1795193575176991 0.1294692331289829 0 -0.16393492635195239 0.1245978723337525 0 -0.16139611227253359 0.1032457583169494 0 -0.15311233888185891 0.1152965378839053 0 -0.17631468167186989 0.1066384650542631 0 -0.16393492635195239 0.1245978723337525 0 -0.16139611227253359 0.1032457583169494 0 -0.17128916945913089 0.092189477241546317 0 -0.17631468167186989 0.1066384650542631 0 -0.16139611227253359 0.1032457583169494 0 -0.17128916945913089 0.092189477241546317 0 -0.16139611227253359 0.1032457583169494 0 -0.15596223049933161 0.089669487892629185 0 -0.16139611227253359 0.1032457583169494 0 -0.13359630628803579 0.098968800084119873 0 -0.15596223049933161 0.089669487892629185 0 -0.16139611227253359 0.1032457583169494 0 -0.15311233888185891 0.1152965378839053 0 -0.13359630628803579 0.098968800084119873 0 -0.13359630628803579 0.098968800084119873 0 -0.15596223049933161 0.089669487892629185 0 -0.15311233888185891 0.1152965378839053 0 -0.13930859898956699 0.1145050369687237 0 -0.153752621985453 0.14073392350839439 0 -0.15311233888185891 0.1152965378839053 0 -0.13930859898956699 0.1145050369687237 0 -0.13359630628803579 0.098968800084119873 0 -0.13930859898956699 0.1145050369687237 0 -0.12607259725238279 0.11330641960449821 0 -0.12916618827146031 0.12390190950899049 0 -0.13930859898956699 0.1145050369687237 0 -0.12607259725238279 0.11330641960449821 0 -0.13359630628803579 0.098968800084119873 0 -0.13359630628803579 0.098968800084119873 0 -0.12697672020224329 0.087309090757334687 0 -0.14089006822782121 0.082531143958766096 0 -0.12697672020224329 0.087309090757334687 0 -0.14089006822782121 0.082531143958766096 0 -0.12697985749263241 0.07630636069427757 0 -0.15850742705232401 0.077073165420907211 0 -0.14089006822782121 0.082531143958766096 0 -0.15596223049933161 0.089669487892629185 0 -0.13359630628803579 0.098968800084119873 0 -0.14089006822782121 0.082531143958766096 0 -0.15596223049933161 0.089669487892629185 0 -0.15850742705232401 0.077073165420907211 0 -0.14089006822782121 0.082531143958766096 0 -0.14764327064684279 0.071644858797684771 0 -0.15722519427174569 0.065058312825911402 0 -0.14764327064684279 0.071644858797684771 0 -0.1471722955607111 0.059591957907519158 0 -0.15850742705232401 0.077073165420907211 0 -0.15722519427174569 0.065058312825911402 0 -0.14764327064684279 0.071644858797684771 0 -0.14089006822782121 0.082531143958766096 0 -0.14764327064684279 0.071644858797684771 0 -0.13666502121529681 0.069478967649866344 0 -0.14764327064684279 0.071644858797684771 0 -0.13666502121529681 0.069478967649866344 0 -0.1471722955607111 0.059591957907519158 0 -0.14089006822782121 0.082531143958766096 0 -0.13666502121529681 0.069478967649866344 0 -0.12697985749263241 0.07630636069427757 0 -0.13666502121529681 0.069478967649866344 0 -0.12697985749263241 0.07630636069427757 0 -0.12509646681095879 0.065597408261105467 0 -0.13666502121529681 0.069478967649866344 0 -0.12509646681095879 0.065597408261105467 0 -0.13233523162579211 0.057527865090889828 0 -0.13233523162579211 0.057527865090889828 0 -0.1197320338084647 0.057760070231756527 0 -0.1244920148619628 0.050381604022983993 0 -0.12509646681095879 0.065597408261105467 0 -0.13233523162579211 0.057527865090889828 0 -0.1197320338084647 0.057760070231756527 0 -0.13666502121529681 0.069478967649866344 0 -0.13233523162579211 0.057527865090889828 0 -0.1471722955607111 0.059591957907519158 0 -0.13233523162579211 0.057527865090889828 0 -0.131277092146349 0.043237905602295942 0 -0.1435202772377579 0.047601805401877667 0 -0.13233523162579211 0.057527865090889828 0 -0.131277092146349 0.043237905602295942 0 -0.1244920148619628 0.050381604022983993 0 -0.131277092146349 0.043237905602295942 0 -0.14194951185496399 0.035172378083737049 0 -0.12424451236807239 0.027069144312366941 0 -0.131277092146349 0.043237905602295942 0 -0.12424451236807239 0.027069144312366941 0 -0.12075472355362291 0.04122338309529356 0 -0.131277092146349 0.043237905602295942 0 -0.12075472355362291 0.04122338309529356 0 -0.1244920148619628 0.050381604022983993 0 -0.131277092146349 0.043237905602295942 0 -0.14194951185496399 0.035172378083737049 0 -0.1435202772377579 0.047601805401877667 0 -0.14194951185496399 0.035172378083737049 0 -0.15126073753592009 0.02487777788828089 0 -0.1637260562540532 0.045028253166508762 0 -0.14194951185496399 0.035172378083737049 0 -0.1435202772377579 0.047601805401877667 0 -0.1637260562540532 0.045028253166508762 0 -0.15722519427174569 0.065058312825911402 0 -0.1471722955607111 0.059591957907519158 0 -0.1637260562540532 0.045028253166508762 0 -0.1471722955607111 0.059591957907519158 0 -0.1435202772377579 0.047601805401877667 0 -0.1637260562540532 0.045028253166508762 0 -0.13233523162579211 0.057527865090889828 0 -0.1471722955607111 0.059591957907519158 0 -0.1435202772377579 0.047601805401877667 0 -0.1244522405185825 -0.00038769298458709092 0 -0.1310798501921922 0.016754836893075501 0 -0.12424451236807239 0.027069144312366941 0 -0.1244522405185825 -0.00038769298458709092 0 -0.13302987177733741 0.0072862060594841918 0 -0.1310798501921922 0.016754836893075501 0 -0.13796817939809339 -7.5853332940862265e-05 0 -0.13302987177733741 0.0072862060594841918 0 -0.13861921700048169 0.01285353366238922 0 -0.1244522405185825 -0.00038769298458709092 0 -0.13796817939809339 -7.5853332940862265e-05 0 -0.13302987177733741 0.0072862060594841918 0 -0.13302987177733741 0.0072862060594841918 0 -0.13861921700048169 0.01285353366238922 0 -0.1310798501921922 0.016754836893075501 0 -0.14194951185496399 0.035172378083737049 0 -0.1395360945068517 0.023372288850015029 0 -0.12424451236807239 0.027069144312366941 0 -0.13861921700048169 0.01285353366238922 0 -0.1395360945068517 0.023372288850015029 0 -0.1310798501921922 0.016754836893075501 0 -0.1395360945068517 0.023372288850015029 0 -0.1310798501921922 0.016754836893075501 0 -0.12424451236807239 0.027069144312366941 0 -0.14194951185496399 0.035172378083737049 0 -0.1395360945068517 0.023372288850015029 0 -0.15126073753592009 0.02487777788828089 0 -0.15126073753592009 0.02487777788828089 0 -0.15188271994169991 0.01786916074884114 0 -0.14657132146084931 0.01677767438903701 0 -0.15126073753592009 0.02487777788828089 0 -0.15837519066330749 0.018103177496080571 0 -0.1567842680697151 0.017821512483746641 0 -0.15126073753592009 0.02487777788828089 0 -0.15188271994169991 0.01786916074884114 0 -0.1567842680697151 0.017821512483746641 0 -0.1543123506052223 0.01567032783345056 0 -0.15188271994169991 0.01786916074884114 0 -0.1567842680697151 0.017821512483746641 0 -0.13861921700048169 0.01285353366238922 0 -0.1395360945068517 0.023372288850015029 0 -0.14657132146084931 0.01677767438903701 0 -0.1395360945068517 0.023372288850015029 0 -0.15126073753592009 0.02487777788828089 0 -0.14657132146084931 0.01677767438903701 0 -0.15381676672243971 -0.0048344028756085976 0 -0.13796817939809339 -7.5853332940862265e-05 0 -0.14598604308907309 0.0075397954886723484 0 -0.15381676672243971 -0.0048344028756085976 0 -0.15837519066330749 0.018103177496080571 0 -0.15381676672243971 -0.0048344028756085976 0 -0.15182406541376531 0.011854288846745499 0 -0.15837519066330749 0.018103177496080571 0 -0.15381676672243971 -0.0048344028756085976 0 -0.15182406541376531 0.011854288846745499 0 -0.14598604308907309 0.0075397954886723484 0 -0.13861921700048169 0.01285353366238922 0 -0.14657132146084931 0.01677767438903701 0 -0.14598604308907309 0.0075397954886723484 0 -0.14657132146084931 0.01677767438903701 0 -0.15182406541376531 0.011854288846745499 0 -0.14598604308907309 0.0075397954886723484 0 -0.15188271994169991 0.01786916074884114 0 -0.14657132146084931 0.01677767438903701 0 -0.15182406541376531 0.011854288846745499 0 -0.1543123506052223 0.01567032783345056 0 -0.15182406541376531 0.011854288846745499 0 -0.15837519066330749 0.018103177496080571 0 -0.1543123506052223 0.01567032783345056 0 -0.15188271994169991 0.01786916074884114 0 -0.15182406541376531 0.011854288846745499 0 -0.13796817939809339 -7.5853332940862265e-05 0 -0.13861921700048169 0.01285353366238922 0 -0.14598604308907309 0.0075397954886723484 0 -0.15381676672243971 -0.0048344028756085976 0 -0.16872927738725291 0.0066655648670224509 0 -0.15837519066330749 0.018103177496080571 0 -0.16872927738725291 0.0066655648670224509 0 -0.15837519066330749 0.018103177496080571 0 -0.17312315274812851 0.016956976572924821 0 -0.15837519066330749 0.018103177496080571 0 -0.17088268452158301 0.030303691123205939 0 -0.18416549926151529 0.022669224655560441 0 -0.15837519066330749 0.018103177496080571 0 -0.17088268452158301 0.030303691123205939 0 -0.1637260562540532 0.045028253166508762 0 -0.15126073753592009 0.02487777788828089 0 -0.15837519066330749 0.018103177496080571 0 -0.1637260562540532 0.045028253166508762 0 -0.15837519066330749 0.018103177496080571 0 -0.18416549926151529 0.022669224655560441 0 -0.1543123506052223 0.01567032783345056 0 -0.15837519066330749 0.018103177496080571 0 -0.1567842680697151 0.017821512483746641 0 -0.15837519066330749 0.018103177496080571 0 -0.1567842680697151 0.017821512483746641 0 -0.15837519066330749 0.018103177496080571 0 -0.18416549926151529 0.022669224655560441 0 -0.17312315274812851 0.016956976572924821 0 -0.17088268452158301 0.030303691123205939 0 -0.18416549926151529 0.022669224655560441 0 -0.1815242396402782 0.037713578252632912 0 -0.18416549926151529 0.022669224655560441 0 -0.17919408738426101 0.017592611389363012 0 -0.18518118592807509 0.0154377595936586 0 -0.18416549926151529 0.022669224655560441 0 -0.17312315274812851 0.016956976572924821 0 -0.17919408738426101 0.017592611389363012 0 -0.1785064095432054 -0.0066611219507198768 0 -0.16872927738725291 0.0066655648670224509 0 -0.193034969706537 0.00064734206737222756 0 -0.16872927738725291 0.0066655648670224509 0 -0.193034969706537 0.00064734206737222756 0 -0.16872927738725291 0.0066655648670224509 0 -0.18518118592807509 0.0154377595936586 0 -0.193034969706537 0.00064734206737222756 0 -0.16872927738725291 0.0066655648670224509 0 -0.17919408738426101 0.017592611389363012 0 -0.18518118592807509 0.0154377595936586 0 -0.16872927738725291 0.0066655648670224509 0 -0.17312315274812851 0.016956976572924821 0 -0.17919408738426101 0.017592611389363012 0 -0.16907692184479731 0.071953328836937142 0 -0.1637260562540532 0.045028253166508762 0 -0.18167022033174851 0.056262687610226528 0 -0.15722519427174569 0.065058312825911402 0 -0.16907692184479731 0.071953328836937142 0 -0.1637260562540532 0.045028253166508762 0 -0.16907692184479731 0.071953328836937142 0 -0.1637260562540532 0.045028253166508762 0 -0.15837519066330749 0.018103177496080571 0 -0.1637260562540532 0.045028253166508762 0 -0.17088268452158301 0.030303691123205939 0 -0.1637260562540532 0.045028253166508762 0 -0.1815242396402782 0.037713578252632912 0 -0.1815242396402782 0.037713578252632912 0 -0.18167022033174851 0.056262687610226528 0 -0.1948999673891425 0.045815662425189529 0 -0.1637260562540532 0.045028253166508762 0 -0.1815242396402782 0.037713578252632912 0 -0.18167022033174851 0.056262687610226528 0 -0.18416549926151529 0.022669224655560441 0 -0.1815242396402782 0.037713578252632912 0 -0.19539241544158811 0.034915353149486399 0 -0.19598386328254799 0.058823167906541372 0 -0.20873259774339259 0.055173182954087172 0 -0.20069407892192309 0.071070863509647808 0 -0.18167022033174851 0.056262687610226528 0 -0.19598386328254799 0.058823167906541372 0 -0.1876556690991136 0.063313821709693935 0 -0.19598386328254799 0.058823167906541372 0 -0.1948999673891425 0.045815662425189529 0 -0.20873259774339259 0.055173182954087172 0 -0.18167022033174851 0.056262687610226528 0 -0.19598386328254799 0.058823167906541372 0 -0.1948999673891425 0.045815662425189529 0 -0.1815242396402782 0.037713578252632912 0 -0.1948999673891425 0.045815662425189529 0 -0.19539241544158811 0.034915353149486399 0 -0.1948999673891425 0.045815662425189529 0 -0.19539241544158811 0.034915353149486399 0 -0.20641656305728129 0.041143028599009299 0 -0.20641656305728129 0.041143028599009299 0 -0.20995580785972329 0.027235271815039791 0 -0.22080882119384479 0.043900986742667819 0 -0.19539241544158811 0.034915353149486399 0 -0.20641656305728129 0.041143028599009299 0 -0.20995580785972329 0.027235271815039791 0 -0.20641656305728129 0.041143028599009299 0 -0.20873259774339259 0.055173182954087172 0 -0.22080882119384479 0.043900986742667819 0 -0.20873259774339259 0.055173182954087172 0 -0.2267202713125637 0.058975611642501508 0 -0.2176358721649875 0.072186860311035453 0 -0.1948999673891425 0.045815662425189529 0 -0.20641656305728129 0.041143028599009299 0 -0.20873259774339259 0.055173182954087172 0 -0.20993853639106591 -0.0035380738047605968 0 -0.2009137908539024 0.01431144198083124 0 -0.193034969706537 0.00064734206737222756 0 -0.18518118592807509 0.0154377595936586 0 -0.2009137908539024 0.01431144198083124 0 -0.193034969706537 0.00064734206737222756 0 -0.18518118592807509 0.0154377595936586 0 -0.193034969706537 0.00064734206737222756 0 -0.18416549926151529 0.022669224655560441 0 -0.20995580785972329 0.027235271815039791 0 -0.18416549926151529 0.022669224655560441 0 -0.18518118592807509 0.0154377595936586 0 -0.2009137908539024 0.01431144198083124 0 -0.18416549926151529 0.022669224655560441 0 -0.2009137908539024 0.01431144198083124 0 -0.20995580785972329 0.027235271815039791 0 -0.18416549926151529 0.022669224655560441 0 -0.19539241544158811 0.034915353149486399 0 -0.20995580785972329 0.027235271815039791 0 -0.2009137908539024 0.01431144198083124 0 -0.20995580785972329 0.027235271815039791 0 -0.21568563774484731 0.0082874278720449449 0 -0.20993853639106591 -0.0035380738047605968 0 -0.2009137908539024 0.01431144198083124 0 -0.21568563774484731 0.0082874278720449449 0 -0.22684210307559549 -0.0077234896768903086 0 -0.21568563774484731 0.0082874278720449449 0 -0.23077795054394901 0.01115198904600462 0 -0.22684210307559549 -0.0077234896768903086 0 -0.23077795054394901 0.01115198904600462 0 -0.20995580785972329 0.027235271815039791 0 -0.21568563774484731 0.0082874278720449449 0 -0.23077795054394901 0.01115198904600462 0 -0.20995580785972329 0.027235271815039791 0 -0.2357461164579312 0.03180131897451912 0 -0.20995580785972329 0.027235271815039791 0 -0.23077795054394901 0.01115198904600462 0 -0.2357461164579312 0.03180131897451912 0 -0.23077795054394901 0.01115198904600462 0 -0.24854849079604721 0.020569936005881421 0 -0.2357461164579312 0.03180131897451912 0 -0.26153642505613889 0.036367366133998442 0 -0.24854849079604721 0.020569936005881421 0 -0.2357461164579312 0.03180131897451912 0 -0.23077795054394901 0.01115198904600462 0 -0.24854849079604721 0.020569936005881421 0 -0.24598119983726671 0.0037338506766126851 0 -0.22684210307559549 -0.0077234896768903086 0 -0.23077795054394901 0.01115198904600462 0 -0.24598119983726671 0.0037338506766126851 0 -0.20873259774339259 0.055173182954087172 0 -0.2267202713125637 0.058975611642501508 0 -0.22080882119384479 0.043900986742667819 0 -0.2267202713125637 0.058975611642501508 0 -0.22080882119384479 0.043900986742667819 0 -0.239388393447095 0.04766651035075449 0 -0.22080882119384479 0.043900986742667819 0 -0.2357461164579312 0.03180131897451912 0 -0.239388393447095 0.04766651035075449 0 -0.20995580785972329 0.027235271815039791 0 -0.22080882119384479 0.043900986742667819 0 -0.2357461164579312 0.03180131897451912 0 -0.26153642505613889 0.036367366133998442 0 -0.2357461164579312 0.03180131897451912 0 -0.26153642505613889 0.036367366133998442 0 -0.2357461164579312 0.03180131897451912 0 -0.239388393447095 0.04766651035075449 0 -0.25116276906762952 0.054241108780248931 0 -0.239388393447095 0.04766651035075449 0 -0.24035595759446179 0.060712669830591162 0 -0.2267202713125637 0.058975611642501508 0 -0.239388393447095 0.04766651035075449 0 -0.24035595759446179 0.060712669830591162 0 -0.25116276906762952 0.054241108780248931 0 -0.24035595759446179 0.060712669830591162 0 -0.24829977196364941 0.065213336215906109 0 -0.2267202713125637 0.058975611642501508 0 -0.24035595759446179 0.060712669830591162 0 -0.23791909572611269 0.075142721002645518 0 -0.24035595759446179 0.060712669830591162 0 -0.24829977196364941 0.065213336215906109 0 -0.23791909572611269 0.075142721002645518 0 -0.25064083865024739 0.073628726666345984 0 -0.23791909572611269 0.075142721002645518 0 -0.24857020570659841 0.081659589420377987 0 -0.25064083865024739 0.073628726666345984 0 -0.24829977196364941 0.065213336215906109 0 -0.23791909572611269 0.075142721002645518 0 -0.23791909572611269 0.075142721002645518 0 -0.2427234934652894 0.090762762990284518 0 -0.22646138453880821 0.085461994072224837 0 -0.25413031243694739 0.089521027236778197 0 -0.2427234934652894 0.090762762990284518 0 -0.24857020570659841 0.081659589420377987 0 -0.23791909572611269 0.075142721002645518 0 -0.2427234934652894 0.090762762990284518 0 -0.24857020570659841 0.081659589420377987 0 -0.2267202713125637 0.058975611642501508 0 -0.23791909572611269 0.075142721002645518 0 -0.2176358721649875 0.072186860311035453 0 -0.23791909572611269 0.075142721002645518 0 -0.22646138453880821 0.085461994072224837 0 -0.2176358721649875 0.072186860311035453 0 -0.20873259774339259 0.055173182954087172 0 -0.2176358721649875 0.072186860311035453 0 -0.20069407892192309 0.071070863509647808 0 -0.2176358721649875 0.072186860311035453 0 -0.20525373999263671 0.08640341449760941 0 -0.20069407892192309 0.071070863509647808 0 -0.22646138453880821 0.085461994072224837 0 -0.2176358721649875 0.072186860311035453 0 -0.20525373999263671 0.08640341449760941 0 -0.22646138453880821 0.085461994072224837 0 -0.20525373999263671 0.08640341449760941 0 -0.2161514522581473 0.1006972439961434 0 -0.18444466814129201 0.081023499242751457 0 -0.20525373999263671 0.08640341449760941 0 -0.20069407892192309 0.071070863509647808 0 -0.18444466814129201 0.081023499242751457 0 -0.20525373999263671 0.08640341449760941 0 -0.19937405773042491 0.1071019237599893 0 -0.17832815471062741 0.080370175701138483 0 -0.20069407892192309 0.071070863509647808 0 -0.18444466814129201 0.081023499242751457 0 -0.17832815471062741 0.080370175701138483 0 -0.20069407892192309 0.071070863509647808 0 -0.1809864334298861 0.069780609401686525 0 -0.1876556690991136 0.063313821709693935 0 -0.20069407892192309 0.071070863509647808 0 -0.19598386328254799 0.058823167906541372 0 -0.1876556690991136 0.063313821709693935 0 -0.20069407892192309 0.071070863509647808 0 -0.19937405773042491 0.1071019237599893 0 -0.2161514522581473 0.1006972439961434 0 -0.21430344731955769 0.133180348277227 0 -0.19937405773042491 0.1071019237599893 0 -0.19727411993202021 0.1275714443648302 0 -0.1795193575176991 0.1294692331289829 0 -0.18444466814129201 0.081023499242751457 0 -0.19937405773042491 0.1071019237599893 0 -0.20525373999263671 0.08640341449760941 0 -0.19937405773042491 0.1071019237599893 0 -0.2161514522581473 0.1006972439961434 0 -0.19937405773042491 0.1071019237599893 0 -0.21430344731955769 0.133180348277227 0 -0.19937405773042491 0.1071019237599893 0 -0.19727411993202021 0.1275714443648302 0 -0.21430344731955769 0.133180348277227 0 -0.2161514522581473 0.1006972439961434 0 -0.23231730930006211 0.10853516007106349 0 -0.21430344731955769 0.133180348277227 0 -0.2427234934652894 0.090762762990284518 0 -0.22646138453880821 0.085461994072224837 0 -0.23231730930006211 0.10853516007106349 0 -0.22646138453880821 0.085461994072224837 0 -0.2161514522581473 0.1006972439961434 0 -0.23231730930006211 0.10853516007106349 0 -0.25610310449345419 0.1041046972302731 0 -0.2427234934652894 0.090762762990284518 0 -0.23231730930006211 0.10853516007106349 0 -0.25610310449345419 0.1041046972302731 0 -0.23231730930006211 0.10853516007106349 0 -0.2495823492922267 0.12121763785839371 0 -0.23231730930006211 0.10853516007106349 0 -0.2495823492922267 0.12121763785839371 0 -0.23849568892714909 0.13696143350773771 0 -0.23231730930006211 0.10853516007106349 0 -0.23849568892714909 0.13696143350773771 0 -0.25477231595188199 0.13792181725732239 0 -0.2495823492922267 0.12121763785839371 0 -0.23849568892714909 0.13696143350773771 0 -0.23231730930006211 0.10853516007106349 0 -0.23849568892714909 0.13696143350773771 0 -0.21430344731955769 0.133180348277227 0 -0.23849568892714909 0.13696143350773771 0 -0.22923283690869051 0.15925877279446471 0 -0.21430344731955769 0.133180348277227 0 -0.22923283690869051 0.15925877279446471 0 -0.21430344731955769 0.133180348277227 0 -0.2543915534089356 0.15018751405662761 0 -0.23849568892714909 0.13696143350773771 0 -0.24467406855423091 0.1653877069444131 0 -0.23849568892714909 0.13696143350773771 0 -0.24467406855423091 0.1653877069444131 0 -0.22923283690869051 0.15925877279446471 0 -0.2543915534089356 0.15018751405662761 0 -0.25477231595188199 0.13792181725732239 0 -0.23849568892714909 0.13696143350773771 0 -0.23849568892714909 0.13696143350773771 0 -0.24467406855423091 0.1653877069444131 0 -0.24467406855423091 0.1653877069444131 0 -0.2350219134637796 0.18103954803765679 0 -0.22379977898383499 0.16989282922580509 0 -0.24467406855423091 0.1653877069444131 0 -0.24947341468037071 0.1874691479585941 0 -0.2350219134637796 0.18103954803765679 0 -0.24467406855423091 0.1653877069444131 0 -0.24947341468037071 0.1874691479585941 0 -0.2350219134637796 0.18103954803765679 0 -0.22004124654446131 0.18611549732905991 0 -0.22379977898383499 0.16989282922580509 0 -0.24467406855423091 0.1653877069444131 0 -0.22379977898383499 0.16989282922580509 0 -0.22923283690869051 0.15925877279446471 0 -0.22379977898383499 0.16989282922580509 0 -0.22923283690869051 0.15925877279446471 0 -0.20989634202023699 0.1560844752241346 0 -0.24467406855423091 0.1653877069444131 0 -0.22379977898383499 0.16989282922580509 0 -0.22379977898383499 0.16989282922580509 0 -0.20292548941343971 0.17439795150720031 0 -0.20989634202023699 0.1560844752241346 0 -0.20292548941343971 0.17439795150720031 0 -0.20989634202023699 0.1560844752241346 0 -0.17833905569944569 0.15756593750779829 0 -0.22379977898383499 0.16989282922580509 0 -0.20292548941343971 0.17439795150720031 0 -0.22004124654446131 0.18611549732905991 0 -0.22379977898383499 0.16989282922580509 0 -0.20292548941343971 0.17439795150720031 0 -0.22004124654446131 0.18611549732905991 0 -0.20292548941343971 0.17439795150720031 0 -0.22004124654446131 0.18611549732905991 0 -0.20292548941343971 0.17439795150720031 0 -0.20568385543668641 0.19260324117033031 0 -0.20292548941343971 0.17439795150720031 0 -0.1757122088887666 0.1802711648698879 0 -0.20292548941343971 0.17439795150720031 0 -0.1897130520823497 0.19444680225630501 0 -0.1757122088887666 0.1802711648698879 0 -0.20292548941343971 0.17439795150720031 0 -0.20568385543668641 0.19260324117033031 0 -0.1897130520823497 0.19444680225630501 0 -0.20292548941343971 0.17439795150720031 0 -0.17833905569944569 0.15756593750779829 0 -0.19589961716039911 0.1405342722931214 0 -0.20989634202023699 0.1560844752241346 0 -0.17833905569944569 0.15756593750779829 0 -0.19727411993202021 0.1275714443648302 0 -0.19589961716039911 0.1405342722931214 0 -0.1795193575176991 0.1294692331289829 0 -0.19727411993202021 0.1275714443648302 0 -0.19589961716039911 0.1405342722931214 0 -0.21430344731955769 0.133180348277227 0 -0.22923283690869051 0.15925877279446471 0 -0.21430344731955769 0.133180348277227 0 -0.20989634202023699 0.1560844752241346 0 -0.19589961716039911 0.1405342722931214 0 -0.21430344731955769 0.133180348277227 0 -0.20989634202023699 0.1560844752241346 0 -0.23288038931281729 0.23888496135878451 0 -0.21994142138302111 0.22426230620998819 0 -0.21218175950055909 0.24952722652004439 0 -0.22667039518801041 0.25355429459537898 0 -0.23288038931281729 0.23888496135878451 0 -0.21218175950055909 0.24952722652004439 0 -0.2416444700809012 0.25186566196455601 0 -0.22667039518801041 0.25355429459537898 0 -0.23288038931281729 0.23888496135878451 0 -0.2416444700809012 0.25186566196455601 0 -0.23288038931281729 0.23888496135878451 0 -0.2470081454867771 0.2422065880623451 0 -0.25693865295534157 0.25278860643768353 0 -0.2416444700809012 0.25186566196455601 0 -0.2470081454867771 0.2422065880623451 0 -0.25109603964961891 0.234366577265785 0 -0.2470081454867771 0.2422065880623451 0 -0.24424918889796191 0.23342051569475999 0 -0.23288038931281729 0.23888496135878451 0 -0.2470081454867771 0.2422065880623451 0 -0.24424918889796191 0.23342051569475999 0 -0.23288038931281729 0.23888496135878451 0 -0.24424918889796191 0.23342051569475999 0 -0.2396805993576108 0.22455316273993289 0 -0.24424918889796191 0.23342051569475999 0 -0.249817319625419 0.2274340479663062 0 -0.2396805993576108 0.22455316273993289 0 -0.25109603964961891 0.234366577265785 0 -0.24424918889796191 0.23342051569475999 0 -0.249817319625419 0.2274340479663062 0 -0.249817319625419 0.2274340479663062 0 -0.24904636230289101 0.22050689045355901 0 -0.2396805993576108 0.22455316273993289 0 -0.24904636230289101 0.22050689045355901 0 -0.2396805993576108 0.22455316273993289 0 -0.24333230173327219 0.21221501244476959 0 -0.2396805993576108 0.22455316273993289 0 -0.21994142138302111 0.22426230620998819 0 -0.23304733008138001 0.21339205942673259 0 -0.23288038931281729 0.23888496135878451 0 -0.2396805993576108 0.22455316273993289 0 -0.21994142138302111 0.22426230620998819 0 -0.21994142138302111 0.22426230620998819 0 -0.22770108326548311 0.19899738589993199 0 -0.210353022999335 0.20567537760669019 0 -0.21994142138302111 0.22426230620998819 0 -0.23304733008138001 0.21339205942673259 0 -0.22770108326548311 0.19899738589993199 0 -0.21994142138302111 0.22426230620998819 0 -0.22770108326548311 0.19899738589993199 0 -0.23304733008138001 0.21339205942673259 0 -0.2346933251094325 0.20523388649383931 0 -0.22770108326548311 0.19899738589993199 0 -0.25427276080650663 0.20955058897277601 0 -0.23715700367548431 0.1978330431509176 0 -0.2396805993576108 0.22455316273993289 0 -0.23304733008138001 0.21339205942673259 0 -0.24333230173327219 0.21221501244476959 0 -0.25427276080650663 0.20955058897277601 0 -0.24333230173327219 0.21221501244476959 0 -0.23715700367548431 0.1978330431509176 0 -0.25561524088587501 0.21572724177218369 0 -0.24904636230289101 0.22050689045355901 0 -0.24333230173327219 0.21221501244476959 0 -0.24333230173327219 0.21221501244476959 0 -0.2346933251094325 0.20523388649383931 0 -0.23715700367548431 0.1978330431509176 0 -0.23304733008138001 0.21339205942673259 0 -0.24333230173327219 0.21221501244476959 0 -0.2346933251094325 0.20523388649383931 0 -0.25427276080650663 0.20955058897277601 0 -0.24947341468037071 0.1874691479585941 0 -0.23715700367548431 0.1978330431509176 0 -0.24947341468037071 0.1874691479585941 0 -0.2350219134637796 0.18103954803765679 0 -0.23715700367548431 0.1978330431509176 0 -0.22004124654446131 0.18611549732905991 0 -0.23715700367548431 0.1978330431509176 0 -0.22004124654446131 0.18611549732905991 0 -0.23715700367548431 0.1978330431509176 0 -0.22770108326548311 0.19899738589993199 0 -0.2350219134637796 0.18103954803765679 0 -0.22004124654446131 0.18611549732905991 0 -0.23715700367548431 0.1978330431509176 0 -0.2346933251094325 0.20523388649383931 0 -0.23715700367548431 0.1978330431509176 0 -0.22770108326548311 0.19899738589993199 0 -0.22004124654446131 0.18611549732905991 0 -0.22770108326548311 0.19899738589993199 0 -0.21594480206149139 0.19584787550150309 0 -0.22770108326548311 0.19899738589993199 0 -0.21594480206149139 0.19584787550150309 0 -0.210353022999335 0.20567537760669019 0 -0.22004124654446131 0.18611549732905991 0 -0.21594480206149139 0.19584787550150309 0 -0.20568385543668641 0.19260324117033031 0 -0.21594480206149139 0.19584787550150309 0 -0.20568385543668641 0.19260324117033031 0 -0.210353022999335 0.20567537760669019 0 -0.20568385543668641 0.19260324117033031 0 -0.19800517532583911 0.2033181044808495 0 -0.210353022999335 0.20567537760669019 0 -0.20568385543668641 0.19260324117033031 0 -0.1897130520823497 0.19444680225630501 0 -0.19800517532583911 0.2033181044808495 0 -0.1897130520823497 0.19444680225630501 0 -0.19800517532583911 0.2033181044808495 0 -0.1863200837324982 0.20555600776477401 0 -0.19800517532583911 0.2033181044808495 0 -0.19795586237832599 0.21830909360614789 0 -0.210353022999335 0.20567537760669019 0 -0.19800517532583911 0.2033181044808495 0 -0.19795586237832599 0.21830909360614789 0 -0.1863200837324982 0.20555600776477401 0 -0.19795586237832599 0.21830909360614789 0 -0.18240126852579899 0.21930684119835961 0 -0.1863200837324982 0.20555600776477401 0 -0.21994142138302111 0.22426230620998819 0 -0.19795586237832599 0.21830909360614789 0 -0.210353022999335 0.20567537760669019 0 -0.21994142138302111 0.22426230620998819 0 -0.19795586237832599 0.21830909360614789 0 -0.20314208847108339 0.23556135501649109 0 -0.19795586237832599 0.21830909360614789 0 -0.18651378479530609 0.23505073182760211 0 -0.18240126852579899 0.21930684119835961 0 -0.19795586237832599 0.21830909360614789 0 -0.20314208847108339 0.23556135501649109 0 -0.18651378479530609 0.23505073182760211 0 -0.1929026130837673 0.25762258695206858 0 -0.20314208847108339 0.23556135501649109 0 -0.18651378479530609 0.23505073182760211 0 -0.1929026130837673 0.25762258695206858 0 -0.20314208847108339 0.23556135501649109 0 -0.21218175950055909 0.24952722652004439 0 -0.21994142138302111 0.22426230620998819 0 -0.21218175950055909 0.24952722652004439 0 -0.21994142138302111 0.22426230620998819 0 -0.20314208847108339 0.23556135501649109 0 -0.21218175950055909 0.24952722652004439 0 -0.16582228118094081 0.26466105519565358 0 -0.18651378479530609 0.23505073182760211 0 -0.1608218935138386 0.23306973899941771 0 -0.16582228118094081 0.26466105519565358 0 -0.14534546737678511 0.25129379472131641 0 -0.1608218935138386 0.23306973899941771 0 -0.18651378479530609 0.23505073182760211 0 -0.1608218935138386 0.23306973899941771 0 -0.18651378479530609 0.23505073182760211 0 -0.18240126852579899 0.21930684119835961 0 -0.1608218935138386 0.23306973899941771 0 -0.1608218935138386 0.23306973899941771 0 -0.16716432822862029 0.21469463307327219 0 -0.14537567171977789 0.21373021027012479 0 -0.18240126852579899 0.21930684119835961 0 -0.1608218935138386 0.23306973899941771 0 -0.16716432822862029 0.21469463307327219 0 -0.16716432822862029 0.21469463307327219 0 -0.15728284033457929 0.19872471446884221 0 -0.14537567171977789 0.21373021027012479 0 -0.16716432822862029 0.21469463307327219 0 -0.1863200837324982 0.20555600776477401 0 -0.15728284033457929 0.19872471446884221 0 -0.18240126852579899 0.21930684119835961 0 -0.16716432822862029 0.21469463307327219 0 -0.1863200837324982 0.20555600776477401 0 -0.1863200837324982 0.20555600776477401 0 -0.1747365466553682 0.1940095109997643 0 -0.15728284033457929 0.19872471446884221 0 -0.1897130520823497 0.19444680225630501 0 -0.1863200837324982 0.20555600776477401 0 -0.1747365466553682 0.1940095109997643 0 -0.1897130520823497 0.19444680225630501 0 -0.1747365466553682 0.1940095109997643 0 -0.1757122088887666 0.1802711648698879 0 -0.1747365466553682 0.1940095109997643 0 -0.16534449221108169 0.19019064904669619 0 -0.1757122088887666 0.1802711648698879 0 -0.1863200837324982 0.20555600776477401 0 -0.15728284033457929 0.19872471446884221 0 -0.1747365466553682 0.1940095109997643 0 -0.16534449221108169 0.19019064904669619 0 -0.15728284033457929 0.19872471446884221 0 -0.16534449221108169 0.19019064904669619 0 -0.15728284033457929 0.19872471446884221 0 -0.15629575781976141 0.184461654133797 0 -0.15728284033457929 0.19872471446884221 0 -0.12824559693666041 0.19189342117291039 0 -0.15629575781976141 0.184461654133797 0 -0.15728284033457929 0.19872471446884221 0 -0.12824559693666041 0.19189342117291039 0 -0.14537567171977789 0.21373021027012479 0 -0.15728284033457929 0.19872471446884221 0 -0.12824559693666041 0.19189342117291039 0 -0.12824559693666041 0.19189342117291039 0 -0.14537567171977789 0.21373021027012479 0 -0.1242544958201173 0.21504107598638081 0 -0.1608218935138386 0.23306973899941771 0 -0.14537567171977789 0.21373021027012479 0 -0.13513000223237101 0.23108874617123329 0 -0.1608218935138386 0.23306973899941771 0 -0.13513000223237101 0.23108874617123329 0 -0.14537567171977789 0.21373021027012479 0 -0.13513000223237101 0.23108874617123329 0 -0.1242544958201173 0.21504107598638081 0 -0.14534546737678511 0.25129379472131641 0 -0.13513000223237101 0.23108874617123329 0 -0.12470300375741469 0.2457033751303839 0 -0.14534546737678511 0.25129379472131641 0 -0.1608218935138386 0.23306973899941771 0 -0.13513000223237101 0.23108874617123329 0 -0.17833905569944569 0.15756593750779829 0 -0.1561619761378806 0.16047685630827471 0 -0.153752621985453 0.14073392350839439 0 -0.1795193575176991 0.1294692331289829 0 -0.17833905569944569 0.15756593750779829 0 -0.153752621985453 0.14073392350839439 0 -0.17833905569944569 0.15756593750779829 0 -0.153752621985453 0.14073392350839439 0 -0.16393492635195239 0.1245978723337525 0 -0.15311233888185891 0.1152965378839053 0 -0.153752621985453 0.14073392350839439 0 -0.16393492635195239 0.1245978723337525 0 -0.1795193575176991 0.1294692331289829 0 -0.153752621985453 0.14073392350839439 0 -0.19589961716039911 0.1405342722931214 0 -0.1795193575176991 0.1294692331289829 0 -0.17833905569944569 0.15756593750779829 0 -0.20292548941343971 0.17439795150720031 0 -0.17833905569944569 0.15756593750779829 0 -0.1757122088887666 0.1802711648698879 0 -0.1897130520823497 0.19444680225630501 0 -0.1757122088887666 0.1802711648698879 0 -0.16534449221108169 0.19019064904669619 0 -0.1757122088887666 0.1802711648698879 0 -0.15629575781976141 0.184461654133797 0 -0.1757122088887666 0.1802711648698879 0 -0.15629575781976141 0.184461654133797 0 -0.1757122088887666 0.1802711648698879 0 -0.15629575781976141 0.184461654133797 0 -0.1561619761378806 0.16047685630827471 0 -0.17833905569944569 0.15756593750779829 0 -0.1757122088887666 0.1802711648698879 0 -0.1561619761378806 0.16047685630827471 0 -0.1757122088887666 0.1802711648698879 0 -0.1561619761378806 0.16047685630827471 0 -0.1561619761378806 0.16047685630827471 0 -0.14126926821389521 0.17232478353634881 0 -0.1371080151487378 0.15864895140394189 0 -0.15629575781976141 0.184461654133797 0 -0.1561619761378806 0.16047685630827471 0 -0.14126926821389521 0.17232478353634881 0 -0.12824559693666041 0.19189342117291039 0 -0.15629575781976141 0.184461654133797 0 -0.14126926821389521 0.17232478353634881 0 -0.12824559693666041 0.19189342117291039 0 -0.14126926821389521 0.17232478353634881 0 -0.1248941403316576 0.1686438139500778 0 -0.14126926821389521 0.17232478353634881 0 -0.1371080151487378 0.15864895140394189 0 -0.1248941403316576 0.1686438139500778 0 -0.1371080151487378 0.15864895140394189 0 -0.1239269324459726 0.1539154783358255 0 -0.1248941403316576 0.1686438139500778 0 -0.1371080151487378 0.15864895140394189 0 -0.13661174338699569 0.1406825477466605 0 -0.1239269324459726 0.1539154783358255 0 -0.1561619761378806 0.16047685630827471 0 -0.13661174338699569 0.1406825477466605 0 -0.1561619761378806 0.16047685630827471 0 -0.13661174338699569 0.1406825477466605 0 -0.153752621985453 0.14073392350839439 0 -0.1561619761378806 0.16047685630827471 0 -0.1371080151487378 0.15864895140394189 0 -0.13661174338699569 0.1406825477466605 0 -0.12916618827146031 0.12390190950899049 0 -0.153752621985453 0.14073392350839439 0 -0.13930859898956699 0.1145050369687237 0 -0.12916618827146031 0.12390190950899049 0 -0.153752621985453 0.14073392350839439 0 -0.13661174338699569 0.1406825477466605 0 -0.11706151063611089 0.1208882391850464 0 -0.12916618827146031 0.12390190950899049 0 -0.13661174338699569 0.1406825477466605 0 -0.11706151063611089 0.1208882391850464 0 -0.12916618827146031 0.12390190950899049 0 -0.13661174338699569 0.1406825477466605 0 -0.153752621985453 0.14073392350839439 0 -0.13661174338699569 0.1406825477466605 0 -0.11473911200363 0.13153944404780621 0 -0.1132109842275667 0.1430328284895945 0 -0.13661174338699569 0.1406825477466605 0 -0.11473911200363 0.13153944404780621 0 -0.11706151063611089 0.1208882391850464 0 -0.11473911200363 0.13153944404780621 0 -0.1039338124667491 0.13009472872812991 0 -0.1132109842275667 0.1430328284895945 0 -0.11473911200363 0.13153944404780621 0 -0.1039338124667491 0.13009472872812991 0 -0.10601879130899509 0.12208205668825579 0 -0.1039338124667491 0.13009472872812991 0 -0.093398168270057425 0.14218175111966569 0 -0.093946486761182085 0.1175508364221631 0 -0.1039338124667491 0.13009472872812991 0 -0.1132109842275667 0.1430328284895945 0 -0.093398168270057425 0.14218175111966569 0 -0.1078097791349048 0.15856925008885259 0 -0.089544080768145809 0.16137822361845131 0 -0.093398168270057425 0.14218175111966569 0 -0.1132109842275667 0.1430328284895945 0 -0.1078097791349048 0.15856925008885259 0 -0.093398168270057425 0.14218175111966569 0 -0.13661174338699569 0.1406825477466605 0 -0.1132109842275667 0.1430328284895945 0 -0.1239269324459726 0.1539154783358255 0 -0.1132109842275667 0.1430328284895945 0 -0.1239269324459726 0.1539154783358255 0 -0.1078097791349048 0.15856925008885259 0 -0.1248941403316576 0.1686438139500778 0 -0.099208353538741523 0.18506212787697859 0 -0.1078097791349048 0.15856925008885259 0 -0.1239269324459726 0.1539154783358255 0 -0.1248941403316576 0.1686438139500778 0 -0.1078097791349048 0.15856925008885259 0 -0.12824559693666041 0.19189342117291039 0 -0.1248941403316576 0.1686438139500778 0 -0.099208353538741523 0.18506212787697859 0 -0.099208353538741523 0.18506212787697859 0 -0.1078097791349048 0.15856925008885259 0 -0.089544080768145809 0.16137822361845131 0 -0.089544080768145809 0.16137822361845131 0 -0.070171110140822543 0.1782308345810468 0 -0.074669823138777097 0.15727584041375819 0 -0.099208353538741523 0.18506212787697859 0 -0.089544080768145809 0.16137822361845131 0 -0.070171110140822543 0.1782308345810468 0 -0.099208353538741523 0.18506212787697859 0 -0.070171110140822543 0.1782308345810468 0 -0.070171110140822543 0.1782308345810468 0 -0.074669823138777097 0.15727584041375819 0 -0.057722578482997257 0.16273086802879619 0 -0.074669823138777097 0.15727584041375819 0 -0.066369438716585821 0.14892706699039879 0 -0.057722578482997257 0.16273086802879619 0 -0.074669823138777097 0.15727584041375819 0 -0.066369438716585821 0.14892706699039879 0 -0.074733199104357148 0.14603812585323231 0 -0.074669823138777097 0.15727584041375819 0 -0.074733199104357148 0.14603812585323231 0 -0.082756465015383474 0.1492386270883771 0 -0.074733199104357148 0.14603812585323231 0 -0.067315024607703278 0.13662092079142449 0 -0.081437053795579945 0.1393191944367777 0 -0.066369438716585821 0.14892706699039879 0 -0.074733199104357148 0.14603812585323231 0 -0.067315024607703278 0.13662092079142449 0 -0.066369438716585821 0.14892706699039879 0 -0.067315024607703278 0.13662092079142449 0 -0.054361576129613079 0.15178129246158931 0 -0.067315024607703278 0.13662092079142449 0 -0.088852304720190942 0.12644129241805541 0 -0.067315024607703278 0.13662092079142449 0 -0.088852304720190942 0.12644129241805541 0 -0.075786521408142987 0.12443322189858901 0 -0.067315024607703278 0.13662092079142449 0 -0.062016764747578973 0.12884034001808189 0 -0.075786521408142987 0.12443322189858901 0 -0.088852304720190942 0.12644129241805541 0 -0.093398168270057425 0.14218175111966569 0 -0.093946486761182085 0.1175508364221631 0 -0.067315024607703278 0.13662092079142449 0 -0.081437053795579945 0.1393191944367777 0 -0.088852304720190942 0.12644129241805541 0 -0.093398168270057425 0.14218175111966569 0 -0.093946486761182085 0.1175508364221631 0 -0.081437053795579945 0.1393191944367777 0 -0.088852304720190942 0.12644129241805541 0 -0.093398168270057425 0.14218175111966569 0 -0.089544080768145809 0.16137822361845131 0 -0.093398168270057425 0.14218175111966569 0 -0.082756465015383474 0.1492386270883771 0 -0.089544080768145809 0.16137822361845131 0 -0.074669823138777097 0.15727584041375819 0 -0.082756465015383474 0.1492386270883771 0 -0.074733199104357148 0.14603812585323231 0 -0.081437053795579945 0.1393191944367777 0 -0.082756465015383474 0.1492386270883771 0 -0.081437053795579945 0.1393191944367777 0 -0.093398168270057425 0.14218175111966569 0 -0.082756465015383474 0.1492386270883771 0 -0.11076524853809321 0.25238606884059173 0 -0.1094381109509034 0.22910775334304889 0 -0.091345724210048884 0.23566487628332011 0 -0.11076524853809321 0.25238606884059173 0 -0.092391857727521592 0.25884509119311472 0 -0.091345724210048884 0.23566487628332011 0 -0.13513000223237101 0.23108874617123329 0 -0.12470300375741469 0.2457033751303839 0 -0.1094381109509034 0.22910775334304889 0 -0.11076524853809321 0.25238606884059173 0 -0.12470300375741469 0.2457033751303839 0 -0.1094381109509034 0.22910775334304889 0 -0.13513000223237101 0.23108874617123329 0 -0.1094381109509034 0.22910775334304889 0 -0.13513000223237101 0.23108874617123329 0 -0.1094381109509034 0.22910775334304889 0 -0.1242544958201173 0.21504107598638081 0 -0.1094381109509034 0.22910775334304889 0 -0.10308309726087379 0.20938524897458621 0 -0.091345724210048884 0.23566487628332011 0 -0.1094381109509034 0.22910775334304889 0 -0.10308309726087379 0.20938524897458621 0 -0.1242544958201173 0.21504107598638081 0 -0.12824559693666041 0.19189342117291039 0 -0.10308309726087379 0.20938524897458621 0 -0.1242544958201173 0.21504107598638081 0 -0.12824559693666041 0.19189342117291039 0 -0.099208353538741523 0.18506212787697859 0 -0.12824559693666041 0.19189342117291039 0 -0.099208353538741523 0.18506212787697859 0 -0.10308309726087379 0.20938524897458621 0 -0.099208353538741523 0.18506212787697859 0 -0.070171110140822543 0.1782308345810468 0 -0.078220861930521898 0.21057701145176541 0 -0.070171110140822543 0.1782308345810468 0 -0.078220861930521898 0.21057701145176541 0 -0.056949983849450658 0.19269083667038239 0 -0.099208353538741523 0.18506212787697859 0 -0.10308309726087379 0.20938524897458621 0 -0.078220861930521898 0.21057701145176541 0 -0.078220861930521898 0.21057701145176541 0 -0.056178602179823331 0.21732906463454121 0 -0.056949983849450658 0.19269083667038239 0 -0.10308309726087379 0.20938524897458621 0 -0.078220861930521898 0.21057701145176541 0 -0.091345724210048884 0.23566487628332011 0 -0.078220861930521898 0.21057701145176541 0 -0.069221313838413207 0.24642852661517459 0 -0.091345724210048884 0.23566487628332011 0 -0.078220861930521898 0.21057701145176541 0 -0.069221313838413207 0.24642852661517459 0 -0.056178602179823331 0.21732906463454121 0 -0.092391857727521592 0.25884509119311472 0 -0.069221313838413207 0.24642852661517459 0 -0.091345724210048884 0.23566487628332011 0 -0.033382390283993792 0.24359412621706661 0 -0.046050769949304807 0.23401196203723451 0 -0.025866468353912139 0.2289639569827632 0 -0.048126263350958612 0.25465777805589501 0 -0.033382390283993792 0.24359412621706661 0 -0.046050769949304807 0.23401196203723451 0 -0.048126263350958612 0.25465777805589501 0 -0.069221313838413207 0.24642852661517459 0 -0.046050769949304807 0.23401196203723451 0 -0.069221313838413207 0.24642852661517459 0 -0.046050769949304807 0.23401196203723451 0 -0.069221313838413207 0.24642852661517459 0 -0.046050769949304807 0.23401196203723451 0 -0.056178602179823331 0.21732906463454121 0 -0.046050769949304807 0.23401196203723451 0 -0.03692704292774221 0.2147422921961073 0 -0.025866468353912139 0.2289639569827632 0 -0.046050769949304807 0.23401196203723451 0 -0.03692704292774221 0.2147422921961073 0 -0.056178602179823331 0.21732906463454121 0 -0.03692704292774221 0.2147422921961073 0 -0.056178602179823331 0.21732906463454121 0 -0.044221089124866657 0.20193605474889509 0 -0.03692704292774221 0.2147422921961073 0 -0.044221089124866657 0.20193605474889509 0 -0.032331133115066808 0.19858524020914661 0 -0.056178602179823331 0.21732906463454121 0 -0.056949983849450658 0.19269083667038239 0 -0.044221089124866657 0.20193605474889509 0 -0.056949983849450658 0.19269083667038239 0 -0.040360849617421202 0.18777351164107661 0 -0.044221089124866657 0.20193605474889509 0 -0.040360849617421202 0.18777351164107661 0 -0.032331133115066808 0.19858524020914661 0 -0.026751027678188599 0.18229597604057349 0 -0.040360849617421202 0.18777351164107661 0 -0.044221089124866657 0.20193605474889509 0 -0.032331133115066808 0.19858524020914661 0 -0.016914194843479571 0.2076274745640635 0 -0.026751027678188599 0.18229597604057349 0 -0.032331133115066808 0.19858524020914661 0 -0.016914194843479571 0.2076274745640635 0 -0.026751027678188599 0.18229597604057349 0 -0.01405220631290922 0.19352016069679451 0 -0.016914194843479571 0.2076274745640635 0 -0.026751027678188599 0.18229597604057349 0 -0.01405220631290922 0.19352016069679451 0 -0.0012364494800765971 0.1960628175593882 0 -0.01891215499648707 0.1765136475382359 0 -0.01405220631290922 0.19352016069679451 0 -0.0012364494800765971 0.1960628175593882 0 -0.0064787008301582438 0.20475797647738719 0 -0.0012364494800765971 0.1960628175593882 0 -0.0064787008301582438 0.20475797647738719 0 0.003893562275735573 0.2064819102401671 0 -0.01405220631290922 0.19352016069679451 0 -0.0064787008301582438 0.20475797647738719 0 -0.016914194843479571 0.2076274745640635 0 -0.0045317147067566524 0.21522543551468479 0 -0.016914194843479571 0.2076274745640635 0 -0.0070773620087705444 0.23295897308755351 0 -0.0064787008301582438 0.20475797647738719 0 -0.0045317147067566524 0.21522543551468479 0 -0.016914194843479571 0.2076274745640635 0 -0.0064787008301582438 0.20475797647738719 0 -0.0045317147067566524 0.21522543551468479 0 0.003893562275735573 0.2064819102401671 0 -0.03692704292774221 0.2147422921961073 0 -0.016914194843479571 0.2076274745640635 0 -0.025866468353912139 0.2289639569827632 0 -0.03692704292774221 0.2147422921961073 0 -0.032331133115066808 0.19858524020914661 0 -0.016914194843479571 0.2076274745640635 0 -0.016914194843479571 0.2076274745640635 0 -0.025866468353912139 0.2289639569827632 0 -0.0070773620087705444 0.23295897308755351 0 -0.016914194843479571 0.2076274745640635 0 -0.0070773620087705444 0.23295897308755351 0 -0.0045317147067566524 0.21522543551468479 0 -0.0070773620087705444 0.23295897308755351 0 0.0038866256090455522 0.2239579318999283 0 -0.0070773620087705444 0.23295897308755351 0 0.001894876929373096 0.24743045501984201 0 0.0027594708259384838 0.25829047161104352 0 -0.0070773620087705444 0.23295897308755351 0 0.0027594708259384838 0.25829047161104352 0 -0.0087132352456033638 0.25173417187717928 0 -0.0070773620087705444 0.23295897308755351 0 -0.01778818590069102 0.2421293126167848 0 -0.0087132352456033638 0.25173417187717928 0 -0.0070773620087705444 0.23295897308755351 0 0.0027594708259384838 0.25829047161104352 0 -0.025866468353912139 0.2289639569827632 0 -0.0070773620087705444 0.23295897308755351 0 -0.01778818590069102 0.2421293126167848 0 -0.028053557715267439 0.25838243531431121 0 -0.033382390283993792 0.24359412621706661 0 -0.01778818590069102 0.2421293126167848 0 -0.033382390283993792 0.24359412621706661 0 -0.025866468353912139 0.2289639569827632 0 -0.01778818590069102 0.2421293126167848 0 -0.044416936009294992 0.14744373737619401 0 -0.030319635528424791 0.14770209815471691 0 -0.021396469969749188 0.1374028974533886 0 -0.044416936009294992 0.14744373737619401 0 -0.030319635528424791 0.14770209815471691 0 -0.027639103276038759 0.15537380566908321 0 -0.044416936009294992 0.14744373737619401 0 -0.038116788675066252 0.15302723042411279 0 -0.027639103276038759 0.15537380566908321 0 -0.044416936009294992 0.14744373737619401 0 -0.041458398192443832 0.13942314763129199 0 -0.021396469969749188 0.1374028974533886 0 -0.044416936009294992 0.14744373737619401 0 -0.027639103276038759 0.15537380566908321 0 -0.044416936009294992 0.14744373737619401 0 -0.021396469969749188 0.1374028974533886 0 -0.044416936009294992 0.14744373737619401 0 -0.036587860512897558 0.15696447751708351 0 -0.044416936009294992 0.14744373737619401 0 -0.047012455662473793 0.15786975055381819 0 -0.036587860512897558 0.15696447751708351 0 -0.044416936009294992 0.14744373737619401 0 -0.038116788675066252 0.15302723042411279 0 -0.036587860512897558 0.15696447751708351 0 -0.038116788675066252 0.15302723042411279 0 -0.036587860512897558 0.15696447751708351 0 -0.027639103276038759 0.15537380566908321 0 -0.038116788675066252 0.15302723042411279 0 -0.036587860512897558 0.15696447751708351 0 -0.037500573576258918 0.13069979942664511 0 -0.041458398192443832 0.13942314763129199 0 -0.021396469969749188 0.1374028974533886 0 -0.037500573576258918 0.13069979942664511 0 -0.028643554108799551 0.12806760582925611 0 -0.034668926388748328 0.1237436995229996 0 -0.037500573576258918 0.13069979942664511 0 -0.047589673205635397 0.1324549890601831 0 -0.046884900963607742 0.11986348336078891 0 -0.037500573576258918 0.13069979942664511 0 -0.041458398192443832 0.13942314763129199 0 -0.047589673205635397 0.1324549890601831 0 -0.044416936009294992 0.14744373737619401 0 -0.041458398192443832 0.13942314763129199 0 -0.047589673205635397 0.1324549890601831 0 -0.067315024607703278 0.13662092079142449 0 -0.044416936009294992 0.14744373737619401 0 -0.062016764747578973 0.12884034001808189 0 -0.044416936009294992 0.14744373737619401 0 -0.062016764747578973 0.12884034001808189 0 -0.044416936009294992 0.14744373737619401 0 -0.047589673205635397 0.1324549890601831 0 -0.062016764747578973 0.12884034001808189 0 -0.047589673205635397 0.1324549890601831 0 -0.062016764747578973 0.12884034001808189 0 -0.046884900963607742 0.11986348336078891 0 -0.067315024607703278 0.13662092079142449 0 -0.044416936009294992 0.14744373737619401 0 -0.054361576129613079 0.15178129246158931 0 -0.067315024607703278 0.13662092079142449 0 -0.044416936009294992 0.14744373737619401 0 -0.044416936009294992 0.14744373737619401 0 -0.054361576129613079 0.15178129246158931 0 -0.044416936009294992 0.14744373737619401 0 -0.054361576129613079 0.15178129246158931 0 -0.047012455662473793 0.15786975055381819 0 -0.066369438716585821 0.14892706699039879 0 -0.054361576129613079 0.15178129246158931 0 -0.057722578482997257 0.16273086802879619 0 -0.057722578482997257 0.16273086802879619 0 -0.050411583818504503 0.1777900037548745 0 -0.045636115300606919 0.16650756778262649 0 -0.054361576129613079 0.15178129246158931 0 -0.057722578482997257 0.16273086802879619 0 -0.047012455662473793 0.15786975055381819 0 -0.057722578482997257 0.16273086802879619 0 -0.047012455662473793 0.15786975055381819 0 -0.045636115300606919 0.16650756778262649 0 -0.070171110140822543 0.1782308345810468 0 -0.056949983849450658 0.19269083667038239 0 -0.050411583818504503 0.1777900037548745 0 -0.070171110140822543 0.1782308345810468 0 -0.057722578482997257 0.16273086802879619 0 -0.050411583818504503 0.1777900037548745 0 -0.056949983849450658 0.19269083667038239 0 -0.040360849617421202 0.18777351164107661 0 -0.050411583818504503 0.1777900037548745 0 -0.040360849617421202 0.18777351164107661 0 -0.050411583818504503 0.1777900037548745 0 -0.039949487385523758 0.17426630734724691 0 -0.050411583818504503 0.1777900037548745 0 -0.039949487385523758 0.17426630734724691 0 -0.045636115300606919 0.16650756778262649 0 -0.040360849617421202 0.18777351164107661 0 -0.039949487385523758 0.17426630734724691 0 -0.026751027678188599 0.18229597604057349 0 -0.039949487385523758 0.17426630734724691 0 -0.036587860512897558 0.15696447751708351 0 -0.026751027678188599 0.18229597604057349 0 -0.036587860512897558 0.15696447751708351 0 -0.026751027678188599 0.18229597604057349 0 -0.039949487385523758 0.17426630734724691 0 -0.045636115300606919 0.16650756778262649 0 -0.036587860512897558 0.15696447751708351 0 -0.047012455662473793 0.15786975055381819 0 -0.045636115300606919 0.16650756778262649 0 -0.036587860512897558 0.15696447751708351 0 -0.01891215499648707 0.1765136475382359 0 -0.010861270542782259 0.1633038739619718 0 -0.027639103276038759 0.15537380566908321 0 -0.010861270542782259 0.1633038739619718 0 -0.027639103276038759 0.15537380566908321 0 -0.036587860512897558 0.15696447751708351 0 -0.01891215499648707 0.1765136475382359 0 -0.036587860512897558 0.15696447751708351 0 -0.01891215499648707 0.1765136475382359 0 -0.027639103276038759 0.15537380566908321 0 -0.01405220631290922 0.19352016069679451 0 -0.01891215499648707 0.1765136475382359 0 -0.026751027678188599 0.18229597604057349 0 -0.036587860512897558 0.15696447751708351 0 -0.01891215499648707 0.1765136475382359 0 -0.026751027678188599 0.18229597604057349 0 -0.01891215499648707 0.1765136475382359 0 -0.010861270542782259 0.1633038739619718 0 0.00061104658230836653 0.17769045695541219 0 -0.0012364494800765971 0.1960628175593882 0 -0.01891215499648707 0.1765136475382359 0 0.00061104658230836653 0.17769045695541219 0 -0.0012364494800765971 0.1960628175593882 0 -0.01891215499648707 0.1765136475382359 0 -0.010861270542782259 0.1633038739619718 0 0.001788155555331062 0.1557637096651584 0 0.00061104658230836653 0.17769045695541219 0 -0.01542264584752753 0.14956457798035719 0 -0.015783289274076458 0.13495459563681389 0 0.001788155555331062 0.1557637096651584 0 -0.015783289274076458 0.13495459563681389 0 0.001788155555331062 0.1557637096651584 0 0.01185912902997375 0.14130758542593569 0 -0.010861270542782259 0.1633038739619718 0 -0.01542264584752753 0.14956457798035719 0 0.001788155555331062 0.1557637096651584 0 -0.015783289274076458 0.13495459563681389 0 0.001788155555331062 0.1557637096651584 0 -0.01542264584752753 0.14956457798035719 0 -0.023159931299824549 0.14839209377580129 0 -0.027639103276038759 0.15537380566908321 0 -0.010861270542782259 0.1633038739619718 0 -0.01542264584752753 0.14956457798035719 0 -0.027639103276038759 0.15537380566908321 0 -0.01542264584752753 0.14956457798035719 0 -0.023159931299824549 0.14839209377580129 0 -0.021396469969749188 0.1374028974533886 0 -0.01542264584752753 0.14956457798035719 0 -0.021396469969749188 0.1374028974533886 0 -0.015783289274076458 0.13495459563681389 0 -0.030319635528424791 0.14770209815471691 0 -0.021396469969749188 0.1374028974533886 0 -0.023159931299824549 0.14839209377580129 0 -0.030319635528424791 0.14770209815471691 0 -0.021396469969749188 0.1374028974533886 0 -0.023159931299824549 0.14839209377580129 0 -0.030319635528424791 0.14770209815471691 0 -0.027639103276038759 0.15537380566908321 0 -0.028643554108799551 0.12806760582925611 0 -0.017506847497941139 0.13291345901070739 0 -0.032144953111298558 0.1155781737325411 0 -0.037500573576258918 0.13069979942664511 0 -0.028643554108799551 0.12806760582925611 0 -0.021396469969749188 0.1374028974533886 0 -0.021396469969749188 0.1374028974533886 0 -0.015783289274076458 0.13495459563681389 0 -0.017506847497941139 0.13291345901070739 0 -0.021396469969749188 0.1374028974533886 0 -0.015783289274076458 0.13495459563681389 0 -0.021396469969749188 0.1374028974533886 0 -0.017506847497941139 0.13291345901070739 0 -0.015783289274076458 0.13495459563681389 0 -0.017506847497941139 0.13291345901070739 0 -0.028643554108799551 0.12806760582925611 0 -0.021396469969749188 0.1374028974533886 0 -0.017506847497941139 0.13291345901070739 0 -0.015783289274076458 0.13495459563681389 0 -0.017506847497941139 0.13291345901070739 0 -0.0052228475358298988 0.1187351519746004 0 -0.015783289274076458 0.13495459563681389 0 -0.0052228475358298988 0.1187351519746004 0 0.0081407562022233586 0.1245196413435004 0 -0.017506847497941139 0.13291345901070739 0 -0.0052228475358298988 0.1187351519746004 0 -0.015783289274076458 0.13495459563681389 0 0.0081407562022233586 0.1245196413435004 0 -0.0052228475358298988 0.1187351519746004 0 -0.0040597014752050652 0.1051126182356364 0 -0.02761291541641378 0.1090435214711212 0 -0.017506847497941139 0.13291345901070739 0 -0.0052228475358298988 0.1187351519746004 0 -0.019344259015361451 0.119617058157429 0 -0.0040597014752050652 0.1051126182356364 0 -0.01533391803445322 0.09737838425916874 0 0.0051087594610210148 0.080527692295617709 0 -0.0052228475358298988 0.1187351519746004 0 -0.0040597014752050652 0.1051126182356364 0 0.0092582498306486675 0.1020209346744549 0 -0.0040597014752050652 0.1051126182356364 0 -0.01533391803445322 0.09737838425916874 0 -0.02761291541641378 0.1090435214711212 0 -0.01533391803445322 0.09737838425916874 0 -0.027797722535604891 0.095528124355643507 0 -0.02761291541641378 0.1090435214711212 0 -0.0052228475358298988 0.1187351519746004 0 -0.02761291541641378 0.1090435214711212 0 -0.019344259015361451 0.119617058157429 0 -0.017506847497941139 0.13291345901070739 0 -0.019344259015361451 0.119617058157429 0 -0.032144953111298558 0.1155781737325411 0 -0.02761291541641378 0.1090435214711212 0 -0.019344259015361451 0.119617058157429 0 -0.032144953111298558 0.1155781737325411 0 -0.0052228475358298988 0.1187351519746004 0 -0.02761291541641378 0.1090435214711212 0 -0.017506847497941139 0.13291345901070739 0 -0.032144953111298558 0.1155781737325411 0 -0.0012292332505543029 0.06378464068123596 0 -0.011084303888442551 0.081696622097620714 0 -0.018620569400409771 0.06708533464306303 0 -0.0012292332505543029 0.06378464068123596 0 -0.011084303888442551 0.081696622097620714 0 0.0051087594610210148 0.080527692295617709 0 -0.01533391803445322 0.09737838425916874 0 -0.011084303888442551 0.081696622097620714 0 0.0051087594610210148 0.080527692295617709 0 -0.01533391803445322 0.09737838425916874 0 0.0051087594610210148 0.080527692295617709 0 -0.011084303888442551 0.081696622097620714 0 0.0051087594610210148 0.080527692295617709 0 -0.027797722535604891 0.095528124355643507 0 -0.011084303888442551 0.081696622097620714 0 -0.032921925083363349 0.0833654898886593 0 -0.01533391803445322 0.09737838425916874 0 -0.027797722535604891 0.095528124355643507 0 -0.011084303888442551 0.081696622097620714 0 -0.018620569400409771 0.06708533464306303 0 -0.031868141831282552 0.069818555696904067 0 -0.028283535649973771 0.053358049395037133 0 -0.018620569400409771 0.06708533464306303 0 -0.031868141831282552 0.069818555696904067 0 -0.032921925083363349 0.0833654898886593 0 -0.011084303888442551 0.081696622097620714 0 -0.018620569400409771 0.06708533464306303 0 -0.032921925083363349 0.0833654898886593 0 -0.046276495737503101 0.06795068115397529 0 -0.032921925083363349 0.0833654898886593 0 -0.055882409073029139 0.082732437330199013 0 -0.046276495737503101 0.06795068115397529 0 -0.031868141831282552 0.069818555696904067 0 -0.028283535649973771 0.053358049395037133 0 -0.046276495737503101 0.06795068115397529 0 -0.031868141831282552 0.069818555696904067 0 -0.032921925083363349 0.0833654898886593 0 -0.027797722535604891 0.095528124355643507 0 -0.032921925083363349 0.0833654898886593 0 -0.050002983296997462 0.099351890967641507 0 -0.032921925083363349 0.0833654898886593 0 -0.055882409073029139 0.082732437330199013 0 -0.050002983296997462 0.099351890967641507 0 -0.055882409073029139 0.082732437330199013 0 -0.050002983296997462 0.099351890967641507 0 -0.072393051177581158 0.089660260464161839 0 -0.046276495737503101 0.06795068115397529 0 -0.055882409073029139 0.082732437330199013 0 -0.062589921296568873 0.06642957971461419 0 -0.032144953111298558 0.1155781737325411 0 -0.050002983296997462 0.099351890967641507 0 -0.046884900963607742 0.11986348336078891 0 -0.037500573576258918 0.13069979942664511 0 -0.034668926388748328 0.1237436995229996 0 -0.046884900963607742 0.11986348336078891 0 -0.028643554108799551 0.12806760582925611 0 -0.034668926388748328 0.1237436995229996 0 -0.032144953111298558 0.1155781737325411 0 -0.034668926388748328 0.1237436995229996 0 -0.032144953111298558 0.1155781737325411 0 -0.046884900963607742 0.11986348336078891 0 -0.027797722535604891 0.095528124355643507 0 -0.02761291541641378 0.1090435214711212 0 -0.050002983296997462 0.099351890967641507 0 -0.02761291541641378 0.1090435214711212 0 -0.050002983296997462 0.099351890967641507 0 -0.02761291541641378 0.1090435214711212 0 -0.032144953111298558 0.1155781737325411 0 -0.050002983296997462 0.099351890967641507 0 -0.050002983296997462 0.099351890967641507 0 -0.072393051177581158 0.089660260464161839 0 -0.050002983296997462 0.099351890967641507 0 -0.062115440392200259 0.1100516779477724 0 -0.072393051177581158 0.089660260464161839 0 -0.062016764747578973 0.12884034001808189 0 -0.062115440392200259 0.1100516779477724 0 -0.046884900963607742 0.11986348336078891 0 -0.050002983296997462 0.099351890967641507 0 -0.062115440392200259 0.1100516779477724 0 -0.046884900963607742 0.11986348336078891 0 -0.062016764747578973 0.12884034001808189 0 -0.062115440392200259 0.1100516779477724 0 -0.07825578499994286 0.1108801308713713 0 -0.062016764747578973 0.12884034001808189 0 -0.07825578499994286 0.1108801308713713 0 -0.062016764747578973 0.12884034001808189 0 -0.075786521408142987 0.12443322189858901 0 -0.07825578499994286 0.1108801308713713 0 -0.088852304720190942 0.12644129241805541 0 -0.075786521408142987 0.12443322189858901 0 -0.083719546898917335 0.119699814685821 0 -0.083719546898917335 0.119699814685821 0 -0.07825578499994286 0.1108801308713713 0 -0.093946486761182085 0.1175508364221631 0 -0.075786521408142987 0.12443322189858901 0 -0.083719546898917335 0.119699814685821 0 -0.07825578499994286 0.1108801308713713 0 -0.088852304720190942 0.12644129241805541 0 -0.083719546898917335 0.119699814685821 0 -0.093946486761182085 0.1175508364221631 0 -0.07825578499994286 0.1108801308713713 0 -0.072393051177581158 0.089660260464161839 0 -0.094494805252306774 0.092919921724660626 0 -0.07825578499994286 0.1108801308713713 0 -0.094494805252306774 0.092919921724660626 0 -0.093946486761182085 0.1175508364221631 0 -0.07825578499994286 0.1108801308713713 0 -0.094494805252306774 0.092919921724660626 0 -0.062115440392200259 0.1100516779477724 0 -0.07825578499994286 0.1108801308713713 0 -0.072393051177581158 0.089660260464161839 0 -0.055882409073029139 0.082732437330199013 0 -0.072393051177581158 0.089660260464161839 0 -0.062589921296568873 0.06642957971461419 0 -0.072393051177581158 0.089660260464161839 0 -0.062589921296568873 0.06642957971461419 0 -0.079461892795990779 0.070449194571112136 0 -0.062589921296568873 0.06642957971461419 0 -0.079461892795990779 0.070449194571112136 0 -0.072380178782229632 0.053292134703331731 0 -0.079461892795990779 0.070449194571112136 0 -0.094783119058163612 0.079968629960679383 0 -0.095163193665411511 0.062895368012773595 0 -0.072393051177581158 0.089660260464161839 0 -0.079461892795990779 0.070449194571112136 0 -0.094783119058163612 0.079968629960679383 0 -0.072393051177581158 0.089660260464161839 0 -0.094494805252306774 0.092919921724660626 0 -0.094783119058163612 0.079968629960679383 0 -0.072393051177581158 0.089660260464161839 0 -0.094783119058163612 0.079968629960679383 0 -0.094494805252306774 0.092919921724660626 0 -0.1072570836689255 0.074569224449017327 0 -0.1143352617609841 0.070976556735617355 0 -0.094494805252306774 0.092919921724660626 0 -0.094783119058163612 0.079968629960679383 0 -0.1072570836689255 0.074569224449017327 0 -0.094494805252306774 0.092919921724660626 0 -0.094783119058163612 0.079968629960679383 0 -0.094494805252306774 0.092919921724660626 0 -0.1143352617609841 0.070976556735617355 0 -0.11134444788944529 0.091345452974062963 0 -0.094494805252306774 0.092919921724660626 0 -0.1143352617609841 0.070976556735617355 0 -0.094783119058163612 0.079968629960679383 0 -0.095163193665411511 0.062895368012773595 0 -0.094783119058163612 0.079968629960679383 0 -0.095163193665411511 0.062895368012773595 0 -0.1072570836689255 0.074569224449017327 0 -0.095163193665411511 0.062895368012773595 0 -0.1143352617609841 0.070976556735617355 0 -0.1079186055395126 0.059947093390224047 0 -0.095163193665411511 0.062895368012773595 0 -0.1072570836689255 0.074569224449017327 0 -0.1143352617609841 0.070976556735617355 0 -0.095163193665411511 0.062895368012773595 0 -0.1143352617609841 0.070976556735617355 0 -0.094783119058163612 0.079968629960679383 0 -0.1072570836689255 0.074569224449017327 0 -0.1131683311422218 0.062814464837820119 0 -0.1163519950294771 0.068746068028026575 0 -0.1143352617609841 0.070976556735617355 0 -0.1131683311422218 0.062814464837820119 0 -0.1143352617609841 0.070976556735617355 0 -0.1079186055395126 0.059947093390224047 0 -0.1131683311422218 0.062814464837820119 0 -0.1163519950294771 0.068746068028026575 0 -0.1185872066977806 0.063729502839677182 0 -0.1163519950294771 0.068746068028026575 0 -0.1143352617609841 0.070976556735617355 0 -0.12697985749263241 0.07630636069427757 0 -0.1143352617609841 0.070976556735617355 0 -0.12697985749263241 0.07630636069427757 0 -0.1143352617609841 0.070976556735617355 0 -0.1200161930876608 0.081776906418299489 0 -0.12697985749263241 0.07630636069427757 0 -0.1163519950294771 0.068746068028026575 0 -0.1143352617609841 0.070976556735617355 0 -0.12697985749263241 0.07630636069427757 0 -0.12509646681095879 0.065597408261105467 0 -0.1163519950294771 0.068746068028026575 0 -0.12509646681095879 0.065597408261105467 0 -0.1163519950294771 0.068746068028026575 0 -0.1185872066977806 0.063729502839677182 0 -0.13359630628803579 0.098968800084119873 0 -0.12697672020224329 0.087309090757334687 0 -0.11134444788944529 0.091345452974062963 0 -0.1143352617609841 0.070976556735617355 0 -0.11134444788944529 0.091345452974062963 0 -0.1200161930876608 0.081776906418299489 0 -0.12697672020224329 0.087309090757334687 0 -0.11134444788944529 0.091345452974062963 0 -0.1200161930876608 0.081776906418299489 0 -0.12697672020224329 0.087309090757334687 0 -0.12697985749263241 0.07630636069427757 0 -0.1200161930876608 0.081776906418299489 0 -0.12607259725238279 0.11330641960449821 0 -0.13359630628803579 0.098968800084119873 0 -0.11123038207674001 0.1082681122756106 0 -0.13359630628803579 0.098968800084119873 0 -0.11134444788944529 0.091345452974062963 0 -0.11123038207674001 0.1082681122756106 0 -0.13359630628803579 0.098968800084119873 0 -0.11123038207674001 0.1082681122756106 0 -0.11134444788944529 0.091345452974062963 0 -0.11123038207674001 0.1082681122756106 0 -0.1057361510920251 0.099277959283072717 0 -0.12607259725238279 0.11330641960449821 0 -0.11123038207674001 0.1082681122756106 0 -0.11706151063611089 0.1208882391850464 0 -0.12607259725238279 0.11330641960449821 0 -0.12916618827146031 0.12390190950899049 0 -0.11706151063611089 0.1208882391850464 0 -0.11473911200363 0.13153944404780621 0 -0.11706151063611089 0.1208882391850464 0 -0.10601879130899509 0.12208205668825579 0 -0.1036345166478785 0.1154037657297244 0 -0.093946486761182085 0.1175508364221631 0 -0.097511277885226108 0.1010939306234323 0 -0.11123038207674001 0.1082681122756106 0 -0.11706151063611089 0.1208882391850464 0 -0.097511277885226108 0.1010939306234323 0 -0.11706151063611089 0.1208882391850464 0 -0.1036345166478785 0.1154037657297244 0 -0.097511277885226108 0.1010939306234323 0 -0.11706151063611089 0.1208882391850464 0 -0.097511277885226108 0.1010939306234323 0 -0.11706151063611089 0.1208882391850464 0 -0.1036345166478785 0.1154037657297244 0 -0.10601879130899509 0.12208205668825579 0 -0.1039338124667491 0.13009472872812991 0 -0.10601879130899509 0.12208205668825579 0 -0.093946486761182085 0.1175508364221631 0 -0.1036345166478785 0.1154037657297244 0 -0.10601879130899509 0.12208205668825579 0 -0.093946486761182085 0.1175508364221631 0 -0.094494805252306774 0.092919921724660626 0 -0.11134444788944529 0.091345452974062963 0 -0.1057361510920251 0.099277959283072717 0 -0.094494805252306774 0.092919921724660626 0 -0.093946486761182085 0.1175508364221631 0 -0.094494805252306774 0.092919921724660626 0 -0.093946486761182085 0.1175508364221631 0 -0.097511277885226108 0.1010939306234323 0 -0.094494805252306774 0.092919921724660626 0 -0.097511277885226108 0.1010939306234323 0 -0.1057361510920251 0.099277959283072717 0 -0.11123038207674001 0.1082681122756106 0 -0.097511277885226108 0.1010939306234323 0 -0.1057361510920251 0.099277959283072717 0 -0.1001339578063882 0.022436777626384768 0 -0.09536928659882779 0.01424719335382847 0 -0.1128440433065038 0.01636018592503535 0 -0.1001339578063882 0.022436777626384768 0 -0.1128440433065038 0.01636018592503535 0 -0.1012358460944251 0.033108064834657697 0 -0.1128440433065038 0.01636018592503535 0 -0.11393466639619521 0.035004472642448957 0 -0.1012358460944251 0.033108064834657697 0 -0.1128440433065038 0.01636018592503535 0 -0.1012358460944251 0.033108064834657697 0 -0.1001339578063882 0.022436777626384768 0 -0.1012358460944251 0.033108064834657697 0 -0.091086655225796079 0.026031666392017531 0 -0.1001339578063882 0.022436777626384768 0 -0.09536928659882779 0.01424719335382847 0 -0.091086655225796079 0.026031666392017531 0 -0.10394313851700079 0.0020556251079679459 0 -0.09536928659882779 0.01424719335382847 0 -0.085958893623968774 0.001514634656162053 0 -0.10394313851700079 0.0020556251079679459 0 -0.09536928659882779 0.01424719335382847 0 -0.1128440433065038 0.01636018592503535 0 -0.1244522405185825 -0.00038769298458709092 0 -0.12424451236807239 0.027069144312366941 0 -0.1244522405185825 -0.00038769298458709092 0 -0.1128440433065038 0.01636018592503535 0 -0.12424451236807239 0.027069144312366941 0 -0.1244522405185825 -0.00038769298458709092 0 -0.1128440433065038 0.01636018592503535 0 -0.1244522405185825 -0.00038769298458709092 0 -0.10394313851700079 0.0020556251079679459 0 -0.1128440433065038 0.01636018592503535 0 -0.1128440433065038 0.01636018592503535 0 -0.12424451236807239 0.027069144312366941 0 -0.11393466639619521 0.035004472642448957 0 -0.12424451236807239 0.027069144312366941 0 -0.12075472355362291 0.04122338309529356 0 -0.11393466639619521 0.035004472642448957 0 -0.12075472355362291 0.04122338309529356 0 -0.1244920148619628 0.050381604022983993 0 -0.1151670195775447 0.0482238646449 0 -0.11393466639619521 0.035004472642448957 0 -0.1151670195775447 0.0482238646449 0 -0.10635909785250069 0.04125385698526951 0 -0.12075472355362291 0.04122338309529356 0 -0.11393466639619521 0.035004472642448957 0 -0.1151670195775447 0.0482238646449 0 -0.12509646681095879 0.065597408261105467 0 -0.1185872066977806 0.063729502839677182 0 -0.1197320338084647 0.057760070231756527 0 -0.1197320338084647 0.057760070231756527 0 -0.1244920148619628 0.050381604022983993 0 -0.1151670195775447 0.0482238646449 0 -0.1151670195775447 0.0482238646449 0 -0.1125210466915524 0.054978807834542787 0 -0.1051700993263314 0.050476507920077678 0 -0.1197320338084647 0.057760070231756527 0 -0.1151670195775447 0.0482238646449 0 -0.1125210466915524 0.054978807834542787 0 -0.1131683311422218 0.062814464837820119 0 -0.1197320338084647 0.057760070231756527 0 -0.1125210466915524 0.054978807834542787 0 -0.1131683311422218 0.062814464837820119 0 -0.1125210466915524 0.054978807834542787 0 -0.1079186055395126 0.059947093390224047 0 -0.1131683311422218 0.062814464837820119 0 -0.1185872066977806 0.063729502839677182 0 -0.1197320338084647 0.057760070231756527 0 -0.095163193665411511 0.062895368012773595 0 -0.1051700993263314 0.050476507920077678 0 -0.095336714328198874 0.041619114628837717 0 -0.095163193665411511 0.062895368012773595 0 -0.095336714328198874 0.041619114628837717 0 -0.1125210466915524 0.054978807834542787 0 -0.1079186055395126 0.059947093390224047 0 -0.1051700993263314 0.050476507920077678 0 -0.095163193665411511 0.062895368012773595 0 -0.1079186055395126 0.059947093390224047 0 -0.1051700993263314 0.050476507920077678 0 -0.11393466639619521 0.035004472642448957 0 -0.10635909785250069 0.04125385698526951 0 -0.1012358460944251 0.033108064834657697 0 -0.1051700993263314 0.050476507920077678 0 -0.10635909785250069 0.04125385698526951 0 -0.095336714328198874 0.041619114628837717 0 -0.1151670195775447 0.0482238646449 0 -0.1051700993263314 0.050476507920077678 0 -0.10635909785250069 0.04125385698526951 0 -0.095336714328198874 0.041619114628837717 0 -0.1012358460944251 0.033108064834657697 0 -0.08853862327275358 0.036894035852943478 0 -0.10635909785250069 0.04125385698526951 0 -0.095336714328198874 0.041619114628837717 0 -0.1012358460944251 0.033108064834657697 0 -0.095336714328198874 0.041619114628837717 0 -0.1012358460944251 0.033108064834657697 0 -0.1012358460944251 0.033108064834657697 0 -0.08853862327275358 0.036894035852943478 0 -0.091086655225796079 0.026031666392017531 0 -0.08853862327275358 0.036894035852943478 0 -0.081088353484909961 0.032020518526829703 0 -0.091086655225796079 0.026031666392017531 0 -0.08853862327275358 0.036894035852943478 0 -0.079654612676290371 0.043453985766932421 0 -0.089627648882346422 0.049855943744280047 0 -0.095336714328198874 0.041619114628837717 0 -0.08853862327275358 0.036894035852943478 0 -0.089627648882346422 0.049855943744280047 0 -0.095336714328198874 0.041619114628837717 0 -0.089627648882346422 0.049855943744280047 0 -0.08853862327275358 0.036894035852943478 0 -0.079654612676290371 0.043453985766932421 0 -0.081088353484909961 0.032020518526829703 0 -0.095163193665411511 0.062895368012773595 0 -0.089627648882346422 0.049855943744280047 0 -0.072380178782229632 0.053292134703331731 0 -0.095163193665411511 0.062895368012773595 0 -0.095336714328198874 0.041619114628837717 0 -0.089627648882346422 0.049855943744280047 0 -0.095163193665411511 0.062895368012773595 0 -0.072380178782229632 0.053292134703331731 0 -0.079461892795990779 0.070449194571112136 0 -0.095163193665411511 0.062895368012773595 0 -0.072380178782229632 0.053292134703331731 0 -0.079654612676290371 0.043453985766932421 0 -0.089627648882346422 0.049855943744280047 0 -0.072380178782229632 0.053292134703331731 0 -0.079654612676290371 0.043453985766932421 0 -0.072380178782229632 0.053292134703331731 0 -0.065785112224924183 0.037111289768743512 0 -0.072380178782229632 0.053292134703331731 0 -0.065785112224924183 0.037111289768743512 0 -0.049597163899048183 0.043688901393888827 0 -0.079654612676290371 0.043453985766932421 0 -0.081088353484909961 0.032020518526829703 0 -0.065785112224924183 0.037111289768743512 0 -0.081088353484909961 0.032020518526829703 0 -0.065785112224924183 0.037111289768743512 0 -0.069646162847898541 0.026335067629459381 0 -0.069646162847898541 0.026335067629459381 0 -0.076118231742993758 0.01527396050979404 0 -0.05559295393876626 0.02093450171247024 0 -0.065785112224924183 0.037111289768743512 0 -0.069646162847898541 0.026335067629459381 0 -0.05559295393876626 0.02093450171247024 0 -0.081088353484909961 0.032020518526829703 0 -0.069646162847898541 0.026335067629459381 0 -0.076118231742993758 0.01527396050979404 0 -0.081088353484909961 0.032020518526829703 0 -0.091086655225796079 0.026031666392017531 0 -0.076118231742993758 0.01527396050979404 0 -0.09536928659882779 0.01424719335382847 0 -0.091086655225796079 0.026031666392017531 0 -0.076118231742993758 0.01527396050979404 0 -0.09536928659882779 0.01424719335382847 0 -0.085958893623968774 0.001514634656162053 0 -0.076118231742993758 0.01527396050979404 0 -0.076118231742993758 0.01527396050979404 0 -0.065648076432031049 0.00090955339710942099 0 -0.05559295393876626 0.02093450171247024 0 -0.085958893623968774 0.001514634656162053 0 -0.076118231742993758 0.01527396050979404 0 -0.065648076432031049 0.00090955339710942099 0 -0.045118160941850949 -0.00049033847668307538 0 -0.065648076432031049 0.00090955339710942099 0 -0.05559295393876626 0.02093450171247024 0 -0.05559295393876626 0.02093450171247024 0 -0.041197297059898302 0.028587588038626519 0 -0.049597163899048183 0.043688901393888827 0 -0.05559295393876626 0.02093450171247024 0 -0.032784921385912158 0.01564128096370114 0 -0.041197297059898302 0.028587588038626519 0 -0.032784921385912158 0.01564128096370114 0 -0.041197297059898302 0.028587588038626519 0 -0.02681414901586664 0.034085668084445887 0 -0.045118160941850949 -0.00049033847668307538 0 -0.05559295393876626 0.02093450171247024 0 -0.032784921385912158 0.01564128096370114 0 -0.045118160941850949 -0.00049033847668307538 0 -0.027025641752002061 -0.0079319500279313396 0 -0.032784921385912158 0.01564128096370114 0 -0.062589921296568873 0.06642957971461419 0 -0.072380178782229632 0.053292134703331731 0 -0.049597163899048183 0.043688901393888827 0 -0.046276495737503101 0.06795068115397529 0 -0.062589921296568873 0.06642957971461419 0 -0.049597163899048183 0.043688901393888827 0 -0.072380178782229632 0.053292134703331731 0 -0.049597163899048183 0.043688901393888827 0 -0.065785112224924183 0.037111289768743512 0 -0.05559295393876626 0.02093450171247024 0 -0.049597163899048183 0.043688901393888827 0 -0.049597163899048183 0.043688901393888827 0 -0.02681414901586664 0.034085668084445887 0 -0.041197297059898302 0.028587588038626519 0 -0.049597163899048183 0.043688901393888827 0 -0.02681414901586664 0.034085668084445887 0 -0.049597163899048183 0.043688901393888827 0 -0.028283535649973771 0.053358049395037133 0 -0.02681414901586664 0.034085668084445887 0 -0.046276495737503101 0.06795068115397529 0 -0.028283535649973771 0.053358049395037133 0 -0.046276495737503101 0.06795068115397529 0 -0.049597163899048183 0.043688901393888827 0 -0.028283535649973771 0.053358049395037133 0 -0.028283535649973771 0.053358049395037133 0 -0.010290575562444429 0.038765417636098962 0 -0.0097640400442320502 0.053032197103308337 0 -0.018620569400409771 0.06708533464306303 0 -0.028283535649973771 0.053358049395037133 0 -0.0097640400442320502 0.053032197103308337 0 -0.028283535649973771 0.053358049395037133 0 -0.010290575562444429 0.038765417636098962 0 -0.02681414901586664 0.034085668084445887 0 -0.010290575562444429 0.038765417636098962 0 -0.020835528804160591 0.022374223573919171 0 -0.028283535649973771 0.053358049395037133 0 -0.02681414901586664 0.034085668084445887 0 -0.010290575562444429 0.038765417636098962 0 -0.010290575562444429 0.038765417636098962 0 0.0077023845250848884 0.024172785877160811 0 -0.010290575562444429 0.038765417636098962 0 -0.0034349793211087142 0.044893397967285961 0 0.0047272217829380687 0.036246676438490527 0 -0.010290575562444429 0.038765417636098962 0 -0.0034349793211087142 0.044893397967285961 0 -0.0097640400442320502 0.053032197103308337 0 -0.0012292332505543029 0.06378464068123596 0 -0.018620569400409771 0.06708533464306303 0 -0.0097640400442320502 0.053032197103308337 0 -0.0034349793211087142 0.044893397967285961 0 -0.0097640400442320502 0.053032197103308337 0 0.0015874765393035599 0.051529300691246019 0 -0.0012292332505543029 0.06378464068123596 0 -0.0097640400442320502 0.053032197103308337 0 0.0015874765393035599 0.051529300691246019 0 -0.027025641752002061 -0.0079319500279313396 0 -0.032784921385912158 0.01564128096370114 0 -0.01566814095190756 0.010235570601176981 0 -0.032784921385912158 0.01564128096370114 0 -0.02681414901586664 0.034085668084445887 0 -0.020835528804160591 0.022374223573919171 0 -0.032784921385912158 0.01564128096370114 0 -0.01566814095190756 0.010235570601176981 0 -0.020835528804160591 0.022374223573919171 0 -0.010290575562444429 0.038765417636098962 0 -0.020835528804160591 0.022374223573919171 0 -0.0077262750329500059 0.02266504195052366 0 -0.01566814095190756 0.010235570601176981 0 -0.020835528804160591 0.022374223573919171 0 -0.0077262750329500059 0.02266504195052366 0 -0.010290575562444429 0.038765417636098962 0 -0.0077262750329500059 0.02266504195052366 0 0.0077023845250848884 0.024172785877160811 0 -0.0091716063734174208 -0.003332990253060792 0 -0.01566814095190756 0.010235570601176981 0 0.001118487675879971 0.0096665619175221752 0 -0.0091716063734174208 -0.003332990253060792 0 0.001118487675879971 0.0096665619175221752 0 0.006935528729737548 -0.0054826371559186567 0 -0.01566814095190756 0.010235570601176981 0 -0.0077262750329500059 0.02266504195052366 0 0.001118487675879971 0.0096665619175221752 0 0.001118487675879971 0.0096665619175221752 0 0.0077023845250848884 0.024172785877160811 0 0.025695344612614111 0.0095801541182225364 0 0.001118487675879971 0.0096665619175221752 0 0.025695344612614111 0.0095801541182225364 0 0.006935528729737548 -0.0054826371559186567 0 -0.0077262750329500059 0.02266504195052366 0 0.001118487675879971 0.0096665619175221752 0 0.0077023845250848884 0.024172785877160811 0 0.0077023845250848884 0.024172785877160811 0 0.024648998497944961 0.02642224341189468 0 0.015911730558903318 0.034762274935307848 0 0.024648998497944961 0.02642224341189468 0 0.025695344612614111 0.0095801541182225364 0 0.038363400138324961 0.019751697241263279 0 0.0077023845250848884 0.024172785877160811 0 0.024648998497944961 0.02642224341189468 0 0.025695344612614111 0.0095801541182225364 0 0.0077023845250848884 0.024172785877160811 0 0.025695344612614111 0.0095801541182225364 0 0.025695344612614111 0.0095801541182225364 0 0.006935528729737548 -0.0054826371559186567 0 0.01459521235494949 0.061710637509134872 0 0.0047272217829380687 0.036246676438490527 0 -0.0012292332505543029 0.06378464068123596 0 0.01459521235494949 0.061710637509134872 0 0.0015874765393035599 0.051529300691246019 0 0.01459521235494949 0.061710637509134872 0 0.0015874765393035599 0.051529300691246019 0 0.0047272217829380687 0.036246676438490527 0 0.01459521235494949 0.061710637509134872 0 0.0047272217829380687 0.036246676438490527 0 0.016570281580619739 0.045526930476817662 0 -0.010290575562444429 0.038765417636098962 0 0.0077023845250848884 0.024172785877160811 0 0.0047272217829380687 0.036246676438490527 0 -0.0034349793211087142 0.044893397967285961 0 0.0015874765393035599 0.051529300691246019 0 0.0047272217829380687 0.036246676438490527 0 0.0047272217829380687 0.036246676438490527 0 0.015911730558903318 0.034762274935307848 0 0.016570281580619739 0.045526930476817662 0 0.0077023845250848884 0.024172785877160811 0 0.0047272217829380687 0.036246676438490527 0 0.015911730558903318 0.034762274935307848 0 0.024648998497944961 0.02642224341189468 0 0.015911730558903318 0.034762274935307848 0 0.025892041879535671 0.039420421904702428 0 0.024648998497944961 0.02642224341189468 0 0.025892041879535671 0.039420421904702428 0 0.038236142792751733 0.035111405712831077 0 0.015911730558903318 0.034762274935307848 0 0.025892041879535671 0.039420421904702428 0 0.016570281580619739 0.045526930476817662 0 0.025892041879535671 0.039420421904702428 0 0.016570281580619739 0.045526930476817662 0 0.021716339062575678 0.05448348331271597 0 0.01459521235494949 0.061710637509134872 0 0.016570281580619739 0.045526930476817662 0 0.021716339062575678 0.05448348331271597 0 0.01459521235494949 0.061710637509134872 0 0.021716339062575678 0.05448348331271597 0 0.030459386295035529 0.05963142741263059 0 0.01459521235494949 0.061710637509134872 0 0.030459386295035529 0.05963142741263059 0 0.021716339062575678 0.05448348331271597 0 0.030459386295035529 0.05963142741263059 0 0.032703710623893968 0.046893395464013943 0 0.025892041879535671 0.039420421904702428 0 0.021716339062575678 0.05448348331271597 0 0.032703710623893968 0.046893395464013943 0 0.030459386295035529 0.05963142741263059 0 0.032703710623893968 0.046893395464013943 0 0.047214643089571059 0.045820238977188371 0 0.030459386295035529 0.05963142741263059 0 0.04797297407010033 0.057336039788577382 0 0.030459386295035529 0.05963142741263059 0 0.04797297407010033 0.057336039788577382 0 0.027635028654909001 0.06907575978797427 0 0.030459386295035529 0.05963142741263059 0 0.047214643089571059 0.045820238977188371 0 0.04797297407010033 0.057336039788577382 0 0.030459386295035529 0.05963142741263059 0 0.047214643089571059 0.045820238977188371 0 0.038236142792751733 0.035111405712831077 0 0.047214643089571059 0.045820238977188371 0 0.051031455664035288 0.029923240364304559 0 0.032703710623893968 0.046893395464013943 0 0.038236142792751733 0.035111405712831077 0 0.047214643089571059 0.045820238977188371 0 0.025892041879535671 0.039420421904702428 0 0.032703710623893968 0.046893395464013943 0 0.038236142792751733 0.035111405712831077 0 0.062359133547200143 0.040731400683572692 0 0.047214643089571059 0.045820238977188371 0 0.063969899884107562 0.032009050541747332 0 0.047214643089571059 0.045820238977188371 0 0.063969899884107562 0.032009050541747332 0 0.047214643089571059 0.045820238977188371 0 0.051031455664035288 0.029923240364304559 0 0.063969899884107562 0.032009050541747332 0 0.062359133547200143 0.040731400683572692 0 0.04797297407010033 0.057336039788577382 0 0.072379857481358154 0.054137194478101919 0 0.04797297407010033 0.057336039788577382 0 0.072379857481358154 0.054137194478101919 0 0.062359133547200143 0.040731400683572692 0 0.04797297407010033 0.057336039788577382 0 0.062359133547200143 0.040731400683572692 0 0.047214643089571059 0.045820238977188371 0 0.04797297407010033 0.057336039788577382 0 0.04797297407010033 0.057336039788577382 0 0.072379857481358154 0.054137194478101919 0 0.06072113176624426 0.066105246874810966 0 0.040835927619124697 0.0088703260301804514 0 0.038363400138324961 0.019751697241263279 0 0.051939500327619889 0.017318508583630769 0 0.040835927619124697 0.0088703260301804514 0 0.046640351189982193 0.001482106492276504 0 0.040314465242246092 -0.002276229875846851 0 0.025695344612614111 0.0095801541182225364 0 0.040314465242246092 -0.002276229875846851 0 0.025695344612614111 0.0095801541182225364 0 0.040835927619124697 0.0088703260301804514 0 0.040314465242246092 -0.002276229875846851 0 0.025695344612614111 0.0095801541182225364 0 0.040835927619124697 0.0088703260301804514 0 0.038363400138324961 0.019751697241263279 0 0.025695344612614111 0.0095801541182225364 0 0.038363400138324961 0.019751697241263279 0 0.024648998497944961 0.02642224341189468 0 0.038236142792751733 0.035111405712831077 0 0.038363400138324961 0.019751697241263279 0 0.038363400138324961 0.019751697241263279 0 0.051031455664035288 0.029923240364304559 0 0.038236142792751733 0.035111405712831077 0 0.038363400138324961 0.019751697241263279 0 0.051031455664035288 0.029923240364304559 0 0.038363400138324961 0.019751697241263279 0 0.051939500327619889 0.017318508583630769 0 0.051031455664035288 0.029923240364304559 0 0.051031455664035288 0.029923240364304559 0 0.062107590562420073 0.0228568457980407 0 0.063969899884107562 0.032009050541747332 0 0.051939500327619889 0.017318508583630769 0 0.062107590562420073 0.0228568457980407 0 0.064696567818308529 0.01472149906873369 0 0.051939500327619889 0.017318508583630769 0 0.051031455664035288 0.029923240364304559 0 0.062107590562420073 0.0228568457980407 0 0.055514373943813228 0.0067304088365214816 0 0.075461568133428525 0.0044331687040122013 0 0.049896637954744763 -0.0073960790217490677 0 0.051939500327619889 0.017318508583630769 0 0.055514373943813228 0.0067304088365214816 0 0.064696567818308529 0.01472149906873369 0 0.040835927619124697 0.0088703260301804514 0 0.051939500327619889 0.017318508583630769 0 0.055514373943813228 0.0067304088365214816 0 0.046640351189982193 0.001482106492276504 0 0.055514373943813228 0.0067304088365214816 0 0.049896637954744763 -0.0073960790217490677 0 0.040835927619124697 0.0088703260301804514 0 0.046640351189982193 0.001482106492276504 0 0.055514373943813228 0.0067304088365214816 0 0.075461568133428525 0.0044331687040122013 0 0.064696567818308529 0.01472149906873369 0 0.08072515667864405 0.018197862106306289 0 0.055514373943813228 0.0067304088365214816 0 0.075461568133428525 0.0044331687040122013 0 0.064696567818308529 0.01472149906873369 0 0.075461568133428525 0.0044331687040122013 0 0.1010264983121123 0.016262416429773479 0 0.075461568133428525 0.0044331687040122013 0 0.1010264983121123 0.016262416429773479 0 0.098011391193308373 -0.0056982583262641584 0 0.075461568133428525 0.0044331687040122013 0 0.08072515667864405 0.018197862106306289 0 0.1010264983121123 0.016262416429773479 0 0.088041666307225416 0.02743399724937181 0 0.08072515667864405 0.018197862106306289 0 0.1010264983121123 0.016262416429773479 0 0.088041666307225416 0.02743399724937181 0 0.08072515667864405 0.018197862106306289 0 0.076745293024301803 0.02412676157856956 0 0.088041666307225416 0.02743399724937181 0 0.076745293024301803 0.02412676157856956 0 0.082258845210710349 0.03253561428057717 0 0.08072515667864405 0.018197862106306289 0 0.076745293024301803 0.02412676157856956 0 0.063969899884107562 0.032009050541747332 0 0.062107590562420073 0.0228568457980407 0 0.064696567818308529 0.01472149906873369 0 0.08072515667864405 0.018197862106306289 0 0.08072515667864405 0.018197862106306289 0 0.063969899884107562 0.032009050541747332 0 0.062107590562420073 0.0228568457980407 0 0.08072515667864405 0.018197862106306289 0 0.063969899884107562 0.032009050541747332 0 0.062359133547200143 0.040731400683572692 0 0.076745293024301803 0.02412676157856956 0 0.062359133547200143 0.040731400683572692 0 0.076745293024301803 0.02412676157856956 0 0.076375628159171968 0.038405412939545532 0 0.062359133547200143 0.040731400683572692 0 0.076745293024301803 0.02412676157856956 0 0.063969899884107562 0.032009050541747332 0 0.062359133547200143 0.040731400683572692 0 0.076375628159171968 0.038405412939545532 0 0.072379857481358154 0.054137194478101919 0 0.072379857481358154 0.054137194478101919 0 0.087872793352142223 0.040176285354821803 0 0.096786740892615686 0.050938349167624693 0 0.072379857481358154 0.054137194478101919 0 0.096786740892615686 0.050938349167624693 0 0.072379857481358154 0.054137194478101919 0 0.096786740892615686 0.050938349167624693 0 0.089592915186254174 0.067390154600646832 0 0.076375628159171968 0.038405412939545532 0 0.072379857481358154 0.054137194478101919 0 0.087872793352142223 0.040176285354821803 0 0.076375628159171968 0.038405412939545532 0 0.082258845210710349 0.03253561428057717 0 0.087872793352142223 0.040176285354821803 0 0.076745293024301803 0.02412676157856956 0 0.076375628159171968 0.038405412939545532 0 0.082258845210710349 0.03253561428057717 0 0.088041666307225416 0.02743399724937181 0 0.087872793352142223 0.040176285354821803 0 0.098246025398924644 0.032379674771496843 0 0.088041666307225416 0.02743399724937181 0 0.082258845210710349 0.03253561428057717 0 0.087872793352142223 0.040176285354821803 0 0.098246025398924644 0.032379674771496843 0 0.09859813872304253 0.041737690340159041 0 0.1063796333462841 0.038668109643535398 0 0.087872793352142223 0.040176285354821803 0 0.098246025398924644 0.032379674771496843 0 0.09859813872304253 0.041737690340159041 0 0.087872793352142223 0.040176285354821803 0 0.09859813872304253 0.041737690340159041 0 0.096786740892615686 0.050938349167624693 0 0.09859813872304253 0.041737690340159041 0 0.1037055006252459 0.04652603276331644 0 0.096786740892615686 0.050938349167624693 0 0.1037055006252459 0.04652603276331644 0 0.1091701701315707 0.045405346223324289 0 0.1063796333462841 0.038668109643535398 0 0.09859813872304253 0.041737690340159041 0 0.1037055006252459 0.04652603276331644 0 0.1063796333462841 0.038668109643535398 0 0.098246025398924644 0.032379674771496843 0 0.1063796333462841 0.038668109643535398 0 0.1080469394596527 0.029312409717345649 0 0.1063796333462841 0.038668109643535398 0 0.11369005285381351 0.036564640387925021 0 0.1080469394596527 0.029312409717345649 0 0.10140855114010359 0.056741753968867333 0 0.1082136550722141 0.059696613986540442 0 0.089592915186254174 0.067390154600646832 0 0.10140855114010359 0.056741753968867333 0 0.096786740892615686 0.050938349167624693 0 0.089592915186254174 0.067390154600646832 0 0.10140855114010359 0.056741753968867333 0 0.096786740892615686 0.050938349167624693 0 0.1040187002827474 0.052009313231975308 0 0.1037055006252459 0.04652603276331644 0 0.096786740892615686 0.050938349167624693 0 0.1040187002827474 0.052009313231975308 0 0.1037055006252459 0.04652603276331644 0 0.10828434687670541 0.049049973369521209 0 0.1040187002827474 0.052009313231975308 0 0.1037055006252459 0.04652603276331644 0 0.1091701701315707 0.045405346223324289 0 0.10828434687670541 0.049049973369521209 0 0.10828434687670541 0.049049973369521209 0 0.1040187002827474 0.052009313231975308 0 0.1085923347430168 0.054888678040205661 0 0.10140855114010359 0.056741753968867333 0 0.1040187002827474 0.052009313231975308 0 0.1085923347430168 0.054888678040205661 0 0.10140855114010359 0.056741753968867333 0 0.1085923347430168 0.054888678040205661 0 0.1082136550722141 0.059696613986540442 0 0.1082136550722141 0.059696613986540442 0 0.12683439495817461 0.052003073372435288 0 0.1085923347430168 0.054888678040205661 0 0.1082136550722141 0.059696613986540442 0 0.12683439495817461 0.052003073372435288 0 0.1082136550722141 0.059696613986540442 0 0.1213053233293625 0.063977455960140386 0 0.12683439495817461 0.052003073372435288 0 0.1085923347430168 0.054888678040205661 0 0.11545296983014219 0.044674578582556468 0 0.12683439495817461 0.052003073372435288 0 0.1085923347430168 0.054888678040205661 0 0.11545296983014219 0.044674578582556468 0 0.10828434687670541 0.049049973369521209 0 0.1085923347430168 0.054888678040205661 0 0.11545296983014219 0.044674578582556468 0 0.11545296983014219 0.044674578582556468 0 0.12683439495817461 0.052003073372435288 0 0.11545296983014219 0.044674578582556468 0 0.12659142849079691 0.028091664155532971 0 0.13015300311198849 0.040381385354086502 0 0.11369005285381351 0.036564640387925021 0 0.11545296983014219 0.044674578582556468 0 0.12659142849079691 0.028091664155532971 0 0.11369005285381351 0.036564640387925021 0 0.1080469394596527 0.029312409717345649 0 0.12659142849079691 0.028091664155532971 0 0.11545296983014219 0.044674578582556468 0 0.12659142849079691 0.028091664155532971 0 0.1091701701315707 0.045405346223324289 0 0.1063796333462841 0.038668109643535398 0 0.11316657253878901 0.043202368340974628 0 0.11369005285381351 0.036564640387925021 0 0.11316657253878901 0.043202368340974628 0 0.11545296983014219 0.044674578582556468 0 0.1063796333462841 0.038668109643535398 0 0.11369005285381351 0.036564640387925021 0 0.11316657253878901 0.043202368340974628 0 0.1091701701315707 0.045405346223324289 0 0.10828434687670541 0.049049973369521209 0 0.11545296983014219 0.044674578582556468 0 0.1091701701315707 0.045405346223324289 0 0.11316657253878901 0.043202368340974628 0 0.11545296983014219 0.044674578582556468 0 0.11316657253878901 0.043202368340974628 0 0.11545296983014219 0.044674578582556468 0 0.11545296983014219 0.044674578582556468 0 0.13015300311198849 0.040381385354086502 0 0.12683439495817461 0.052003073372435288 0 0.11882011836095251 0.0065886106746579649 0 0.1010264983121123 0.016262416429773479 0 0.12659142849079691 0.028091664155532971 0 0.1010264983121123 0.016262416429773479 0 0.12659142849079691 0.028091664155532971 0 0.1010264983121123 0.016262416429773479 0 0.1080469394596527 0.029312409717345649 0 0.12659142849079691 0.028091664155532971 0 0.11882011836095251 0.0065886106746579649 0 0.1010264983121123 0.016262416429773479 0 0.098011391193308373 -0.0056982583262641584 0 0.088041666307225416 0.02743399724937181 0 0.098246025398924644 0.032379674771496843 0 0.1010264983121123 0.016262416429773479 0 0.098246025398924644 0.032379674771496843 0 0.1010264983121123 0.016262416429773479 0 0.1080469394596527 0.029312409717345649 0 0.102028599401492 0.1079210482782756 0 0.1185648575779607 0.095458187827811403 0 0.097454497296707604 0.093489332089851121 0 0.102028599401492 0.1079210482782756 0 0.094862282777670462 0.1196438628042634 0 0.1117522404438802 0.12667258555115829 0 0.123281054128593 0.11724462113534739 0 0.1117522404438802 0.12667258555115829 0 0.13947052033133081 0.1245003570974072 0 0.102028599401492 0.1079210482782756 0 0.123281054128593 0.11724462113534739 0 0.1117522404438802 0.12667258555115829 0 0.102028599401492 0.1079210482782756 0 0.123281054128593 0.11724462113534739 0 0.102028599401492 0.1079210482782756 0 0.123281054128593 0.11724462113534739 0 0.1185648575779607 0.095458187827811403 0 0.1185648575779607 0.095458187827811403 0 0.10766661625946521 0.081617344394697103 0 0.12679961534922851 0.075073796793526271 0 0.1127439035567581 0.069567645006608142 0 0.10766661625946521 0.081617344394697103 0 0.12679961534922851 0.075073796793526271 0 0.1213053233293625 0.063977455960140386 0 0.1127439035567581 0.069567645006608142 0 0.12679961534922851 0.075073796793526271 0 0.1082136550722141 0.059696613986540442 0 0.1213053233293625 0.063977455960140386 0 0.1127439035567581 0.069567645006608142 0 0.1082136550722141 0.059696613986540442 0 0.089592915186254174 0.067390154600646832 0 0.1014387622560044 0.070574023901201433 0 0.10766661625946521 0.081617344394697103 0 0.08998097741878798 0.081820185866337797 0 0.1082136550722141 0.059696613986540442 0 0.1014387622560044 0.070574023901201433 0 0.089592915186254174 0.067390154600646832 0 0.1082136550722141 0.059696613986540442 0 0.1127439035567581 0.069567645006608142 0 0.1014387622560044 0.070574023901201433 0 0.1127439035567581 0.069567645006608142 0 0.1014387622560044 0.070574023901201433 0 0.10766661625946521 0.081617344394697103 0 0.1185648575779607 0.095458187827811403 0 0.097454497296707604 0.093489332089851121 0 0.10766661625946521 0.081617344394697103 0 0.097454497296707604 0.093489332089851121 0 0.10766661625946521 0.081617344394697103 0 0.08998097741878798 0.081820185866337797 0 0.097454497296707604 0.093489332089851121 0 0.08998097741878798 0.081820185866337797 0 0.080776144674391009 0.098597475421203867 0 0.08998097741878798 0.081820185866337797 0 0.071888117261322881 0.075707086101057836 0 0.080776144674391009 0.098597475421203867 0 0.08998097741878798 0.081820185866337797 0 0.089592915186254174 0.067390154600646832 0 0.071888117261322881 0.075707086101057836 0 0.1014387622560044 0.070574023901201433 0 0.08998097741878798 0.081820185866337797 0 0.089592915186254174 0.067390154600646832 0 0.072379857481358154 0.054137194478101919 0 0.089592915186254174 0.067390154600646832 0 0.071888117261322881 0.075707086101057836 0 0.072379857481358154 0.054137194478101919 0 0.071888117261322881 0.075707086101057836 0 0.06072113176624426 0.066105246874810966 0 0.071888117261322881 0.075707086101057836 0 0.080776144674391009 0.098597475421203867 0 0.059523689947290133 0.089273902564132146 0 0.069834633883481517 0.1065625652268001 0 0.059315065316452309 0.1025539410383776 0 0.059523689947290133 0.089273902564132146 0 0.080776144674391009 0.098597475421203867 0 0.059523689947290133 0.089273902564132146 0 0.069834633883481517 0.1065625652268001 0 0.080776144674391009 0.098597475421203867 0 0.081634330708880196 0.1151370033827101 0 0.069834633883481517 0.1065625652268001 0 0.080776144674391009 0.098597475421203867 0 0.059523689947290133 0.089273902564132146 0 0.069834633883481517 0.1065625652268001 0 0.064307476710745728 0.1098785041095611 0 0.059315065316452309 0.1025539410383776 0 0.102028599401492 0.1079210482782756 0 0.080776144674391009 0.098597475421203867 0 0.081634330708880196 0.1151370033827101 0 0.102028599401492 0.1079210482782756 0 0.080776144674391009 0.098597475421203867 0 0.102028599401492 0.1079210482782756 0 0.097454497296707604 0.093489332089851121 0 0.080776144674391009 0.098597475421203867 0 0.102028599401492 0.1079210482782756 0 0.094862282777670462 0.1196438628042634 0 0.081634330708880196 0.1151370033827101 0 0.094862282777670462 0.1196438628042634 0 0.081634330708880196 0.1151370033827101 0 0.084033960556429532 0.12884481400490949 0 0.081634330708880196 0.1151370033827101 0 0.071861500007931359 0.1232467005620789 0 0.084033960556429532 0.12884481400490949 0 0.081634330708880196 0.1151370033827101 0 0.071861500007931359 0.1232467005620789 0 0.068543873750645412 0.1149277749384955 0 0.069834633883481517 0.1065625652268001 0 0.081634330708880196 0.1151370033827101 0 0.068543873750645412 0.1149277749384955 0 0.068543873750645412 0.1149277749384955 0 0.064307476710745728 0.1098785041095611 0 0.059536333892403683 0.1154697352345713 0 0.069834633883481517 0.1065625652268001 0 0.068543873750645412 0.1149277749384955 0 0.064307476710745728 0.1098785041095611 0 0.071861500007931359 0.1232467005620789 0 0.068543873750645412 0.1149277749384955 0 0.059536333892403683 0.1154697352345713 0 0.056458373241313059 0.1220229844831647 0 0.046980594318971967 0.103944553472415 0 0.044984286063853948 0.1144984098979744 0 0.056458373241313059 0.1220229844831647 0 0.059536333892403683 0.1154697352345713 0 0.047111977694586651 0.095143209078012936 0 0.056458373241313059 0.1220229844831647 0 0.047823074661834691 0.1229743903388081 0 0.044984286063853948 0.1144984098979744 0 0.056458373241313059 0.1220229844831647 0 0.047111977694586651 0.095143209078012936 0 0.056458373241313059 0.1220229844831647 0 0.047111977694586651 0.095143209078012936 0 0.046980594318971967 0.103944553472415 0 0.059536333892403683 0.1154697352345713 0 0.059315065316452309 0.1025539410383776 0 0.048250118395506067 0.092934788779969885 0 0.064307476710745728 0.1098785041095611 0 0.059536333892403683 0.1154697352345713 0 0.059315065316452309 0.1025539410383776 0 0.059536333892403683 0.1154697352345713 0 0.047111977694586651 0.095143209078012936 0 0.048250118395506067 0.092934788779969885 0 0.059536333892403683 0.1154697352345713 0 0.048250118395506067 0.092934788779969885 0 0.059315065316452309 0.1025539410383776 0 0.059523689947290133 0.089273902564132146 0 0.048250118395506067 0.092934788779969885 0 0.046980594318971967 0.103944553472415 0 0.031997015267580219 0.10661530464401089 0 0.044984286063853948 0.1144984098979744 0 0.046980594318971967 0.103944553472415 0 0.039592722901722707 0.099159129702000026 0 0.031997015267580219 0.10661530464401089 0 0.047111977694586651 0.095143209078012936 0 0.046980594318971967 0.103944553472415 0 0.044236279529428407 0.098362398272746204 0 0.043259823202432338 0.095202700838556822 0 0.039592722901722707 0.099159129702000026 0 0.040006298791842428 0.091064350555588536 0 0.047111977694586651 0.095143209078012936 0 0.043259823202432338 0.095202700838556822 0 0.043326765309194368 0.091114650811160686 0 0.047111977694586651 0.095143209078012936 0 0.043259823202432338 0.095202700838556822 0 0.044236279529428407 0.098362398272746204 0 0.046980594318971967 0.103944553472415 0 0.044236279529428407 0.098362398272746204 0 0.039592722901722707 0.099159129702000026 0 0.043259823202432338 0.095202700838556822 0 0.044236279529428407 0.098362398272746204 0 0.039592722901722707 0.099159129702000026 0 0.039592722901722707 0.099159129702000026 0 0.040006298791842428 0.091064350555588536 0 0.033999193661208522 0.092549709374426317 0 0.039592722901722707 0.099159129702000026 0 0.031997015267580219 0.10661530464401089 0 0.033999193661208522 0.092549709374426317 0 0.031997015267580219 0.10661530464401089 0 0.044984286063853948 0.1144984098979744 0 0.040254683338031831 0.12792389191371131 0 0.031997015267580219 0.10661530464401089 0 0.027418588341799281 0.11951208787462859 0 0.040254683338031831 0.12792389191371131 0 0.031997015267580219 0.10661530464401089 0 0.040254683338031831 0.12792389191371131 0 0.047823074661834691 0.1229743903388081 0 0.044984286063853948 0.1144984098979744 0 0.040254683338031831 0.12792389191371131 0 0.071888117261322881 0.075707086101057836 0 0.050643578252195447 0.077240667131504986 0 0.06072113176624426 0.066105246874810966 0 0.071888117261322881 0.075707086101057836 0 0.050643578252195447 0.077240667131504986 0 0.04797297407010033 0.057336039788577382 0 0.050643578252195447 0.077240667131504986 0 0.06072113176624426 0.066105246874810966 0 0.059523689947290133 0.089273902564132146 0 0.048250118395506067 0.092934788779969885 0 0.038271235220189187 0.079950329707060411 0 0.050643578252195447 0.077240667131504986 0 0.059523689947290133 0.089273902564132146 0 0.038271235220189187 0.079950329707060411 0 0.059523689947290133 0.089273902564132146 0 0.038271235220189187 0.079950329707060411 0 0.071888117261322881 0.075707086101057836 0 0.050643578252195447 0.077240667131504986 0 0.059523689947290133 0.089273902564132146 0 0.050643578252195447 0.077240667131504986 0 0.038271235220189187 0.079950329707060411 0 0.029399039243067929 0.078774248161950916 0 0.043326765309194368 0.091114650811160686 0 0.040006298791842428 0.091064350555588536 0 0.038271235220189187 0.079950329707060411 0 0.048250118395506067 0.092934788779969885 0 0.043326765309194368 0.091114650811160686 0 0.038271235220189187 0.079950329707060411 0 0.047111977694586651 0.095143209078012936 0 0.048250118395506067 0.092934788779969885 0 0.043326765309194368 0.091114650811160686 0 0.043259823202432338 0.095202700838556822 0 0.043326765309194368 0.091114650811160686 0 0.040006298791842428 0.091064350555588536 0 0.040006298791842428 0.091064350555588536 0 0.033999193661208522 0.092549709374426317 0 0.035112272261912547 0.085996705185296951 0 0.033999193661208522 0.092549709374426317 0 0.035112272261912547 0.085996705185296951 0 0.030562463090829231 0.085656845023995995 0 0.040006298791842428 0.091064350555588536 0 0.035112272261912547 0.085996705185296951 0 0.038271235220189187 0.079950329707060411 0 0.035112272261912547 0.085996705185296951 0 0.038271235220189187 0.079950329707060411 0 0.029399039243067929 0.078774248161950916 0 0.035112272261912547 0.085996705185296951 0 0.029399039243067929 0.078774248161950916 0 0.030562463090829231 0.085656845023995995 0 0.04797297407010033 0.057336039788577382 0 0.027635028654909001 0.06907575978797427 0 0.029399039243067929 0.078774248161950916 0 0.04797297407010033 0.057336039788577382 0 0.050643578252195447 0.077240667131504986 0 0.029399039243067929 0.078774248161950916 0 0.050643578252195447 0.077240667131504986 0 0.029399039243067929 0.078774248161950916 0 0.04797297407010033 0.057336039788577382 0 0.029399039243067929 0.078774248161950916 0 0.01459521235494949 0.061710637509134872 0 0.030459386295035529 0.05963142741263059 0 0.017825248683011649 0.070045619055208203 0 0.01459521235494949 0.061710637509134872 0 0.017825248683011649 0.070045619055208203 0 0.030459386295035529 0.05963142741263059 0 0.017825248683011649 0.070045619055208203 0 0.030459386295035529 0.05963142741263059 0 0.017825248683011649 0.070045619055208203 0 0.027635028654909001 0.06907575978797427 0 0.027635028654909001 0.06907575978797427 0 0.021430743364398389 0.07934945609652827 0 0.029399039243067929 0.078774248161950916 0 0.017825248683011649 0.070045619055208203 0 0.027635028654909001 0.06907575978797427 0 0.021430743364398389 0.07934945609652827 0 0.017825248683011649 0.070045619055208203 0 0.021430743364398389 0.07934945609652827 0 0.023739347197128589 0.085306717374310406 0 0.0092582498306486675 0.1020209346744549 0 0.021430743364398389 0.07934945609652827 0 0.023739347197128589 0.085306717374310406 0 0.01369104835205702 0.085774757015682671 0 0.021430743364398389 0.07934945609652827 0 0.023739347197128589 0.085306717374310406 0 0.021430743364398389 0.07934945609652827 0 0.029399039243067929 0.078774248161950916 0 0.023739347197128589 0.085306717374310406 0 0.021430743364398389 0.07934945609652827 0 0.029399039243067929 0.078774248161950916 0 0.029399039243067929 0.078774248161950916 0 0.030562463090829231 0.085656845023995995 0 0.023739347197128589 0.085306717374310406 0 0.029399039243067929 0.078774248161950916 0 0.023739347197128589 0.085306717374310406 0 0.033999193661208522 0.092549709374426317 0 0.030562463090829231 0.085656845023995995 0 0.023739347197128589 0.085306717374310406 0 0.023739347197128589 0.085306717374310406 0 0.01369104835205702 0.085774757015682671 0 0.0092582498306486675 0.1020209346744549 0 0.0051087594610210148 0.080527692295617709 0 0.01369104835205702 0.085774757015682671 0 0.0092582498306486675 0.1020209346744549 0 0.021430743364398389 0.07934945609652827 0 0.0051087594610210148 0.080527692295617709 0 0.021430743364398389 0.07934945609652827 0 0.0051087594610210148 0.080527692295617709 0 0.01369104835205702 0.085774757015682671 0 -0.0012292332505543029 0.06378464068123596 0 0.01459521235494949 0.061710637509134872 0 -0.0012292332505543029 0.06378464068123596 0 0.01459521235494949 0.061710637509134872 0 0.0080955592782806732 0.069159055867407046 0 0.017825248683011649 0.070045619055208203 0 0.021430743364398389 0.07934945609652827 0 0.0051087594610210148 0.080527692295617709 0 -0.0012292332505543029 0.06378464068123596 0 0.0051087594610210148 0.080527692295617709 0 0.0080955592782806732 0.069159055867407046 0 0.017825248683011649 0.070045619055208203 0 0.0051087594610210148 0.080527692295617709 0 0.0080955592782806732 0.069159055867407046 0 0.017825248683011649 0.070045619055208203 0 0.0051087594610210148 0.080527692295617709 0 0.01459521235494949 0.061710637509134872 0 0.017825248683011649 0.070045619055208203 0 0.0080955592782806732 0.069159055867407046 0 0.019482067178466251 0.1107491432724047 0 0.017356945103072018 0.1204998149293544 0 0.027418588341799281 0.11951208787462859 0 0.017356945103072018 0.1204998149293544 0 0.027418588341799281 0.11951208787462859 0 0.028136896369567631 0.1331750506540591 0 0.031997015267580219 0.10661530464401089 0 0.019482067178466251 0.1107491432724047 0 0.027418588341799281 0.11951208787462859 0 0.031997015267580219 0.10661530464401089 0 0.033999193661208522 0.092549709374426317 0 0.023739347197128589 0.085306717374310406 0 0.023739347197128589 0.085306717374310406 0 0.02108550348152554 0.10082233348119581 0 0.0092582498306486675 0.1020209346744549 0 0.031997015267580219 0.10661530464401089 0 0.023739347197128589 0.085306717374310406 0 0.031997015267580219 0.10661530464401089 0 0.023739347197128589 0.085306717374310406 0 0.02108550348152554 0.10082233348119581 0 0.031997015267580219 0.10661530464401089 0 0.019482067178466251 0.1107491432724047 0 0.02108550348152554 0.10082233348119581 0 0.019482067178466251 0.1107491432724047 0 0.02108550348152554 0.10082233348119581 0 0.0092582498306486675 0.1020209346744549 0 -0.0040597014752050652 0.1051126182356364 0 0.0051087594610210148 0.080527692295617709 0 0.0092582498306486675 0.1020209346744549 0 0.019482067178466251 0.1107491432724047 0 0.0092582498306486675 0.1020209346744549 0 0.0097761010461718117 0.1150243840307837 0 -0.0052228475358298988 0.1187351519746004 0 0.0092582498306486675 0.1020209346744549 0 -0.0052228475358298988 0.1187351519746004 0 0.0092582498306486675 0.1020209346744549 0 0.0097761010461718117 0.1150243840307837 0 0.019482067178466251 0.1107491432724047 0 0.017356945103072018 0.1204998149293544 0 0.0097761010461718117 0.1150243840307837 0 0.017356945103072018 0.1204998149293544 0 0.0081407562022233586 0.1245196413435004 0 0.017356945103072018 0.1204998149293544 0 0.0097761010461718117 0.1150243840307837 0 0.0081407562022233586 0.1245196413435004 0 -0.0052228475358298988 0.1187351519746004 0 0.0097761010461718117 0.1150243840307837 0 0.0081407562022233586 0.1245196413435004 0 -0.0052228475358298988 0.1187351519746004 0 0.0081407562022233586 0.1245196413435004 0 -0.015783289274076458 0.13495459563681389 0 0.0081407562022233586 0.1245196413435004 0 0.01185912902997375 0.14130758542593569 0 0.017356945103072018 0.1204998149293544 0 0.0081407562022233586 0.1245196413435004 0 0.028136896369567631 0.1331750506540591 0 0.0081407562022233586 0.1245196413435004 0 0.028136896369567631 0.1331750506540591 0 0.0081407562022233586 0.1245196413435004 0 0.028136896369567631 0.1331750506540591 0 0.01185912902997375 0.14130758542593569 0 0.028136896369567631 0.1331750506540591 0 0.0267736462585265 0.15269096182544131 0 0.035919394343652343 0.14075559589415579 0 0.028136896369567631 0.1331750506540591 0 0.0267736462585265 0.15269096182544131 0 0.01185912902997375 0.14130758542593569 0 0.0267736462585265 0.15269096182544131 0 0.001788155555331062 0.1557637096651584 0 0.01185912902997375 0.14130758542593569 0 0.001788155555331062 0.1557637096651584 0 0.00061104658230836653 0.17769045695541219 0 0.019359600384737739 0.17657282369350361 0 0.001788155555331062 0.1557637096651584 0 0.019359600384737739 0.17657282369350361 0 0.00061104658230836653 0.17769045695541219 0 0.019359600384737739 0.17657282369350361 0 0.017852612557627559 0.19656860209324539 0 0.019359600384737739 0.17657282369350361 0 0.036931045214144441 0.19738193772184889 0 0.0267736462585265 0.15269096182544131 0 0.001788155555331062 0.1557637096651584 0 0.019359600384737739 0.17657282369350361 0 0.0267736462585265 0.15269096182544131 0 0.019359600384737739 0.17657282369350361 0 0.038399134829123632 0.17159850230738899 0 0.0267736462585265 0.15269096182544131 0 0.038399134829123632 0.17159850230738899 0 0.048512351408483409 0.1492324791834117 0 0.019359600384737739 0.17657282369350361 0 0.038399134829123632 0.17159850230738899 0 0.036931045214144441 0.19738193772184889 0 0.038399134829123632 0.17159850230738899 0 0.053915020648589329 0.181809847856817 0 0.036931045214144441 0.19738193772184889 0 0.053915020648589329 0.181809847856817 0 0.056298621576963533 0.16595151756685289 0 0.075151164334765874 0.17578253529346821 0 0.038399134829123632 0.17159850230738899 0 0.053915020648589329 0.181809847856817 0 0.056298621576963533 0.16595151756685289 0 0.038399134829123632 0.17159850230738899 0 0.056298621576963533 0.16595151756685289 0 0.048512351408483409 0.1492324791834117 0 0.048512351408483409 0.1492324791834117 0 0.055211699142625699 0.13746009370018761 0 0.065804768788039439 0.14890275988831639 0 0.056298621576963533 0.16595151756685289 0 0.048512351408483409 0.1492324791834117 0 0.065804768788039439 0.14890275988831639 0 0.048512351408483409 0.1492324791834117 0 0.055211699142625699 0.13746009370018761 0 0.049904412172306151 0.13036597214331841 0 0.056458373241313059 0.1220229844831647 0 0.059536333892403683 0.1154697352345713 0 0.070822549389301243 0.1380046816891726 0 0.056458373241313059 0.1220229844831647 0 0.055211699142625699 0.13746009370018761 0 0.065804768788039439 0.14890275988831639 0 0.056458373241313059 0.1220229844831647 0 0.065804768788039439 0.14890275988831639 0 0.056458373241313059 0.1220229844831647 0 0.047823074661834691 0.1229743903388081 0 0.049904412172306151 0.13036597214331841 0 0.056458373241313059 0.1220229844831647 0 0.055211699142625699 0.13746009370018761 0 0.049904412172306151 0.13036597214331841 0 0.048512351408483409 0.1492324791834117 0 0.040254683338031831 0.12792389191371131 0 0.048512351408483409 0.1492324791834117 0 0.040254683338031831 0.12792389191371131 0 0.035919394343652343 0.14075559589415579 0 0.048512351408483409 0.1492324791834117 0 0.049904412172306151 0.13036597214331841 0 0.040254683338031831 0.12792389191371131 0 0.047823074661834691 0.1229743903388081 0 0.049904412172306151 0.13036597214331841 0 0.040254683338031831 0.12792389191371131 0 0.027418588341799281 0.11951208787462859 0 0.028136896369567631 0.1331750506540591 0 0.040254683338031831 0.12792389191371131 0 0.028136896369567631 0.1331750506540591 0 0.040254683338031831 0.12792389191371131 0 0.035919394343652343 0.14075559589415579 0 0.0267736462585265 0.15269096182544131 0 0.048512351408483409 0.1492324791834117 0 0.035919394343652343 0.14075559589415579 0 0.020197736684044801 0.2291273398277828 0 0.034114961552744377 0.23516115760169301 0 0.036501911092354018 0.25177276941539839 0 0.018629400856135309 0.24429501886194191 0 0.020197736684044801 0.2291273398277828 0 0.02692674034290404 0.25134916217479408 0 0.020197736684044801 0.2291273398277828 0 0.02692674034290404 0.25134916217479408 0 0.036501911092354018 0.25177276941539839 0 0.020197736684044801 0.2291273398277828 0 0.036501911092354018 0.25177276941539839 0 0.018629400856135309 0.24429501886194191 0 0.0082785766384091443 0.23618007315607359 0 0.020197736684044801 0.2291273398277828 0 0.018629400856135309 0.24429501886194191 0 0.012944211518790589 0.24639919126045251 0 0.0082785766384091443 0.23618007315607359 0 0.012944211518790589 0.24639919126045251 0 0.001894876929373096 0.24743045501984201 0 0.0082785766384091443 0.23618007315607359 0 -0.0070773620087705444 0.23295897308755351 0 0.001894876929373096 0.24743045501984201 0 0.0082785766384091443 0.23618007315607359 0 0.0082785766384091443 0.23618007315607359 0 0.0038866256090455522 0.2239579318999283 0 0.020197736684044801 0.2291273398277828 0 0.0038866256090455522 0.2239579318999283 0 0.020197736684044801 0.2291273398277828 0 0.003893562275735573 0.2064819102401671 0 -0.0070773620087705444 0.23295897308755351 0 0.0082785766384091443 0.23618007315607359 0 0.0038866256090455522 0.2239579318999283 0 0.01643925603633389 0.21561198758054059 0 0.035370792182188207 0.216260201755786 0 0.034114961552744377 0.23516115760169301 0 0.020197736684044801 0.2291273398277828 0 0.01643925603633389 0.21561198758054059 0 0.034114961552744377 0.23516115760169301 0 0.01643925603633389 0.21561198758054059 0 0.034114961552744377 0.23516115760169301 0 0.017852612557627559 0.19656860209324539 0 0.036931045214144441 0.19738193772184889 0 0.035370792182188207 0.216260201755786 0 0.01643925603633389 0.21561198758054059 0 0.017852612557627559 0.19656860209324539 0 0.035370792182188207 0.216260201755786 0 0.020197736684044801 0.2291273398277828 0 0.003893562275735573 0.2064819102401671 0 -0.0045317147067566524 0.21522543551468479 0 0.0038866256090455522 0.2239579318999283 0 0.003893562275735573 0.2064819102401671 0 -0.0012364494800765971 0.1960628175593882 0 0.01643925603633389 0.21561198758054059 0 -0.0012364494800765971 0.1960628175593882 0 0.01643925603633389 0.21561198758054059 0 0.003893562275735573 0.2064819102401671 0 0.020197736684044801 0.2291273398277828 0 0.01643925603633389 0.21561198758054059 0 0.003893562275735573 0.2064819102401671 0 -0.0012364494800765971 0.1960628175593882 0 0.01643925603633389 0.21561198758054059 0 0.017852612557627559 0.19656860209324539 0 -0.0012364494800765971 0.1960628175593882 0 0.00061104658230836653 0.17769045695541219 0 0.017852612557627559 0.19656860209324539 0 0.019359600384737739 0.17657282369350361 0 0.017852612557627559 0.19656860209324539 0 0.036931045214144441 0.19738193772184889 0 0.053915020648589329 0.181809847856817 0 0.036931045214144441 0.19738193772184889 0 0.062795137287949193 0.19833474639452611 0 0.036931045214144441 0.19738193772184889 0 0.054502490043551163 0.2181910517501941 0 0.062795137287949193 0.19833474639452611 0 0.036931045214144441 0.19738193772184889 0 0.054502490043551163 0.2181910517501941 0 0.036931045214144441 0.19738193772184889 0 0.054502490043551163 0.2181910517501941 0 0.035370792182188207 0.216260201755786 0 0.054502490043551163 0.2181910517501941 0 0.035370792182188207 0.216260201755786 0 0.034114961552744377 0.23516115760169301 0 0.054502490043551163 0.2181910517501941 0 0.055174909047777811 0.2396291133956362 0 0.034114961552744377 0.23516115760169301 0 0.054502490043551163 0.2181910517501941 0 0.055174909047777811 0.2396291133956362 0 0.072073934872957782 0.23900016577853919 0 0.055174909047777811 0.2396291133956362 0 0.034114961552744377 0.23516115760169301 0 0.051790667069154861 0.2547103276228454 0 0.055174909047777811 0.2396291133956362 0 0.051790667069154861 0.2547103276228454 0 0.063392491700480919 0.2510828642249095 0 0.034114961552744377 0.23516115760169301 0 0.036501911092354018 0.25177276941539839 0 0.051790667069154861 0.2547103276228454 0 0.034114961552744377 0.23516115760169301 0 0.051790667069154861 0.2547103276228454 0 0.072073934872957782 0.23900016577853919 0 0.093843955428218759 0.229542086103772 0 0.089645379702363526 0.25980927980688501 0 0.072073934872957782 0.23900016577853919 0 0.089645379702363526 0.25980927980688501 0 0.055174909047777811 0.2396291133956362 0 0.072073934872957782 0.23900016577853919 0 0.063392491700480919 0.2510828642249095 0 0.072073934872957782 0.23900016577853919 0 0.063392491700480919 0.2510828642249095 0 0.074261774750864804 0.25289133929391111 0 0.054502490043551163 0.2181910517501941 0 0.072073934872957782 0.23900016577853919 0 0.054502490043551163 0.2181910517501941 0 0.072073934872957782 0.23900016577853919 0 0.07691655231929137 0.22036312128655 0 0.072073934872957782 0.23900016577853919 0 0.07691655231929137 0.22036312128655 0 0.093843955428218759 0.229542086103772 0 0.084497559881492323 0.20266231069862009 0 0.1011551627426199 0.2154511434485995 0 0.093843955428218759 0.229542086103772 0 0.084497559881492323 0.20266231069862009 0 0.093843955428218759 0.229542086103772 0 0.07691655231929137 0.22036312128655 0 0.084497559881492323 0.20266231069862009 0 0.093843955428218759 0.229542086103772 0 0.07691655231929137 0.22036312128655 0 0.062795137287949193 0.19833474639452611 0 0.084497559881492323 0.20266231069862009 0 0.054502490043551163 0.2181910517501941 0 0.07691655231929137 0.22036312128655 0 0.062795137287949193 0.19833474639452611 0 0.062795137287949193 0.19833474639452611 0 0.084497559881492323 0.20266231069862009 0 0.075151164334765874 0.17578253529346821 0 0.084497559881492323 0.20266231069862009 0 0.075151164334765874 0.17578253529346821 0 0.084497559881492323 0.20266231069862009 0 0.10184565838461331 0.1924014028594688 0 0.093394980383096363 0.18307457459837531 0 0.084497559881492323 0.20266231069862009 0 0.10184565838461331 0.1924014028594688 0 0.10260278643249959 0.20376756124449391 0 0.10184565838461331 0.1924014028594688 0 0.1105875138732399 0.1994169567440035 0 0.10260278643249959 0.20376756124449391 0 0.10184565838461331 0.1924014028594688 0 0.1131184160342838 0.18994185980391479 0 0.1105875138732399 0.1994169567440035 0 0.10184565838461331 0.1924014028594688 0 0.1131184160342838 0.18994185980391479 0 0.1054525685194168 0.18020148819897211 0 0.1131184160342838 0.18994185980391479 0 0.1210814068145178 0.19423580856195369 0 0.1131184160342838 0.18994185980391479 0 0.1210814068145178 0.19423580856195369 0 0.1196286990311512 0.18236386641526309 0 0.1210814068145178 0.19423580856195369 0 0.11958782189190099 0.20227867846385961 0 0.13241563583181001 0.2003476577346209 0 0.1131184160342838 0.18994185980391479 0 0.1210814068145178 0.19423580856195369 0 0.11958782189190099 0.20227867846385961 0 0.1131184160342838 0.18994185980391479 0 0.11958782189190099 0.20227867846385961 0 0.1105875138732399 0.1994169567440035 0 0.11958782189190099 0.20227867846385961 0 0.1105875138732399 0.1994169567440035 0 0.11467542950451071 0.21015036581969679 0 0.11958782189190099 0.20227867846385961 0 0.11467542950451071 0.21015036581969679 0 0.12714211421566091 0.2115365522170618 0 0.11467542950451071 0.21015036581969679 0 0.1287590091161889 0.22454109023782651 0 0.12714211421566091 0.2115365522170618 0 0.11467542950451071 0.21015036581969679 0 0.1011551627426199 0.2154511434485995 0 0.1117838155087727 0.22779371718329239 0 0.084497559881492323 0.20266231069862009 0 0.10260278643249959 0.20376756124449391 0 0.1011551627426199 0.2154511434485995 0 0.1105875138732399 0.1994169567440035 0 0.11467542950451071 0.21015036581969679 0 0.10260278643249959 0.20376756124449391 0 0.11467542950451071 0.21015036581969679 0 0.10260278643249959 0.20376756124449391 0 0.1011551627426199 0.2154511434485995 0 0.1011551627426199 0.2154511434485995 0 0.093843955428218759 0.229542086103772 0 0.1117838155087727 0.22779371718329239 0 0.11467542950451071 0.21015036581969679 0 0.1117838155087727 0.22779371718329239 0 0.1287590091161889 0.22454109023782651 0 0.1117838155087727 0.22779371718329239 0 0.1287590091161889 0.22454109023782651 0 0.116065923487036 0.25155424759680489 0 0.093843955428218759 0.229542086103772 0 0.089645379702363526 0.25980927980688501 0 0.116065923487036 0.25155424759680489 0 0.093843955428218759 0.229542086103772 0 0.1117838155087727 0.22779371718329239 0 0.116065923487036 0.25155424759680489 0 0.085867858697711436 0.14453522140638461 0 0.070822549389301243 0.1380046816891726 0 0.082108764886198796 0.1605396281437739 0 0.085867858697711436 0.14453522140638461 0 0.082108764886198796 0.1605396281437739 0 0.098061838006449922 0.1524476624703702 0 0.085867858697711436 0.14453522140638461 0 0.084033960556429532 0.12884481400490949 0 0.098019367542785563 0.1407790739484335 0 0.085867858697711436 0.14453522140638461 0 0.084033960556429532 0.12884481400490949 0 0.070822549389301243 0.1380046816891726 0 0.071861500007931359 0.1232467005620789 0 0.059536333892403683 0.1154697352345713 0 0.070822549389301243 0.1380046816891726 0 0.059536333892403683 0.1154697352345713 0 0.070822549389301243 0.1380046816891726 0 0.056458373241313059 0.1220229844831647 0 0.070822549389301243 0.1380046816891726 0 0.065804768788039439 0.14890275988831639 0 0.071861500007931359 0.1232467005620789 0 0.084033960556429532 0.12884481400490949 0 0.070822549389301243 0.1380046816891726 0 0.070822549389301243 0.1380046816891726 0 0.082108764886198796 0.1605396281437739 0 0.070822549389301243 0.1380046816891726 0 0.065804768788039439 0.14890275988831639 0 0.082108764886198796 0.1605396281437739 0 0.056298621576963533 0.16595151756685289 0 0.065804768788039439 0.14890275988831639 0 0.075151164334765874 0.17578253529346821 0 0.065804768788039439 0.14890275988831639 0 0.075151164334765874 0.17578253529346821 0 0.082108764886198796 0.1605396281437739 0 0.065804768788039439 0.14890275988831639 0 0.075151164334765874 0.17578253529346821 0 0.053915020648589329 0.181809847856817 0 0.062795137287949193 0.19833474639452611 0 0.075151164334765874 0.17578253529346821 0 0.075151164334765874 0.17578253529346821 0 0.093394980383096363 0.18307457459837531 0 0.082108764886198796 0.1605396281437739 0 0.084497559881492323 0.20266231069862009 0 0.075151164334765874 0.17578253529346821 0 0.093394980383096363 0.18307457459837531 0 0.093394980383096363 0.18307457459837531 0 0.082108764886198796 0.1605396281437739 0 0.1017810834163356 0.16778327145988009 0 0.093394980383096363 0.18307457459837531 0 0.082108764886198796 0.1605396281437739 0 0.082108764886198796 0.1605396281437739 0 0.1017810834163356 0.16778327145988009 0 0.098061838006449922 0.1524476624703702 0 0.1017810834163356 0.16778327145988009 0 0.1094413004412432 0.1568441156191657 0 0.098061838006449922 0.1524476624703702 0 0.10184565838461331 0.1924014028594688 0 0.093394980383096363 0.18307457459837531 0 0.1054525685194168 0.18020148819897211 0 0.093394980383096363 0.18307457459837531 0 0.1017810834163356 0.16778327145988009 0 0.1054525685194168 0.18020148819897211 0 0.1017810834163356 0.16778327145988009 0 0.1054525685194168 0.18020148819897211 0 0.1143103312636523 0.17467474260035151 0 0.1131184160342838 0.18994185980391479 0 0.1132877880089454 0.18182979361660931 0 0.1196286990311512 0.18236386641526309 0 0.1131184160342838 0.18994185980391479 0 0.1054525685194168 0.18020148819897211 0 0.1132877880089454 0.18182979361660931 0 0.1054525685194168 0.18020148819897211 0 0.1132877880089454 0.18182979361660931 0 0.1143103312636523 0.17467474260035151 0 0.1132877880089454 0.18182979361660931 0 0.1143103312636523 0.17467474260035151 0 0.1196286990311512 0.18236386641526309 0 0.1143103312636523 0.17467474260035151 0 0.1229466648353691 0.17360959233997481 0 0.1196286990311512 0.18236386641526309 0 0.1229466648353691 0.17360959233997481 0 0.1196286990311512 0.18236386641526309 0 0.1315359285025598 0.17914174819028489 0 0.1210814068145178 0.19423580856195369 0 0.1196286990311512 0.18236386641526309 0 0.1315359285025598 0.17914174819028489 0 0.1017810834163356 0.16778327145988009 0 0.1143103312636523 0.17467474260035151 0 0.11826309888899959 0.1638296446882945 0 0.1017810834163356 0.16778327145988009 0 0.1094413004412432 0.1568441156191657 0 0.11826309888899959 0.1638296446882945 0 0.1094413004412432 0.1568441156191657 0 0.11826309888899959 0.1638296446882945 0 0.12116198843957229 0.15461983439099389 0 0.1143103312636523 0.17467474260035151 0 0.1229466648353691 0.17360959233997481 0 0.11826309888899959 0.1638296446882945 0 0.1229466648353691 0.17360959233997481 0 0.11826309888899959 0.1638296446882945 0 0.1286748755814317 0.16568949079043779 0 0.11826309888899959 0.1638296446882945 0 0.12116198843957229 0.15461983439099389 0 0.1286748755814317 0.16568949079043779 0 0.12116198843957229 0.15461983439099389 0 0.1235319134973574 0.14279740261083959 0 0.11069945258584669 0.14552439304262721 0 0.1094413004412432 0.1568441156191657 0 0.12116198843957229 0.15461983439099389 0 0.11069945258584669 0.14552439304262721 0 0.1094413004412432 0.1568441156191657 0 0.11069945258584669 0.14552439304262721 0 0.098061838006449922 0.1524476624703702 0 0.11069945258584669 0.14552439304262721 0 0.098019367542785563 0.1407790739484335 0 0.098061838006449922 0.1524476624703702 0 0.085867858697711436 0.14453522140638461 0 0.098019367542785563 0.1407790739484335 0 0.098061838006449922 0.1524476624703702 0 0.084033960556429532 0.12884481400490949 0 0.1117522404438802 0.12667258555115829 0 0.094862282777670462 0.1196438628042634 0 0.084033960556429532 0.12884481400490949 0 0.1117522404438802 0.12667258555115829 0 0.084033960556429532 0.12884481400490949 0 0.098019367542785563 0.1407790739484335 0 0.1117522404438802 0.12667258555115829 0 0.11069945258584669 0.14552439304262721 0 0.098019367542785563 0.1407790739484335 0 0.1117522404438802 0.12667258555115829 0 0.1235319134973574 0.14279740261083959 0 0.11069945258584669 0.14552439304262721 0 0.1117522404438802 0.12667258555115829 0 0.1235319134973574 0.14279740261083959 0 0.1117522404438802 0.12667258555115829 0 0.1338250830151082 0.13680555700437169 0 0.1117522404438802 0.12667258555115829 0 0.1338250830151082 0.13680555700437169 0 0.13947052033133081 0.1245003570974072 0 0.1117522404438802 0.12667258555115829 0 0.13947052033133081 0.1245003570974072 0 0.1338250830151082 0.13680555700437169 0 0.14773514824261011 0.13994704674368119 0 0.13947052033133081 0.1245003570974072 0 0.14773514824261011 0.13994704674368119 0 0.13947052033133081 0.1245003570974072 0 0.16718880021878149 0.12232812864365609 0 0.14773514824261011 0.13994704674368119 0 0.1492794596183103 0.15557552201751701 0 0.16307655427518189 0.1461583771030025 0 0.14773514824261011 0.13994704674368119 0 0.1492794596183103 0.15557552201751701 0 0.13636128964255501 0.15303395959459851 0 0.1235319134973574 0.14279740261083959 0 0.1338250830151082 0.13680555700437169 0 0.13636128964255501 0.15303395959459851 0 0.1338250830151082 0.13680555700437169 0 0.14773514824261011 0.13994704674368119 0 0.13636128964255501 0.15303395959459851 0 0.12116198843957229 0.15461983439099389 0 0.1235319134973574 0.14279740261083959 0 0.13636128964255501 0.15303395959459851 0 0.12116198843957229 0.15461983439099389 0 0.13636128964255501 0.15303395959459851 0 0.1286748755814317 0.16568949079043779 0 0.13636128964255501 0.15303395959459851 0 0.1286748755814317 0.16568949079043779 0 0.1402599975996246 0.1687496010839549 0 0.1286748755814317 0.16568949079043779 0 0.1402599975996246 0.1687496010839549 0 0.1315359285025598 0.17914174819028489 0 0.1210814068145178 0.19423580856195369 0 0.1315359285025598 0.17914174819028489 0 0.14172685770208041 0.18088834424850889 0 0.1229466648353691 0.17360959233997481 0 0.1286748755814317 0.16568949079043779 0 0.1315359285025598 0.17914174819028489 0 0.1402599975996246 0.1687496010839549 0 0.1315359285025598 0.17914174819028489 0 0.14172685770208041 0.18088834424850889 0 0.1315359285025598 0.17914174819028489 0 0.14172685770208041 0.18088834424850889 0 0.14172685770208041 0.18088834424850889 0 0.1589643083315804 0.1699886255623487 0 0.15664227980061579 0.1834446584897341 0 0.14172685770208041 0.18088834424850889 0 0.1589643083315804 0.1699886255623487 0 0.1402599975996246 0.1687496010839549 0 0.14172685770208041 0.18088834424850889 0 0.1589643083315804 0.1699886255623487 0 0.14172685770208041 0.18088834424850889 0 0.15664227980061579 0.1834446584897341 0 0.14735069213281321 0.19092796682168489 0 0.14172685770208041 0.18088834424850889 0 0.15664227980061579 0.1834446584897341 0 0.1492794596183103 0.15557552201751701 0 0.1402599975996246 0.1687496010839549 0 0.1589643083315804 0.1699886255623487 0 0.1492794596183103 0.15557552201751701 0 0.13636128964255501 0.15303395959459851 0 0.1402599975996246 0.1687496010839549 0 0.1492794596183103 0.15557552201751701 0 0.1589643083315804 0.1699886255623487 0 0.16307655427518189 0.1461583771030025 0 0.1589643083315804 0.1699886255623487 0 0.1832181015668064 0.15465227861531949 0 0.16307655427518189 0.1461583771030025 0 0.1589643083315804 0.1699886255623487 0 0.16307655427518189 0.1461583771030025 0 0.1589643083315804 0.1699886255623487 0 0.1832181015668064 0.15465227861531949 0 0.1589643083315804 0.1699886255623487 0 0.15664227980061579 0.1834446584897341 0 0.17367876449497299 0.17356388092826039 0 0.15664227980061579 0.1834446584897341 0 0.17803712215301101 0.18711146321258301 0 0.15664227980061579 0.1834446584897341 0 0.17367876449497299 0.17356388092826039 0 0.17803712215301101 0.18711146321258301 0 0.1589643083315804 0.1699886255623487 0 0.15664227980061579 0.1834446584897341 0 0.17367876449497299 0.17356388092826039 0 0.17803712215301101 0.18711146321258301 0 0.1915320106228488 0.17262237876131631 0 0.1589643083315804 0.1699886255623487 0 0.17367876449497299 0.17356388092826039 0 0.1832181015668064 0.15465227861531949 0 0.17367876449497299 0.17356388092826039 0 0.1832181015668064 0.15465227861531949 0 0.1915320106228488 0.17262237876131631 0 0.1832181015668064 0.15465227861531949 0 0.18154761934540289 0.13534417850528041 0 0.16307655427518189 0.1461583771030025 0 0.18154761934540289 0.13534417850528041 0 0.19370351113240411 0.1202502215829211 0 0.16718880021878149 0.12232812864365609 0 0.16307655427518189 0.1461583771030025 0 0.16718880021878149 0.12232812864365609 0 0.14773514824261011 0.13994704674368119 0 0.16307655427518189 0.1461583771030025 0 0.16718880021878149 0.12232812864365609 0 0.18154761934540289 0.13534417850528041 0 0.16307655427518189 0.1461583771030025 0 0.16718880021878149 0.12232812864365609 0 0.14248646727170791 0.24329921538672239 0 0.16890701105638031 0.23504418317664161 0 0.14248646727170791 0.24329921538672239 0 0.116065923487036 0.25155424759680489 0 0.14248646727170791 0.24329921538672239 0 0.1287590091161889 0.22454109023782651 0 0.116065923487036 0.25155424759680489 0 0.14248646727170791 0.24329921538672239 0 0.1287590091161889 0.22454109023782651 0 0.14216045677169509 0.2226427774354276 0 0.1287590091161889 0.22454109023782651 0 0.14216045677169509 0.2226427774354276 0 0.13903299807830019 0.21154409335764149 0 0.14248646727170791 0.24329921538672239 0 0.14216045677169509 0.2226427774354276 0 0.16890701105638031 0.23504418317664161 0 0.14216045677169509 0.2226427774354276 0 0.1513137794066001 0.21432303737238931 0 0.16890701105638031 0.23504418317664161 0 0.15183105921464751 0.210852851725322 0 0.13241563583181001 0.2003476577346209 0 0.15183105921464751 0.210852851725322 0 0.13903299807830019 0.21154409335764149 0 0.13241563583181001 0.2003476577346209 0 0.1513137794066001 0.21432303737238931 0 0.15183105921464751 0.210852851725322 0 0.14522842943996589 0.21534193400985699 0 0.1513137794066001 0.21432303737238931 0 0.15183105921464751 0.210852851725322 0 0.15183105921464751 0.210852851725322 0 0.14522842943996589 0.21534193400985699 0 0.13903299807830019 0.21154409335764149 0 0.14216045677169509 0.2226427774354276 0 0.1513137794066001 0.21432303737238931 0 0.14522842943996589 0.21534193400985699 0 0.14216045677169509 0.2226427774354276 0 0.14522842943996589 0.21534193400985699 0 0.13903299807830019 0.21154409335764149 0 0.1287590091161889 0.22454109023782651 0 0.13903299807830019 0.21154409335764149 0 0.12714211421566091 0.2115365522170618 0 0.11958782189190099 0.20227867846385961 0 0.12714211421566091 0.2115365522170618 0 0.13241563583181001 0.2003476577346209 0 0.13903299807830019 0.21154409335764149 0 0.12714211421566091 0.2115365522170618 0 0.13241563583181001 0.2003476577346209 0 0.1210814068145178 0.19423580856195369 0 0.13241563583181001 0.2003476577346209 0 0.13808072668616231 0.19149491569441959 0 0.1210814068145178 0.19423580856195369 0 0.14172685770208041 0.18088834424850889 0 0.13808072668616231 0.19149491569441959 0 0.1210814068145178 0.19423580856195369 0 0.14172685770208041 0.18088834424850889 0 0.1210814068145178 0.19423580856195369 0 0.13241563583181001 0.2003476577346209 0 0.15664227980061579 0.1834446584897341 0 0.15183105921464751 0.210852851725322 0 0.14735069213281321 0.19092796682168489 0 0.14172685770208041 0.18088834424850889 0 0.13808072668616231 0.19149491569441959 0 0.14735069213281321 0.19092796682168489 0 0.15183105921464751 0.210852851725322 0 0.13808072668616231 0.19149491569441959 0 0.14735069213281321 0.19092796682168489 0 0.15664227980061579 0.1834446584897341 0 0.15183105921464751 0.210852851725322 0 0.15183105921464751 0.210852851725322 0 0.13241563583181001 0.2003476577346209 0 0.13808072668616231 0.19149491569441959 0 0.15183105921464751 0.210852851725322 0 0.13808072668616231 0.19149491569441959 0 0.15664227980061579 0.1834446584897341 0 0.17803712215301101 0.18711146321258301 0 0.17078007948547791 0.20461318166966591 0 0.15664227980061579 0.1834446584897341 0 0.15183105921464751 0.210852851725322 0 0.17078007948547791 0.20461318166966591 0 0.17803712215301101 0.18711146321258301 0 0.18699821765939811 0.20575379358823331 0 0.17078007948547791 0.20461318166966591 0 0.18699821765939811 0.20575379358823331 0 0.18150256540618689 0.21619068467845909 0 0.17078007948547791 0.20461318166966591 0 0.18150256540618689 0.21619068467845909 0 0.17078007948547791 0.20461318166966591 0 0.1696832039875637 0.2204437538389574 0 0.15183105921464751 0.210852851725322 0 0.1696832039875637 0.2204437538389574 0 0.15183105921464751 0.210852851725322 0 0.17078007948547791 0.20461318166966591 0 0.1696832039875637 0.2204437538389574 0 0.15183105921464751 0.210852851725322 0 0.16890701105638031 0.23504418317664161 0 0.15183105921464751 0.210852851725322 0 0.1696832039875637 0.2204437538389574 0 0.16890701105638031 0.23504418317664161 0 0.1513137794066001 0.21432303737238931 0 0.15183105921464751 0.210852851725322 0 0.16890701105638031 0.23504418317664161 0 0.1696832039875637 0.2204437538389574 0 0.1730962958839812 0.23373525170759399 0 0.16890701105638031 0.23504418317664161 0 0.18150256540618689 0.21619068467845909 0 0.1696832039875637 0.2204437538389574 0 0.1874551123034256 0.23002704556275291 0 0.1696832039875637 0.2204437538389574 0 0.1874551123034256 0.23002704556275291 0 0.1730962958839812 0.23373525170759399 0 0.1696832039875637 0.2204437538389574 0 0.1874551123034256 0.23002704556275291 0 0.16890701105638031 0.23504418317664161 0 0.18564289691528729 0.25868749876629671 0 0.1821848497420967 0.24129823675235251 0 0.16890701105638031 0.23504418317664161 0 0.18564289691528729 0.25868749876629671 0 0.1730962958839812 0.23373525170759399 0 0.1821848497420967 0.24129823675235251 0 0.16890701105638031 0.23504418317664161 0 0.1874551123034256 0.23002704556275291 0 0.1730962958839812 0.23373525170759399 0 0.1821848497420967 0.24129823675235251 0 0.14248646727170791 0.24329921538672239 0 0.16890701105638031 0.23504418317664161 0 0.1631161995596529 0.25657386530356069 0 0.1730962958839812 0.23373525170759399 0 0.16890701105638031 0.23504418317664161 0 0.2052270206192876 0.23961033728654851 0 0.2245441737887168 0.23093760545441711 0 0.21458810326103989 0.25029177234766842 0 0.2052270206192876 0.23961033728654851 0 0.2050239072751949 0.2492833193895482 0 0.21458810326103989 0.25029177234766842 0 0.2052270206192876 0.23961033728654851 0 0.2050239072751949 0.2492833193895482 0 0.1956251304139873 0.24830732682566101 0 0.1874551123034256 0.23002704556275291 0 0.1821848497420967 0.24129823675235251 0 0.1956251304139873 0.24830732682566101 0 0.1874551123034256 0.23002704556275291 0 0.2052270206192876 0.23961033728654851 0 0.1821848497420967 0.24129823675235251 0 0.1956251304139873 0.24830732682566101 0 0.18564289691528729 0.25868749876629671 0 0.1874551123034256 0.23002704556275291 0 0.2052270206192876 0.23961033728654851 0 0.1956251304139873 0.24830732682566101 0 0.1874551123034256 0.23002704556275291 0 0.2052270206192876 0.23961033728654851 0 0.20110338325899621 0.22697869990708769 0 0.18150256540618689 0.21619068467845909 0 0.1874551123034256 0.23002704556275291 0 0.19422843088031849 0.2167901493339745 0 0.1874551123034256 0.23002704556275291 0 0.20110338325899621 0.22697869990708769 0 0.19422843088031849 0.2167901493339745 0 0.20110338325899621 0.22697869990708769 0 0.2086865974780466 0.21738525977654841 0 0.19422843088031849 0.2167901493339745 0 0.2052270206192876 0.23961033728654851 0 0.21155197229915221 0.22775520817690251 0 0.2245441737887168 0.23093760545441711 0 0.20110338325899621 0.22697869990708769 0 0.21155197229915221 0.22775520817690251 0 0.2086865974780466 0.21738525977654841 0 0.2052270206192876 0.23961033728654851 0 0.20110338325899621 0.22697869990708769 0 0.21155197229915221 0.22775520817690251 0 0.21155197229915221 0.22775520817690251 0 0.2086865974780466 0.21738525977654841 0 0.22156171208109349 0.2232889965660497 0 0.211417792929007 0.20448623071467029 0 0.2086865974780466 0.21738525977654841 0 0.22411523440486891 0.2128525325182862 0 0.2086865974780466 0.21738525977654841 0 0.22411523440486891 0.2128525325182862 0 0.22156171208109349 0.2232889965660497 0 0.211417792929007 0.20448623071467029 0 0.2086865974780466 0.21738525977654841 0 0.19996516513116139 0.20542151256053021 0 0.2086865974780466 0.21738525977654841 0 0.19422843088031849 0.2167901493339745 0 0.19996516513116139 0.20542151256053021 0 0.18699821765939811 0.20575379358823331 0 0.18150256540618689 0.21619068467845909 0 0.19422843088031849 0.2167901493339745 0 0.18699821765939811 0.20575379358823331 0 0.19422843088031849 0.2167901493339745 0 0.19996516513116139 0.20542151256053021 0 0.18699821765939811 0.20575379358823331 0 0.19996516513116139 0.20542151256053021 0 0.19943196450540629 0.19077826793543179 0 0.17803712215301101 0.18711146321258301 0 0.19943196450540629 0.19077826793543179 0 0.17803712215301101 0.18711146321258301 0 0.18699821765939811 0.20575379358823331 0 0.19943196450540629 0.19077826793543179 0 0.211417792929007 0.20448623071467029 0 0.19943196450540629 0.19077826793543179 0 0.22082680685780151 0.19444507265828059 0 0.19943196450540629 0.19077826793543179 0 0.22082680685780151 0.19444507265828059 0 0.211417792929007 0.20448623071467029 0 0.19996516513116139 0.20542151256053021 0 0.19943196450540629 0.19077826793543179 0 0.22082680685780151 0.19444507265828059 0 0.2418323282778008 0.1922485172988235 0 0.23200417938957321 0.20455559625434991 0 0.22082680685780151 0.19444507265828059 0 0.2418323282778008 0.1922485172988235 0 0.2298041727050075 0.1787595393801808 0 0.2418323282778008 0.1922485172988235 0 0.24124234801782149 0.21867626254200909 0 0.2418323282778008 0.1922485172988235 0 0.24124234801782149 0.21867626254200909 0 0.25471258750952741 0.20148162901819469 0 0.2418323282778008 0.1922485172988235 0 0.24124234801782149 0.21867626254200909 0 0.23200417938957321 0.20455559625434991 0 0.24124234801782149 0.21867626254200909 0 0.25357276657721323 0.21641202867955539 0 0.25471258750952741 0.20148162901819469 0 0.24124234801782149 0.21867626254200909 0 0.22411523440486891 0.2128525325182862 0 0.2303270751280653 0.22194856436908961 0 0.211417792929007 0.20448623071467029 0 0.22082680685780151 0.19444507265828059 0 0.22411523440486891 0.2128525325182862 0 0.22082680685780151 0.19444507265828059 0 0.23200417938957321 0.20455559625434991 0 0.22411523440486891 0.2128525325182862 0 0.24124234801782149 0.21867626254200909 0 0.23200417938957321 0.20455559625434991 0 0.22411523440486891 0.2128525325182862 0 0.22411523440486891 0.2128525325182862 0 0.22156171208109349 0.2232889965660497 0 0.2303270751280653 0.22194856436908961 0 0.22156171208109349 0.2232889965660497 0 0.2245441737887168 0.23093760545441711 0 0.2301452193877111 0.22885480910105491 0 0.21155197229915221 0.22775520817690251 0 0.22156171208109349 0.2232889965660497 0 0.2245441737887168 0.23093760545441711 0 0.2301452193877111 0.22885480910105491 0 0.23408043491912681 0.23335190051361199 0 0.23787356880598759 0.22384871304106421 0 0.2301452193877111 0.22885480910105491 0 0.23408043491912681 0.23335190051361199 0 0.2258394828391487 0.23585902185418811 0 0.2245441737887168 0.23093760545441711 0 0.2301452193877111 0.22885480910105491 0 0.2258394828391487 0.23585902185418811 0 0.2301452193877111 0.22885480910105491 0 0.2303270751280653 0.22194856436908961 0 0.23787356880598759 0.22384871304106421 0 0.22156171208109349 0.2232889965660497 0 0.2301452193877111 0.22885480910105491 0 0.2303270751280653 0.22194856436908961 0 0.24124234801782149 0.21867626254200909 0 0.2303270751280653 0.22194856436908961 0 0.23787356880598759 0.22384871304106421 0 0.24124234801782149 0.21867626254200909 0 0.23787356880598759 0.22384871304106421 0 0.25357276657721323 0.21641202867955539 0 0.23408043491912681 0.23335190051361199 0 0.24868260911088891 0.2303107595792985 0 0.25357276657721323 0.21641202867955539 0 0.23408043491912681 0.23335190051361199 0 0.23787356880598759 0.22384871304106421 0 0.25357276657721323 0.21641202867955539 0 0.23408043491912681 0.23335190051361199 0 0.25357276657721323 0.21641202867955539 0 0.24868260911088891 0.2303107595792985 0 0.2392512687495113 0.23539683186585869 0 0.2471090749199483 0.2357199094212839 0 0.23408043491912681 0.23335190051361199 0 0.24868260911088891 0.2303107595792985 0 0.2392512687495113 0.23539683186585869 0 0.23408043491912681 0.23335190051361199 0 0.2356673672060029 0.23553231024254659 0 0.23369101455560959 0.23545012385447089 0 0.2356673672060029 0.23553231024254659 0 0.23652425047500741 0.24096462129343871 0 0.23369101455560959 0.23545012385447089 0 0.23652425047500741 0.24096462129343871 0 0.2392512687495113 0.23539683186585869 0 0.24523436150048811 0.24199469982198529 0 0.2356673672060029 0.23553231024254659 0 0.23652425047500741 0.24096462129343871 0 0.2392512687495113 0.23539683186585869 0 0.23408043491912681 0.23335190051361199 0 0.2356673672060029 0.23553231024254659 0 0.2392512687495113 0.23539683186585869 0 0.24523436150048811 0.24199469982198529 0 0.2471090749199483 0.2357199094212839 0 0.25452501640087027 0.2374112721999547 0 0.2392512687495113 0.23539683186585869 0 0.24523436150048811 0.24199469982198529 0 0.2471090749199483 0.2357199094212839 0 0.24523436150048811 0.24199469982198529 0 0.23995652529561701 0.25039133628829258 0 0.25404003316197471 0.25208422786308371 0 0.23652425047500741 0.24096462129343871 0 0.24523436150048811 0.24199469982198529 0 0.23995652529561701 0.25039133628829258 0 0.23652425047500741 0.24096462129343871 0 0.23169913173193779 0.25404958449575432 0 0.23995652529561701 0.25039133628829258 0 0.23369101455560959 0.23545012385447089 0 0.2170338530129477 0.25958452376210089 0 0.21458810326103989 0.25029177234766842 0 0.23408043491912681 0.23335190051361199 0 0.23369101455560959 0.23545012385447089 0 0.21458810326103989 0.25029177234766842 0 0.23408043491912681 0.23335190051361199 0 0.21458810326103989 0.25029177234766842 0 0.2245441737887168 0.23093760545441711 0 0.21458810326103989 0.25029177234766842 0 0.23408043491912681 0.23335190051361199 0 0.2258394828391487 0.23585902185418811 0 0.21458810326103989 0.25029177234766842 0 0.23369101455560959 0.23545012385447089 0 0.2170338530129477 0.25958452376210089 0 0.23169913173193779 0.25404958449575432 0 0.23652425047500741 0.24096462129343871 0 0.23369101455560959 0.23545012385447089 0 0.23169913173193779 0.25404958449575432 0 0.23369101455560959 0.23545012385447089 0 0.2170338530129477 0.25958452376210089 0 0.2245441737887168 0.23093760545441711 0 0.2258394828391487 0.23585902185418811 0 0.21458810326103989 0.25029177234766842 0 0.2074718948020329 0.13931593166829101 0 0.2035930282546865 0.1573108976369578 0 0.22801201431925219 0.15227861461809999 0 0.2074718948020329 0.13931593166829101 0 0.22815060196587239 0.13250420183309389 0 0.2202182220460269 0.1181723145221887 0 0.2074718948020329 0.13931593166829101 0 0.2202182220460269 0.1181723145221887 0 0.19370351113240411 0.1202502215829211 0 0.18154761934540289 0.13534417850528041 0 0.2074718948020329 0.13931593166829101 0 0.19370351113240411 0.1202502215829211 0 0.1832181015668064 0.15465227861531949 0 0.2074718948020329 0.13931593166829101 0 0.1832181015668064 0.15465227861531949 0 0.18154761934540289 0.13534417850528041 0 0.2074718948020329 0.13931593166829101 0 0.1832181015668064 0.15465227861531949 0 0.2074718948020329 0.13931593166829101 0 0.2035930282546865 0.1573108976369578 0 0.1832181015668064 0.15465227861531949 0 0.1915320106228488 0.17262237876131631 0 0.2035930282546865 0.1573108976369578 0 0.1915320106228488 0.17262237876131631 0 0.21309098299550949 0.1707274381193544 0 0.2035930282546865 0.1573108976369578 0 0.19943196450540629 0.19077826793543179 0 0.1915320106228488 0.17262237876131631 0 0.21309098299550949 0.1707274381193544 0 0.17803712215301101 0.18711146321258301 0 0.19943196450540629 0.19077826793543179 0 0.1915320106228488 0.17262237876131631 0 0.19943196450540629 0.19077826793543179 0 0.22082680685780151 0.19444507265828059 0 0.21309098299550949 0.1707274381193544 0 0.21309098299550949 0.1707274381193544 0 0.2035930282546865 0.1573108976369578 0 0.22801201431925219 0.15227861461809999 0 0.2298041727050075 0.1787595393801808 0 0.2424223085377801 0.16582077205563811 0 0.22801201431925219 0.15227861461809999 0 0.21309098299550949 0.1707274381193544 0 0.2298041727050075 0.1787595393801808 0 0.22801201431925219 0.15227861461809999 0 0.22082680685780151 0.19444507265828059 0 0.21309098299550949 0.1707274381193544 0 0.2298041727050075 0.1787595393801808 0 0.2418323282778008 0.1922485172988235 0 0.2424223085377801 0.16582077205563811 0 0.2418323282778008 0.1922485172988235 0 0.2424223085377801 0.16582077205563811 0 0.26032431562704572 0.18342712708893841 0 0.2418323282778008 0.1922485172988235 0 0.2298041727050075 0.1787595393801808 0 0.2424223085377801 0.16582077205563811 0 0.2424223085377801 0.16582077205563811 0 0.24301228879775941 0.13939302681245261 0 0.2424223085377801 0.16582077205563811 0 0.24301228879775941 0.13939302681245261 0 0.25486404381895789 0.1523024957907583 0 0.22801201431925219 0.15227861461809999 0 0.23648687609860089 0.13476882232929049 0 0.24301228879775941 0.13939302681245261 0 0.2424223085377801 0.16582077205563811 0 0.22801201431925219 0.15227861461809999 0 0.24301228879775941 0.13939302681245261 0 0.2074718948020329 0.13931593166829101 0 0.22801201431925219 0.15227861461809999 0 0.22815060196587239 0.13250420183309389 0 0.22815060196587239 0.13250420183309389 0 0.24420216851797599 0.1292372680552665 0 0.2202182220460269 0.1181723145221887 0 0.22801201431925219 0.15227861461809999 0 0.22815060196587239 0.13250420183309389 0 0.23648687609860089 0.13476882232929049 0 0.22815060196587239 0.13250420183309389 0 0.23648687609860089 0.13476882232929049 0 0.24420216851797599 0.1292372680552665 0 0.23648687609860089 0.13476882232929049 0 0.24301228879775941 0.13939302681245261 0 0.24420216851797599 0.1292372680552665 0 0.24646482385440791 0.1109165710353929 0 0.23770217468454991 0.11680213067385049 0 0.255186127323073 0.11543194682551421 0 0.24420216851797599 0.1292372680552665 0 0.23770217468454991 0.11680213067385049 0 0.255186127323073 0.11543194682551421 0 0.23770217468454991 0.11680213067385049 0 0.255186127323073 0.11543194682551421 0 0.23770217468454991 0.11680213067385049 0 0.24055722746134861 0.1095612663226197 0 0.23538797832625211 0.10692464088038291 0 0.24646482385440791 0.1109165710353929 0 0.23770217468454991 0.11680213067385049 0 0.24055722746134861 0.1095612663226197 0 0.24174744587836799 0.1033548466348798 0 0.22816008327650389 0.097918375238235045 0 0.24736227196270541 0.090270970101712061 0 0.22816008327650389 0.097918375238235045 0 0.24736227196270541 0.090270970101712061 0 0.24174744587836799 0.1033548466348798 0 0.24736227196270541 0.090270970101712061 0 0.25459763100830068 0.096141582858552177 0 0.24174744587836799 0.1033548466348798 0 0.25459763100830068 0.096141582858552177 0 0.24646482385440791 0.1109165710353929 0 0.24174744587836799 0.1033548466348798 0 0.25655208948606423 0.10927836717886751 0 0.24174744587836799 0.1033548466348798 0 0.25655208948606423 0.10927836717886751 0 0.24646482385440791 0.1109165710353929 0 0.24055722746134861 0.1095612663226197 0 0.24174744587836799 0.1033548466348798 0 0.23538797832625211 0.10692464088038291 0 0.24174744587836799 0.1033548466348798 0 0.22816008327650389 0.097918375238235045 0 0.24055722746134861 0.1095612663226197 0 0.23538797832625211 0.10692464088038291 0 0.24174744587836799 0.1033548466348798 0 0.23538797832625211 0.10692464088038291 0 0.24174744587836799 0.1033548466348798 0 0.24174744587836799 0.1033548466348798 0 0.22816008327650389 0.097918375238235045 0 0.23538797832625211 0.10692464088038291 0 0.22816008327650389 0.097918375238235045 0 0.22436085098549791 0.1097634104313145 0 0.23770217468454991 0.11680213067385049 0 0.2202182220460269 0.1181723145221887 0 0.23770217468454991 0.11680213067385049 0 0.2202182220460269 0.1181723145221887 0 0.22436085098549791 0.1097634104313145 0 0.24420216851797599 0.1292372680552665 0 0.23770217468454991 0.11680213067385049 0 0.2202182220460269 0.1181723145221887 0 0.24420216851797599 0.1292372680552665 0 0.2202182220460269 0.1181723145221887 0 0.23770217468454991 0.11680213067385049 0 0.23538797832625211 0.10692464088038291 0 0.22436085098549791 0.1097634104313145 0 0.2202182220460269 0.1181723145221887 0 0.20033579659415629 0.10899959084191641 0 0.19370351113240411 0.1202502215829211 0 0.2202182220460269 0.1181723145221887 0 0.20033579659415629 0.10899959084191641 0 0.2202182220460269 0.1181723145221887 0 0.19370351113240411 0.1202502215829211 0 0.2202182220460269 0.1181723145221887 0 0.22436085098549791 0.1097634104313145 0 0.20033579659415629 0.10899959084191641 0 0.22816008327650389 0.097918375238235045 0 0.22436085098549791 0.1097634104313145 0 0.20033579659415629 0.10899959084191641 0 0.22816008327650389 0.097918375238235045 0 0.20033579659415629 0.10899959084191641 0 0.2016134769563831 0.087296750559026068 0 0.22816008327650389 0.097918375238235045 0 0.20033579659415629 0.10899959084191641 0 0.20033579659415629 0.10899959084191641 0 0.18422746814952201 0.1154148446289336 0 0.1860496622757298 0.1024087067025775 0 0.20033579659415629 0.10899959084191641 0 0.2016134769563831 0.087296750559026068 0 0.1860496622757298 0.1024087067025775 0 0.20033579659415629 0.10899959084191641 0 0.1860496622757298 0.1024087067025775 0 0.20033579659415629 0.10899959084191641 0 0.19370351113240411 0.1202502215829211 0 0.18422746814952201 0.1154148446289336 0 0.20033579659415629 0.10899959084191641 0 0.18422746814952201 0.1154148446289336 0 0.19220101611619109 0.069455466931817506 0 0.2016134769563831 0.087296750559026068 0 0.22553753830923129 0.072562856517635971 0 0.19220101611619109 0.069455466931817506 0 0.22553753830923129 0.072562856517635971 0 0.20371280465575431 0.054854742933563613 0 0.19220101611619109 0.069455466931817506 0 0.2016134769563831 0.087296750559026068 0 0.17506687063626211 0.076675125879817507 0 0.2016134769563831 0.087296750559026068 0 0.17506687063626211 0.076675125879817507 0 0.2016134769563831 0.087296750559026068 0 0.1860496622757298 0.1024087067025775 0 0.17954517331912459 0.085943521096986275 0 0.22816008327650389 0.097918375238235045 0 0.2016134769563831 0.087296750559026068 0 0.22553753830923129 0.072562856517635971 0 0.22816008327650389 0.097918375238235045 0 0.2016134769563831 0.087296750559026068 0 0.22553753830923129 0.072562856517635971 0 0.20371280465575431 0.054854742933563613 0 0.22816008327650389 0.097918375238235045 0 0.22553753830923129 0.072562856517635971 0 0.24736227196270541 0.090270970101712061 0 0.22553753830923129 0.072562856517635971 0 0.24736227196270541 0.090270970101712061 0 0.22553753830923129 0.072562856517635971 0 0.24736227196270541 0.090270970101712061 0 0.24874122334595 0.07170785510379532 0 0.22553753830923129 0.072562856517635971 0 0.24874122334595 0.07170785510379532 0 0.24629062771517271 0.052820950830226497 0 0.24629062771517271 0.052820950830226497 0 0.22540450977275331 0.044226989078737088 0 0.24629062771517271 0.052820950830226497 0 0.2492733855269578 0.041579555173777823 0 0.22540450977275331 0.044226989078737088 0 0.2492733855269578 0.041579555173777823 0 0.23050941707716249 0.025621187905106171 0 0.2492733855269578 0.041579555173777823 0 0.22540450977275331 0.044226989078737088 0 0.23050941707716249 0.025621187905106171 0 0.22540450977275331 0.044226989078737088 0 0.23050941707716249 0.025621187905106171 0 0.21805144048265651 0.031797176764528597 0 0.22553753830923129 0.072562856517635971 0 0.24629062771517271 0.052820950830226497 0 0.22540450977275331 0.044226989078737088 0 0.23790413247208811 0.0091049515404343275 0 0.25322369798355371 0.0032948183560677501 0 0.2464198669495459 -0.012097030270161889 0 0.23790413247208811 0.0091049515404343275 0 0.25442723867738032 0.016379625870619269 0 0.25322369798355371 0.0032948183560677501 0 0.2492733855269578 0.041579555173777823 0 0.24818833723327199 0.02644705719899533 0 0.23050941707716249 0.025621187905106171 0 0.23790413247208811 0.0091049515404343275 0 0.24818833723327199 0.02644705719899533 0 0.25442723867738032 0.016379625870619269 0 0.23790413247208811 0.0091049515404343275 0 0.24818833723327199 0.02644705719899533 0 0.23050941707716249 0.025621187905106171 0 0.23050941707716249 0.025621187905106171 0 0.2117734432503762 0.02170750274702346 0 0.21805144048265651 0.031797176764528597 0 0.23050941707716249 0.025621187905106171 0 0.21174544862736719 0.0096628206364345465 0 0.23050941707716249 0.025621187905106171 0 0.22518260227175371 0.0072623370788317187 0 0.21174544862736719 0.0096628206364345465 0 0.23790413247208811 0.0091049515404343275 0 0.22518260227175371 0.0072623370788317187 0 0.2300866381754704 -0.0072438550720441714 0 0.23790413247208811 0.0091049515404343275 0 0.23050941707716249 0.025621187905106171 0 0.22518260227175371 0.0072623370788317187 0 0.21174544862736719 0.0096628206364345465 0 0.2117734432503762 0.02170750274702346 0 0.20589386385567829 -0.0063134785331596111 0 0.2117734432503762 0.02170750274702346 0 0.19985428483697371 0.01027601627170664 0 0.20589386385567829 -0.0063134785331596111 0 0.2117734432503762 0.02170750274702346 0 0.20589386385567829 -0.0063134785331596111 0 0.22518260227175371 0.0072623370788317187 0 0.21174544862736719 0.0096628206364345465 0 0.2185782736923042 -0.0038367730406402641 0 0.23050941707716249 0.025621187905106171 0 0.21174544862736719 0.0096628206364345465 0 0.2117734432503762 0.02170750274702346 0 0.2117734432503762 0.02170750274702346 0 0.19994459845139961 0.023663902980434019 0 0.19985428483697371 0.01027601627170664 0 0.2117734432503762 0.02170750274702346 0 0.21805144048265651 0.031797176764528597 0 0.20451839183033399 0.035633027327247678 0 0.2117734432503762 0.02170750274702346 0 0.19994459845139961 0.023663902980434019 0 0.20451839183033399 0.035633027327247678 0 0.19994459845139961 0.023663902980434019 0 0.20451839183033399 0.035633027327247678 0 0.1836322738879155 0.027039065575756291 0 0.19994459845139961 0.023663902980434019 0 0.19985428483697371 0.01027601627170664 0 0.1836322738879155 0.027039065575756291 0 0.19985428483697371 0.01027601627170664 0 0.20589386385567829 -0.0063134785331596111 0 0.18863989258252481 -0.001979820774580698 0 0.19985428483697371 0.01027601627170664 0 0.1836322738879155 0.027039065575756291 0 0.18863989258252481 -0.001979820774580698 0 0.22553753830923129 0.072562856517635971 0 0.22540450977275331 0.044226989078737088 0 0.20371280465575431 0.054854742933563613 0 0.22540450977275331 0.044226989078737088 0 0.20451839183033399 0.035633027327247678 0 0.22540450977275331 0.044226989078737088 0 0.21805144048265651 0.031797176764528597 0 0.20451839183033399 0.035633027327247678 0 0.22540450977275331 0.044226989078737088 0 0.20371280465575431 0.054854742933563613 0 0.20451839183033399 0.035633027327247678 0 0.20451839183033399 0.035633027327247678 0 0.1818880710022803 0.03714662934948755 0 0.1836322738879155 0.027039065575756291 0 0.20371280465575431 0.054854742933563613 0 0.20451839183033399 0.035633027327247678 0 0.1818880710022803 0.03714662934948755 0 0.20371280465575431 0.054854742933563613 0 0.1818880710022803 0.03714662934948755 0 0.20451839183033399 0.035633027327247678 0 0.1836322738879155 0.027039065575756291 0 0.20371280465575431 0.054854742933563613 0 0.17847747081927551 0.05691087761465332 0 0.1818880710022803 0.03714662934948755 0 0.19220101611619109 0.069455466931817506 0 0.20371280465575431 0.054854742933563613 0 0.17847747081927551 0.05691087761465332 0 0.17847747081927551 0.05691087761465332 0 0.1818880710022803 0.03714662934948755 0 0.17847747081927551 0.05691087761465332 0 0.1818880710022803 0.03714662934948755 0 0.1636569447874848 0.036789081642687432 0 0.1818880710022803 0.03714662934948755 0 0.1836322738879155 0.027039065575756291 0 0.1818880710022803 0.03714662934948755 0 0.1636569447874848 0.036789081642687432 0 0.1620242678869008 0.02102957209859084 0 0.17847747081927551 0.05691087761465332 0 0.1636569447874848 0.036789081642687432 0 0.15962551614652079 0.053115759904931073 0 0.17847747081927551 0.05691087761465332 0 0.15962551614652079 0.053115759904931073 0 0.16641746421004469 0.065589342706300277 0 0.15962551614652079 0.053115759904931073 0 0.15045482833334159 0.067212260357143019 0 0.16641746421004469 0.065589342706300277 0 0.1716695151525548 0.011722155214289249 0 0.17506184651935949 -0.0021247232161890161 0 0.18863989258252481 -0.001979820774580698 0 0.1836322738879155 0.027039065575756291 0 0.18863989258252481 -0.001979820774580698 0 0.1836322738879155 0.027039065575756291 0 0.1716695151525548 0.011722155214289249 0 0.18863989258252481 -0.001979820774580698 0 0.1818880710022803 0.03714662934948755 0 0.1730573255808272 0.02268781650565178 0 0.1620242678869008 0.02102957209859084 0 0.1818880710022803 0.03714662934948755 0 0.1620242678869008 0.02102957209859084 0 0.1730573255808272 0.02268781650565178 0 0.1836322738879155 0.027039065575756291 0 0.1716695151525548 0.011722155214289249 0 0.1730573255808272 0.02268781650565178 0 0.1836322738879155 0.027039065575756291 0 0.1818880710022803 0.03714662934948755 0 0.1730573255808272 0.02268781650565178 0 0.1836322738879155 0.027039065575756291 0 0.1636569447874848 0.036789081642687432 0 0.1620242678869008 0.02102957209859084 0 0.15032019737810451 0.03113296745297477 0 0.1730573255808272 0.02268781650565178 0 0.1620242678869008 0.02102957209859084 0 0.1716695151525548 0.011722155214289249 0 0.1620242678869008 0.02102957209859084 0 0.1716695151525548 0.011722155214289249 0 0.15871689523486121 0.010399441389301141 0 0.1716695151525548 0.011722155214289249 0 0.15871689523486121 0.010399441389301141 0 0.1628037813635097 0.0015330777282007481 0 0.15871689523486121 0.010399441389301141 0 0.1628037813635097 0.0015330777282007481 0 0.15453230216132671 0.0032055715019124438 0 0.1716695151525548 0.011722155214289249 0 0.1628037813635097 0.0015330777282007481 0 0.17506184651935949 -0.0021247232161890161 0 0.1620242678869008 0.02102957209859084 0 0.14216046477152491 0.0049125148476896544 0 0.15871689523486121 0.010399441389301141 0 0.14216046477152491 0.0049125148476896544 0 0.15453230216132671 0.0032055715019124438 0 0.14216046477152491 0.0049125148476896544 0 0.15453230216132671 0.0032055715019124438 0 0.15849764294065671 -0.0060544572746906826 0 0.1620242678869008 0.02102957209859084 0 0.15871689523486121 0.010399441389301141 0 0.14216046477152491 0.0049125148476896544 0 0.1620242678869008 0.02102957209859084 0 0.14216046477152491 0.0049125148476896544 0 0.1432298655490542 0.02239521632663263 0 0.1620242678869008 0.02102957209859084 0 0.1432298655490542 0.02239521632663263 0 0.15032019737810451 0.03113296745297477 0 0.1432298655490542 0.02239521632663263 0 0.15032019737810451 0.03113296745297477 0 0.1366405524080008 0.032741533152345258 0 0.1432298655490542 0.02239521632663263 0 0.12659142849079691 0.028091664155532971 0 0.1366405524080008 0.032741533152345258 0 0.14216046477152491 0.0049125148476896544 0 0.1432298655490542 0.02239521632663263 0 0.12659142849079691 0.028091664155532971 0 0.14216046477152491 0.0049125148476896544 0 0.12659142849079691 0.028091664155532971 0 0.1323442420055404 0.014884056975098 0 0.14216046477152491 0.0049125148476896544 0 0.12659142849079691 0.028091664155532971 0 0.11882011836095251 0.0065886106746579649 0 0.12659142849079691 0.028091664155532971 0 0.1323442420055404 0.014884056975098 0 0.12659142849079691 0.028091664155532971 0 0.1366405524080008 0.032741533152345258 0 0.11882011836095251 0.0065886106746579649 0 0.1323442420055404 0.014884056975098 0 0.13735218555535891 0.001011181807127467 0 0.1323442420055404 0.014884056975098 0 0.13735218555535891 0.001011181807127467 0 0.14216046477152491 0.0049125148476896544 0 0.1323442420055404 0.014884056975098 0 0.13735218555535891 0.001011181807127467 0 0.14216046477152491 0.0049125148476896544 0 0.13735218555535891 0.001011181807127467 0 0.15962551614652079 0.053115759904931073 0 0.1452456698728295 0.044396077507560729 0 0.15045482833334159 0.067212260357143019 0 0.1452456698728295 0.044396077507560729 0 0.12683439495817461 0.052003073372435288 0 0.15045482833334159 0.067212260357143019 0 0.1636569447874848 0.036789081642687432 0 0.15032019737810451 0.03113296745297477 0 0.1452456698728295 0.044396077507560729 0 0.1636569447874848 0.036789081642687432 0 0.15962551614652079 0.053115759904931073 0 0.1452456698728295 0.044396077507560729 0 0.1636569447874848 0.036789081642687432 0 0.1452456698728295 0.044396077507560729 0 0.15032019737810451 0.03113296745297477 0 0.1452456698728295 0.044396077507560729 0 0.1366405524080008 0.032741533152345258 0 0.1452456698728295 0.044396077507560729 0 0.13015300311198849 0.040381385354086502 0 0.12683439495817461 0.052003073372435288 0 0.1452456698728295 0.044396077507560729 0 0.1366405524080008 0.032741533152345258 0 0.13015300311198849 0.040381385354086502 0 0.12659142849079691 0.028091664155532971 0 0.1366405524080008 0.032741533152345258 0 0.13015300311198849 0.040381385354086502 0 0.12683439495817461 0.052003073372435288 0 0.13134854049252651 0.064566646620811727 0 0.15045482833334159 0.067212260357143019 0 0.1452456698728295 0.044396077507560729 0 0.12683439495817461 0.052003073372435288 0 0.12683439495817461 0.052003073372435288 0 0.15045482833334159 0.067212260357143019 0 0.1213053233293625 0.063977455960140386 0 0.12683439495817461 0.052003073372435288 0 0.13134854049252651 0.064566646620811727 0 0.13134854049252651 0.064566646620811727 0 0.12679961534922851 0.075073796793526271 0 0.15045482833334159 0.067212260357143019 0 0.1213053233293625 0.063977455960140386 0 0.13134854049252651 0.064566646620811727 0 0.12679961534922851 0.075073796793526271 0 0.12679961534922851 0.075073796793526271 0 0.15045482833334159 0.067212260357143019 0 0.1492815716532653 0.085445809678383625 0 0.1185648575779607 0.095458187827811403 0 0.12679961534922851 0.075073796793526271 0 0.13332649773741079 0.089989738391902788 0 0.1492815716532653 0.085445809678383625 0 0.13332649773741079 0.089989738391902788 0 0.13865994636918871 0.10398115926788989 0 0.12679961534922851 0.075073796793526271 0 0.1492815716532653 0.085445809678383625 0 0.12679961534922851 0.075073796793526271 0 0.1492815716532653 0.085445809678383625 0 0.13332649773741079 0.089989738391902788 0 0.123281054128593 0.11724462113534739 0 0.1185648575779607 0.095458187827811403 0 0.13865994636918871 0.10398115926788989 0 0.1185648575779607 0.095458187827811403 0 0.13332649773741079 0.089989738391902788 0 0.13865994636918871 0.10398115926788989 0 0.123281054128593 0.11724462113534739 0 0.13865994636918871 0.10398115926788989 0 0.13947052033133081 0.1245003570974072 0 0.13947052033133081 0.1245003570974072 0 0.15026369300765779 0.1129544164764977 0 0.16718880021878149 0.12232812864365609 0 0.13947052033133081 0.1245003570974072 0 0.16718880021878149 0.12232812864365609 0 0.13865994636918871 0.10398115926788989 0 0.13947052033133081 0.1245003570974072 0 0.15026369300765779 0.1129544164764977 0 0.1492815716532653 0.085445809678383625 0 0.13865994636918871 0.10398115926788989 0 0.15573550511132991 0.1010080208970377 0 0.13865994636918871 0.10398115926788989 0 0.15026369300765779 0.1129544164764977 0 0.15573550511132991 0.1010080208970377 0 0.15573550511132991 0.1010080208970377 0 0.17176352795730221 0.095817822563241214 0 0.16718880021878149 0.12232812864365609 0 0.17176352795730221 0.095817822563241214 0 0.16718880021878149 0.12232812864365609 0 0.1492815716532653 0.085445809678383625 0 0.15573550511132991 0.1010080208970377 0 0.17176352795730221 0.095817822563241214 0 0.15026369300765779 0.1129544164764977 0 0.15573550511132991 0.1010080208970377 0 0.16718880021878149 0.12232812864365609 0 0.16718880021878149 0.12232812864365609 0 0.18422746814952201 0.1154148446289336 0 0.17176352795730221 0.095817822563241214 0 0.16718880021878149 0.12232812864365609 0 0.18422746814952201 0.1154148446289336 0 0.19370351113240411 0.1202502215829211 0 0.16718880021878149 0.12232812864365609 0 0.19370351113240411 0.1202502215829211 0 0.16718880021878149 0.12232812864365609 0 0.18422746814952201 0.1154148446289336 0 0.17176352795730221 0.095817822563241214 0 0.18422746814952201 0.1154148446289336 0 0.1860496622757298 0.1024087067025775 0 0.17176352795730221 0.095817822563241214 0 0.1860496622757298 0.1024087067025775 0 0.17954517331912459 0.085943521096986275 0 0.17176352795730221 0.095817822563241214 0 0.1860496622757298 0.1024087067025775 0 0.2016134769563831 0.087296750559026068 0 0.17954517331912459 0.085943521096986275 0 0.17506687063626211 0.076675125879817507 0 0.17176352795730221 0.095817822563241214 0 0.17407526170850959 0.082421447341849294 0 0.17176352795730221 0.095817822563241214 0 0.17954517331912459 0.085943521096986275 0 0.17407526170850959 0.082421447341849294 0 0.17954517331912459 0.085943521096986275 0 0.17407526170850959 0.082421447341849294 0 0.17506687063626211 0.076675125879817507 0 0.17407526170850959 0.082421447341849294 0 0.17506687063626211 0.076675125879817507 0 0.17954517331912459 0.085943521096986275 0 0.17407526170850959 0.082421447341849294 0 0.17847747081927551 0.05691087761465332 0 0.17506687063626211 0.076675125879817507 0 0.19220101611619109 0.069455466931817506 0 0.17847747081927551 0.05691087761465332 0 0.17506687063626211 0.076675125879817507 0 0.17847747081927551 0.05691087761465332 0 0.17506687063626211 0.076675125879817507 0 0.16641746421004469 0.065589342706300277 0 0.17407526170850959 0.082421447341849294 0 0.17506687063626211 0.076675125879817507 0 0.16846263511482451 0.074032689774956653 0 0.15045482833334159 0.067212260357143019 0 0.16846263511482451 0.074032689774956653 0 0.16641746421004469 0.065589342706300277 0 0.17506687063626211 0.076675125879817507 0 0.16846263511482451 0.074032689774956653 0 0.16641746421004469 0.065589342706300277 0 0.15045482833334159 0.067212260357143019 0 0.17407526170850959 0.082421447341849294 0 0.16846263511482451 0.074032689774956653 0 0.17506687063626211 0.076675125879817507 0 0.16846263511482451 0.074032689774956653 0 0.15045482833334159 0.067212260357143019 0 0.17407526170850959 0.082421447341849294 0 0.1492815716532653 0.085445809678383625 0 0.17176352795730221 0.095817822563241214 0 0.1492815716532653 0.085445809678383625 0 0.17176352795730221 0.095817822563241214 0 0.17407526170850959 0.082421447341849294 0 0.15045482833334159 0.067212260357143019 0 0.1492815716532653 0.085445809678383625 0 0.17407526170850959 0.082421447341849294 0 0.094789198081262169 0.47221984895451657 0 0.09870107108427445 0.5 0 0.1248616532684987 0.47476888169724352 0 0.09870107108427445 0.5 0 0.1248616532684987 0.47476888169724352 0 0.1287333349596296 0.50000000000000233 0 0.1248616532684987 0.47476888169724352 0 0.1154926134483955 0.45328817880533262 0 0.094789198081262169 0.47221984895451657 0 0.1248616532684987 0.47476888169724352 0 0.1154926134483955 0.45328817880533262 0 0.1248616532684987 0.47476888169724352 0 0.1205619018159948 0.44674810255646558 0 0.1248616532684987 0.47476888169724352 0 0.1154926134483955 0.45328817880533262 0 0.1205619018159948 0.44674810255646558 0 0.1154926134483955 0.45328817880533262 0 0.106123573628292 0.43180747591342172 0 0.1154926134483955 0.45328817880533262 0 0.1205619018159948 0.44674810255646558 0 0.106123573628292 0.43180747591342172 0 0.1154926134483955 0.45328817880533262 0 0.096722182691352548 0.44869154901932268 0 0.106123573628292 0.43180747591342172 0 0.094789198081262169 0.47221984895451657 0 0.1154926134483955 0.45328817880533262 0 0.096722182691352548 0.44869154901932268 0 0.094789198081262169 0.47221984895451657 0 0.077453222292990773 0.45016302493177879 0 0.067202034968243438 0.47028323083424428 0 0.094789198081262169 0.47221984895451657 0 0.096722182691352548 0.44869154901932268 0 0.077453222292990773 0.45016302493177879 0 0.096722182691352548 0.44869154901932268 0 0.077453222292990773 0.45016302493177879 0 0.085233479690329184 0.42595657570789891 0 0.077453222292990773 0.45016302493177879 0 0.085233479690329184 0.42595657570789891 0 0.077453222292990773 0.45016302493177879 0 0.055846149836862702 0.43889490050586683 0 0.065639666334966471 0.42409002317344818 0 0.077453222292990773 0.45016302493177879 0 0.067202034968243438 0.47028323083424428 0 0.051776939420019832 0.45519588853091181 0 0.094789198081262169 0.47221984895451657 0 0.067202034968243438 0.47028323083424428 0 0.068668807208919325 0.5 0 0.094789198081262169 0.47221984895451657 0 0.09870107108427445 0.5 0 0.068668807208919325 0.5 0 0.068668807208919325 0.5 0 0.043814234576468783 0.4752156274217324 0 0.038636543333564137 0.5 0 0.067202034968243438 0.47028323083424428 0 0.068668807208919325 0.5 0 0.043814234576468783 0.4752156274217324 0 0.038636543333564137 0.5 0 0.0095498935665802413 0.47810272379952351 0 0.0086042794582089632 0.5 0 0.043814234576468783 0.4752156274217324 0 0.038636543333564137 0.5 0 0.0095498935665802413 0.47810272379952351 0 0.043814234576468783 0.4752156274217324 0 0.0095498935665802413 0.47810272379952351 0 0.02936257191825143 0.45548825099001988 0 -0.0044763741368290672 0.43313315307665529 0 0.006403582431216831 0.45126676372832991 0 0.01131617767293759 0.43066417693356068 0 0.006403582431216831 0.45126676372832991 0 0.024585063983693121 0.43937755350337049 0 0.01131617767293759 0.43066417693356068 0 -0.0062093312902834459 0.46527566221073008 0 0.0095498935665802413 0.47810272379952351 0 0.006403582431216831 0.45126676372832991 0 0.0095498935665802413 0.47810272379952351 0 0.006403582431216831 0.45126676372832991 0 0.02936257191825143 0.45548825099001988 0 0.02936257191825143 0.45548825099001988 0 0.024585063983693121 0.43937755350337049 0 0.039439570502417587 0.44016889882154447 0 0.006403582431216831 0.45126676372832991 0 0.02936257191825143 0.45548825099001988 0 0.024585063983693121 0.43937755350337049 0 0.02936257191825143 0.45548825099001988 0 0.039439570502417587 0.44016889882154447 0 0.051776939420019832 0.45519588853091181 0 0.043814234576468783 0.4752156274217324 0 0.02936257191825143 0.45548825099001988 0 0.051776939420019832 0.45519588853091181 0 0.067202034968243438 0.47028323083424428 0 0.043814234576468783 0.4752156274217324 0 0.051776939420019832 0.45519588853091181 0 0.039439570502417587 0.44016889882154447 0 0.051776939420019832 0.45519588853091181 0 0.055846149836862702 0.43889490050586683 0 0.077453222292990773 0.45016302493177879 0 0.051776939420019832 0.45519588853091181 0 0.055846149836862702 0.43889490050586683 0 0.055846149836862702 0.43889490050586683 0 0.044352211855280779 0.42435697566478181 0 0.065639666334966471 0.42409002317344818 0 0.054179592762823331 0.4124556941646933 0 0.065774511826563423 0.40583773171119408 0 0.065639666334966471 0.42409002317344818 0 0.054179592762823331 0.4124556941646933 0 0.044352211855280779 0.42435697566478181 0 0.042551786202842029 0.40583695196884878 0 0.054179592762823331 0.4124556941646933 0 0.044352211855280779 0.42435697566478181 0 0.065639666334966471 0.42409002317344818 0 0.054179592762823331 0.4124556941646933 0 0.052579787594463898 0.40215678830519391 0 0.065774511826563423 0.40583773171119408 0 0.054179592762823331 0.4124556941646933 0 0.042551786202842029 0.40583695196884878 0 0.052579787594463898 0.40215678830519391 0 0.031615607723292562 0.41237007764590089 0 0.044352211855280779 0.42435697566478181 0 0.042551786202842029 0.40583695196884878 0 0.031615607723292562 0.41237007764590089 0 0.044352211855280779 0.42435697566478181 0 0.029348552931666359 0.42650056435783129 0 0.039439570502417587 0.44016889882154447 0 0.055846149836862702 0.43889490050586683 0 0.044352211855280779 0.42435697566478181 0 0.039439570502417587 0.44016889882154447 0 0.044352211855280779 0.42435697566478181 0 0.029348552931666359 0.42650056435783129 0 0.024585063983693121 0.43937755350337049 0 0.039439570502417587 0.44016889882154447 0 0.029348552931666359 0.42650056435783129 0 0.024585063983693121 0.43937755350337049 0 0.029348552931666359 0.42650056435783129 0 0.01131617767293759 0.43066417693356068 0 0.029348552931666359 0.42650056435783129 0 0.019479081626689841 0.41692126840220728 0 0.01131617767293759 0.43066417693356068 0 0.031615607723292562 0.41237007764590089 0 0.029348552931666359 0.42650056435783129 0 0.019479081626689841 0.41692126840220728 0 0.031615607723292562 0.41237007764590089 0 0.019479081626689841 0.41692126840220728 0 0.02210553341445062 0.40298972327242938 0 0.019479081626689841 0.41692126840220728 0 0.0046995574085186929 0.41194005205042061 0 0.02210553341445062 0.40298972327242938 0 0.019479081626689841 0.41692126840220728 0 0.0046995574085186929 0.41194005205042061 0 0.01131617767293759 0.43066417693356068 0 -0.0044763741368290672 0.43313315307665529 0 0.0046995574085186929 0.41194005205042061 0 0.01131617767293759 0.43066417693356068 0 -0.0068648610501423502 0.39382000907293813 0 0.0053185270157129726 0.37689571945341471 0 0.0079727676898529512 0.39395805239723503 0 0.0053185270157129726 0.37689571945341471 0 0.0079727676898529512 0.39395805239723503 0 0.017055050774382831 0.3783760363496293 0 0.0053185270157129726 0.37689571945341471 0 0.017055050774382831 0.3783760363496293 0 0.014905446519761849 0.37011919055753012 0 -0.0068648610501423502 0.39382000907293813 0 0.0046995574085186929 0.41194005205042061 0 0.0079727676898529512 0.39395805239723503 0 0.0046995574085186929 0.41194005205042061 0 0.0079727676898529512 0.39395805239723503 0 0.02210553341445062 0.40298972327242938 0 0.0079727676898529512 0.39395805239723503 0 0.02210553341445062 0.40298972327242938 0 0.02735486101880703 0.39232044610694311 0 0.031615607723292562 0.41237007764590089 0 0.02210553341445062 0.40298972327242938 0 0.03492587150599015 0.39714318271575322 0 0.02210553341445062 0.40298972327242938 0 0.02735486101880703 0.39232044610694311 0 0.03492587150599015 0.39714318271575322 0 0.0079727676898529512 0.39395805239723503 0 0.02735486101880703 0.39232044610694311 0 0.033420514628485373 0.38302977191180709 0 0.017055050774382831 0.3783760363496293 0 0.033420514628485373 0.38302977191180709 0 0.023779055828078009 0.37097747554075361 0 0.0079727676898529512 0.39395805239723503 0 0.017055050774382831 0.3783760363496293 0 0.033420514628485373 0.38302977191180709 0 0.0079727676898529512 0.39395805239723503 0 0.033420514628485373 0.38302977191180709 0 0.02735486101880703 0.39232044610694311 0 0.032859848824407727 0.38560668074253002 0 0.033420514628485373 0.38302977191180709 0 0.02735486101880703 0.39232044610694311 0 0.032859848824407727 0.38560668074253002 0 0.032844630049655758 0.3911952656019041 0 0.033420514628485373 0.38302977191180709 0 0.040531910439000007 0.38820627445006711 0 0.055078026168592691 0.37372917012189599 0 0.033420514628485373 0.38302977191180709 0 0.055078026168592691 0.37372917012189599 0 0.032859848824407727 0.38560668074253002 0 0.033420514628485373 0.38302977191180709 0 0.032859848824407727 0.38560668074253002 0 0.040531910439000007 0.38820627445006711 0 0.032844630049655758 0.3911952656019041 0 0.032859848824407727 0.38560668074253002 0 0.033420514628485373 0.38302977191180709 0 0.040531910439000007 0.38820627445006711 0 0.031615607723292562 0.41237007764590089 0 0.03492587150599015 0.39714318271575322 0 0.042551786202842029 0.40583695196884878 0 0.040531910439000007 0.38820627445006711 0 0.03492587150599015 0.39714318271575322 0 0.032844630049655758 0.3911952656019041 0 0.02735486101880703 0.39232044610694311 0 0.03492587150599015 0.39714318271575322 0 0.032844630049655758 0.3911952656019041 0 0.040531910439000007 0.38820627445006711 0 0.03492587150599015 0.39714318271575322 0 0.044409534997012647 0.39663533348309749 0 0.040531910439000007 0.38820627445006711 0 0.044409534997012647 0.39663533348309749 0 0.05145831924276717 0.38983346997562462 0 0.044409534997012647 0.39663533348309749 0 0.042551786202842029 0.40583695196884878 0 0.052579787594463898 0.40215678830519391 0 0.03492587150599015 0.39714318271575322 0 0.044409534997012647 0.39663533348309749 0 0.042551786202842029 0.40583695196884878 0 0.052579787594463898 0.40215678830519391 0 0.065929237187869999 0.38841376689227869 0 0.065774511826563423 0.40583773171119408 0 0.044409534997012647 0.39663533348309749 0 0.052579787594463898 0.40215678830519391 0 0.05145831924276717 0.38983346997562462 0 0.052579787594463898 0.40215678830519391 0 0.05145831924276717 0.38983346997562462 0 0.065929237187869999 0.38841376689227869 0 0.05145831924276717 0.38983346997562462 0 0.065929237187869999 0.38841376689227869 0 0.055078026168592691 0.37372917012189599 0 0.040531910439000007 0.38820627445006711 0 0.05145831924276717 0.38983346997562462 0 0.055078026168592691 0.37372917012189599 0 0.065929237187869999 0.38841376689227869 0 0.07065435961583541 0.37741521318853999 0 0.055078026168592691 0.37372917012189599 0 0.065929237187869999 0.38841376689227869 0 0.07065435961583541 0.37741521318853999 0 0.084874637398179506 0.3830893474080016 0 0.065929237187869999 0.38841376689227869 0 0.084874637398179506 0.3830893474080016 0 0.078183007061163587 0.39730645121706609 0 0.084874637398179506 0.3830893474080016 0 0.09301373708766289 0.40175012648401748 0 0.1017514530376761 0.37456476915266362 0 0.084874637398179506 0.3830893474080016 0 0.1017514530376761 0.37456476915266362 0 0.089894590955766338 0.37016501712229671 0 0.084874637398179506 0.3830893474080016 0 0.09301373708766289 0.40175012648401748 0 0.084874637398179506 0.3830893474080016 0 0.09301373708766289 0.40175012648401748 0 0.078183007061163587 0.39730645121706609 0 0.09301373708766289 0.40175012648401748 0 0.078183007061163587 0.39730645121706609 0 0.0779125114683729 0.4107996813321716 0 0.065929237187869999 0.38841376689227869 0 0.078183007061163587 0.39730645121706609 0 0.065774511826563423 0.40583773171119408 0 0.078183007061163587 0.39730645121706609 0 0.065774511826563423 0.40583773171119408 0 0.0779125114683729 0.4107996813321716 0 0.065774511826563423 0.40583773171119408 0 0.0779125114683729 0.4107996813321716 0 0.065639666334966471 0.42409002317344818 0 0.0779125114683729 0.4107996813321716 0 0.065639666334966471 0.42409002317344818 0 0.085233479690329184 0.42595657570789891 0 0.077453222292990773 0.45016302493177879 0 0.065639666334966471 0.42409002317344818 0 0.085233479690329184 0.42595657570789891 0 0.09301373708766289 0.40175012648401748 0 0.085233479690329184 0.42595657570789891 0 0.09301373708766289 0.40175012648401748 0 0.0779125114683729 0.4107996813321716 0 0.085233479690329184 0.42595657570789891 0 0.09301373708766289 0.40175012648401748 0 0.085233479690329184 0.42595657570789891 0 0.096641093798834857 0.4103746730739769 0 0.096641093798834857 0.4103746730739769 0 0.106123573628292 0.43180747591342172 0 0.096641093798834857 0.4103746730739769 0 0.1162621503634904 0.41872732341568758 0 0.11303311796937431 0.39768424579749467 0 0.096641093798834857 0.4103746730739769 0 0.106123573628292 0.43180747591342172 0 0.1162621503634904 0.41872732341568758 0 0.096641093798834857 0.4103746730739769 0 0.1162621503634904 0.41872732341568758 0 0.085233479690329184 0.42595657570789891 0 0.096641093798834857 0.4103746730739769 0 0.106123573628292 0.43180747591342172 0 0.096722182691352548 0.44869154901932268 0 0.085233479690329184 0.42595657570789891 0 0.106123573628292 0.43180747591342172 0 0.1205619018159948 0.44674810255646558 0 0.1162621503634904 0.41872732341568758 0 0.1205619018159948 0.44674810255646558 0 0.106123573628292 0.43180747591342172 0 0.1162621503634904 0.41872732341568758 0 0.1162621503634904 0.41872732341568758 0 0.11303311796937431 0.39768424579749467 0 0.11303311796937431 0.39768424579749467 0 0.1231373165426977 0.3806134049577457 0 0.1271742827044339 0.39597619803598749 0 0.1162621503634904 0.41872732341568758 0 0.11303311796937431 0.39768424579749467 0 0.1271742827044339 0.39597619803598749 0 0.11303311796937431 0.39768424579749467 0 0.1098040855752573 0.37664116817930182 0 0.11303311796937431 0.39768424579749467 0 0.1098040855752573 0.37664116817930182 0 0.1231373165426977 0.3806134049577457 0 0.09301373708766289 0.40175012648401748 0 0.10162794664532369 0.38287681265592 0 0.1017514530376761 0.37456476915266362 0 0.11303311796937431 0.39768424579749467 0 0.1098040855752573 0.37664116817930182 0 0.10162794664532369 0.38287681265592 0 0.09301373708766289 0.40175012648401748 0 0.1017514530376761 0.37456476915266362 0 0.09301373708766289 0.40175012648401748 0 0.096641093798834857 0.4103746730739769 0 0.10162794664532369 0.38287681265592 0 0.096641093798834857 0.4103746730739769 0 0.10162794664532369 0.38287681265592 0 0.096641093798834857 0.4103746730739769 0 0.11303311796937431 0.39768424579749467 0 0.10162794664532369 0.38287681265592 0 0.09301373708766289 0.40175012648401748 0 0.096641093798834857 0.4103746730739769 0 0.10657505318114149 0.3555980905611088 0 0.1040837309638282 0.33936254988137232 0 0.10657505318114149 0.3555980905611088 0 0.096269577202366938 0.34885221845001108 0 0.090674694454237537 0.35844253683721511 0 0.10657505318114149 0.3555980905611088 0 0.1081370103155585 0.34698533999968961 0 0.1040837309638282 0.33936254988137232 0 0.10657505318114149 0.3555980905611088 0 0.096269577202366938 0.34885221845001108 0 0.1040837309638282 0.33936254988137232 0 0.10657505318114149 0.3555980905611088 0 0.1081370103155585 0.34698533999968961 0 0.1081370103155585 0.34698533999968961 0 0.1105857944332822 0.35159063999376577 0 0.10657505318114149 0.3555980905611088 0 0.1081370103155585 0.34698533999968961 0 0.1105857944332822 0.35159063999376577 0 0.10657505318114149 0.3555980905611088 0 0.097223947907205094 0.36469260341832099 0 0.090674694454237537 0.35844253683721511 0 0.1098040855752573 0.37664116817930182 0 0.10657505318114149 0.3555980905611088 0 0.1098040855752573 0.37664116817930182 0 0.10162794664532369 0.38287681265592 0 0.10657505318114149 0.3555980905611088 0 0.10657505318114149 0.3555980905611088 0 0.097223947907205094 0.36469260341832099 0 0.1017514530376761 0.37456476915266362 0 0.10162794664532369 0.38287681265592 0 0.10657505318114149 0.3555980905611088 0 0.10162794664532369 0.38287681265592 0 0.10657505318114149 0.3555980905611088 0 0.1017514530376761 0.37456476915266362 0 0.097223947907205094 0.36469260341832099 0 0.1017514530376761 0.37456476915266362 0 0.089894590955766338 0.37016501712229671 0 0.1231373165426977 0.3806134049577457 0 0.1176766025370503 0.36283148293627721 0 0.13271547193899449 0.36524458735671972 0 0.1098040855752573 0.37664116817930182 0 0.10657505318114149 0.3555980905611088 0 0.1176766025370503 0.36283148293627721 0 0.1098040855752573 0.37664116817930182 0 0.1231373165426977 0.3806134049577457 0 0.1176766025370503 0.36283148293627721 0 0.1176766025370503 0.36283148293627721 0 0.1232256624926347 0.35239419723674059 0 0.13271547193899449 0.36524458735671972 0 0.10657505318114149 0.3555980905611088 0 0.1176766025370503 0.36283148293627721 0 0.1105857944332822 0.35159063999376577 0 0.1176766025370503 0.36283148293627721 0 0.1232256624926347 0.35239419723674059 0 0.1105857944332822 0.35159063999376577 0 0.1081370103155585 0.34698533999968961 0 0.1105857944332822 0.35159063999376577 0 0.1168368962248217 0.34531303274388031 0 0.1232256624926347 0.35239419723674059 0 0.1105857944332822 0.35159063999376577 0 0.1168368962248217 0.34531303274388031 0 0.1232256624926347 0.35239419723674059 0 0.1168368962248217 0.34531303274388031 0 0.1260676383484185 0.3399282146226113 0 0.1081370103155585 0.34698533999968961 0 0.1173014636805894 0.33730338313169689 0 0.1117137236550247 0.32726307032677399 0 0.1081370103155585 0.34698533999968961 0 0.1117137236550247 0.32726307032677399 0 0.1168368962248217 0.34531303274388031 0 0.1173014636805894 0.33730338313169689 0 0.1260676383484185 0.3399282146226113 0 0.1173014636805894 0.33730338313169689 0 0.12375204985912221 0.32702725796552912 0 0.1260676383484185 0.3399282146226113 0 0.1173014636805894 0.33730338313169689 0 0.12375204985912221 0.32702725796552912 0 0.1117137236550247 0.32726307032677399 0 0.1081370103155585 0.34698533999968961 0 0.1168368962248217 0.34531303274388031 0 0.1173014636805894 0.33730338313169689 0 0.1117137236550247 0.32726307032677399 0 0.11529043699448981 0.30754080065385803 0 0.1117137236550247 0.32726307032677399 0 0.1095765413243488 0.31862098055757049 0 0.11529043699448981 0.30754080065385803 0 0.1214195525311879 0.31440901896845502 0 0.1117137236550247 0.32726307032677399 0 0.11529043699448981 0.30754080065385803 0 0.1214195525311879 0.31440901896845502 0 0.12375204985912221 0.32702725796552912 0 0.12817088130983889 0.317450689473041 0 0.1214195525311879 0.31440901896845502 0 0.12375204985912221 0.32702725796552912 0 0.1117137236550247 0.32726307032677399 0 0.1040837309638282 0.33936254988137232 0 0.090103400857782137 0.31307047550514489 0 0.1040837309638282 0.33936254988137232 0 0.1025673515982234 0.32948055280164651 0 0.090103400857782137 0.31307047550514489 0 0.10278173829001019 0.3206216626476312 0 0.1025673515982234 0.32948055280164651 0 0.090103400857782137 0.31307047550514489 0 0.1095765413243488 0.31862098055757049 0 0.10278173829001019 0.3206216626476312 0 0.099947674014671917 0.31467323404701991 0 0.1095765413243488 0.31862098055757049 0 0.099947674014671917 0.31467323404701991 0 0.09732687347400408 0.30507295899279041 0 0.1117137236550247 0.32726307032677399 0 0.1095765413243488 0.31862098055757049 0 0.10278173829001019 0.3206216626476312 0 0.1117137236550247 0.32726307032677399 0 0.10278173829001019 0.3206216626476312 0 0.1025673515982234 0.32948055280164651 0 0.10278173829001019 0.3206216626476312 0 0.099947674014671917 0.31467323404701991 0 0.090103400857782137 0.31307047550514489 0 0.096269577202366938 0.34885221845001108 0 0.1040837309638282 0.33936254988137232 0 0.085896102217652828 0.34083244099607402 0 0.1081370103155585 0.34698533999968961 0 0.1117137236550247 0.32726307032677399 0 0.1040837309638282 0.33936254988137232 0 0.1081370103155585 0.34698533999968961 0 0.1040837309638282 0.33936254988137232 0 0.1117137236550247 0.32726307032677399 0 0.1040837309638282 0.33936254988137232 0 0.1025673515982234 0.32948055280164651 0 0.1040837309638282 0.33936254988137232 0 0.1025673515982234 0.32948055280164651 0 0.1040837309638282 0.33936254988137232 0 0.085896102217652828 0.34083244099607402 0 0.090103400857782137 0.31307047550514489 0 0.085896102217652828 0.34083244099607402 0 0.090103400857782137 0.31307047550514489 0 0.073944851781294785 0.32640562720437011 0 0.073944851781294785 0.32640562720437011 0 0.05926959110604698 0.32438382341666039 0 0.066452600317618793 0.30933520022964911 0 0.090103400857782137 0.31307047550514489 0 0.073944851781294785 0.32640562720437011 0 0.066452600317618793 0.30933520022964911 0 0.068002564407373206 0.3444061958743222 0 0.05926959110604698 0.32438382341666039 0 0.085896102217652828 0.34083244099607402 0 0.073944851781294785 0.32640562720437011 0 0.068002564407373206 0.3444061958743222 0 0.073944851781294785 0.32640562720437011 0 0.068002564407373206 0.3444061958743222 0 0.05926959110604698 0.32438382341666039 0 0.068002564407373206 0.3444061958743222 0 0.081709153938225559 0.35166937446406898 0 0.076735537708699481 0.364428568331984 0 0.068002564407373206 0.3444061958743222 0 0.076735537708699481 0.364428568331984 0 0.068002564407373206 0.3444061958743222 0 0.076735537708699481 0.364428568331984 0 0.058880509289504487 0.35752542115937253 0 0.085896102217652828 0.34083244099607402 0 0.068002564407373206 0.3444061958743222 0 0.081709153938225559 0.35166937446406898 0 0.081709153938225559 0.35166937446406898 0 0.090674694454237537 0.35844253683721511 0 0.076735537708699481 0.364428568331984 0 0.096269577202366938 0.34885221845001108 0 0.081709153938225559 0.35166937446406898 0 0.090674694454237537 0.35844253683721511 0 0.096269577202366938 0.34885221845001108 0 0.085896102217652828 0.34083244099607402 0 0.081709153938225559 0.35166937446406898 0 0.084874637398179506 0.3830893474080016 0 0.089894590955766338 0.37016501712229671 0 0.076735537708699481 0.364428568331984 0 0.084874637398179506 0.3830893474080016 0 0.076735537708699481 0.364428568331984 0 0.097223947907205094 0.36469260341832099 0 0.090674694454237537 0.35844253683721511 0 0.089894590955766338 0.37016501712229671 0 0.090674694454237537 0.35844253683721511 0 0.089894590955766338 0.37016501712229671 0 0.076735537708699481 0.364428568331984 0 0.090674694454237537 0.35844253683721511 0 0.076735537708699481 0.364428568331984 0 0.076735537708699481 0.364428568331984 0 0.055078026168592691 0.37372917012189599 0 0.058880509289504487 0.35752542115937253 0 0.07065435961583541 0.37741521318853999 0 0.084874637398179506 0.3830893474080016 0 0.076735537708699481 0.364428568331984 0 0.07065435961583541 0.37741521318853999 0 0.076735537708699481 0.364428568331984 0 0.055078026168592691 0.37372917012189599 0 0.076735537708699481 0.364428568331984 0 0.055078026168592691 0.37372917012189599 0 0.055078026168592691 0.37372917012189599 0 0.058880509289504487 0.35752542115937253 0 0.039125882353897343 0.35680699826087081 0 0.068002564407373206 0.3444061958743222 0 0.058880509289504487 0.35752542115937253 0 0.05148455776782021 0.34576385860545072 0 0.058880509289504487 0.35752542115937253 0 0.05148455776782021 0.34576385860545072 0 0.039125882353897343 0.35680699826087081 0 0.039125882353897343 0.35680699826087081 0 0.031548662582759998 0.36398682567210089 0 0.025752053585936779 0.33511492304397028 0 0.05148455776782021 0.34576385860545072 0 0.039125882353897343 0.35680699826087081 0 0.044831250079309708 0.3305842246099347 0 0.033420514628485373 0.38302977191180709 0 0.039125882353897343 0.35680699826087081 0 0.031548662582759998 0.36398682567210089 0 0.033420514628485373 0.38302977191180709 0 0.055078026168592691 0.37372917012189599 0 0.039125882353897343 0.35680699826087081 0 0.033420514628485373 0.38302977191180709 0 0.039125882353897343 0.35680699826087081 0 0.033420514628485373 0.38302977191180709 0 0.031548662582759998 0.36398682567210089 0 0.023779055828078009 0.37097747554075361 0 0.017055050774382831 0.3783760363496293 0 0.023779055828078009 0.37097747554075361 0 0.014905446519761849 0.37011919055753012 0 0.023779055828078009 0.37097747554075361 0 0.019349684376360511 0.36318206543595072 0 0.014905446519761849 0.37011919055753012 0 0.031548662582759998 0.36398682567210089 0 0.019349684376360511 0.36318206543595072 0 0.019690074755218789 0.35178644121934483 0 0.031548662582759998 0.36398682567210089 0 0.023779055828078009 0.37097747554075361 0 0.019349684376360511 0.36318206543595072 0 0.031548662582759998 0.36398682567210089 0 0.025752053585936779 0.33511492304397028 0 0.031548662582759998 0.36398682567210089 0 0.019690074755218789 0.35178644121934483 0 0.025752053585936779 0.33511492304397028 0 0.019349684376360511 0.36318206543595072 0 0.019690074755218789 0.35178644121934483 0 0.0119730942360182 0.35563939605115702 0 0.0119730942360182 0.35563939605115702 0 0.0038095970876644218 0.35606187191015221 0 0.0077169544749549623 0.36306791211952738 0 -0.0077202170519437719 0.34710906184019069 0 0.0082446038140756572 0.34376242611402219 0 0.0038095970876644218 0.35606187191015221 0 0.0119730942360182 0.35563939605115702 0 0.0082446038140756572 0.34376242611402219 0 0.0038095970876644218 0.35606187191015221 0 0.019690074755218789 0.35178644121934483 0 0.0119730942360182 0.35563939605115702 0 0.0082446038140756572 0.34376242611402219 0 -0.0045677851665312944 0.36532665559408428 0 0.0038095970876644218 0.35606187191015221 0 0.0077169544749549623 0.36306791211952738 0 -0.0087141207398781558 0.37710904293520409 0 0.0053185270157129726 0.37689571945341471 0 0.0077169544749549623 0.36306791211952738 0 0.0053185270157129726 0.37689571945341471 0 0.0077169544749549623 0.36306791211952738 0 0.014905446519761849 0.37011919055753012 0 0.019349684376360511 0.36318206543595072 0 0.0077169544749549623 0.36306791211952738 0 0.014905446519761849 0.37011919055753012 0 0.019349684376360511 0.36318206543595072 0 0.0119730942360182 0.35563939605115702 0 0.0077169544749549623 0.36306791211952738 0 -0.009249588209606344 0.30814111102660002 0 0.0094307060340404689 0.32376070079746733 0 0.01995544458911469 0.30624302041583928 0 -0.005758602284471958 0.33512988219008361 0 0.0082446038140756572 0.34376242611402219 0 0.0094307060340404689 0.32376070079746733 0 0.0082446038140756572 0.34376242611402219 0 0.0094307060340404689 0.32376070079746733 0 0.025752053585936779 0.33511492304397028 0 0.019690074755218789 0.35178644121934483 0 0.0082446038140756572 0.34376242611402219 0 0.025752053585936779 0.33511492304397028 0 0.025752053585936779 0.33511492304397028 0 0.01995544458911469 0.30624302041583928 0 0.025752053585936779 0.33511492304397028 0 0.034898059553693392 0.31581284699138767 0 0.01995544458911469 0.30624302041583928 0 0.0094307060340404689 0.32376070079746733 0 0.025752053585936779 0.33511492304397028 0 0.01995544458911469 0.30624302041583928 0 0.034898059553693392 0.31581284699138767 0 0.044831250079309708 0.3305842246099347 0 0.05053661780472133 0.30436145095899841 0 0.025752053585936779 0.33511492304397028 0 0.034898059553693392 0.31581284699138767 0 0.044831250079309708 0.3305842246099347 0 0.039125882353897343 0.35680699826087081 0 0.025752053585936779 0.33511492304397028 0 0.044831250079309708 0.3305842246099347 0 0.039125882353897343 0.35680699826087081 0 0.044831250079309708 0.3305842246099347 0 0.068002564407373206 0.3444061958743222 0 0.05148455776782021 0.34576385860545072 0 0.05926959110604698 0.32438382341666039 0 0.05148455776782021 0.34576385860545072 0 0.044831250079309708 0.3305842246099347 0 0.05926959110604698 0.32438382341666039 0 0.044831250079309708 0.3305842246099347 0 0.05053661780472133 0.30436145095899841 0 0.044831250079309708 0.3305842246099347 0 0.05926959110604698 0.32438382341666039 0 0.05053661780472133 0.30436145095899841 0 0.05926959110604698 0.32438382341666039 0 0.05053661780472133 0.30436145095899841 0 0.05926959110604698 0.32438382341666039 0 0.05053661780472133 0.30436145095899841 0 0.066452600317618793 0.30933520022964911 0 0.059204269303370749 0.30137448027593422 0 0.05053661780472133 0.30436145095899841 0 0.066452600317618793 0.30933520022964911 0 0.04765756321016474 0.29776054867416191 0 0.05053661780472133 0.30436145095899841 0 0.052561166870736087 0.29505630281458828 0 0.059204269303370749 0.30137448027593422 0 0.05053661780472133 0.30436145095899841 0 0.052561166870736087 0.29505630281458828 0 0.05053661780472133 0.30436145095899841 0 0.052561166870736087 0.29505630281458828 0 0.04765756321016474 0.29776054867416191 0 0.05053661780472133 0.30436145095899841 0 0.052561166870736087 0.29505630281458828 0 0.036977033779240318 0.28312664447104818 0 0.062988366650143207 0.29302398426469728 0 0.036977033779240318 0.28312664447104818 0 0.048149862160842181 0.27985089866820428 0 0.062988366650143207 0.29302398426469728 0 0.036977033779240318 0.28312664447104818 0 0.062988366650143207 0.29302398426469728 0 0.048149862160842181 0.27985089866820428 0 0.054778979573680928 0.27715841955607551 0 0.062988366650143207 0.29302398426469728 0 0.059204269303370749 0.30137448027593422 0 0.052561166870736087 0.29505630281458828 0 0.062988366650143207 0.29302398426469728 0 0.04765756321016474 0.29776054867416191 0 0.036186098738389023 0.29603891009636157 0 0.036977033779240318 0.28312664447104818 0 0.04765756321016474 0.29776054867416191 0 0.052561166870736087 0.29505630281458828 0 0.036977033779240318 0.28312664447104818 0 0.036186098738389023 0.29603891009636157 0 0.036977033779240318 0.28312664447104818 0 0.027757552790527541 0.29644954410470781 0 0.034898059553693392 0.31581284699138767 0 0.05053661780472133 0.30436145095899841 0 0.039754971674175903 0.30430037111620312 0 0.04765756321016474 0.29776054867416191 0 0.05053661780472133 0.30436145095899841 0 0.039754971674175903 0.30430037111620312 0 0.04765756321016474 0.29776054867416191 0 0.036186098738389023 0.29603891009636157 0 0.039754971674175903 0.30430037111620312 0 0.036186098738389023 0.29603891009636157 0 0.039754971674175903 0.30430037111620312 0 0.028740536311392211 0.30567206060121932 0 0.034898059553693392 0.31581284699138767 0 0.039754971674175903 0.30430037111620312 0 0.028740536311392211 0.30567206060121932 0 0.034898059553693392 0.31581284699138767 0 0.028740536311392211 0.30567206060121932 0 0.01995544458911469 0.30624302041583928 0 0.028740536311392211 0.30567206060121932 0 0.01995544458911469 0.30624302041583928 0 0.01995544458911469 0.30624302041583928 0 0.027757552790527541 0.29644954410470781 0 0.016928650534501429 0.29116708493907051 0 0.01995544458911469 0.30624302041583928 0 0.016928650534501429 0.29116708493907051 0 0.036186098738389023 0.29603891009636157 0 0.028740536311392211 0.30567206060121932 0 0.027757552790527541 0.29644954410470781 0 0.028740536311392211 0.30567206060121932 0 0.01995544458911469 0.30624302041583928 0 0.027757552790527541 0.29644954410470781 0 0.036977033779240318 0.28312664447104818 0 0.016928650534501429 0.29116708493907051 0 0.013901856479889301 0.2760911494623014 0 0.036977033779240318 0.28312664447104818 0 0.027757552790527541 0.29644954410470781 0 0.016928650534501429 0.29116708493907051 0 0.016928650534501429 0.29116708493907051 0 0.0075090435902615098 0.27971283806045072 0 0.013901856479889301 0.2760911494623014 0 0.016928650534501429 0.29116708493907051 0 0.013901856479889301 0.2760911494623014 0 0.016928650534501429 0.29116708493907051 0 0.002380999114604244 0.28599596302517022 0 0.0075090435902615098 0.27971283806045072 0 0.016928650534501429 0.29116708493907051 0 0.002380999114604244 0.28599596302517022 0 0.0038021096493471361 0.29689124930627131 0 0.01995544458911469 0.30624302041583928 0 0.016928650534501429 0.29116708493907051 0 0.0038021096493471361 0.29689124930627131 0 -0.009249588209606344 0.30814111102660002 0 0.01995544458911469 0.30624302041583928 0 -0.009249588209606344 0.30814111102660002 0 0.01995544458911469 0.30624302041583928 0 0.0038021096493471361 0.29689124930627131 0 0.012944211518790589 0.24639919126045251 0 0.001894876929373096 0.24743045501984201 0 0.027350481215018482 0.26092432701142793 0 0.001894876929373096 0.24743045501984201 0 0.01235577794179212 0.26160751525750708 0 0.027350481215018482 0.26092432701142793 0 0.001894876929373096 0.24743045501984201 0 0.027350481215018482 0.26092432701142793 0 0.01235577794179212 0.26160751525750708 0 0.0066431973405819862 0.26423936680728111 0 0.01332705073189009 0.26743114199411 0 0.001894876929373096 0.24743045501984201 0 0.01235577794179212 0.26160751525750708 0 0.0027594708259384838 0.25829047161104352 0 0.01235577794179212 0.26160751525750708 0 0.0027594708259384838 0.25829047161104352 0 0.0066431973405819862 0.26423936680728111 0 -0.00067809962666212902 0.26216505597133072 0 0.0027594708259384838 0.25829047161104352 0 0.0066431973405819862 0.26423936680728111 0 -0.00067809962666212902 0.26216505597133072 0 0.0066431973405819862 0.26423936680728111 0 0.010965700908337589 0.27322930467739909 0 -0.001267499687089951 0.2776013217203892 0 0.0075090435902615098 0.27971283806045072 0 0.010965700908337589 0.27322930467739909 0 -0.001267499687089951 0.2776013217203892 0 0.002380999114604244 0.28599596302517022 0 0.0075090435902615098 0.27971283806045072 0 0.0075090435902615098 0.27971283806045072 0 0.013901856479889301 0.2760911494623014 0 0.010965700908337589 0.27322930467739909 0 0.010965700908337589 0.27322930467739909 0 0.01332705073189009 0.26743114199411 0 0.022419763759722669 0.26962443384228668 0 0.0066431973405819862 0.26423936680728111 0 0.010965700908337589 0.27322930467739909 0 0.01332705073189009 0.26743114199411 0 0.036977033779240318 0.28312664447104818 0 0.010965700908337589 0.27322930467739909 0 0.022419763759722669 0.26962443384228668 0 0.01235577794179212 0.26160751525750708 0 0.01332705073189009 0.26743114199411 0 0.022419763759722669 0.26962443384228668 0 0.036977033779240318 0.28312664447104818 0 0.013901856479889301 0.2760911494623014 0 0.010965700908337589 0.27322930467739909 0 0.036977033779240318 0.28312664447104818 0 0.010965700908337589 0.27322930467739909 0 0.036977033779240318 0.28312664447104818 0 0.022419763759722669 0.26962443384228668 0 0.032397819765571212 0.27218151163944088 0 0.022419763759722669 0.26962443384228668 0 0.027350481215018482 0.26092432701142793 0 0.032397819765571212 0.27218151163944088 0 0.018629400856135309 0.24429501886194191 0 0.012944211518790589 0.24639919126045251 0 0.027350481215018482 0.26092432701142793 0 0.018629400856135309 0.24429501886194191 0 0.027350481215018482 0.26092432701142793 0 0.02692674034290404 0.25134916217479408 0 0.01235577794179212 0.26160751525750708 0 0.022419763759722669 0.26962443384228668 0 0.027350481215018482 0.26092432701142793 0 0.027350481215018482 0.26092432701142793 0 0.02692674034290404 0.25134916217479408 0 0.036501911092354018 0.25177276941539839 0 0.027350481215018482 0.26092432701142793 0 0.036501911092354018 0.25177276941539839 0 0.052806085500663583 0.27441819900301412 0 0.036501911092354018 0.25177276941539839 0 0.052806085500663583 0.27441819900301412 0 0.027350481215018482 0.26092432701142793 0 0.039536256484267153 0.27410031615862712 0 0.052806085500663583 0.27441819900301412 0 0.027350481215018482 0.26092432701142793 0 0.052806085500663583 0.27441819900301412 0 0.036977033779240318 0.28312664447104818 0 0.032397819765571212 0.27218151163944088 0 0.039536256484267153 0.27410031615862712 0 0.027350481215018482 0.26092432701142793 0 0.032397819765571212 0.27218151163944088 0 0.039536256484267153 0.27410031615862712 0 0.039536256484267153 0.27410031615862712 0 0.048149862160842181 0.27985089866820428 0 0.052806085500663583 0.27441819900301412 0 0.036977033779240318 0.28312664447104818 0 0.039536256484267153 0.27410031615862712 0 0.048149862160842181 0.27985089866820428 0 0.052806085500663583 0.27441819900301412 0 0.051790667069154861 0.2547103276228454 0 0.069466372585565969 0.27425949764399721 0 0.052806085500663583 0.27441819900301412 0 0.054778979573680928 0.27715841955607551 0 0.076123070751733898 0.28677840112891878 0 0.048149862160842181 0.27985089866820428 0 0.052806085500663583 0.27441819900301412 0 0.054778979573680928 0.27715841955607551 0 0.052806085500663583 0.27441819900301412 0 0.054778979573680928 0.27715841955607551 0 0.051790667069154861 0.2547103276228454 0 0.069466372585565969 0.27425949764399721 0 0.036501911092354018 0.25177276941539839 0 0.052806085500663583 0.27441819900301412 0 0.051790667069154861 0.2547103276228454 0 0.051790667069154861 0.2547103276228454 0 0.062472563593505302 0.26110660749064829 0 0.069466372585565969 0.27425949764399721 0 0.051790667069154861 0.2547103276228454 0 0.062472563593505302 0.26110660749064829 0 0.063392491700480919 0.2510828642249095 0 0.07090317009537217 0.25886987532900169 0 0.089645379702363526 0.25980927980688501 0 0.066829182329119829 0.26693814307945207 0 0.063392491700480919 0.2510828642249095 0 0.07090317009537217 0.25886987532900169 0 0.074261774750864804 0.25289133929391111 0 0.062472563593505302 0.26110660749064829 0 0.063392491700480919 0.2510828642249095 0 0.07090317009537217 0.25886987532900169 0 0.062472563593505302 0.26110660749064829 0 0.07090317009537217 0.25886987532900169 0 0.066829182329119829 0.26693814307945207 0 0.07090317009537217 0.25886987532900169 0 0.074261774750864804 0.25289133929391111 0 0.089645379702363526 0.25980927980688501 0 0.072073934872957782 0.23900016577853919 0 0.074261774750864804 0.25289133929391111 0 0.089645379702363526 0.25980927980688501 0 0.089645379702363526 0.25980927980688501 0 0.066829182329119829 0.26693814307945207 0 0.089645379702363526 0.25980927980688501 0 0.084738505220855201 0.27427167124983992 0 0.066829182329119829 0.26693814307945207 0 0.084738505220855201 0.27427167124983992 0 0.069466372585565969 0.27425949764399721 0 0.085077205623658711 0.29152493742801078 0 0.084738505220855201 0.27427167124983992 0 0.095910340366493346 0.28464594086445177 0 0.099818528257267281 0.27185690653089678 0 0.089645379702363526 0.25980927980688501 0 0.084738505220855201 0.27427167124983992 0 0.099818528257267281 0.27185690653089678 0 0.084738505220855201 0.27427167124983992 0 0.066829182329119829 0.26693814307945207 0 0.069466372585565969 0.27425949764399721 0 0.052806085500663583 0.27441819900301412 0 0.069466372585565969 0.27425949764399721 0 0.076123070751733898 0.28677840112891878 0 0.052806085500663583 0.27441819900301412 0 0.076123070751733898 0.28677840112891878 0 0.069466372585565969 0.27425949764399721 0 0.076123070751733898 0.28677840112891878 0 0.062472563593505302 0.26110660749064829 0 0.069466372585565969 0.27425949764399721 0 0.062472563593505302 0.26110660749064829 0 0.066829182329119829 0.26693814307945207 0 0.069466372585565969 0.27425949764399721 0 0.069466372585565969 0.27425949764399721 0 0.085077205623658711 0.29152493742801078 0 0.069466372585565969 0.27425949764399721 0 0.076123070751733898 0.28677840112891878 0 0.085077205623658711 0.29152493742801078 0 0.062988366650143207 0.29302398426469728 0 0.076123070751733898 0.28677840112891878 0 0.066452600317618793 0.30933520022964911 0 0.054778979573680928 0.27715841955607551 0 0.062988366650143207 0.29302398426469728 0 0.076123070751733898 0.28677840112891878 0 0.090103400857782137 0.31307047550514489 0 0.076123070751733898 0.28677840112891878 0 0.066452600317618793 0.30933520022964911 0 0.059204269303370749 0.30137448027593422 0 0.062988366650143207 0.29302398426469728 0 0.066452600317618793 0.30933520022964911 0 0.090103400857782137 0.31307047550514489 0 0.076123070751733898 0.28677840112891878 0 0.085077205623658711 0.29152493742801078 0 0.090103400857782137 0.31307047550514489 0 0.076123070751733898 0.28677840112891878 0 0.090103400857782137 0.31307047550514489 0 0.085077205623658711 0.29152493742801078 0 0.09732687347400408 0.30507295899279041 0 0.085077205623658711 0.29152493742801078 0 0.09732687347400408 0.30507295899279041 0 0.084738505220855201 0.27427167124983992 0 0.085077205623658711 0.29152493742801078 0 0.095910340366493346 0.28464594086445177 0 0.076123070751733898 0.28677840112891878 0 0.085077205623658711 0.29152493742801078 0 0.085077205623658711 0.29152493742801078 0 0.095910340366493346 0.28464594086445177 0 0.10018382130907411 0.29953286904093468 0 0.085077205623658711 0.29152493742801078 0 0.10018382130907411 0.29953286904093468 0 0.095910340366493346 0.28464594086445177 0 0.10809736708577181 0.28553666446189058 0 0.10018382130907411 0.29953286904093468 0 0.10809736708577181 0.28553666446189058 0 0.10018382130907411 0.29953286904093468 0 0.10959494141679089 0.29761357018739809 0 0.099947674014671917 0.31467323404701991 0 0.090103400857782137 0.31307047550514489 0 0.09732687347400408 0.30507295899279041 0 0.085077205623658711 0.29152493742801078 0 0.09732687347400408 0.30507295899279041 0 0.10018382130907411 0.29953286904093468 0 0.09732687347400408 0.30507295899279041 0 0.10018382130907411 0.29953286904093468 0 0.1055944182754792 0.3076919023112884 0 0.10018382130907411 0.29953286904093468 0 0.11529043699448981 0.30754080065385803 0 0.10959494141679089 0.29761357018739809 0 0.10018382130907411 0.29953286904093468 0 0.11529043699448981 0.30754080065385803 0 0.1095765413243488 0.31862098055757049 0 0.09732687347400408 0.30507295899279041 0 0.1055944182754792 0.3076919023112884 0 0.10018382130907411 0.29953286904093468 0 0.1055944182754792 0.3076919023112884 0 0.11529043699448981 0.30754080065385803 0 0.1095765413243488 0.31862098055757049 0 0.09732687347400408 0.30507295899279041 0 0.1095765413243488 0.31862098055757049 0 0.1055944182754792 0.3076919023112884 0 0.11529043699448981 0.30754080065385803 0 0.11529043699448981 0.30754080065385803 0 0.11637637905870279 0.30155283343175482 0 0.11810871752106521 0.30621928700195911 0 0.11529043699448981 0.30754080065385803 0 0.10959494141679089 0.29761357018739809 0 0.11637637905870279 0.30155283343175482 0 0.10959494141679089 0.29761357018739809 0 0.11637637905870279 0.30155283343175482 0 0.1164892219926046 0.29243334627748818 0 0.11529043699448981 0.30754080065385803 0 0.11637637905870279 0.30155283343175482 0 0.11637637905870279 0.30155283343175482 0 0.1222906650571363 0.2985709440566281 0 0.1164892219926046 0.29243334627748818 0 0.1222906650571363 0.2985709440566281 0 0.1206025954822835 0.30378795350269022 0 0.1243783730770044 0.30485679470236721 0 0.11637637905870279 0.30155283343175482 0 0.1222906650571363 0.2985709440566281 0 0.1206025954822835 0.30378795350269022 0 0.11637637905870279 0.30155283343175482 0 0.1206025954822835 0.30378795350269022 0 0.11810871752106521 0.30621928700195911 0 0.1206025954822835 0.30378795350269022 0 0.11810871752106521 0.30621928700195911 0 0.1213521300308707 0.30775440284793348 0 0.11529043699448981 0.30754080065385803 0 0.11810871752106521 0.30621928700195911 0 0.11930841490252821 0.30912172642276631 0 0.11810871752106521 0.30621928700195911 0 0.1213521300308707 0.30775440284793348 0 0.11930841490252821 0.30912172642276631 0 0.1243783730770044 0.30485679470236721 0 0.1213521300308707 0.30775440284793348 0 0.1244342991148414 0.30898461385241399 0 0.1206025954822835 0.30378795350269022 0 0.1243783730770044 0.30485679470236721 0 0.1213521300308707 0.30775440284793348 0 0.1214195525311879 0.31440901896845502 0 0.1244342991148414 0.30898461385241399 0 0.12900107104525951 0.30968741412501871 0 0.1214195525311879 0.31440901896845502 0 0.1213521300308707 0.30775440284793348 0 0.1244342991148414 0.30898461385241399 0 0.1214195525311879 0.31440901896845502 0 0.11529043699448981 0.30754080065385803 0 0.11930841490252821 0.30912172642276631 0 0.1214195525311879 0.31440901896845502 0 0.1213521300308707 0.30775440284793348 0 0.11930841490252821 0.30912172642276631 0 0.10809736708577181 0.28553666446189058 0 0.1164892219926046 0.29243334627748818 0 0.1210835213650209 0.28058702695229848 0 0.10809736708577181 0.28553666446189058 0 0.10959494141679089 0.29761357018739809 0 0.1164892219926046 0.29243334627748818 0 0.1222906650571363 0.2985709440566281 0 0.1164892219926046 0.29243334627748818 0 0.12596292383497329 0.28976449579057961 0 0.1164892219926046 0.29243334627748818 0 0.1210835213650209 0.28058702695229848 0 0.12596292383497329 0.28976449579057961 0 0.10809736708577181 0.28553666446189058 0 0.1210835213650209 0.28058702695229848 0 0.1147979612748997 0.2707881575742877 0 0.1210835213650209 0.28058702695229848 0 0.1147979612748997 0.2707881575742877 0 0.12791172371537049 0.26609555254785411 0 0.1147979612748997 0.2707881575742877 0 0.116065923487036 0.25155424759680489 0 0.099818528257267281 0.27185690653089678 0 0.1147979612748997 0.2707881575742877 0 0.116065923487036 0.25155424759680489 0 0.12791172371537049 0.26609555254785411 0 0.089645379702363526 0.25980927980688501 0 0.116065923487036 0.25155424759680489 0 0.089645379702363526 0.25980927980688501 0 0.116065923487036 0.25155424759680489 0 0.099818528257267281 0.27185690653089678 0 0.089645379702363526 0.25980927980688501 0 0.099818528257267281 0.27185690653089678 0 0.095910340366493346 0.28464594086445177 0 0.10809736708577181 0.28553666446189058 0 0.099818528257267281 0.27185690653089678 0 0.10809736708577181 0.28553666446189058 0 0.1147979612748997 0.2707881575742877 0 0.099818528257267281 0.27185690653089678 0 0.14627836463393121 0.26809473379089088 0 0.14256315404166739 0.2804585798755338 0 0.1332419302865058 0.27890394506169119 0 0.14627836463393121 0.26809473379089088 0 0.14256315404166739 0.2804585798755338 0 0.15383705453569649 0.27951082009548711 0 0.14627836463393121 0.26809473379089088 0 0.15383705453569649 0.27951082009548711 0 0.1609818760820641 0.2708255403471686 0 0.14248646727170791 0.24329921538672239 0 0.14627836463393121 0.26809473379089088 0 0.1631161995596529 0.25657386530356069 0 0.14248646727170791 0.24329921538672239 0 0.116065923487036 0.25155424759680489 0 0.12791172371537049 0.26609555254785411 0 0.14248646727170791 0.24329921538672239 0 0.14627836463393121 0.26809473379089088 0 0.12791172371537049 0.26609555254785411 0 0.14627836463393121 0.26809473379089088 0 0.12791172371537049 0.26609555254785411 0 0.1332419302865058 0.27890394506169119 0 0.1210835213650209 0.28058702695229848 0 0.12791172371537049 0.26609555254785411 0 0.1332419302865058 0.27890394506169119 0 0.1332419302865058 0.27890394506169119 0 0.12596292383497329 0.28976449579057961 0 0.13463915166403909 0.29011289163129678 0 0.1210835213650209 0.28058702695229848 0 0.1332419302865058 0.27890394506169119 0 0.12596292383497329 0.28976449579057961 0 0.1222906650571363 0.2985709440566281 0 0.12596292383497329 0.28976449579057961 0 0.12923992476061211 0.29615108028493942 0 0.12596292383497329 0.28976449579057961 0 0.12923992476061211 0.29615108028493942 0 0.13463915166403909 0.29011289163129678 0 0.13463915166403909 0.29011289163129678 0 0.13544399911061031 0.29845687749894129 0 0.1416447250157222 0.29544082675589128 0 0.12923992476061211 0.29615108028493942 0 0.13463915166403909 0.29011289163129678 0 0.13544399911061031 0.29845687749894129 0 0.14256315404166739 0.2804585798755338 0 0.1332419302865058 0.27890394506169119 0 0.13463915166403909 0.29011289163129678 0 0.1243783730770044 0.30485679470236721 0 0.1244342991148414 0.30898461385241399 0 0.12900107104525951 0.30968741412501871 0 0.1243783730770044 0.30485679470236721 0 0.12900107104525951 0.30968741412501871 0 0.1290658347258283 0.30205966601357243 0 0.12900107104525951 0.30968741412501871 0 0.1290658347258283 0.30205966601357243 0 0.1340409753043473 0.30463488541353972 0 0.1222906650571363 0.2985709440566281 0 0.1243783730770044 0.30485679470236721 0 0.1290658347258283 0.30205966601357243 0 0.1222906650571363 0.2985709440566281 0 0.12923992476061211 0.29615108028493942 0 0.1290658347258283 0.30205966601357243 0 0.12923992476061211 0.29615108028493942 0 0.1290658347258283 0.30205966601357243 0 0.13544399911061031 0.29845687749894129 0 0.13544399911061031 0.29845687749894129 0 0.14170706289926879 0.30357921339911909 0 0.1416447250157222 0.29544082675589128 0 0.13544399911061031 0.29845687749894129 0 0.1340409753043473 0.30463488541353972 0 0.14170706289926879 0.30357921339911909 0 0.1290658347258283 0.30205966601357243 0 0.13544399911061031 0.29845687749894129 0 0.1340409753043473 0.30463488541353972 0 0.13598458437900529 0.30983158877234418 0 0.14130712994747449 0.31140798331507108 0 0.14170706289926879 0.30357921339911909 0 0.12900107104525951 0.30968741412501871 0 0.1340409753043473 0.30463488541353972 0 0.13598458437900529 0.30983158877234418 0 0.1340409753043473 0.30463488541353972 0 0.13598458437900529 0.30983158877234418 0 0.14170706289926879 0.30357921339911909 0 0.13598458437900529 0.30983158877234418 0 0.14130712994747449 0.31140798331507108 0 0.13528824775885559 0.3155805734405937 0 0.12900107104525951 0.30968741412501871 0 0.13598458437900529 0.30983158877234418 0 0.13528824775885559 0.3155805734405937 0 0.1483486037307668 0.31106151759990119 0 0.14130712994747449 0.31140798331507108 0 0.14170706289926879 0.30357921339911909 0 0.1483486037307668 0.31106151759990119 0 0.14170706289926879 0.30357921339911909 0 0.1513591925520972 0.30423422291399321 0 0.14170706289926879 0.30357921339911909 0 0.14924189349128261 0.29698436464102829 0 0.1513591925520972 0.30423422291399321 0 0.14170706289926879 0.30357921339911909 0 0.14924189349128261 0.29698436464102829 0 0.1416447250157222 0.29544082675589128 0 0.1513591925520972 0.30423422291399321 0 0.15847128754916129 0.30901971199088751 0 0.1567398971697517 0.30020769771567818 0 0.14924189349128261 0.29698436464102829 0 0.1513591925520972 0.30423422291399321 0 0.1567398971697517 0.30020769771567818 0 0.1483486037307668 0.31106151759990119 0 0.1513591925520972 0.30423422291399321 0 0.15847128754916129 0.30901971199088751 0 0.1483486037307668 0.31106151759990119 0 0.15847128754916129 0.30901971199088751 0 0.1531779528472626 0.31690967251270458 0 0.14256315404166739 0.2804585798755338 0 0.15383705453569649 0.27951082009548711 0 0.14728728951424691 0.28871625735014939 0 0.14256315404166739 0.2804585798755338 0 0.13463915166403909 0.29011289163129678 0 0.14728728951424691 0.28871625735014939 0 0.14924189349128261 0.29698436464102829 0 0.14728728951424691 0.28871625735014939 0 0.1416447250157222 0.29544082675589128 0 0.13463915166403909 0.29011289163129678 0 0.14728728951424691 0.28871625735014939 0 0.1416447250157222 0.29544082675589128 0 0.14924189349128261 0.29698436464102829 0 0.1576814993112734 0.29111844862325259 0 0.1567398971697517 0.30020769771567818 0 0.14924189349128261 0.29698436464102829 0 0.14728728951424691 0.28871625735014939 0 0.1576814993112734 0.29111844862325259 0 0.15383705453569649 0.27951082009548711 0 0.14728728951424691 0.28871625735014939 0 0.1576814993112734 0.29111844862325259 0 0.15383705453569649 0.27951082009548711 0 0.1576814993112734 0.29111844862325259 0 0.16532030222413041 0.28061774918364429 0 0.1576814993112734 0.29111844862325259 0 0.1689979645595176 0.28949488405725932 0 0.16532030222413041 0.28061774918364429 0 0.1576814993112734 0.29111844862325259 0 0.1689979645595176 0.28949488405725932 0 0.16694561294494401 0.29968174040922901 0 0.1689979645595176 0.28949488405725932 0 0.16694561294494401 0.29968174040922901 0 0.17866142019044989 0.29199773726540068 0 0.1689979645595176 0.28949488405725932 0 0.17498255083596301 0.28300150235233201 0 0.16532030222413041 0.28061774918364429 0 0.1576814993112734 0.29111844862325259 0 0.1567398971697517 0.30020769771567818 0 0.16694561294494401 0.29968174040922901 0 0.15847128754916129 0.30901971199088751 0 0.1567398971697517 0.30020769771567818 0 0.16694561294494401 0.29968174040922901 0 0.16694561294494401 0.29968174040922901 0 0.17666858027807311 0.3015349886251833 0 0.1707678241303611 0.31259989648156872 0 0.15847128754916129 0.30901971199088751 0 0.16694561294494401 0.29968174040922901 0 0.1707678241303611 0.31259989648156872 0 0.17666858027807311 0.3015349886251833 0 0.18371952992762389 0.30785332357736089 0 0.1707678241303611 0.31259989648156872 0 0.16694561294494401 0.29968174040922901 0 0.17666858027807311 0.3015349886251833 0 0.17866142019044989 0.29199773726540068 0 0.17666858027807311 0.3015349886251833 0 0.18371952992762389 0.30785332357736089 0 0.1898902111984884 0.29891268329407239 0 0.18371952992762389 0.30785332357736089 0 0.1898902111984884 0.29891268329407239 0 0.17666858027807311 0.3015349886251833 0 0.17866142019044989 0.29199773726540068 0 0.1898902111984884 0.29891268329407239 0 0.17498255083596301 0.28300150235233201 0 0.17866142019044989 0.29199773726540068 0 0.1849298445554361 0.28099903695767547 0 0.1689979645595176 0.28949488405725932 0 0.17498255083596301 0.28300150235233201 0 0.17866142019044989 0.29199773726540068 0 0.17866142019044989 0.29199773726540068 0 0.18677859260729601 0.28760164196875848 0 0.1898902111984884 0.29891268329407239 0 0.17866142019044989 0.29199773726540068 0 0.18677859260729601 0.28760164196875848 0 0.1849298445554361 0.28099903695767547 0 0.1849298445554361 0.28099903695767547 0 0.17528279401001801 0.2714166079934146 0 0.19094745617081291 0.27038549871767581 0 0.17528279401001801 0.2714166079934146 0 0.18564289691528729 0.25868749876629671 0 0.19094745617081291 0.27038549871767581 0 0.17498255083596301 0.28300150235233201 0 0.1849298445554361 0.28099903695767547 0 0.17528279401001801 0.2714166079934146 0 0.17528279401001801 0.2714166079934146 0 0.16532030222413041 0.28061774918364429 0 0.1609818760820641 0.2708255403471686 0 0.17498255083596301 0.28300150235233201 0 0.17528279401001801 0.2714166079934146 0 0.16532030222413041 0.28061774918364429 0 0.17528279401001801 0.2714166079934146 0 0.1609818760820641 0.2708255403471686 0 0.1631161995596529 0.25657386530356069 0 0.15383705453569649 0.27951082009548711 0 0.16532030222413041 0.28061774918364429 0 0.1609818760820641 0.2708255403471686 0 0.14627836463393121 0.26809473379089088 0 0.1609818760820641 0.2708255403471686 0 0.1631161995596529 0.25657386530356069 0 0.16890701105638031 0.23504418317664161 0 0.1631161995596529 0.25657386530356069 0 0.18564289691528729 0.25868749876629671 0 0.17528279401001801 0.2714166079934146 0 0.1631161995596529 0.25657386530356069 0 0.18564289691528729 0.25868749876629671 0 0.1956251304139873 0.24830732682566101 0 0.18564289691528729 0.25868749876629671 0 0.20465537480646501 0.25892384109831479 0 0.18564289691528729 0.25868749876629671 0 0.19094745617081291 0.27038549871767581 0 0.20465537480646501 0.25892384109831479 0 0.2050239072751949 0.2492833193895482 0 0.1956251304139873 0.24830732682566101 0 0.20465537480646501 0.25892384109831479 0 0.19094745617081291 0.27038549871767581 0 0.20212350544635149 0.27452240688285762 0 0.1917381003592612 0.28136787577326228 0 0.1849298445554361 0.28099903695767547 0 0.19094745617081291 0.27038549871767581 0 0.1917381003592612 0.28136787577326228 0 0.19094745617081291 0.27038549871767581 0 0.20212350544635149 0.27452240688285762 0 0.20465537480646501 0.25892384109831479 0 0.21559138507808229 0.27635001083075639 0 0.2170338530129477 0.25958452376210089 0 0.2223889939606305 0.26849190584137572 0 0.20212350544635149 0.27452240688285762 0 0.2170338530129477 0.25958452376210089 0 0.20037669147028589 0.28371892366973078 0 0.2170338530129477 0.25958452376210089 0 0.20037669147028589 0.28371892366973078 0 0.21559138507808229 0.27635001083075639 0 0.2170338530129477 0.25958452376210089 0 0.20037669147028589 0.28371892366973078 0 0.20212350544635149 0.27452240688285762 0 0.20465537480646501 0.25892384109831479 0 0.21458810326103989 0.25029177234766842 0 0.20212350544635149 0.27452240688285762 0 0.2170338530129477 0.25958452376210089 0 0.21458810326103989 0.25029177234766842 0 0.20212350544635149 0.27452240688285762 0 0.21458810326103989 0.25029177234766842 0 0.2050239072751949 0.2492833193895482 0 0.20465537480646501 0.25892384109831479 0 0.21458810326103989 0.25029177234766842 0 0.20465537480646501 0.25892384109831479 0 0.21458810326103989 0.25029177234766842 0 0.23169913173193779 0.25404958449575432 0 0.22942687348362151 0.26728355318502178 0 0.24090080429007341 0.26281353644332878 0 0.23169913173193779 0.25404958449575432 0 0.2249153238939712 0.26221153605608138 0 0.22942687348362151 0.26728355318502178 0 0.2170338530129477 0.25958452376210089 0 0.2249153238939712 0.26221153605608138 0 0.2223889939606305 0.26849190584137572 0 0.2170338530129477 0.25958452376210089 0 0.23169913173193779 0.25404958449575432 0 0.2249153238939712 0.26221153605608138 0 0.2223889939606305 0.26849190584137572 0 0.2255322572178127 0.27738204478537232 0 0.22942687348362151 0.26728355318502178 0 0.2249153238939712 0.26221153605608138 0 0.2223889939606305 0.26849190584137572 0 0.22942687348362151 0.26728355318502178 0 0.21559138507808229 0.27635001083075639 0 0.2255322572178127 0.27738204478537232 0 0.21985426169801439 0.28935406669317137 0 0.21559138507808229 0.27635001083075639 0 0.2223889939606305 0.26849190584137572 0 0.2255322572178127 0.27738204478537232 0 0.2255322572178127 0.27738204478537232 0 0.23621117140834261 0.27732665952701641 0 0.23095623596381579 0.2876536505458 0 0.2255322572178127 0.27738204478537232 0 0.22942687348362151 0.26728355318502178 0 0.23621117140834261 0.27732665952701641 0 0.23621117140834261 0.27732665952701641 0 0.24818821145747599 0.27522177653690871 0 0.24090080429007341 0.26281353644332878 0 0.22942687348362151 0.26728355318502178 0 0.23621117140834261 0.27732665952701641 0 0.24090080429007341 0.26281353644332878 0 0.24818821145747599 0.27522177653690871 0 0.24090080429007341 0.26281353644332878 0 0.25530776412370298 0.26639583896058622 0 0.23995652529561701 0.25039133628829258 0 0.24090080429007341 0.26281353644332878 0 0.25404003316197471 0.25208422786308371 0 0.23169913173193779 0.25404958449575432 0 0.23995652529561701 0.25039133628829258 0 0.24090080429007341 0.26281353644332878 0 0.23765651747073049 0.31117848176507701 0 0.2454028482605469 0.29267792886045368 0 0.25114017462525878 0.31153615041935723 0 0.23765651747073049 0.31117848176507701 0 0.2454028482605469 0.29267792886045368 0 0.2283396740985745 0.30195705682751389 0 0.2454028482605469 0.29267792886045368 0 0.23095623596381579 0.2876536505458 0 0.2283396740985745 0.30195705682751389 0 0.23621117140834261 0.27732665952701641 0 0.24818821145747599 0.27522177653690871 0 0.2454028482605469 0.29267792886045368 0 0.23621117140834261 0.27732665952701641 0 0.2454028482605469 0.29267792886045368 0 0.23095623596381579 0.2876536505458 0 0.2255322572178127 0.27738204478537232 0 0.23095623596381579 0.2876536505458 0 0.21985426169801439 0.28935406669317137 0 0.23095623596381579 0.2876536505458 0 0.21985426169801439 0.28935406669317137 0 0.2283396740985745 0.30195705682751389 0 0.2283396740985745 0.30195705682751389 0 0.2184758680590754 0.31184724711422762 0 0.22801070301179061 0.32060690690137728 0 0.21985426169801439 0.28935406669317137 0 0.2283396740985745 0.30195705682751389 0 0.21670572119465931 0.30172893354768798 0 0.23765651747073049 0.31117848176507701 0 0.2283396740985745 0.30195705682751389 0 0.22801070301179061 0.32060690690137728 0 0.2283396740985745 0.30195705682751389 0 0.2184758680590754 0.31184724711422762 0 0.21670572119465931 0.30172893354768798 0 0.2184758680590754 0.31184724711422762 0 0.21670572119465931 0.30172893354768798 0 0.20632342479934371 0.30585855598863948 0 0.21670572119465931 0.30172893354768798 0 0.20632342479934371 0.30585855598863948 0 0.21141614329998781 0.29390938293380992 0 0.20632342479934371 0.30585855598863948 0 0.21141614329998781 0.29390938293380992 0 0.2042452804315445 0.29308429151921322 0 0.21559138507808229 0.27635001083075639 0 0.21985426169801439 0.28935406669317137 0 0.2104384150331686 0.28649738738125968 0 0.21985426169801439 0.28935406669317137 0 0.21141614329998781 0.29390938293380992 0 0.2104384150331686 0.28649738738125968 0 0.21985426169801439 0.28935406669317137 0 0.21670572119465931 0.30172893354768798 0 0.21141614329998781 0.29390938293380992 0 0.21141614329998781 0.29390938293380992 0 0.2042452804315445 0.29308429151921322 0 0.2104384150331686 0.28649738738125968 0 0.2042452804315445 0.29308429151921322 0 0.2104384150331686 0.28649738738125968 0 0.20037669147028589 0.28371892366973078 0 0.21559138507808229 0.27635001083075639 0 0.2104384150331686 0.28649738738125968 0 0.20037669147028589 0.28371892366973078 0 0.20212350544635149 0.27452240688285762 0 0.20037669147028589 0.28371892366973078 0 0.1898902111984884 0.29891268329407239 0 0.18677859260729601 0.28760164196875848 0 0.1917381003592612 0.28136787577326228 0 0.1898902111984884 0.29891268329407239 0 0.20037669147028589 0.28371892366973078 0 0.1976595376627992 0.29976589533378561 0 0.1898902111984884 0.29891268329407239 0 0.2042452804315445 0.29308429151921322 0 0.20037669147028589 0.28371892366973078 0 0.1976595376627992 0.29976589533378561 0 0.20212350544635149 0.27452240688285762 0 0.1898902111984884 0.29891268329407239 0 0.20212350544635149 0.27452240688285762 0 0.1917381003592612 0.28136787577326228 0 0.1898902111984884 0.29891268329407239 0 0.20037669147028589 0.28371892366973078 0 0.1898902111984884 0.29891268329407239 0 0.18677859260729601 0.28760164196875848 0 0.1849298445554361 0.28099903695767547 0 0.1917381003592612 0.28136787577326228 0 0.20632342479934371 0.30585855598863948 0 0.19412409721151189 0.30848045781950378 0 0.19635424873152091 0.31866253726922511 0 0.20632342479934371 0.30585855598863948 0 0.1976595376627992 0.29976589533378561 0 0.19412409721151189 0.30848045781950378 0 0.20632342479934371 0.30585855598863948 0 0.2042452804315445 0.29308429151921322 0 0.1976595376627992 0.29976589533378561 0 0.18371952992762389 0.30785332357736089 0 0.1976595376627992 0.29976589533378561 0 0.1898902111984884 0.29891268329407239 0 0.18371952992762389 0.30785332357736089 0 0.19412409721151189 0.30848045781950378 0 0.19635424873152091 0.31866253726922511 0 0.18371952992762389 0.30785332357736089 0 0.1976595376627992 0.29976589533378561 0 0.19412409721151189 0.30848045781950378 0 0.19635424873152091 0.31866253726922511 0 0.19329834396814641 0.33328399686629978 0 0.21150607161232149 0.3245036863190196 0 0.19635424873152091 0.31866253726922511 0 0.19329834396814641 0.33328399686629978 0 0.1818581672390053 0.32281790922797782 0 0.19329834396814641 0.33328399686629978 0 0.20841238186686439 0.34472105417207632 0 0.1876990638134575 0.35190483133425488 0 0.19329834396814641 0.33328399686629978 0 0.21150607161232149 0.3245036863190196 0 0.20841238186686439 0.34472105417207632 0 0.21150607161232149 0.3245036863190196 0 0.22736457019319431 0.33776348264759248 0 0.20841238186686439 0.34472105417207632 0 0.20632342479934371 0.30585855598863948 0 0.19635424873152091 0.31866253726922511 0 0.21150607161232149 0.3245036863190196 0 0.2184758680590754 0.31184724711422762 0 0.20632342479934371 0.30585855598863948 0 0.21150607161232149 0.3245036863190196 0 0.21150607161232149 0.3245036863190196 0 0.22801070301179061 0.32060690690137728 0 0.22736457019319431 0.33776348264759248 0 0.2184758680590754 0.31184724711422762 0 0.21150607161232149 0.3245036863190196 0 0.22801070301179061 0.32060690690137728 0 0.22801070301179061 0.32060690690137728 0 0.22736457019319431 0.33776348264759248 0 0.24490867605631639 0.32967072069511189 0 0.22736457019319431 0.33776348264759248 0 0.24490867605631639 0.32967072069511189 0 0.24521693247762111 0.35027114815259558 0 0.23765651747073049 0.31117848176507701 0 0.22801070301179061 0.32060690690137728 0 0.24490867605631639 0.32967072069511189 0 0.23765651747073049 0.31117848176507701 0 0.24490867605631639 0.32967072069511189 0 0.25114017462525878 0.31153615041935723 0 0.24305895760768401 0.36641304215893011 0 0.24521693247762111 0.35027114815259558 0 0.22613265613425179 0.35680737964537468 0 0.22736457019319431 0.33776348264759248 0 0.24521693247762111 0.35027114815259558 0 0.22613265613425179 0.35680737964537468 0 0.22736457019319431 0.33776348264759248 0 0.22613265613425179 0.35680737964537468 0 0.20841238186686439 0.34472105417207632 0 0.22613265613425179 0.35680737964537468 0 0.20200890290724041 0.36500873302905812 0 0.22860253219506471 0.37841014948266538 0 0.24305895760768401 0.36641304215893011 0 0.22613265613425179 0.35680737964537468 0 0.22860253219506471 0.37841014948266538 0 0.20200890290724041 0.36500873302905812 0 0.22860253219506471 0.37841014948266538 0 0.22613265613425179 0.35680737964537468 0 0.20841238186686439 0.34472105417207632 0 0.20200890290724041 0.36500873302905812 0 0.20841238186686439 0.34472105417207632 0 0.1876990638134575 0.35190483133425488 0 0.20200890290724041 0.36500873302905812 0 0.1876990638134575 0.35190483133425488 0 0.20200890290724041 0.36500873302905812 0 0.17637045729064621 0.37495278481954358 0 0.1876990638134575 0.35190483133425488 0 0.17637045729064621 0.37495278481954358 0 0.16909864488713719 0.35514267549568418 0 0.15975417249048229 0.36968310563447321 0 0.16909864488713719 0.35514267549568418 0 0.14990537096685039 0.36070173528474042 0 0.17637045729064621 0.37495278481954358 0 0.15975417249048229 0.36968310563447321 0 0.16909864488713719 0.35514267549568418 0 0.16909864488713719 0.35514267549568418 0 0.1770056519607103 0.33831974362286749 0 0.1619384281755652 0.34052596047808847 0 0.16909864488713719 0.35514267549568418 0 0.14990537096685039 0.36070173528474042 0 0.15416632756111201 0.34898696826244741 0 0.16909864488713719 0.35514267549568418 0 0.1619384281755652 0.34052596047808847 0 0.15416632756111201 0.34898696826244741 0 0.1876990638134575 0.35190483133425488 0 0.16909864488713719 0.35514267549568418 0 0.1770056519607103 0.33831974362286749 0 0.19329834396814641 0.33328399686629978 0 0.1770056519607103 0.33831974362286749 0 0.1818581672390053 0.32281790922797782 0 0.19329834396814641 0.33328399686629978 0 0.1876990638134575 0.35190483133425488 0 0.1770056519607103 0.33831974362286749 0 0.1770056519607103 0.33831974362286749 0 0.1818581672390053 0.32281790922797782 0 0.1657389141743941 0.32607447656151611 0 0.1818581672390053 0.32281790922797782 0 0.1707678241303611 0.31259989648156872 0 0.1657389141743941 0.32607447656151611 0 0.18371952992762389 0.30785332357736089 0 0.19635424873152091 0.31866253726922511 0 0.1818581672390053 0.32281790922797782 0 0.18371952992762389 0.30785332357736089 0 0.1818581672390053 0.32281790922797782 0 0.1707678241303611 0.31259989648156872 0 0.1707678241303611 0.31259989648156872 0 0.1657389141743941 0.32607447656151611 0 0.16084478468494731 0.31759224325908281 0 0.1657389141743941 0.32607447656151611 0 0.15632698434060879 0.32309477146443721 0 0.16084478468494731 0.31759224325908281 0 0.1657389141743941 0.32607447656151611 0 0.15632698434060879 0.32309477146443721 0 0.1534459738215358 0.33116830427909388 0 0.15847128754916129 0.30901971199088751 0 0.1707678241303611 0.31259989648156872 0 0.16084478468494731 0.31759224325908281 0 0.15847128754916129 0.30901971199088751 0 0.16084478468494731 0.31759224325908281 0 0.1531779528472626 0.31690967251270458 0 0.15632698434060879 0.32309477146443721 0 0.16084478468494731 0.31759224325908281 0 0.1531779528472626 0.31690967251270458 0 0.1770056519607103 0.33831974362286749 0 0.1657389141743941 0.32607447656151611 0 0.1619384281755652 0.34052596047808847 0 0.1657389141743941 0.32607447656151611 0 0.1619384281755652 0.34052596047808847 0 0.1534459738215358 0.33116830427909388 0 0.1619384281755652 0.34052596047808847 0 0.14537830609435001 0.34101383565047871 0 0.15416632756111201 0.34898696826244741 0 0.1619384281755652 0.34052596047808847 0 0.1534459738215358 0.33116830427909388 0 0.14537830609435001 0.34101383565047871 0 0.1534459738215358 0.33116830427909388 0 0.1427633336259623 0.33140140495610498 0 0.14842729617490411 0.32372916070978858 0 0.1534459738215358 0.33116830427909388 0 0.1427633336259623 0.33140140495610498 0 0.14537830609435001 0.34101383565047871 0 0.1427633336259623 0.33140140495610498 0 0.14537830609435001 0.34101383565047871 0 0.13654253772275141 0.33890423694427602 0 0.1483486037307668 0.31106151759990119 0 0.1531779528472626 0.31690967251270458 0 0.14487070829517959 0.31682928085866202 0 0.1531779528472626 0.31690967251270458 0 0.14842729617490411 0.32372916070978858 0 0.14487070829517959 0.31682928085866202 0 0.15632698434060879 0.32309477146443721 0 0.1534459738215358 0.33116830427909388 0 0.14842729617490411 0.32372916070978858 0 0.15632698434060879 0.32309477146443721 0 0.1531779528472626 0.31690967251270458 0 0.14842729617490411 0.32372916070978858 0 0.1427633336259623 0.33140140495610498 0 0.14842729617490411 0.32372916070978858 0 0.1402378637359267 0.32270884290342983 0 0.14842729617490411 0.32372916070978858 0 0.14487070829517959 0.31682928085866202 0 0.1402378637359267 0.32270884290342983 0 0.1483486037307668 0.31106151759990119 0 0.14130712994747449 0.31140798331507108 0 0.14487070829517959 0.31682928085866202 0 0.14130712994747449 0.31140798331507108 0 0.14487070829517959 0.31682928085866202 0 0.13528824775885559 0.3155805734405937 0 0.14487070829517959 0.31682928085866202 0 0.13528824775885559 0.3155805734405937 0 0.1402378637359267 0.32270884290342983 0 0.13528824775885559 0.3155805734405937 0 0.1330765722643745 0.32249408610517011 0 0.1402378637359267 0.32270884290342983 0 0.1330765722643745 0.32249408610517011 0 0.1402378637359267 0.32270884290342983 0 0.13309473665224339 0.33072661256584468 0 0.12375204985912221 0.32702725796552912 0 0.1330765722643745 0.32249408610517011 0 0.13309473665224339 0.33072661256584468 0 0.12375204985912221 0.32702725796552912 0 0.1330765722643745 0.32249408610517011 0 0.12817088130983889 0.317450689473041 0 0.13528824775885559 0.3155805734405937 0 0.1330765722643745 0.32249408610517011 0 0.12817088130983889 0.317450689473041 0 0.1214195525311879 0.31440901896845502 0 0.12900107104525951 0.30968741412501871 0 0.12817088130983889 0.317450689473041 0 0.12900107104525951 0.30968741412501871 0 0.13528824775885559 0.3155805734405937 0 0.12817088130983889 0.317450689473041 0 0.14537830609435001 0.34101383565047871 0 0.13654253772275141 0.33890423694427602 0 0.13685475473781181 0.34959577292381833 0 0.13654253772275141 0.33890423694427602 0 0.1260676383484185 0.3399282146226113 0 0.13685475473781181 0.34959577292381833 0 0.1427633336259623 0.33140140495610498 0 0.13654253772275141 0.33890423694427602 0 0.13309473665224339 0.33072661256584468 0 0.1427633336259623 0.33140140495610498 0 0.1402378637359267 0.32270884290342983 0 0.13309473665224339 0.33072661256584468 0 0.12375204985912221 0.32702725796552912 0 0.13309473665224339 0.33072661256584468 0 0.1260676383484185 0.3399282146226113 0 0.13654253772275141 0.33890423694427602 0 0.13309473665224339 0.33072661256584468 0 0.1260676383484185 0.3399282146226113 0 0.1232256624926347 0.35239419723674059 0 0.13685475473781181 0.34959577292381833 0 0.13271547193899449 0.36524458735671972 0 0.1232256624926347 0.35239419723674059 0 0.1260676383484185 0.3399282146226113 0 0.13685475473781181 0.34959577292381833 0 0.13685475473781181 0.34959577292381833 0 0.13271547193899449 0.36524458735671972 0 0.14990537096685039 0.36070173528474042 0 0.13271547193899449 0.36524458735671972 0 0.14727668153694909 0.37350977329143831 0 0.1384203385310763 0.3853027474406937 0 0.13271547193899449 0.36524458735671972 0 0.14727668153694909 0.37350977329143831 0 0.14990537096685039 0.36070173528474042 0 0.15975417249048229 0.36968310563447321 0 0.14727668153694909 0.37350977329143831 0 0.14990537096685039 0.36070173528474042 0 0.14537830609435001 0.34101383565047871 0 0.13685475473781181 0.34959577292381833 0 0.15416632756111201 0.34898696826244741 0 0.13685475473781181 0.34959577292381833 0 0.14990537096685039 0.36070173528474042 0 0.15416632756111201 0.34898696826244741 0 0.15196678808574959 0.39634912392256672 0 0.1402717845598023 0.40641241395674649 0 0.16129649351817349 0.40676751558544272 0 0.15196678808574959 0.39634912392256672 0 0.1384203385310763 0.3853027474406937 0 0.1402717845598023 0.40641241395674649 0 0.15196678808574959 0.39634912392256672 0 0.15611970777082879 0.38410855928095938 0 0.1384203385310763 0.3853027474406937 0 0.14727668153694909 0.37350977329143831 0 0.15611970777082879 0.38410855928095938 0 0.1384203385310763 0.3853027474406937 0 0.15975417249048229 0.36968310563447321 0 0.14727668153694909 0.37350977329143831 0 0.15611970777082879 0.38410855928095938 0 0.1231373165426977 0.3806134049577457 0 0.13271547193899449 0.36524458735671972 0 0.1384203385310763 0.3853027474406937 0 0.1231373165426977 0.3806134049577457 0 0.1384203385310763 0.3853027474406937 0 0.1271742827044339 0.39597619803598749 0 0.1384203385310763 0.3853027474406937 0 0.1271742827044339 0.39597619803598749 0 0.1402717845598023 0.40641241395674649 0 0.1162621503634904 0.41872732341568758 0 0.1271742827044339 0.39597619803598749 0 0.1402717845598023 0.40641241395674649 0 0.1162621503634904 0.41872732341568758 0 0.1402717845598023 0.40641241395674649 0 0.14380353536204241 0.43078456768362461 0 0.1162621503634904 0.41872732341568758 0 0.14380353536204241 0.43078456768362461 0 0.1205619018159948 0.44674810255646558 0 0.1162621503634904 0.41872732341568758 0 0.13914808732176639 0.43525501877606959 0 0.1162621503634904 0.41872732341568758 0 0.13914808732176639 0.43525501877606959 0 0.14380353536204241 0.43078456768362461 0 0.1402717845598023 0.40641241395674649 0 0.16129649351817349 0.40676751558544272 0 0.1583102357697074 0.42239552662274649 0 0.1402717845598023 0.40641241395674649 0 0.14380353536204241 0.43078456768362461 0 0.1583102357697074 0.42239552662274649 0 0.16129649351817349 0.40676751558544272 0 0.17483444504792359 0.42517132393635743 0 0.1767108048052333 0.40648620419478521 0 0.16129649351817349 0.40676751558544272 0 0.1583102357697074 0.42239552662274649 0 0.17483444504792359 0.42517132393635743 0 0.1583102357697074 0.42239552662274649 0 0.17483444504792359 0.42517132393635743 0 0.1713449203605947 0.44284181195156158 0 0.14380353536204241 0.43078456768362461 0 0.1713449203605947 0.44284181195156158 0 0.14380353536204241 0.43078456768362461 0 0.1583102357697074 0.42239552662274649 0 0.1713449203605947 0.44284181195156158 0 0.17483444504792359 0.42517132393635743 0 0.18216746451451801 0.43740730714955978 0 0.1713449203605947 0.44284181195156158 0 0.17483444504792359 0.42517132393635743 0 0.1713449203605947 0.44284181195156158 0 0.17483444504792359 0.42517132393635743 0 0.1894098998784805 0.41329321868770491 0 0.19020123220431809 0.42989189963497759 0 0.17483444504792359 0.42517132393635743 0 0.18216746451451801 0.43740730714955978 0 0.19020123220431809 0.42989189963497759 0 0.17483444504792359 0.42517132393635743 0 0.1767108048052333 0.40648620419478521 0 0.1894098998784805 0.41329321868770491 0 0.1767108048052333 0.40648620419478521 0 0.16971698500113649 0.39319336099264368 0 0.18829620058045249 0.39400560177177729 0 0.1767108048052333 0.40648620419478521 0 0.18829620058045249 0.39400560177177729 0 0.1894098998784805 0.41329321868770491 0 0.15196678808574959 0.39634912392256672 0 0.15611970777082879 0.38410855928095938 0 0.16971698500113649 0.39319336099264368 0 0.15196678808574959 0.39634912392256672 0 0.16129649351817349 0.40676751558544272 0 0.16971698500113649 0.39319336099264368 0 0.16129649351817349 0.40676751558544272 0 0.1767108048052333 0.40648620419478521 0 0.16971698500113649 0.39319336099264368 0 0.17637045729064621 0.37495278481954358 0 0.15975417249048229 0.36968310563447321 0 0.15611970777082879 0.38410855928095938 0 0.17637045729064621 0.37495278481954358 0 0.15611970777082879 0.38410855928095938 0 0.16971698500113649 0.39319336099264368 0 0.17637045729064621 0.37495278481954358 0 0.16971698500113649 0.39319336099264368 0 0.18829620058045249 0.39400560177177729 0 0.20200890290724041 0.36500873302905812 0 0.18829620058045249 0.39400560177177729 0 0.21022739730807871 0.38998636848418261 0 0.20200890290724041 0.36500873302905812 0 0.17637045729064621 0.37495278481954358 0 0.18829620058045249 0.39400560177177729 0 0.18829620058045249 0.39400560177177729 0 0.21022739730807871 0.38998636848418261 0 0.20498907662426999 0.40636669370009521 0 0.18829620058045249 0.39400560177177729 0 0.20498907662426999 0.40636669370009521 0 0.1894098998784805 0.41329321868770491 0 0.21022739730807871 0.38998636848418261 0 0.225418264115859 0.4045632601918206 0 0.20498907662426999 0.40636669370009521 0 0.20200890290724041 0.36500873302905812 0 0.21022739730807871 0.38998636848418261 0 0.22860253219506471 0.37841014948266538 0 0.21022739730807871 0.38998636848418261 0 0.22860253219506471 0.37841014948266538 0 0.225418264115859 0.4045632601918206 0 0.225418264115859 0.4045632601918206 0 0.2490748840761759 0.41447913741323361 0 0.25519616148288887 0.39181156593627298 0 0.22860253219506471 0.37841014948266538 0 0.225418264115859 0.4045632601918206 0 0.25519616148288887 0.39181156593627298 0 0.22860253219506471 0.37841014948266538 0 0.25519616148288887 0.39181156593627298 0 0.24305895760768401 0.36641304215893011 0 0.22860253219506471 0.37841014948266538 0 0.25519616148288887 0.39181156593627298 0 0.2490748840761759 0.41447913741323361 0 0.23040520055063371 0.42472223384156732 0 0.24517769652138269 0.43868647355565088 0 0.225418264115859 0.4045632601918206 0 0.2490748840761759 0.41447913741323361 0 0.23040520055063371 0.42472223384156732 0 0.225418264115859 0.4045632601918206 0 0.23040520055063371 0.42472223384156732 0 0.20794960100346549 0.42683021087399747 0 0.23040520055063371 0.42472223384156732 0 0.20794960100346549 0.42683021087399747 0 0.2229924843016429 0.43948176305630821 0 0.23040520055063371 0.42472223384156732 0 0.2229924843016429 0.43948176305630821 0 0.24517769652138269 0.43868647355565088 0 0.225418264115859 0.4045632601918206 0 0.20794960100346549 0.42683021087399747 0 0.20498907662426999 0.40636669370009521 0 0.20794960100346549 0.42683021087399747 0 0.20498907662426999 0.40636669370009521 0 0.1894098998784805 0.41329321868770491 0 0.20794960100346549 0.42683021087399747 0 0.19020123220431809 0.42989189963497759 0 0.19426067079655579 0.44330707928475449 0 0.20794960100346549 0.42683021087399747 0 0.1894098998784805 0.41329321868770491 0 0.19020123220431809 0.42989189963497759 0 0.18216746451451801 0.43740730714955978 0 0.19020123220431809 0.42989189963497759 0 0.19426067079655579 0.44330707928475449 0 0.19426067079655579 0.44330707928475449 0 0.1940681668251448 0.45640187690020761 0 0.18254949088188149 0.4477470207382499 0 0.19426067079655579 0.44330707928475449 0 0.1940681668251448 0.45640187690020761 0 0.20814429074563079 0.44944136850783811 0 0.1940681668251448 0.45640187690020761 0 0.20814429074563079 0.44944136850783811 0 0.2039949308663013 0.472197178379127 0 0.1940681668251448 0.45640187690020761 0 0.2039949308663013 0.472197178379127 0 0.18608081776579821 0.46867989557539208 0 0.1940681668251448 0.45640187690020761 0 0.18608081776579821 0.46867989557539208 0 0.18254949088188149 0.4477470207382499 0 0.20814429074563079 0.44944136850783811 0 0.22852149564367849 0.45772005811557609 0 0.2039949308663013 0.472197178379127 0 0.20794960100346549 0.42683021087399747 0 0.19426067079655579 0.44330707928475449 0 0.20814429074563079 0.44944136850783811 0 0.20794960100346549 0.42683021087399747 0 0.20814429074563079 0.44944136850783811 0 0.2229924843016429 0.43948176305630821 0 0.2229924843016429 0.43948176305630821 0 0.22852149564367849 0.45772005811557609 0 0.24517769652138269 0.43868647355565088 0 0.20814429074563079 0.44944136850783811 0 0.2229924843016429 0.43948176305630821 0 0.22852149564367849 0.45772005811557609 0 0.22852149564367849 0.45772005811557609 0 0.2480713074063006 0.45455858161591112 0 0.2508124586903176 0.47172026355836871 0 0.22852149564367849 0.45772005811557609 0 0.2480713074063006 0.45455858161591112 0 0.24517769652138269 0.43868647355565088 0 0.24658834009167641 0.5 0 0.2268462464291012 0.47913099520174052 0 0.2508124586903176 0.47172026355836871 0 0.22852149564367849 0.45772005811557609 0 0.2268462464291012 0.47913099520174052 0 0.2508124586903176 0.47172026355836871 0 0.22852149564367849 0.45772005811557609 0 0.2268462464291012 0.47913099520174052 0 0.2039949308663013 0.472197178379127 0 0.24658834009167641 0.5 0 0.2268462464291012 0.47913099520174052 0 0.21774471386125249 0.5 0 0.2039949308663013 0.472197178379127 0 0.18890108763082861 0.5 0 0.18608081776579821 0.46867989557539208 0 0.21774471386125249 0.5 0 0.2039949308663013 0.472197178379127 0 0.18890108763082861 0.5 0 0.2268462464291012 0.47913099520174052 0 0.21774471386125249 0.5 0 0.2039949308663013 0.472197178379127 0 0.18890108763082861 0.5 0 0.16570119088049859 0.47142090597577962 0 0.18608081776579821 0.46867989557539208 0 0.18890108763082861 0.5 0 0.1600574614004048 0.499999999999998 0 0.16570119088049859 0.47142090597577962 0 0.1600574614004048 0.499999999999998 0 0.16570119088049859 0.47142090597577962 0 0.1600574614004048 0.499999999999998 0 0.16570119088049859 0.47142090597577962 0 0.1473140710794911 0.47841155746419622 0 0.16570119088049859 0.47142090597577962 0 0.18608081776579821 0.46867989557539208 0 0.18254949088188149 0.4477470207382499 0 0.16570119088049859 0.47142090597577962 0 0.18254949088188149 0.4477470207382499 0 0.1713449203605947 0.44284181195156158 0 0.18216746451451801 0.43740730714955978 0 0.19426067079655579 0.44330707928475449 0 0.18254949088188149 0.4477470207382499 0 0.18254949088188149 0.4477470207382499 0 0.1713449203605947 0.44284181195156158 0 0.18216746451451801 0.43740730714955978 0 0.18254949088188149 0.4477470207382499 0 0.1713449203605947 0.44284181195156158 0 0.16570119088049859 0.47142090597577962 0 0.1713449203605947 0.44284181195156158 0 0.16570119088049859 0.47142090597577962 0 0.1713449203605947 0.44284181195156158 0 0.15076126992746861 0.45128164001408699 0 0.16570119088049859 0.47142090597577962 0 0.14979107830043681 0.4659705410046826 0 0.15076126992746861 0.45128164001408699 0 0.14979107830043681 0.4659705410046826 0 0.15076126992746861 0.45128164001408699 0 0.13538778131428869 0.46276806056466779 0 0.13914808732176639 0.43525501877606959 0 0.14380353536204241 0.43078456768362461 0 0.15076126992746861 0.45128164001408699 0 0.14380353536204241 0.43078456768362461 0 0.1713449203605947 0.44284181195156158 0 0.15076126992746861 0.45128164001408699 0 0.13914808732176639 0.43525501877606959 0 0.15076126992746861 0.45128164001408699 0 0.13538778131428869 0.46276806056466779 0 0.13914808732176639 0.43525501877606959 0 0.13538778131428869 0.46276806056466779 0 0.1205619018159948 0.44674810255646558 0 0.13914808732176639 0.43525501877606959 0 0.13538778131428869 0.46276806056466779 0 0.1248616532684987 0.47476888169724352 0 0.1205619018159948 0.44674810255646558 0 0.13538778131428869 0.46276806056466779 0 0.13538778131428869 0.46276806056466779 0 0.13162747530681079 0.49028110235326611 0 0.1248616532684987 0.47476888169724352 0 0.13538778131428869 0.46276806056466779 0 0.13162747530681079 0.49028110235326611 0 0.13538778131428869 0.46276806056466779 0 0.13162747530681079 0.49028110235326611 0 0.1473140710794911 0.47841155746419622 0 0.1248616532684987 0.47476888169724352 0 0.13162747530681079 0.49028110235326611 0 0.1248616532684987 0.47476888169724352 0 0.1287333349596296 0.50000000000000233 0 0.1248616532684987 0.47476888169724352 0 0.13162747530681079 0.49028110235326611 0 0.1287333349596296 0.50000000000000233 0 0.13162747530681079 0.49028110235326611 0 0.1302991587401483 0.50000000000000044 0 0.13162747530681079 0.49028110235326611 0 0.1302991587401483 0.50000000000000044 0 0.13586647714571501 0.50000000000000044 0 0.13162747530681079 0.49028110235326611 0 0.1287333349596296 0.50000000000000233 0 0.1302991587401483 0.50000000000000044 0 0.13162747530681079 0.49028110235326611 0 0.13586647714571501 0.50000000000000044 0 0.14406777576738011 0.49099847585001533 0 0.13162747530681079 0.49028110235326611 0 0.13586647714571501 0.50000000000000044 0 0.1600574614004048 0.499999999999998 0 0.13586647714571501 0.50000000000000044 0 0.14406777576738011 0.49099847585001533 0 0.1600574614004048 0.499999999999998 0 0.14406777576738011 0.49099847585001533 0 0.1473140710794911 0.47841155746419622 0 0.13162747530681079 0.49028110235326611 0 0.14406777576738011 0.49099847585001533 0 0.1473140710794911 0.47841155746419622 0 0.16570119088049859 0.47142090597577962 0 0.14979107830043681 0.4659705410046826 0 0.1473140710794911 0.47841155746419622 0 0.14979107830043681 0.4659705410046826 0 0.13538778131428869 0.46276806056466779 0 0.1473140710794911 0.47841155746419622 0 0.3484716028812469 0.46927922019571022 0 0.3639431844790027 0.47792576209206161 0 0.36215729707138089 0.45952194433731441 0 0.3484716028812469 0.46927922019571022 0 0.34825454286986979 0.4866410253547736 0 0.3639431844790027 0.47792576209206161 0 0.34825454286986979 0.4866410253547736 0 0.36196284501337178 0.5 0 0.3639431844790027 0.47792576209206161 0 0.34825454286986979 0.4866410253547736 0 0.36196284501337178 0.5 0 0.33311921878294798 0.5 0 0.36196284501337178 0.5 0 0.3639431844790027 0.47792576209206161 0 0.38120033573297152 0.48442634992442057 0 0.3639431844790027 0.47792576209206161 0 0.37844435483634198 0.4675903904274426 0 0.38120033573297152 0.48442634992442057 0 0.3639431844790027 0.47792576209206161 0 0.36215729707138089 0.45952194433731441 0 0.37844435483634198 0.4675903904274426 0 0.36215729707138089 0.45952194433731441 0 0.37809165231809289 0.44568724501072521 0 0.37844435483634198 0.4675903904274426 0 0.36215729707138089 0.45952194433731441 0 0.35494335133579169 0.44207750056399991 0 0.37809165231809289 0.44568724501072521 0 0.35494335133579169 0.44207750056399991 0 0.365542703577178 0.42914551292816783 0 0.37809165231809289 0.44568724501072521 0 0.35494335133579169 0.44207750056399991 0 0.33746945485668051 0.4332718215327816 0 0.35494335133579169 0.44207750056399991 0 0.33933393763431879 0.44574212964051668 0 0.33746945485668051 0.4332718215327816 0 0.36215729707138089 0.45952194433731441 0 0.35494335133579169 0.44207750056399991 0 0.34904963657780902 0.45457154773394731 0 0.35494335133579169 0.44207750056399991 0 0.34904963657780902 0.45457154773394731 0 0.33933393763431879 0.44574212964051668 0 0.3484716028812469 0.46927922019571022 0 0.36215729707138089 0.45952194433731441 0 0.34904963657780902 0.45457154773394731 0 0.3484716028812469 0.46927922019571022 0 0.34904963657780902 0.45457154773394731 0 0.33768006752307722 0.45817683321967928 0 0.33768006752307722 0.45817683321967928 0 0.32516604183334019 0.44948070643492349 0 0.3263791186886712 0.4718105620932988 0 0.3484716028812469 0.46927922019571022 0 0.33768006752307722 0.45817683321967928 0 0.3263791186886712 0.4718105620932988 0 0.33933393763431879 0.44574212964051668 0 0.32516604183334019 0.44948070643492349 0 0.33457771181584611 0.43369686048393857 0 0.32516604183334019 0.44948070643492349 0 0.33457771181584611 0.43369686048393857 0 0.33933393763431879 0.44574212964051668 0 0.33457771181584611 0.43369686048393857 0 0.33746945485668051 0.4332718215327816 0 0.34904963657780902 0.45457154773394731 0 0.33768006752307722 0.45817683321967928 0 0.33933393763431879 0.44574212964051668 0 0.33768006752307722 0.45817683321967928 0 0.33933393763431879 0.44574212964051668 0 0.32516604183334019 0.44948070643492349 0 0.32516604183334019 0.44948070643492349 0 0.30610823095482448 0.43788140873538328 0 0.33457771181584611 0.43369686048393857 0 0.32516604183334019 0.44948070643492349 0 0.30909376894118562 0.45443190325323968 0 0.30610823095482448 0.43788140873538328 0 0.32516604183334019 0.44948070643492349 0 0.3263791186886712 0.4718105620932988 0 0.30909376894118562 0.45443190325323968 0 0.3263791186886712 0.4718105620932988 0 0.30059931196992168 0.47005809262963882 0 0.31153103284441203 0.48323920778459489 0 0.3484716028812469 0.46927922019571022 0 0.34825454286986979 0.4866410253547736 0 0.3263791186886712 0.4718105620932988 0 0.34825454286986979 0.4866410253547736 0 0.3263791186886712 0.4718105620932988 0 0.33311921878294798 0.5 0 0.3263791186886712 0.4718105620932988 0 0.33311921878294798 0.5 0 0.31153103284441203 0.48323920778459489 0 0.33311921878294798 0.5 0 0.30427559255252412 0.5 0 0.31153103284441203 0.48323920778459489 0 0.30427559255252412 0.5 0 0.31153103284441203 0.48323920778459489 0 0.29110307967174748 0.48580921065493432 0 0.30059931196992168 0.47005809262963882 0 0.31153103284441203 0.48323920778459489 0 0.29110307967174748 0.48580921065493432 0 0.30059931196992168 0.47005809262963882 0 0.29110307967174748 0.48580921065493432 0 0.27585954767988607 0.47408041721782612 0 0.30427559255252412 0.5 0 0.29110307967174748 0.48580921065493432 0 0.27543196632210021 0.5 0 0.27543196632210021 0.5 0 0.27585954767988607 0.47408041721782612 0 0.26198527678341299 0.48673919500437729 0 0.29110307967174748 0.48580921065493432 0 0.27543196632210021 0.5 0 0.27585954767988607 0.47408041721782612 0 0.27585954767988607 0.47408041721782612 0 0.2508124586903176 0.47172026355836871 0 0.26198527678341299 0.48673919500437729 0 0.24658834009167641 0.5 0 0.2508124586903176 0.47172026355836871 0 0.26198527678341299 0.48673919500437729 0 0.24658834009167641 0.5 0 0.27543196632210021 0.5 0 0.26198527678341299 0.48673919500437729 0 0.2480713074063006 0.45455858161591112 0 0.24517769652138269 0.43868647355565088 0 0.26777357876982372 0.45010753123404867 0 0.24517769652138269 0.43868647355565088 0 0.26777357876982372 0.45010753123404867 0 0.26600993858745892 0.42808938636359573 0 0.2480713074063006 0.45455858161591112 0 0.2508124586903176 0.47172026355836871 0 0.26777357876982372 0.45010753123404867 0 0.27585954767988607 0.47408041721782612 0 0.2508124586903176 0.47172026355836871 0 0.26777357876982372 0.45010753123404867 0 0.27585954767988607 0.47408041721782612 0 0.26777357876982372 0.45010753123404867 0 0.28975077836376328 0.45156795454144122 0 0.26777357876982372 0.45010753123404867 0 0.28975077836376328 0.45156795454144122 0 0.28607917402868899 0.43188291486824332 0 0.28975077836376328 0.45156795454144122 0 0.30610823095482448 0.43788140873538328 0 0.28607917402868899 0.43188291486824332 0 0.30059931196992168 0.47005809262963882 0 0.27585954767988607 0.47408041721782612 0 0.28975077836376328 0.45156795454144122 0 0.3263791186886712 0.4718105620932988 0 0.30059931196992168 0.47005809262963882 0 0.30909376894118562 0.45443190325323968 0 0.30059931196992168 0.47005809262963882 0 0.28975077836376328 0.45156795454144122 0 0.30909376894118562 0.45443190325323968 0 0.28975077836376328 0.45156795454144122 0 0.30909376894118562 0.45443190325323968 0 0.30610823095482448 0.43788140873538328 0 0.30610823095482448 0.43788140873538328 0 0.30869255759955722 0.41877018355733042 0 0.28607917402868899 0.43188291486824332 0 0.3075810200549029 0.4073564129674252 0 0.30869255759955722 0.41877018355733042 0 0.30232024370737348 0.40459188745546998 0 0.31142364564813352 0.41093370315849659 0 0.3075810200549029 0.4073564129674252 0 0.31015955469665918 0.40201373970895371 0 0.31142364564813352 0.41093370315849659 0 0.3075810200549029 0.4073564129674252 0 0.30869255759955722 0.41877018355733042 0 0.30869255759955722 0.41877018355733042 0 0.29605666041485018 0.40551048050067168 0 0.30232024370737348 0.40459188745546998 0 0.30869255759955722 0.41877018355733042 0 0.2819443595412231 0.40529087474680159 0 0.30869255759955722 0.41877018355733042 0 0.2819443595412231 0.40529087474680159 0 0.29605666041485018 0.40551048050067168 0 0.30869255759955722 0.41877018355733042 0 0.28607917402868899 0.43188291486824332 0 0.2819443595412231 0.40529087474680159 0 0.2490748840761759 0.41447913741323361 0 0.26600993858745892 0.42808938636359573 0 0.2819443595412231 0.40529087474680159 0 0.26777357876982372 0.45010753123404867 0 0.28607917402868899 0.43188291486824332 0 0.26600993858745892 0.42808938636359573 0 0.28607917402868899 0.43188291486824332 0 0.26600993858745892 0.42808938636359573 0 0.2819443595412231 0.40529087474680159 0 0.2490748840761759 0.41447913741323361 0 0.24517769652138269 0.43868647355565088 0 0.26600993858745892 0.42808938636359573 0 0.2490748840761759 0.41447913741323361 0 0.25519616148288887 0.39181156593627298 0 0.2819443595412231 0.40529087474680159 0 0.25519616148288887 0.39181156593627298 0 0.2618259464583832 0.36726095095448358 0 0.25519616148288887 0.39181156593627298 0 0.27405714121884811 0.38409687161834088 0 0.2618259464583832 0.36726095095448358 0 0.24305895760768401 0.36641304215893011 0 0.25519616148288887 0.39181156593627298 0 0.2618259464583832 0.36726095095448358 0 0.2490748840761759 0.41447913741323361 0 0.25519616148288887 0.39181156593627298 0 0.27405714121884811 0.38409687161834088 0 0.2819443595412231 0.40529087474680159 0 0.28762179706039948 0.39125587461843808 0 0.25519616148288887 0.39181156593627298 0 0.2819443595412231 0.40529087474680159 0 0.25519616148288887 0.39181156593627298 0 0.27405714121884811 0.38409687161834088 0 0.2819443595412231 0.40529087474680159 0 0.27405714121884811 0.38409687161834088 0 0.28403056220722062 0.37531448917755911 0 0.2737626695690904 0.37327007608818358 0 0.27405714121884811 0.38409687161834088 0 0.28403056220722062 0.37531448917755911 0 0.28762179706039948 0.39125587461843808 0 0.29405085274881382 0.37834813740539031 0 0.28762179706039948 0.39125587461843808 0 0.30049862001061489 0.39881078008944609 0 0.28403056220722062 0.37531448917755911 0 0.29405085274881382 0.37834813740539031 0 0.28762179706039948 0.39125587461843808 0 0.2819443595412231 0.40529087474680159 0 0.28762179706039948 0.39125587461843808 0 0.29316512877403511 0.40022580951085568 0 0.28762179706039948 0.39125587461843808 0 0.29316512877403511 0.40022580951085568 0 0.30049862001061489 0.39881078008944609 0 0.2819443595412231 0.40529087474680159 0 0.29316512877403511 0.40022580951085568 0 0.29605666041485018 0.40551048050067168 0 0.29316512877403511 0.40022580951085568 0 0.29605666041485018 0.40551048050067168 0 0.30042223720462058 0.4004666581126537 0 0.29605666041485018 0.40551048050067168 0 0.30232024370737348 0.40459188745546998 0 0.30042223720462058 0.4004666581126537 0 0.29316512877403511 0.40022580951085568 0 0.30042223720462058 0.4004666581126537 0 0.30049862001061489 0.39881078008944609 0 0.30042223720462058 0.4004666581126537 0 0.30049862001061489 0.39881078008944609 0 0.30232024370737348 0.40459188745546998 0 0.30049862001061489 0.39881078008944609 0 0.30232024370737348 0.40459188745546998 0 0.30049862001061489 0.39881078008944609 0 0.30430913302558388 0.40020258685778032 0 0.30232024370737348 0.40459188745546998 0 0.30042223720462058 0.4004666581126537 0 0.30049862001061489 0.39881078008944609 0 0.30049862001061489 0.39881078008944609 0 0.30098622665836988 0.38824011406760628 0 0.30049862001061489 0.39881078008944609 0 0.30430913302558388 0.40020258685778032 0 0.30098622665836988 0.38824011406760628 0 0.30098622665836988 0.38824011406760628 0 0.30110064445947421 0.38575968774854158 0 0.31262554991773928 0.39787599139405988 0 0.31015955469665918 0.40201373970895371 0 0.30098622665836988 0.38824011406760628 0 0.30110064445947421 0.38575968774854158 0 0.31262554991773928 0.39787599139405988 0 0.30430913302558388 0.40020258685778032 0 0.31015955469665918 0.40201373970895371 0 0.30098622665836988 0.38824011406760628 0 0.31015955469665918 0.40201373970895371 0 0.30098622665836988 0.38824011406760628 0 0.31262554991773928 0.39787599139405988 0 0.3075810200549029 0.4073564129674252 0 0.30232024370737348 0.40459188745546998 0 0.30430913302558388 0.40020258685778032 0 0.3075810200549029 0.4073564129674252 0 0.30430913302558388 0.40020258685778032 0 0.31015955469665918 0.40201373970895371 0 0.29405085274881382 0.37834813740539031 0 0.30049862001061489 0.39881078008944609 0 0.29405085274881382 0.37834813740539031 0 0.30049862001061489 0.39881078008944609 0 0.30098622665836988 0.38824011406760628 0 0.30110064445947421 0.38575968774854158 0 0.30177514978199971 0.3711373061071076 0 0.30110064445947421 0.38575968774854158 0 0.3104817065657739 0.3858680532317833 0 0.30177514978199971 0.3711373061071076 0 0.29405085274881382 0.37834813740539031 0 0.30110064445947421 0.38575968774854158 0 0.30177514978199971 0.3711373061071076 0 0.29405085274881382 0.37834813740539031 0 0.30110064445947421 0.38575968774854158 0 0.29405085274881382 0.37834813740539031 0 0.30098622665836988 0.38824011406760628 0 0.30110064445947421 0.38575968774854158 0 0.29405085274881382 0.37834813740539031 0 0.30098622665836988 0.38824011406760628 0 0.30098622665836988 0.38824011406760628 0 0.30110064445947421 0.38575968774854158 0 0.30110064445947421 0.38575968774854158 0 0.3104817065657739 0.3858680532317833 0 0.31262554991773928 0.39787599139405988 0 0.3104817065657739 0.3858680532317833 0 0.30177514978199971 0.3711373061071076 0 0.3104817065657739 0.3858680532317833 0 0.31717345926189522 0.3709258031848055 0 0.30177514978199971 0.3711373061071076 0 0.3104817065657739 0.3858680532317833 0 0.3376156911696272 0.37620073599141618 0 0.3104817065657739 0.3858680532317833 0 0.3376156911696272 0.37620073599141618 0 0.31717345926189522 0.3709258031848055 0 0.3104817065657739 0.3858680532317833 0 0.3376156911696272 0.37620073599141618 0 0.3351802944883514 0.39738750443412002 0 0.3376156911696272 0.37620073599141618 0 0.3351802944883514 0.39738750443412002 0 0.34879159400795012 0.38769315231290841 0 0.3351802944883514 0.39738750443412002 0 0.33658962428999861 0.41133204962483783 0 0.34988972217452752 0.40801784569160632 0 0.3351802944883514 0.39738750443412002 0 0.32415045537600512 0.40999229503957763 0 0.33658962428999861 0.41133204962483783 0 0.3351802944883514 0.39738750443412002 0 0.31909953512109351 0.40044867980609039 0 0.32415045537600512 0.40999229503957763 0 0.3104817065657739 0.3858680532317833 0 0.3351802944883514 0.39738750443412002 0 0.31909953512109351 0.40044867980609039 0 0.3104817065657739 0.3858680532317833 0 0.31909953512109351 0.40044867980609039 0 0.3104817065657739 0.3858680532317833 0 0.31262554991773928 0.39787599139405988 0 0.31909953512109351 0.40044867980609039 0 0.31262554991773928 0.39787599139405988 0 0.32415045537600512 0.40999229503957763 0 0.31015955469665918 0.40201373970895371 0 0.31262554991773928 0.39787599139405988 0 0.32415045537600512 0.40999229503957763 0 0.31262554991773928 0.39787599139405988 0 0.31909953512109351 0.40044867980609039 0 0.32415045537600512 0.40999229503957763 0 0.31015955469665918 0.40201373970895371 0 0.31933288273494848 0.41578736535030097 0 0.32415045537600512 0.40999229503957763 0 0.31142364564813352 0.41093370315849659 0 0.31015955469665918 0.40201373970895371 0 0.31933288273494848 0.41578736535030097 0 0.30869255759955722 0.41877018355733042 0 0.31933288273494848 0.41578736535030097 0 0.32906281765607392 0.42006619542527468 0 0.31015955469665918 0.40201373970895371 0 0.31933288273494848 0.41578736535030097 0 0.31142364564813352 0.41093370315849659 0 0.30869255759955722 0.41877018355733042 0 0.31933288273494848 0.41578736535030097 0 0.31933288273494848 0.41578736535030097 0 0.32415045537600512 0.40999229503957763 0 0.32906281765607392 0.42006619542527468 0 0.30869255759955722 0.41877018355733042 0 0.33457771181584611 0.43369686048393857 0 0.33544075565789128 0.43224949236785898 0 0.30869255759955722 0.41877018355733042 0 0.33544075565789128 0.43224949236785898 0 0.30610823095482448 0.43788140873538328 0 0.30869255759955722 0.41877018355733042 0 0.33457771181584611 0.43369686048393857 0 0.30869255759955722 0.41877018355733042 0 0.33544075565789128 0.43224949236785898 0 0.32906281765607392 0.42006619542527468 0 0.30610823095482448 0.43788140873538328 0 0.33457771181584611 0.43369686048393857 0 0.33457771181584611 0.43369686048393857 0 0.33544075565789128 0.43224949236785898 0 0.33746945485668051 0.4332718215327816 0 0.33457771181584611 0.43369686048393857 0 0.33544075565789128 0.43224949236785898 0 0.33544075565789128 0.43224949236785898 0 0.33746945485668051 0.4332718215327816 0 0.35001853239939229 0.42365555934674631 0 0.33544075565789128 0.43224949236785898 0 0.33746945485668051 0.4332718215327816 0 0.33457771181584611 0.43369686048393857 0 0.33746945485668051 0.4332718215327816 0 0.33544075565789128 0.43224949236785898 0 0.33658962428999861 0.41133204962483783 0 0.34988972217452752 0.40801784569160632 0 0.33544075565789128 0.43224949236785898 0 0.32906281765607392 0.42006619542527468 0 0.33658962428999861 0.41133204962483783 0 0.33544075565789128 0.43224949236785898 0 0.34988972217452752 0.40801784569160632 0 0.32415045537600512 0.40999229503957763 0 0.32906281765607392 0.42006619542527468 0 0.33658962428999861 0.41133204962483783 0 0.33544075565789128 0.43224949236785898 0 0.34988972217452752 0.40801784569160632 0 0.35001853239939229 0.42365555934674631 0 0.34988972217452752 0.40801784569160632 0 0.36165970526353591 0.41519797525725338 0 0.36412400085156282 0.39702719229323191 0 0.34988972217452752 0.40801784569160632 0 0.35001853239939229 0.42365555934674631 0 0.36165970526353591 0.41519797525725338 0 0.35494335133579169 0.44207750056399991 0 0.33746945485668051 0.4332718215327816 0 0.365542703577178 0.42914551292816783 0 0.33746945485668051 0.4332718215327816 0 0.35001853239939229 0.42365555934674631 0 0.365542703577178 0.42914551292816783 0 0.33746945485668051 0.4332718215327816 0 0.365542703577178 0.42914551292816783 0 0.35001853239939229 0.42365555934674631 0 0.365542703577178 0.42914551292816783 0 0.36165970526353591 0.41519797525725338 0 0.365542703577178 0.42914551292816783 0 0.36165970526353591 0.41519797525725338 0 0.37744029411777058 0.41252948965876268 0 0.36165970526353591 0.41519797525725338 0 0.36412400085156282 0.39702719229323191 0 0.37744029411777058 0.41252948965876268 0 0.36412400085156282 0.39702719229323191 0 0.38026367080056678 0.39066664182047522 0 0.37744029411777058 0.41252948965876268 0 0.34988972217452752 0.40801784569160632 0 0.36412400085156282 0.39702719229323191 0 0.36433868869116592 0.38378619901535488 0 0.36433868869116592 0.38378619901535488 0 0.3773824667175657 0.37546563606013739 0 0.38026367080056678 0.39066664182047522 0 0.36433868869116592 0.38378619901535488 0 0.36474967577348072 0.36653341875104961 0 0.3773824667175657 0.37546563606013739 0 0.36412400085156282 0.39702719229323191 0 0.36433868869116592 0.38378619901535488 0 0.38026367080056678 0.39066664182047522 0 0.36433868869116592 0.38378619901535488 0 0.36474967577348072 0.36653341875104961 0 0.36412400085156282 0.39702719229323191 0 0.36433868869116592 0.38378619901535488 0 0.3376156911696272 0.37620073599141618 0 0.34879159400795012 0.38769315231290841 0 0.36474967577348072 0.36653341875104961 0 0.36433868869116592 0.38378619901535488 0 0.34879159400795012 0.38769315231290841 0 0.36474967577348072 0.36653341875104961 0 0.3351802944883514 0.39738750443412002 0 0.34988972217452752 0.40801784569160632 0 0.34879159400795012 0.38769315231290841 0 0.34988972217452752 0.40801784569160632 0 0.36433868869116592 0.38378619901535488 0 0.34988972217452752 0.40801784569160632 0 0.36433868869116592 0.38378619901535488 0 0.34879159400795012 0.38769315231290841 0 0.34699100967064078 0.35539672769273539 0 0.36474967577348072 0.36653341875104961 0 0.36518945593320651 0.34509967395937191 0 0.34699100967064078 0.35539672769273539 0 0.36518945593320651 0.34509967395937191 0 0.348137396692076 0.34077307725183559 0 0.3376156911696272 0.37620073599141618 0 0.34699100967064078 0.35539672769273539 0 0.36474967577348072 0.36653341875104961 0 0.3376156911696272 0.37620073599141618 0 0.36474967577348072 0.36653341875104961 0 0.36474967577348072 0.36653341875104961 0 0.36518945593320651 0.34509967395937191 0 0.36474967577348072 0.36653341875104961 0 0.36518945593320651 0.34509967395937191 0 0.3855881021147175 0.35910908792858098 0 0.36518945593320651 0.34509967395937191 0 0.36562923609293069 0.32366592916769399 0 0.36518945593320651 0.34509967395937191 0 0.36562923609293069 0.32366592916769399 0 0.348137396692076 0.34077307725183559 0 0.36518945593320651 0.34509967395937191 0 0.36562923609293069 0.32366592916769399 0 0.38128435600444488 0.32837669887387311 0 0.36562923609293069 0.32366592916769399 0 0.36606901625265492 0.30223218437601618 0 0.38242981621443428 0.31397380775534678 0 0.36562923609293069 0.32366592916769399 0 0.36606901625265492 0.30223218437601618 0 0.36562923609293069 0.32366592916769399 0 0.34238706329751362 0.32476320095938682 0 0.35183379698966949 0.31056891257481539 0 0.36562923609293069 0.32366592916769399 0 0.348137396692076 0.34077307725183559 0 0.34238706329751362 0.32476320095938682 0 0.348137396692076 0.34077307725183559 0 0.33072504187423118 0.34237289876026822 0 0.34238706329751362 0.32476320095938682 0 0.33072504187423118 0.34237289876026822 0 0.34238706329751362 0.32476320095938682 0 0.32122702449841589 0.32177081607522939 0 0.34238706329751362 0.32476320095938682 0 0.33644502425256478 0.30910566618648461 0 0.35183379698966949 0.31056891257481539 0 0.34238706329751362 0.32476320095938682 0 0.32122702449841589 0.32177081607522939 0 0.33644502425256478 0.30910566618648461 0 0.32122702449841589 0.32177081607522939 0 0.31445651652981632 0.33878768779705848 0 0.30372390616191358 0.32889084998335888 0 0.33072504187423118 0.34237289876026822 0 0.32122702449841589 0.32177081607522939 0 0.31445651652981632 0.33878768779705848 0 0.33072504187423118 0.34237289876026822 0 0.31445651652981632 0.33878768779705848 0 0.31594857135045817 0.35062531106266931 0 0.33072504187423118 0.34237289876026822 0 0.31594857135045817 0.35062531106266931 0 0.32442852787466708 0.36030442639367111 0 0.31594857135045817 0.35062531106266931 0 0.32442852787466708 0.36030442639367111 0 0.31156622091740832 0.36111849420004938 0 0.34699100967064078 0.35539672769273539 0 0.348137396692076 0.34077307725183559 0 0.33072504187423118 0.34237289876026822 0 0.34699100967064078 0.35539672769273539 0 0.33072504187423118 0.34237289876026822 0 0.32442852787466708 0.36030442639367111 0 0.3376156911696272 0.37620073599141618 0 0.34699100967064078 0.35539672769273539 0 0.32442852787466708 0.36030442639367111 0 0.3376156911696272 0.37620073599141618 0 0.32442852787466708 0.36030442639367111 0 0.31717345926189522 0.3709258031848055 0 0.32442852787466708 0.36030442639367111 0 0.31717345926189522 0.3709258031848055 0 0.31156622091740832 0.36111849420004938 0 0.30177514978199971 0.3711373061071076 0 0.30274952797195698 0.35001407804523332 0 0.31717345926189522 0.3709258031848055 0 0.31156622091740832 0.36111849420004938 0 0.30177514978199971 0.3711373061071076 0 0.31156622091740832 0.36111849420004938 0 0.30177514978199971 0.3711373061071076 0 0.30274952797195698 0.35001407804523332 0 0.30177514978199971 0.3711373061071076 0 0.30274952797195698 0.35001407804523332 0 0.29106955940472562 0.3530243656434488 0 0.31445651652981632 0.33878768779705848 0 0.31594857135045817 0.35062531106266931 0 0.30274952797195698 0.35001407804523332 0 0.31594857135045817 0.35062531106266931 0 0.31156622091740832 0.36111849420004938 0 0.30274952797195698 0.35001407804523332 0 0.29106955940472562 0.3530243656434488 0 0.28705150305193838 0.35613499197806497 0 0.28036396902745148 0.33491142517978989 0 0.28705150305193838 0.35613499197806497 0 0.28036396902745148 0.33491142517978989 0 0.28705150305193838 0.35613499197806497 0 0.27644360280618341 0.34191623842927221 0 0.28036396902745148 0.33491142517978989 0 0.29106955940472562 0.3530243656434488 0 0.28036396902745148 0.33491142517978989 0 0.30274952797195698 0.35001407804523332 0 0.29106955940472562 0.3530243656434488 0 0.29374099595638509 0.3392252011883215 0 0.28705150305193838 0.35613499197806497 0 0.28458867991473008 0.36361942358965982 0 0.27543832275303448 0.34988028840297991 0 0.29405085274881382 0.37834813740539031 0 0.28705150305193838 0.35613499197806497 0 0.28458867991473008 0.36361942358965982 0 0.29405085274881382 0.37834813740539031 0 0.28705150305193838 0.35613499197806497 0 0.30177514978199971 0.3711373061071076 0 0.29106955940472562 0.3530243656434488 0 0.29405085274881382 0.37834813740539031 0 0.30177514978199971 0.3711373061071076 0 0.28705150305193838 0.35613499197806497 0 0.30177514978199971 0.3711373061071076 0 0.29106955940472562 0.3530243656434488 0 0.28705150305193838 0.35613499197806497 0 0.29405085274881382 0.37834813740539031 0 0.28458867991473008 0.36361942358965982 0 0.28403056220722062 0.37531448917755911 0 0.2815017213106239 0.3651550498314205 0 0.27898286169525299 0.37041503512408969 0 0.29405085274881382 0.37834813740539031 0 0.2815017213106239 0.3651550498314205 0 0.28403056220722062 0.37531448917755911 0 0.29405085274881382 0.37834813740539031 0 0.2815017213106239 0.3651550498314205 0 0.29405085274881382 0.37834813740539031 0 0.28458867991473008 0.36361942358965982 0 0.2815017213106239 0.3651550498314205 0 0.28403056220722062 0.37531448917755911 0 0.27898286169525299 0.37041503512408969 0 0.2737626695690904 0.37327007608818358 0 0.27663649369407689 0.36792052539919551 0 0.2737626695690904 0.37327007608818358 0 0.27125000512352843 0.36234153133647429 0 0.27405714121884811 0.38409687161834088 0 0.2737626695690904 0.37327007608818358 0 0.2618259464583832 0.36726095095448358 0 0.2815017213106239 0.3651550498314205 0 0.27898286169525299 0.37041503512408969 0 0.27663649369407689 0.36792052539919551 0 0.27898286169525299 0.37041503512408969 0 0.27663649369407689 0.36792052539919551 0 0.2737626695690904 0.37327007608818358 0 0.2737626695690904 0.37327007608818358 0 0.27125000512352843 0.36234153133647429 0 0.2618259464583832 0.36726095095448358 0 0.27125000512352843 0.36234153133647429 0 0.26895258987243392 0.3519619622574508 0 0.2618259464583832 0.36726095095448358 0 0.2815017213106239 0.3651550498314205 0 0.27125000512352843 0.36234153133647429 0 0.26895258987243392 0.3519619622574508 0 0.2815017213106239 0.3651550498314205 0 0.27663649369407689 0.36792052539919551 0 0.27125000512352843 0.36234153133647429 0 0.28458867991473008 0.36361942358965982 0 0.2815017213106239 0.3651550498314205 0 0.27543832275303448 0.34988028840297991 0 0.2815017213106239 0.3651550498314205 0 0.26895258987243392 0.3519619622574508 0 0.28458867991473008 0.36361942358965982 0 0.27543832275303448 0.34988028840297991 0 0.26895258987243392 0.3519619622574508 0 0.2618259464583832 0.36726095095448358 0 0.2684557314338783 0.34271033597269462 0 0.2815017213106239 0.3651550498314205 0 0.27543832275303448 0.34988028840297991 0 0.26895258987243392 0.3519619622574508 0 0.28705150305193838 0.35613499197806497 0 0.27543832275303448 0.34988028840297991 0 0.27644360280618341 0.34191623842927221 0 0.27543832275303448 0.34988028840297991 0 0.2684557314338783 0.34271033597269462 0 0.27644360280618341 0.34191623842927221 0 0.27543832275303448 0.34988028840297991 0 0.26895258987243392 0.3519619622574508 0 0.2684557314338783 0.34271033597269462 0 0.2618259464583832 0.36726095095448358 0 0.2684557314338783 0.34271033597269462 0 0.24521693247762111 0.35027114815259558 0 0.2618259464583832 0.36726095095448358 0 0.2684557314338783 0.34271033597269462 0 0.24305895760768401 0.36641304215893011 0 0.24521693247762111 0.35027114815259558 0 0.2618259464583832 0.36726095095448358 0 0.24490867605631639 0.32967072069511189 0 0.26050839607327853 0.32387463406168998 0 0.25114017462525878 0.31153615041935723 0 0.26050839607327853 0.32387463406168998 0 0.25114017462525878 0.31153615041935723 0 0.26342424027676908 0.31148804944983333 0 0.24490867605631639 0.32967072069511189 0 0.26050839607327853 0.32387463406168998 0 0.2684557314338783 0.34271033597269462 0 0.24490867605631639 0.32967072069511189 0 0.24521693247762111 0.35027114815259558 0 0.2684557314338783 0.34271033597269462 0 0.26050839607327853 0.32387463406168998 0 0.2684557314338783 0.34271033597269462 0 0.27508551640937329 0.31815972099090539 0 0.2684557314338783 0.34271033597269462 0 0.27508551640937329 0.31815972099090539 0 0.2684557314338783 0.34271033597269462 0 0.27787730485363338 0.33070420273373929 0 0.27508551640937329 0.31815972099090539 0 0.2684557314338783 0.34271033597269462 0 0.27644360280618341 0.34191623842927221 0 0.27787730485363338 0.33070420273373929 0 0.27644360280618341 0.34191623842927221 0 0.28036396902745148 0.33491142517978989 0 0.27787730485363338 0.33070420273373929 0 0.28036396902745148 0.33491142517978989 0 0.27787730485363338 0.33070420273373929 0 0.28036396902745148 0.33491142517978989 0 0.27787730485363338 0.33070420273373929 0 0.27508551640937329 0.31815972099090539 0 0.28036396902745148 0.33491142517978989 0 0.27508551640937329 0.31815972099090539 0 0.26050839607327853 0.32387463406168998 0 0.27508551640937329 0.31815972099090539 0 0.26342424027676908 0.31148804944983333 0 0.27584787744150779 0.31533663815394608 0 0.27508551640937329 0.31815972099090539 0 0.2839587577339367 0.31315639516335231 0 0.27584787744150779 0.31533663815394608 0 0.27508551640937329 0.31815972099090539 0 0.28036396902745148 0.33491142517978989 0 0.27508551640937329 0.31815972099090539 0 0.28884331716543121 0.32432796479040632 0 0.27508551640937329 0.31815972099090539 0 0.2839587577339367 0.31315639516335231 0 0.28884331716543121 0.32432796479040632 0 0.2839587577339367 0.31315639516335231 0 0.28884331716543121 0.32432796479040632 0 0.29436859405188742 0.31561290386725788 0 0.28884331716543121 0.32432796479040632 0 0.29436859405188742 0.31561290386725788 0 0.30372390616191358 0.32889084998335888 0 0.29106955940472562 0.3530243656434488 0 0.28036396902745148 0.33491142517978989 0 0.29374099595638509 0.3392252011883215 0 0.28036396902745148 0.33491142517978989 0 0.28884331716543121 0.32432796479040632 0 0.29374099595638509 0.3392252011883215 0 0.28884331716543121 0.32432796479040632 0 0.29374099595638509 0.3392252011883215 0 0.30372390616191358 0.32889084998335888 0 0.30274952797195698 0.35001407804523332 0 0.29374099595638509 0.3392252011883215 0 0.30372390616191358 0.32889084998335888 0 0.31445651652981632 0.33878768779705848 0 0.30274952797195698 0.35001407804523332 0 0.30372390616191358 0.32889084998335888 0 0.30274952797195698 0.35001407804523332 0 0.30372390616191358 0.32889084998335888 0 0.29436859405188742 0.31561290386725788 0 0.30372390616191358 0.32889084998335888 0 0.30469828435187041 0.30776762192148471 0 0.32122702449841589 0.32177081607522939 0 0.30372390616191358 0.32889084998335888 0 0.30469828435187041 0.30776762192148471 0 0.30372390616191358 0.32889084998335888 0 0.30469828435187041 0.30776762192148471 0 0.30469828435187041 0.30776762192148471 0 0.29887142377560671 0.29447355700322281 0 0.31975384086217118 0.29390073052843008 0 0.30469828435187041 0.30776762192148471 0 0.29887142377560671 0.29447355700322281 0 0.29061870484628499 0.30392168747768772 0 0.29887142377560671 0.29447355700322281 0 0.29803417524575498 0.27809430922643119 0 0.31975384086217118 0.29390073052843008 0 0.29887142377560671 0.29447355700322281 0 0.28125211357195179 0.28868343586208051 0 0.29803417524575498 0.27809430922643119 0 0.29887142377560671 0.29447355700322281 0 0.28125211357195179 0.28868343586208051 0 0.29061870484628499 0.30392168747768772 0 0.29436859405188742 0.31561290386725788 0 0.30469828435187041 0.30776762192148471 0 0.29061870484628499 0.30392168747768772 0 0.2839587577339367 0.31315639516335231 0 0.29436859405188742 0.31561290386725788 0 0.29061870484628499 0.30392168747768772 0 0.28125211357195179 0.28868343586208051 0 0.29061870484628499 0.30392168747768772 0 0.27979091010679558 0.3031930520058399 0 0.2839587577339367 0.31315639516335231 0 0.29061870484628499 0.30392168747768772 0 0.27979091010679558 0.3031930520058399 0 0.27584787744150779 0.31533663815394608 0 0.2839587577339367 0.31315639516335231 0 0.27979091010679558 0.3031930520058399 0 0.27584787744150779 0.31533663815394608 0 0.27979091010679558 0.3031930520058399 0 0.26696287399916629 0.2923816923273807 0 0.27508551640937329 0.31815972099090539 0 0.26696287399916629 0.2923816923273807 0 0.27508551640937329 0.31815972099090539 0 0.26696287399916629 0.2923816923273807 0 0.26342424027676908 0.31148804944983333 0 0.27584787744150779 0.31533663815394608 0 0.27508551640937329 0.31815972099090539 0 0.26696287399916629 0.2923816923273807 0 0.28125211357195179 0.28868343586208051 0 0.26696287399916629 0.2923816923273807 0 0.26185531842249993 0.2787869231154117 0 0.28125211357195179 0.28868343586208051 0 0.27979091010679558 0.3031930520058399 0 0.26696287399916629 0.2923816923273807 0 0.2454028482605469 0.29267792886045368 0 0.26696287399916629 0.2923816923273807 0 0.26185531842249993 0.2787869231154117 0 0.24818821145747599 0.27522177653690871 0 0.2454028482605469 0.29267792886045368 0 0.26185531842249993 0.2787869231154117 0 0.26696287399916629 0.2923816923273807 0 0.25114017462525878 0.31153615041935723 0 0.26342424027676908 0.31148804944983333 0 0.2454028482605469 0.29267792886045368 0 0.26696287399916629 0.2923816923273807 0 0.25114017462525878 0.31153615041935723 0 0.25404003316197471 0.25208422786308371 0 0.25530776412370298 0.26639583896058622 0 0.27103688063193948 0.26427270241964718 0 0.24090080429007341 0.26281353644332878 0 0.25404003316197471 0.25208422786308371 0 0.25530776412370298 0.26639583896058622 0 0.25530776412370298 0.26639583896058622 0 0.26185531842249993 0.2787869231154117 0 0.27103688063193948 0.26427270241964718 0 0.24818821145747599 0.27522177653690871 0 0.25530776412370298 0.26639583896058622 0 0.26185531842249993 0.2787869231154117 0 0.28125211357195179 0.28868343586208051 0 0.26185531842249993 0.2787869231154117 0 0.27103688063193948 0.26427270241964718 0 0.25404003316197471 0.25208422786308371 0 0.27103688063193948 0.26427270241964718 0 0.27355486584907379 0.24364475180805101 0 0.27103688063193948 0.26427270241964718 0 0.29692855903906679 0.25537037528416417 0 0.27355486584907379 0.24364475180805101 0 0.27103688063193948 0.26427270241964718 0 0.29803417524575498 0.27809430922643119 0 0.29692855903906679 0.25537037528416417 0 0.28125211357195179 0.28868343586208051 0 0.27103688063193948 0.26427270241964718 0 0.29803417524575498 0.27809430922643119 0 0.29803417524575498 0.27809430922643119 0 0.29692855903906679 0.25537037528416417 0 0.32239972953691409 0.26902358330948362 0 0.29692855903906679 0.25537037528416417 0 0.32239972953691409 0.26902358330948362 0 0.32448256229391081 0.244023600812113 0 0.34859232732963041 0.2656914204712259 0 0.32448256229391081 0.244023600812113 0 0.35052125483258301 0.2434514759103418 0 0.32239972953691409 0.26902358330948362 0 0.34859232732963041 0.2656914204712259 0 0.32448256229391081 0.244023600812113 0 0.32239972953691409 0.26902358330948362 0 0.34580587121379802 0.29027056413174801 0 0.34859232732963041 0.2656914204712259 0 0.32239972953691409 0.26902358330948362 0 0.34859232732963041 0.2656914204712259 0 0.29803417524575498 0.27809430922643119 0 0.32239972953691409 0.26902358330948362 0 0.31975384086217118 0.29390073052843008 0 0.32122702449841589 0.32177081607522939 0 0.30469828435187041 0.30776762192148471 0 0.31975384086217118 0.29390073052843008 0 0.32122702449841589 0.32177081607522939 0 0.31975384086217118 0.29390073052843008 0 0.33644502425256478 0.30910566618648461 0 0.31975384086217118 0.29390073052843008 0 0.33644502425256478 0.30910566618648461 0 0.34580587121379802 0.29027056413174801 0 0.32239972953691409 0.26902358330948362 0 0.31975384086217118 0.29390073052843008 0 0.34580587121379802 0.29027056413174801 0 0.34580587121379802 0.29027056413174801 0 0.35183379698966949 0.31056891257481539 0 0.36606901625265492 0.30223218437601618 0 0.33644502425256478 0.30910566618648461 0 0.34580587121379802 0.29027056413174801 0 0.35183379698966949 0.31056891257481539 0 0.36562923609293069 0.32366592916769399 0 0.35183379698966949 0.31056891257481539 0 0.36606901625265492 0.30223218437601618 0 0.36606901625265492 0.30223218437601618 0 0.37288852905391068 0.28307277276217568 0 0.38313639778678782 0.29894980138166888 0 0.34580587121379802 0.29027056413174801 0 0.36606901625265492 0.30223218437601618 0 0.37288852905391068 0.28307277276217568 0 0.37288852905391068 0.28307277276217568 0 0.37478492512234668 0.26235925763296819 0 0.34859232732963041 0.2656914204712259 0 0.37478492512234668 0.26235925763296819 0 0.34859232732963041 0.2656914204712259 0 0.37478492512234668 0.26235925763296819 0 0.34859232732963041 0.2656914204712259 0 0.35052125483258301 0.2434514759103418 0 0.34580587121379802 0.29027056413174801 0 0.37288852905391068 0.28307277276217568 0 0.34859232732963041 0.2656914204712259 0 0.40237095019481112 0.27711100542787093 0 0.40097752291506289 0.25902709479471048 0 0.38795285511664351 0.27501277358291848 0 0.40237095019481112 0.27711100542787093 0 0.38795285511664351 0.27501277358291848 0 0.39245341439736259 0.28869000139839213 0 0.37478492512234668 0.26235925763296819 0 0.40097752291506289 0.25902709479471048 0 0.37478492512234668 0.26235925763296819 0 0.40097752291506289 0.25902709479471048 0 0.38795285511664351 0.27501277358291848 0 0.37478492512234668 0.26235925763296819 0 0.40097752291506289 0.25902709479471048 0 0.39333580902427501 0.24081282939082621 0 0.37288852905391068 0.28307277276217568 0 0.37478492512234668 0.26235925763296819 0 0.38795285511664351 0.27501277358291848 0 0.37288852905391068 0.28307277276217568 0 0.38795285511664351 0.27501277358291848 0 0.39245341439736259 0.28869000139839213 0 0.37288852905391068 0.28307277276217568 0 0.38313639778678782 0.29894980138166888 0 0.39245341439736259 0.28869000139839213 0 0.38313639778678782 0.29894980138166888 0 0.40184121301557668 0.30678024061641418 0 0.38242981621443428 0.31397380775534678 0 0.36606901625265492 0.30223218437601618 0 0.38313639778678782 0.29894980138166888 0 0.38242981621443428 0.31397380775534678 0 0.38313639778678782 0.29894980138166888 0 0.40184121301557668 0.30678024061641418 0 0.39245341439736259 0.28869000139839213 0 0.40184121301557668 0.30678024061641418 0 0.39245341439736259 0.28869000139839213 0 0.4080647950624654 0.29173952990842672 0 0.40237095019481112 0.27711100542787093 0 0.39245341439736259 0.28869000139839213 0 0.4080647950624654 0.29173952990842672 0 0.4080647950624654 0.29173952990842672 0 0.42111158276914429 0.29961990628964941 0 0.41801819212357011 0.2740782959756311 0 0.42111158276914429 0.29961990628964941 0 0.41801819212357011 0.2740782959756311 0 0.42111158276914429 0.29961990628964941 0 0.41431845905081632 0.31211616404088999 0 0.42420497341471841 0.32516151660366771 0 0.40184121301557668 0.30678024061641418 0 0.41169384258873692 0.3030193229363472 0 0.41431845905081632 0.31211616404088999 0 0.4080647950624654 0.29173952990842672 0 0.41169384258873692 0.3030193229363472 0 0.42111158276914429 0.29961990628964941 0 0.40184121301557668 0.30678024061641418 0 0.4080647950624654 0.29173952990842672 0 0.41169384258873692 0.3030193229363472 0 0.41169384258873692 0.3030193229363472 0 0.42111158276914429 0.29961990628964941 0 0.41431845905081632 0.31211616404088999 0 0.42111158276914429 0.29961990628964941 0 0.42420497341471841 0.32516151660366771 0 0.42111158276914429 0.29961990628964941 0 0.42968026012840121 0.30115694743242971 0 0.43130474666914309 0.31304161877190062 0 0.42968026012840121 0.30115694743242971 0 0.44258646999382029 0.30990113159980692 0 0.42968026012840121 0.30115694743242971 0 0.44258646999382029 0.30990113159980692 0 0.43130474666914309 0.31304161877190062 0 0.42111158276914429 0.29961990628964941 0 0.42800801910193731 0.28582653817902792 0 0.41801819212357011 0.2740782959756311 0 0.42968026012840121 0.30115694743242971 0 0.42800801910193731 0.28582653817902792 0 0.44797459424715858 0.28113195035900113 0 0.42111158276914429 0.29961990628964941 0 0.42968026012840121 0.30115694743242971 0 0.42800801910193731 0.28582653817902792 0 0.4349067289361882 0.26981889711766149 0 0.41801819212357011 0.2740782959756311 0 0.42717012070777932 0.25569493195645271 0 0.42800801910193731 0.28582653817902792 0 0.4349067289361882 0.26981889711766149 0 0.44797459424715858 0.28113195035900113 0 0.42800801910193731 0.28582653817902792 0 0.4349067289361882 0.26981889711766149 0 0.41801819212357011 0.2740782959756311 0 0.40237095019481112 0.27711100542787093 0 0.4080647950624654 0.29173952990842672 0 0.41801819212357011 0.2740782959756311 0 0.40237095019481112 0.27711100542787093 0 0.40097752291506289 0.25902709479471048 0 0.41801819212357011 0.2740782959756311 0 0.40097752291506289 0.25902709479471048 0 0.42717012070777932 0.25569493195645271 0 0.40097752291506289 0.25902709479471048 0 0.41801819212357011 0.2740782959756311 0 0.42717012070777932 0.25569493195645271 0 0.40097752291506289 0.25902709479471048 0 0.42717012070777932 0.25569493195645271 0 0.41286841049430861 0.24788583003777651 0 0.42717012070777932 0.25569493195645271 0 0.45336271850049548 0.25236276911819511 0 0.42717012070777932 0.25569493195645271 0 0.45336271850049548 0.25236276911819511 0 0.44134696414428898 0.24814556957704689 0 0.4349067289361882 0.26981889711766149 0 0.42717012070777932 0.25569493195645271 0 0.45336271850049548 0.25236276911819511 0 0.44797459424715858 0.28113195035900113 0 0.45336271850049548 0.25236276911819511 0 0.4349067289361882 0.26981889711766149 0 0.44797459424715858 0.28113195035900113 0 0.45336271850049548 0.25236276911819511 0 0.44797459424715858 0.28113195035900113 0 0.46860043072286323 0.26090172283992602 0 0.47518926652314969 0.27560515809727743 0 0.44797459424715858 0.28113195035900113 0 0.45336271850049548 0.25236276911819511 0 0.46860043072286323 0.26090172283992602 0 0.45336271850049548 0.25236276911819511 0 0.46860043072286323 0.26090172283992602 0 0.48180965237011408 0.2487438147612096 0 0.45336271850049548 0.25236276911819511 0 0.48180965237011408 0.2487438147612096 0 0.46860043072286323 0.26090172283992602 0 0.48241006781490819 0.26268970127635521 0 0.48180965237011408 0.2487438147612096 0 0.46860043072286323 0.26090172283992602 0 0.48241006781490819 0.26268970127635521 0 0.47518926652314969 0.27560515809727743 0 0.48241006781490819 0.26268970127635521 0 0.47518926652314969 0.27560515809727743 0 0.48864569132575902 0.27555399191102209 0 0.48864569132575902 0.27555399191102209 0 0.5 0.25788891558126559 0 0.5 0.28784398070901179 0 0.48241006781490819 0.26268970127635521 0 0.5 0.25788891558126559 0 0.48180965237011408 0.2487438147612096 0 0.48241006781490819 0.26268970127635521 0 0.48864569132575902 0.27555399191102209 0 0.5 0.25788891558126559 0 0.49687855588093471 0.30562269631142192 0 0.5 0.28784398070901179 0 0.5 0.31779904583675789 0 0.48491490847636098 0.30901068293115042 0 0.49687855588093471 0.30562269631142192 0 0.48562912229073679 0.29374220389120048 0 0.48491490847636098 0.30901068293115042 0 0.49687855588093471 0.30562269631142192 0 0.48893996521802741 0.32077530068026477 0 0.48864569132575902 0.27555399191102209 0 0.5 0.28784398070901179 0 0.48562912229073679 0.29374220389120048 0 0.49687855588093471 0.30562269631142192 0 0.5 0.28784398070901179 0 0.48562912229073679 0.29374220389120048 0 0.47518926652314969 0.27560515809727743 0 0.48864569132575902 0.27555399191102209 0 0.48562912229073679 0.29374220389120048 0 0.47518926652314969 0.27560515809727743 0 0.48562912229073679 0.29374220389120048 0 0.46816558308298489 0.29083511245767268 0 0.48562912229073679 0.29374220389120048 0 0.47222103054853309 0.30536857664361422 0 0.46816558308298489 0.29083511245767268 0 0.48491490847636098 0.30901068293115042 0 0.48562912229073679 0.29374220389120048 0 0.47222103054853309 0.30536857664361422 0 0.48491490847636098 0.30901068293115042 0 0.47222103054853309 0.30536857664361422 0 0.47648252662976798 0.31886183994020412 0 0.47222103054853309 0.30536857664361422 0 0.45866337291811637 0.30169365927876157 0 0.46179392227446953 0.32291451832445861 0 0.45866337291811637 0.30169365927876157 0 0.44258646999382029 0.30990113159980692 0 0.46179392227446953 0.32291451832445861 0 0.47222103054853309 0.30536857664361422 0 0.45866337291811637 0.30169365927876157 0 0.46816558308298489 0.29083511245767268 0 0.44797459424715858 0.28113195035900113 0 0.45866337291811637 0.30169365927876157 0 0.46816558308298489 0.29083511245767268 0 0.44797459424715858 0.28113195035900113 0 0.47518926652314969 0.27560515809727743 0 0.46816558308298489 0.29083511245767268 0 0.44797459424715858 0.28113195035900113 0 0.44258646999382029 0.30990113159980692 0 0.42968026012840121 0.30115694743242971 0 0.44797459424715858 0.28113195035900113 0 0.44258646999382029 0.30990113159980692 0 0.44797459424715858 0.28113195035900113 0 0.45866337291811637 0.30169365927876157 0 0.44258646999382029 0.30990113159980692 0 0.44258646999382029 0.30990113159980692 0 0.46179392227446953 0.32291451832445861 0 0.44258646999382029 0.30990113159980692 0 0.43894044703962998 0.32936859193394902 0 0.46179392227446953 0.32291451832445861 0 0.44258646999382029 0.30990113159980692 0 0.43894044703962998 0.32936859193394902 0 0.44258646999382029 0.30990113159980692 0 0.43894044703962998 0.32936859193394902 0 0.43130474666914309 0.31304161877190062 0 0.43894044703962998 0.32936859193394902 0 0.45181909328986353 0.33594590439129729 0 0.43529442408543872 0.34883605226809089 0 0.43894044703962998 0.32936859193394902 0 0.45181909328986353 0.33594590439129729 0 0.46179392227446953 0.32291451832445861 0 0.45181909328986353 0.33594590439129729 0 0.46495921083649527 0.33796731498031379 0 0.45493863887308472 0.34850758154427958 0 0.45181909328986353 0.33594590439129729 0 0.46495921083649527 0.33796731498031379 0 0.46179392227446953 0.32291451832445861 0 0.47648252662976798 0.31886183994020412 0 0.48100137455512032 0.33592790504910791 0 0.48893996521802741 0.32077530068026477 0 0.46179392227446953 0.32291451832445861 0 0.47648252662976798 0.31886183994020412 0 0.48100137455512032 0.33592790504910791 0 0.47222103054853309 0.30536857664361422 0 0.46179392227446953 0.32291451832445861 0 0.47648252662976798 0.31886183994020412 0 0.48491490847636098 0.30901068293115042 0 0.47648252662976798 0.31886183994020412 0 0.48893996521802741 0.32077530068026477 0 0.46179392227446953 0.32291451832445861 0 0.48100137455512032 0.33592790504910791 0 0.46495921083649527 0.33796731498031379 0 0.48100137455512032 0.33592790504910791 0 0.47458285366073072 0.34817911082046721 0 0.46495921083649527 0.33796731498031379 0 0.46179392227446953 0.32291451832445861 0 0.48100137455512032 0.33592790504910791 0 0.48100137455512032 0.33592790504910791 0 0.47458285366073072 0.34817911082046721 0 0.48100137455512032 0.33592790504910791 0 0.48893996521802741 0.32077530068026477 0 0.48100137455512032 0.33592790504910791 0 0.4984937498586452 0.34777929695842291 0 0.5 0.31779904583675789 0 0.48893996521802741 0.32077530068026477 0 0.4984937498586452 0.34777929695842291 0 0.5 0.31779904583675789 0 0.4984937498586452 0.34777929695842291 0 0.50000000000000433 0.34775411096450393 0 0.48100137455512032 0.33592790504910791 0 0.48893996521802741 0.32077530068026477 0 0.4984937498586452 0.34777929695842291 0 0.49687855588093471 0.30562269631142192 0 0.48893996521802741 0.32077530068026477 0 0.49687855588093471 0.30562269631142192 0 0.5 0.31779904583675789 0 0.48893996521802741 0.32077530068026477 0 0.5 0.37175840028027313 0 0.48688174284785979 0.35971936811564431 0 0.50000000000000433 0.34775411096450393 0 0.5 0.37175840028027313 0 0.48688174284785979 0.35971936811564431 0 0.48177296974371542 0.3780796821533936 0 0.48100137455512032 0.33592790504910791 0 0.4984937498586452 0.34777929695842291 0 0.47458285366073072 0.34817911082046721 0 0.48688174284785979 0.35971936811564431 0 0.4984937498586452 0.34777929695842291 0 0.47458285366073072 0.34817911082046721 0 0.48688174284785979 0.35971936811564431 0 0.4984937498586452 0.34777929695842291 0 0.50000000000000433 0.34775411096450393 0 0.4984937498586452 0.34777929695842291 0 0.47458285366073072 0.34817911082046721 0 0.4984937498586452 0.34777929695842291 0 0.50000000000000433 0.34775411096450393 0 0.48688174284785979 0.35971936811564431 0 0.47458285366073072 0.34817911082046721 0 0.46644088382406917 0.36371991056145853 0 0.47458285366073072 0.34817911082046721 0 0.46644088382406917 0.36371991056145853 0 0.46644088382406917 0.36371991056145853 0 0.45829891398740957 0.37926071030245079 0 0.48177296974371542 0.3780796821533936 0 0.48688174284785979 0.35971936811564431 0 0.46644088382406917 0.36371991056145853 0 0.48177296974371542 0.3780796821533936 0 0.46644088382406917 0.36371991056145853 0 0.45829891398740957 0.37926071030245079 0 0.46644088382406917 0.36371991056145853 0 0.45450488254489102 0.36219879314378839 0 0.45829891398740957 0.37926071030245079 0 0.46495921083649527 0.33796731498031379 0 0.47458285366073072 0.34817911082046721 0 0.45493863887308472 0.34850758154427958 0 0.47458285366073072 0.34817911082046721 0 0.45493863887308472 0.34850758154427958 0 0.47458285366073072 0.34817911082046721 0 0.46644088382406917 0.36371991056145853 0 0.45493863887308472 0.34850758154427958 0 0.46644088382406917 0.36371991056145853 0 0.45450488254489102 0.36219879314378839 0 0.45493863887308472 0.34850758154427958 0 0.45181909328986353 0.33594590439129729 0 0.45493863887308472 0.34850758154427958 0 0.43529442408543872 0.34883605226809089 0 0.45493863887308472 0.34850758154427958 0 0.44448268479035308 0.35511800724889642 0 0.43529442408543872 0.34883605226809089 0 0.45493863887308472 0.34850758154427958 0 0.43529442408543872 0.34883605226809089 0 0.45450488254489102 0.36219879314378839 0 0.45493863887308472 0.34850758154427958 0 0.44448268479035308 0.35511800724889642 0 0.44448268479035308 0.35511800724889642 0 0.44279863902385319 0.36498191861006751 0 0.43487683942449812 0.35106569067825599 0 0.44448268479035308 0.35511800724889642 0 0.43529442408543872 0.34883605226809089 0 0.43487683942449812 0.35106569067825599 0 0.45450488254489102 0.36219879314378839 0 0.44279863902385319 0.36498191861006751 0 0.45829891398740957 0.37926071030245079 0 0.44279863902385319 0.36498191861006751 0 0.45829891398740957 0.37926071030245079 0 0.45450488254489102 0.36219879314378839 0 0.44448268479035308 0.35511800724889642 0 0.44279863902385319 0.36498191861006751 0 0.42892444364691579 0.3641293946929936 0 0.42225433889660879 0.37545697575276449 0 0.43605286711449009 0.38080977408974359 0 0.44279863902385319 0.36498191861006751 0 0.42892444364691579 0.3641293946929936 0 0.43605286711449009 0.38080977408974359 0 0.44279863902385319 0.36498191861006751 0 0.42892444364691579 0.3641293946929936 0 0.42729836406029548 0.35070312691768563 0 0.42892444364691579 0.3641293946929936 0 0.41660844069210962 0.35988002802349189 0 0.42225433889660879 0.37545697575276449 0 0.41660844069210962 0.35988002802349189 0 0.40918213701441342 0.3736144609854074 0 0.42225433889660879 0.37545697575276449 0 0.41660844069210962 0.35988002802349189 0 0.40918213701441342 0.3736144609854074 0 0.40205795884979889 0.36380219258680641 0 0.40642652845595439 0.35168475710611302 0 0.41593005466970517 0.35003896004439389 0 0.41338688547046137 0.33788792813028518 0 0.41660844069210962 0.35988002802349189 0 0.40642652845595439 0.35168475710611302 0 0.40205795884979889 0.36380219258680641 0 0.41660844069210962 0.35988002802349189 0 0.40642652845595439 0.35168475710611302 0 0.41593005466970517 0.35003896004439389 0 0.41660844069210962 0.35988002802349189 0 0.41593005466970517 0.35003896004439389 0 0.42729836406029548 0.35070312691768563 0 0.42729836406029548 0.35070312691768563 0 0.41338688547046137 0.33788792813028518 0 0.41593005466970517 0.35003896004439389 0 0.42729836406029548 0.35070312691768563 0 0.41338688547046137 0.33788792813028518 0 0.42892444364691579 0.3641293946929936 0 0.41660844069210962 0.35988002802349189 0 0.42729836406029548 0.35070312691768563 0 0.42892444364691579 0.3641293946929936 0 0.42729836406029548 0.35070312691768563 0 0.44279863902385319 0.36498191861006751 0 0.42729836406029548 0.35070312691768563 0 0.43487683942449812 0.35106569067825599 0 0.44279863902385319 0.36498191861006751 0 0.42729836406029548 0.35070312691768563 0 0.43109136567724748 0.3489063315667284 0 0.43529442408543872 0.34883605226809089 0 0.42729836406029548 0.35070312691768563 0 0.43109136567724748 0.3489063315667284 0 0.43487683942449812 0.35106569067825599 0 0.43109136567724748 0.3489063315667284 0 0.43529442408543872 0.34883605226809089 0 0.43487683942449812 0.35106569067825599 0 0.43529442408543872 0.34883605226809089 0 0.43487683942449812 0.35106569067825599 0 0.42729836406029548 0.35070312691768563 0 0.42420497341471841 0.32516151660366771 0 0.43894044703962998 0.32936859193394902 0 0.43529442408543872 0.34883605226809089 0 0.43894044703962998 0.32936859193394902 0 0.43109136567724748 0.3489063315667284 0 0.43529442408543872 0.34883605226809089 0 0.42729836406029548 0.35070312691768563 0 0.43109136567724748 0.3489063315667284 0 0.42420497341471841 0.32516151660366771 0 0.43894044703962998 0.32936859193394902 0 0.43109136567724748 0.3489063315667284 0 0.42420497341471841 0.32516151660366771 0 0.43894044703962998 0.32936859193394902 0 0.43130474666914309 0.31304161877190062 0 0.42420497341471841 0.32516151660366771 0 0.42111158276914429 0.29961990628964941 0 0.43130474666914309 0.31304161877190062 0 0.42420497341471841 0.32516151660366771 0 0.40184121301557668 0.30678024061641418 0 0.41431845905081632 0.31211616404088999 0 0.41140534993910638 0.32360132811636988 0 0.41431845905081632 0.31211616404088999 0 0.42420497341471841 0.32516151660366771 0 0.41140534993910638 0.32360132811636988 0 0.42729836406029548 0.35070312691768563 0 0.42420497341471841 0.32516151660366771 0 0.41338688547046137 0.33788792813028518 0 0.42420497341471841 0.32516151660366771 0 0.41140534993910638 0.32360132811636988 0 0.41338688547046137 0.33788792813028518 0 0.41140534993910638 0.32360132811636988 0 0.41338688547046137 0.33788792813028518 0 0.39947540688062583 0.32507272934288628 0 0.41338688547046137 0.33788792813028518 0 0.39947540688062583 0.32507272934288628 0 0.40642652845595439 0.35168475710611302 0 0.41338688547046137 0.33788792813028518 0 0.39105145014164849 0.3414869239971704 0 0.41338688547046137 0.33788792813028518 0 0.39105145014164849 0.3414869239971704 0 0.39947540688062583 0.32507272934288628 0 0.40184121301557668 0.30678024061641418 0 0.41140534993910638 0.32360132811636988 0 0.39947540688062583 0.32507272934288628 0 0.40184121301557668 0.30678024061641418 0 0.39947540688062583 0.32507272934288628 0 0.38242981621443428 0.31397380775534678 0 0.36562923609293069 0.32366592916769399 0 0.38242981621443428 0.31397380775534678 0 0.38128435600444488 0.32837669887387311 0 0.39947540688062583 0.32507272934288628 0 0.38242981621443428 0.31397380775534678 0 0.38128435600444488 0.32837669887387311 0 0.39105145014164849 0.3414869239971704 0 0.39947540688062583 0.32507272934288628 0 0.38128435600444488 0.32837669887387311 0 0.36518945593320651 0.34509967395937191 0 0.39105145014164849 0.3414869239971704 0 0.38128435600444488 0.32837669887387311 0 0.36518945593320651 0.34509967395937191 0 0.39105145014164849 0.3414869239971704 0 0.3855881021147175 0.35910908792858098 0 0.36474967577348072 0.36653341875104961 0 0.3855881021147175 0.35910908792858098 0 0.3855881021147175 0.35910908792858098 0 0.39248458597179969 0.37472262889043839 0 0.3773824667175657 0.37546563606013739 0 0.36474967577348072 0.36653341875104961 0 0.3855881021147175 0.35910908792858098 0 0.3773824667175657 0.37546563606013739 0 0.40918213701441342 0.3736144609854074 0 0.39248458597179969 0.37472262889043839 0 0.40205795884979889 0.36380219258680641 0 0.3855881021147175 0.35910908792858098 0 0.39248458597179969 0.37472262889043839 0 0.40205795884979889 0.36380219258680641 0 0.40642652845595439 0.35168475710611302 0 0.39105145014164849 0.3414869239971704 0 0.3855881021147175 0.35910908792858098 0 0.40642652845595439 0.35168475710611302 0 0.3855881021147175 0.35910908792858098 0 0.40642652845595439 0.35168475710611302 0 0.3855881021147175 0.35910908792858098 0 0.40205795884979889 0.36380219258680641 0 0.39221066862400811 0.40518894945558848 0 0.39940032860097008 0.38986983405391068 0 0.41033309730305728 0.40785957742124029 0 0.40918213701441342 0.3736144609854074 0 0.39248458597179969 0.37472262889043839 0 0.39940032860097008 0.38986983405391068 0 0.39248458597179969 0.37472262889043839 0 0.39940032860097008 0.38986983405391068 0 0.38026367080056678 0.39066664182047522 0 0.39248458597179969 0.37472262889043839 0 0.3773824667175657 0.37546563606013739 0 0.38026367080056678 0.39066664182047522 0 0.39221066862400811 0.40518894945558848 0 0.39940032860097008 0.38986983405391068 0 0.38026367080056678 0.39066664182047522 0 0.39221066862400811 0.40518894945558848 0 0.38026367080056678 0.39066664182047522 0 0.37744029411777058 0.41252948965876268 0 0.39221066862400811 0.40518894945558848 0 0.37744029411777058 0.41252948965876268 0 0.39361595229767549 0.42501920432355378 0 0.365542703577178 0.42914551292816783 0 0.39361595229767549 0.42501920432355378 0 0.37809165231809289 0.44568724501072521 0 0.365542703577178 0.42914551292816783 0 0.37744029411777058 0.41252948965876268 0 0.39361595229767549 0.42501920432355378 0 0.365542703577178 0.42914551292816783 0 0.39361595229767549 0.42501920432355378 0 0.39361595229767549 0.42501920432355378 0 0.41035062152962531 0.4256058815429955 0 0.40092741287151468 0.44093224530230651 0 0.39361595229767549 0.42501920432355378 0 0.40092741287151468 0.44093224530230651 0 0.37809165231809289 0.44568724501072521 0 0.39361595229767549 0.42501920432355378 0 0.41033309730305728 0.40785957742124029 0 0.41035062152962531 0.4256058815429955 0 0.39221066862400811 0.40518894945558848 0 0.39361595229767549 0.42501920432355378 0 0.41033309730305728 0.40785957742124029 0 0.41033309730305728 0.40785957742124029 0 0.41035062152962531 0.4256058815429955 0 0.42646345733135449 0.42088686527347441 0 0.41035062152962531 0.4256058815429955 0 0.4216403136361262 0.43569606407888728 0 0.42646345733135449 0.42088686527347441 0 0.41035062152962531 0.4256058815429955 0 0.4216403136361262 0.43569606407888728 0 0.40092741287151468 0.44093224530230651 0 0.43504649219903713 0.43385430946487219 0 0.42646345733135449 0.42088686527347441 0 0.44292677264660579 0.42392515796168401 0 0.4216403136361262 0.43569606407888728 0 0.43504649219903713 0.43385430946487219 0 0.42646345733135449 0.42088686527347441 0 0.4216403136361262 0.43569606407888728 0 0.43504649219903713 0.43385430946487219 0 0.4309855774719657 0.44262377444488737 0 0.41033309730305728 0.40785957742124029 0 0.42646345733135449 0.42088686527347441 0 0.43473852811684172 0.40482082561786309 0 0.42646345733135449 0.42088686527347441 0 0.43473852811684172 0.40482082561786309 0 0.44292677264660579 0.42392515796168401 0 0.43473852811684172 0.40482082561786309 0 0.42003555557297712 0.38799376876492359 0 0.43605286711449009 0.38080977408974359 0 0.41033309730305728 0.40785957742124029 0 0.43473852811684172 0.40482082561786309 0 0.42003555557297712 0.38799376876492359 0 0.39940032860097008 0.38986983405391068 0 0.41033309730305728 0.40785957742124029 0 0.42003555557297712 0.38799376876492359 0 0.40918213701441342 0.3736144609854074 0 0.39940032860097008 0.38986983405391068 0 0.42003555557297712 0.38799376876492359 0 0.40918213701441342 0.3736144609854074 0 0.42003555557297712 0.38799376876492359 0 0.42225433889660879 0.37545697575276449 0 0.42003555557297712 0.38799376876492359 0 0.42225433889660879 0.37545697575276449 0 0.43605286711449009 0.38080977408974359 0 0.44279863902385319 0.36498191861006751 0 0.43605286711449009 0.38080977408974359 0 0.45829891398740957 0.37926071030245079 0 0.43605286711449009 0.38080977408974359 0 0.44916269767969552 0.39669925538146661 0 0.45829891398740957 0.37926071030245079 0 0.43473852811684172 0.40482082561786309 0 0.43605286711449009 0.38080977408974359 0 0.44916269767969552 0.39669925538146661 0 0.43473852811684172 0.40482082561786309 0 0.44916269767969552 0.39669925538146661 0 0.45819524916971172 0.41557138043250991 0 0.44916269767969552 0.39669925538146661 0 0.47914945699370431 0.3984681476517854 0 0.45819524916971172 0.41557138043250991 0 0.44916269767969552 0.39669925538146661 0 0.45829891398740957 0.37926071030245079 0 0.47914945699370431 0.3984681476517854 0 0.45829891398740957 0.37926071030245079 0 0.47914945699370431 0.3984681476517854 0 0.44916269767969552 0.39669925538146661 0 0.45829891398740957 0.37926071030245079 0 0.45829891398740957 0.37926071030245079 0 0.48177296974371542 0.3780796821533936 0 0.47914945699370431 0.3984681476517854 0 0.47914945699370431 0.3984681476517854 0 0.5 0.39471699264069632 0 0.49999999999999928 0.41767558500111929 0 0.48177296974371542 0.3780796821533936 0 0.47914945699370431 0.3984681476517854 0 0.5 0.39471699264069632 0 0.5 0.37175840028027313 0 0.48177296974371542 0.3780796821533936 0 0.5 0.39471699264069632 0 0.48950419912568011 0.43203648207583117 0 0.49999999999999928 0.41767558500111929 0 0.47941257652712138 0.42859526255965119 0 0.48950419912568011 0.43203648207583117 0 0.49999999999999928 0.41767558500111929 0 0.50000000000000022 0.44212157098762489 0 0.49999999999999928 0.41767558500111929 0 0.47638758820359789 0.4177788365799131 0 0.47941257652712138 0.42859526255965119 0 0.47914945699370431 0.3984681476517854 0 0.49999999999999928 0.41767558500111929 0 0.47638758820359789 0.4177788365799131 0 0.47914945699370431 0.3984681476517854 0 0.49999999999999928 0.41767558500111929 0 0.47914945699370431 0.3984681476517854 0 0.47638758820359789 0.4177788365799131 0 0.45819524916971172 0.41557138043250991 0 0.47638758820359789 0.4177788365799131 0 0.46959145424244531 0.42892785421681912 0 0.47941257652712138 0.42859526255965119 0 0.48950419912568011 0.43203648207583117 0 0.47941257652712138 0.42859526255965119 0 0.47860421997559988 0.43975350975492877 0 0.46959145424244531 0.42892785421681912 0 0.47941257652712138 0.42859526255965119 0 0.47860421997559988 0.43975350975492877 0 0.46959145424244531 0.42892785421681912 0 0.45720843995119947 0.43738544852223271 0 0.45819524916971172 0.41557138043250991 0 0.46959145424244531 0.42892785421681912 0 0.45720843995119947 0.43738544852223271 0 0.47860421997559988 0.43975350975492877 0 0.47638758820359789 0.4177788365799131 0 0.46959145424244531 0.42892785421681912 0 0.45819524916971172 0.41557138043250991 0 0.43473852811684172 0.40482082561786309 0 0.45819524916971172 0.41557138043250991 0 0.44292677264660579 0.42392515796168401 0 0.45720843995119947 0.43738544852223271 0 0.45819524916971172 0.41557138043250991 0 0.44292677264660579 0.42392515796168401 0 0.45720843995119947 0.43738544852223271 0 0.44292677264660579 0.42392515796168401 0 0.44501475256406542 0.43710487641451851 0 0.43504649219903713 0.43385430946487219 0 0.44292677264660579 0.42392515796168401 0 0.44501475256406542 0.43710487641451851 0 0.44501475256406542 0.43710487641451851 0 0.44086930591740259 0.443703986550611 0 0.44426520485267701 0.44828521544284999 0 0.43504649219903713 0.43385430946487219 0 0.44501475256406542 0.43710487641451851 0 0.44086930591740259 0.443703986550611 0 0.44576605402647751 0.45131382091928901 0 0.43097115028835131 0.45382894378787952 0 0.4371491165808723 0.44919465112914592 0 0.44086930591740259 0.443703986550611 0 0.44106718496795649 0.44783878756079798 0 0.4371491165808723 0.44919465112914592 0 0.44106718496795649 0.44783878756079798 0 0.44576605402647751 0.45131382091928901 0 0.4371491165808723 0.44919465112914592 0 0.44086930591740259 0.443703986550611 0 0.44426520485267701 0.44828521544284999 0 0.44106718496795649 0.44783878756079798 0 0.44426520485267701 0.44828521544284999 0 0.44576605402647751 0.45131382091928901 0 0.44086930591740259 0.443703986550611 0 0.44106718496795649 0.44783878756079798 0 0.44426520485267701 0.44828521544284999 0 0.45720843995119947 0.43738544852223271 0 0.44501475256406542 0.43710487641451851 0 0.44426520485267701 0.44828521544284999 0 0.44576605402647751 0.45131382091928901 0 0.44334270512280699 0.46695283516179431 0 0.45751300038554987 0.46615712058798953 0 0.44426520485267701 0.44828521544284999 0 0.45751300038554987 0.46615712058798953 0 0.44576605402647751 0.45131382091928901 0 0.44334270512280699 0.46695283516179431 0 0.42744619309891668 0.4675425472795256 0 0.44426520485267701 0.44828521544284999 0 0.44576605402647751 0.45131382091928901 0 0.45751300038554987 0.46615712058798953 0 0.44426520485267701 0.44828521544284999 0 0.45751300038554987 0.46615712058798953 0 0.47213260242633898 0.44992772785007767 0 0.44426520485267701 0.44828521544284999 0 0.47213260242633898 0.44992772785007767 0 0.45720843995119947 0.43738544852223271 0 0.47860421997559988 0.43975350975492877 0 0.45720843995119947 0.43738544852223271 0 0.44426520485267701 0.44828521544284999 0 0.47213260242633898 0.44992772785007767 0 0.47213260242633898 0.44992772785007767 0 0.47860421997559988 0.43975350975492877 0 0.50000000000000067 0.45157024025730719 0 0.45720843995119947 0.43738544852223271 0 0.47213260242633898 0.44992772785007767 0 0.47860421997559988 0.43975350975492877 0 0.47213260242633898 0.44992772785007767 0 0.48064266697128027 0.4673483066551633 0 0.50000000000000067 0.45157024025730719 0 0.45751300038554987 0.46615712058798953 0 0.47213260242633898 0.44992772785007767 0 0.48064266697128027 0.4673483066551633 0 0.48064266697128027 0.4673483066551633 0 0.5 0.46843982966384828 0 0.50000000000000067 0.45157024025730719 0 0.47860421997559988 0.43975350975492877 0 0.50000000000000022 0.44212157098762489 0 0.47860421997559988 0.43975350975492877 0 0.50000000000000067 0.45157024025730719 0 0.50000000000000022 0.44212157098762489 0 0.47213260242633898 0.44992772785007767 0 0.50000000000000067 0.45157024025730719 0 0.48950419912568011 0.43203648207583117 0 0.47860421997559988 0.43975350975492877 0 0.50000000000000022 0.44212157098762489 0 0.48834007405180069 0.49233461120087918 0 0.50000000000000222 0.48530941907038949 0 0.47076079591842229 0.48402902573312923 0 0.48834007405180069 0.49233461120087918 0 0.5 0.5 0 0.48259950028877657 0.49999999999999922 0 0.50000000000000222 0.48530941907038949 0 0.47076079591842229 0.48402902573312923 0 0.48834007405180069 0.49233461120087918 0 0.5 0.5 0 0.50000000000000222 0.48530941907038949 0 0.50000000000000222 0.48530941907038949 0 0.48785086572242647 0.47628164528063233 0 0.47076079591842229 0.48402902573312923 0 0.48064266697128027 0.4673483066551633 0 0.5 0.46843982966384828 0 0.48785086572242647 0.47628164528063233 0 0.5 0.46843982966384828 0 0.50000000000000222 0.48530941907038949 0 0.48785086572242647 0.47628164528063233 0 0.45751300038554987 0.46615712058798953 0 0.48064266697128027 0.4673483066551633 0 0.47076079591842229 0.48402902573312923 0 0.48064266697128027 0.4673483066551633 0 0.48785086572242647 0.47628164528063233 0 0.47076079591842229 0.48402902573312923 0 0.47076079591842229 0.48402902573312923 0 0.48259950028877657 0.49999999999999922 0 0.45965124302753141 0.5 0 0.48834007405180069 0.49233461120087918 0 0.47076079591842229 0.48402902573312923 0 0.48259950028877657 0.49999999999999922 0 0.47076079591842229 0.48402902573312923 0 0.48259950028877657 0.49999999999999922 0 0.47076079591842229 0.48402902573312923 0 0.45965124302753141 0.5 0 0.44264557298028417 0.48279785186037327 0 0.45751300038554987 0.46615712058798953 0 0.47076079591842229 0.48402902573312923 0 0.47076079591842229 0.48402902573312923 0 0.44264557298028417 0.48279785186037327 0 0.45751300038554987 0.46615712058798953 0 0.47076079591842229 0.48402902573312923 0 0.44264557298028417 0.48279785186037327 0 0.44334270512280699 0.46695283516179431 0 0.44264557298028417 0.48279785186037327 0 0.42744619309891668 0.4675425472795256 0 0.44334270512280699 0.46695283516179431 0 0.45751300038554987 0.46615712058798953 0 0.44264557298028417 0.48279785186037327 0 0.45965124302753141 0.5 0 0.44264557298028417 0.48279785186037327 0 0.43670298576628619 0.5 0 0.44264557298028417 0.48279785186037327 0 0.42814010978677508 0.48883471415535268 0 0.41453035004214622 0.48156667798761449 0 0.43670298576628619 0.5 0 0.42814010978677508 0.48883471415535268 0 0.41868153035838401 0.49097432677342312 0 0.44264557298028417 0.48279785186037327 0 0.43670298576628619 0.5 0 0.42814010978677508 0.48883471415535268 0 0.43670298576628619 0.5 0 0.41375472850504103 0.5 0 0.41868153035838401 0.49097432677342312 0 0.41375472850504103 0.5 0 0.41868153035838401 0.49097432677342312 0 0.40912633217135602 0.48377127363976219 0 0.42814010978677508 0.48883471415535268 0 0.41868153035838401 0.49097432677342312 0 0.41453035004214622 0.48156667798761449 0 0.41868153035838401 0.49097432677342312 0 0.40912633217135602 0.48377127363976219 0 0.41453035004214622 0.48156667798761449 0 0.40882198151684829 0.470458307354371 0 0.40912633217135602 0.48377127363976219 0 0.42744619309891668 0.4675425472795256 0 0.40912633217135602 0.48377127363976219 0 0.42744619309891668 0.4675425472795256 0 0.40912633217135602 0.48377127363976219 0 0.41453035004214622 0.48156667798761449 0 0.42744619309891668 0.4675425472795256 0 0.40882198151684829 0.470458307354371 0 0.40912633217135602 0.48377127363976219 0 0.40257181831080802 0.47789339995616598 0 0.44264557298028417 0.48279785186037327 0 0.41453035004214622 0.48156667798761449 0 0.44264557298028417 0.48279785186037327 0 0.41453035004214622 0.48156667798761449 0 0.42744619309891668 0.4675425472795256 0 0.44576605402647751 0.45131382091928901 0 0.42744619309891668 0.4675425472795256 0 0.44576605402647751 0.45131382091928901 0 0.43097115028835131 0.45382894378787952 0 0.42744619309891668 0.4675425472795256 0 0.43097115028835131 0.45382894378787952 0 0.42744619309891668 0.4675425472795256 0 0.41709851720120961 0.46055572465752248 0 0.44086930591740259 0.443703986550611 0 0.4309855774719657 0.44262377444488737 0 0.4371491165808723 0.44919465112914592 0 0.43504649219903713 0.43385430946487219 0 0.44086930591740259 0.443703986550611 0 0.4309855774719657 0.44262377444488737 0 0.43097115028835131 0.45382894378787952 0 0.4309855774719657 0.44262377444488737 0 0.4371491165808723 0.44919465112914592 0 0.43097115028835131 0.45382894378787952 0 0.4309855774719657 0.44262377444488737 0 0.41665312800777271 0.44940921386284588 0 0.4216403136361262 0.43569606407888728 0 0.4309855774719657 0.44262377444488737 0 0.41665312800777271 0.44940921386284588 0 0.41665312800777271 0.44940921386284588 0 0.4029362549212489 0.45832899449672349 0 0.40092741287151468 0.44093224530230651 0 0.4216403136361262 0.43569606407888728 0 0.41665312800777271 0.44940921386284588 0 0.40092741287151468 0.44093224530230651 0 0.40882198151684829 0.470458307354371 0 0.42744619309891668 0.4675425472795256 0 0.41709851720120961 0.46055572465752248 0 0.43097115028835131 0.45382894378787952 0 0.41665312800777271 0.44940921386284588 0 0.41709851720120961 0.46055572465752248 0 0.41665312800777271 0.44940921386284588 0 0.41709851720120961 0.46055572465752248 0 0.4029362549212489 0.45832899449672349 0 0.40882198151684829 0.470458307354371 0 0.41709851720120961 0.46055572465752248 0 0.4029362549212489 0.45832899449672349 0 0.40882198151684829 0.470458307354371 0 0.4029362549212489 0.45832899449672349 0 0.3944208343110962 0.47305259584339332 0 0.4029362549212489 0.45832899449672349 0 0.38943508825963058 0.45629052964312111 0 0.3944208343110962 0.47305259584339332 0 0.4029362549212489 0.45832899449672349 0 0.40092741287151468 0.44093224530230651 0 0.38943508825963058 0.45629052964312111 0 0.40092741287151468 0.44093224530230651 0 0.37809165231809289 0.44568724501072521 0 0.38943508825963058 0.45629052964312111 0 0.37809165231809289 0.44568724501072521 0 0.38943508825963058 0.45629052964312111 0 0.37844435483634198 0.4675903904274426 0 0.38943508825963058 0.45629052964312111 0 0.37844435483634198 0.4675903904274426 0 0.3944208343110962 0.47305259584339332 0 0.37844435483634198 0.4675903904274426 0 0.38120033573297152 0.48442634992442057 0 0.3944208343110962 0.47305259584339332 0 0.38120033573297152 0.48442634992442057 0 0.3944208343110962 0.47305259584339332 0 0.39562515835400552 0.48382872387274839 0 0.36196284501337178 0.5 0 0.38120033573297152 0.48442634992442057 0 0.39080647124379558 0.49999999999999922 0 0.38120033573297152 0.48442634992442057 0 0.39080647124379558 0.49999999999999922 0 0.39562515835400552 0.48382872387274839 0 0.40912633217135602 0.48377127363976219 0 0.39080647124379558 0.49999999999999922 0 0.40912633217135602 0.48377127363976219 0 0.39080647124379558 0.49999999999999922 0 0.39562515835400552 0.48382872387274839 0 0.41375472850504103 0.5 0 0.40912633217135602 0.48377127363976219 0 0.39080647124379558 0.49999999999999922 0 0.40912633217135602 0.48377127363976219 0 0.40257181831080802 0.47789339995616598 0 0.39562515835400552 0.48382872387274839 0 0.40882198151684829 0.470458307354371 0 0.40257181831080802 0.47789339995616598 0 0.3944208343110962 0.47305259584339332 0 0.40257181831080802 0.47789339995616598 0 0.3944208343110962 0.47305259584339332 0 0.39562515835400552 0.48382872387274839 0 0.34137977846588119 0.091947059702449957 0 0.3184977734976509 0.082531855017860187 0 0.34137977846588119 0.091947059702449957 0 0.33853514524224232 0.092154422351098803 0 0.3184977734976509 0.082531855017860187 0 0.33853514524224232 0.092154422351098803 0 0.3184977734976509 0.082531855017860187 0 0.3305269393921435 0.093893314460775035 0 0.34137977846588119 0.091947059702449957 0 0.33488127772135701 0.070909675734900868 0 0.3184977734976509 0.082531855017860187 0 0.33488127772135701 0.070909675734900868 0 0.35624300874513559 0.071190975121652081 0 0.33828509493208109 0.051113002016081502 0 0.3184977734976509 0.082531855017860187 0 0.31750720709783492 0.060828210965220328 0 0.30506359630307739 0.067813250175554993 0 0.33488127772135701 0.070909675734900868 0 0.32846421329825382 0.059059627678852658 0 0.31750720709783492 0.060828210965220328 0 0.33488127772135701 0.070909675734900868 0 0.3184977734976509 0.082531855017860187 0 0.31750720709783492 0.060828210965220328 0 0.3184977734976509 0.082531855017860187 0 0.3254096333834442 0.096971455496547829 0 0.3305269393921435 0.093893314460775035 0 0.3184977734976509 0.082531855017860187 0 0.3254096333834442 0.096971455496547829 0 0.31111548734401751 0.094174984339189319 0 0.3254096333834442 0.096971455496547829 0 0.33219394353324039 0.1121017755840282 0 0.31111548734401751 0.094174984339189319 0 0.33219394353324039 0.1121017755840282 0 0.31111548734401751 0.094174984339189319 0 0.33219394353324039 0.1121017755840282 0 0.31151194808720201 0.1150643222194616 0 0.31111548734401751 0.094174984339189319 0 0.33219394353324039 0.1121017755840282 0 0.31151194808720201 0.1150643222194616 0 0.32387679174541939 0.1297141718462434 0 0.33219394353324039 0.1121017755840282 0 0.32387679174541939 0.1297141718462434 0 0.35327239972246333 0.1300285668288671 0 0.33219394353324039 0.1121017755840282 0 0.35327239972246333 0.1300285668288671 0 0.33219394353324039 0.1121017755840282 0 0.34279585490336462 0.1026082003979065 0 0.35159211237321392 0.11222190062690381 0 0.33853514524224232 0.092154422351098803 0 0.3305269393921435 0.093893314460775035 0 0.33650548478629722 0.09727411407467923 0 0.3254096333834442 0.096971455496547829 0 0.33351858274250701 0.1005678965871936 0 0.3305269393921435 0.093893314460775035 0 0.33351858274250701 0.1005678965871936 0 0.3305269393921435 0.093893314460775035 0 0.33650548478629722 0.09727411407467923 0 0.3254096333834442 0.096971455496547829 0 0.33219394353324039 0.1121017755840282 0 0.33351858274250701 0.1005678965871936 0 0.33219394353324039 0.1121017755840282 0 0.33351858274250701 0.1005678965871936 0 0.34279585490336462 0.1026082003979065 0 0.33351858274250701 0.1005678965871936 0 0.34279585490336462 0.1026082003979065 0 0.33650548478629722 0.09727411407467923 0 0.33853514524224232 0.092154422351098803 0 0.34279585490336462 0.1026082003979065 0 0.33650548478629722 0.09727411407467923 0 0.34279585490336462 0.1026082003979065 0 0.35159211237321392 0.11222190062690381 0 0.36426178343411147 0.1013622643870397 0 0.33853514524224232 0.092154422351098803 0 0.34279585490336462 0.1026082003979065 0 0.36426178343411147 0.1013622643870397 0 0.34137977846588119 0.091947059702449957 0 0.33853514524224232 0.092154422351098803 0 0.36426178343411147 0.1013622643870397 0 0.33853514524224232 0.092154422351098803 0 0.36426178343411147 0.1013622643870397 0 0.34137977846588119 0.091947059702449957 0 0.36426178343411147 0.1013622643870397 0 0.33219394353324039 0.1121017755840282 0 0.35159211237321392 0.11222190062690381 0 0.35327239972246333 0.1300285668288671 0 0.35159211237321392 0.11222190062690381 0 0.36649271172908648 0.1176987398754743 0 0.35327239972246333 0.1300285668288671 0 0.35159211237321392 0.11222190062690381 0 0.36649271172908648 0.1176987398754743 0 0.36426178343411147 0.1013622643870397 0 0.36649271172908648 0.1176987398754743 0 0.36938385952287339 0.13266757129752671 0 0.38138511069115272 0.12353481432135879 0 0.36649271172908648 0.1176987398754743 0 0.36426178343411147 0.1013622643870397 0 0.3795225325030368 0.1068242515199407 0 0.36426178343411147 0.1013622643870397 0 0.3795225325030368 0.1068242515199407 0 0.36426178343411147 0.1013622643870397 0 0.3742009225581896 0.091268948227223284 0 0.3795225325030368 0.1068242515199407 0 0.3742009225581896 0.091268948227223284 0 0.35754778501084228 0.087847667021068221 0 0.35624300874513559 0.071190975121652081 0 0.36426178343411147 0.1013622643870397 0 0.3742009225581896 0.091268948227223284 0 0.35754778501084228 0.087847667021068221 0 0.3742009225581896 0.091268948227223284 0 0.35624300874513559 0.071190975121652081 0 0.34137977846588119 0.091947059702449957 0 0.35754778501084228 0.087847667021068221 0 0.35624300874513559 0.071190975121652081 0 0.34137977846588119 0.091947059702449957 0 0.36426178343411147 0.1013622643870397 0 0.35754778501084228 0.087847667021068221 0 0.34137977846588119 0.091947059702449957 0 0.33488127772135701 0.070909675734900868 0 0.35624300874513559 0.071190975121652081 0 0.3742009225581896 0.091268948227223284 0 0.35624300874513559 0.071190975121652081 0 0.37575225644292037 0.071709270247263784 0 0.35624300874513559 0.071190975121652081 0 0.36737709041569239 0.056764699852256018 0 0.37575225644292037 0.071709270247263784 0 0.36737709041569239 0.056764699852256018 0 0.36443667806580698 0.054513224756226962 0 0.39058826119953283 0.057913447496371839 0 0.36443667806580698 0.054513224756226962 0 0.36984281421283938 0.03924660656396721 0 0.37608467898805159 0.048096788967416412 0 0.36984281421283938 0.03924660656396721 0 0.35576481933353549 0.041718099984820838 0 0.3798040161112804 0.028996110171619349 0 0.35576481933353549 0.041718099984820838 0 0.36136411866671431 0.026161729739540451 0 0.37786156531075732 0.02725125369877367 0 0.35576481933353549 0.041718099984820838 0 0.3798040161112804 0.028996110171619349 0 0.37786156531075732 0.02725125369877367 0 0.35576481933353549 0.041718099984820838 0 0.3798040161112804 0.028996110171619349 0 0.36984281421283938 0.03924660656396721 0 0.37726993283737248 0.041439113600633092 0 0.37608467898805159 0.048096788967416412 0 0.36984281421283938 0.03924660656396721 0 0.37675727284589372 0.036323400775862158 0 0.37726993283737248 0.041439113600633092 0 0.36443667806580698 0.054513224756226962 0 0.36984281421283938 0.03924660656396721 0 0.35576481933353549 0.041718099984820838 0 0.35576481933353549 0.041718099984820838 0 0.36136411866671431 0.026161729739540451 0 0.34099279295720591 0.031691385536231111 0 0.35576481933353549 0.041718099984820838 0 0.34539840685914608 0.044617690611648012 0 0.34099279295720591 0.031691385536231111 0 0.35624300874513559 0.071190975121652081 0 0.34416591963185211 0.055615952208139578 0 0.33828509493208109 0.051113002016081502 0 0.36443667806580698 0.054513224756226962 0 0.34416591963185211 0.055615952208139578 0 0.33828509493208109 0.051113002016081502 0 0.36737709041569239 0.056764699852256018 0 0.34416591963185211 0.055615952208139578 0 0.35624300874513559 0.071190975121652081 0 0.33828509493208109 0.051113002016081502 0 0.35624300874513559 0.071190975121652081 0 0.36737709041569239 0.056764699852256018 0 0.34416591963185211 0.055615952208139578 0 0.36443667806580698 0.054513224756226962 0 0.33828509493208109 0.051113002016081502 0 0.36443667806580698 0.054513224756226962 0 0.34539840685914608 0.044617690611648012 0 0.33828509493208109 0.051113002016081502 0 0.36443667806580698 0.054513224756226962 0 0.35576481933353549 0.041718099984820838 0 0.34539840685914608 0.044617690611648012 0 0.36737709041569239 0.056764699852256018 0 0.36443667806580698 0.054513224756226962 0 0.34416591963185211 0.055615952208139578 0 0.35686418876597309 0.010252504770385159 0 0.37537418671591988 0.012891754799621079 0 0.3700201466167648 -0.002195575246397889 0 0.35686418876597309 0.010252504770385159 0 0.37786156531075732 0.02725125369877367 0 0.36136411866671431 0.026161729739540451 0 0.35686418876597309 0.010252504770385159 0 0.37786156531075732 0.02725125369877367 0 0.35686418876597309 0.010252504770385159 0 0.37537418671591988 0.012891754799621079 0 0.37786156531075732 0.02725125369877367 0 0.36136411866671431 0.026161729739540451 0 0.35686418876597309 0.010252504770385159 0 0.34167945108238768 0.015605415956853899 0 0.36136411866671431 0.026161729739540451 0 0.34167945108238768 0.015605415956853899 0 0.34099279295720591 0.031691385536231111 0 0.35686418876597309 0.010252504770385159 0 0.34167945108238768 0.015605415956853899 0 0.33586681222118892 -0.0067462441580033658 0 0.35686418876597309 0.010252504770385159 0 0.33586681222118892 -0.0067462441580033658 0 0.34167945108238768 0.015605415956853899 0 0.32490055802469708 0.021190940670656921 0 0.33586681222118892 -0.0067462441580033658 0 0.34167945108238768 0.015605415956853899 0 0.32490055802469708 0.021190940670656921 0 0.34099279295720591 0.031691385536231111 0 0.32490055802469708 0.021190940670656921 0 0.34099279295720591 0.031691385536231111 0 0.32801258046435111 0.036170166979635328 0 0.32490055802469708 0.021190940670656921 0 0.31497710433926901 0.036033128519756527 0 0.30595588987094691 0.026092456194660541 0 0.32490055802469708 0.021190940670656921 0 0.31046320235639918 0.0067575729804437252 0 0.30595588987094691 0.026092456194660541 0 0.32490055802469708 0.021190940670656921 0 0.32801258046435111 0.036170166979635328 0 0.31497710433926901 0.036033128519756527 0 0.32490055802469708 0.021190940670656921 0 0.31046320235639918 0.0067575729804437252 0 0.33586681222118892 -0.0067462441580033658 0 0.33488127772135701 0.070909675734900868 0 0.32846421329825382 0.059059627678852658 0 0.33828509493208109 0.051113002016081502 0 0.33828509493208109 0.051113002016081502 0 0.33632782521092219 0.048924662700562782 0 0.31456469921871788 0.048028881697348168 0 0.34539840685914608 0.044617690611648012 0 0.33828509493208109 0.051113002016081502 0 0.33632782521092219 0.048924662700562782 0 0.33828509493208109 0.051113002016081502 0 0.33632782521092219 0.048924662700562782 0 0.34539840685914608 0.044617690611648012 0 0.33609782728063148 0.04111054955314445 0 0.34099279295720591 0.031691385536231111 0 0.34539840685914608 0.044617690611648012 0 0.33632782521092219 0.048924662700562782 0 0.33609782728063148 0.04111054955314445 0 0.33609782728063148 0.04111054955314445 0 0.34099279295720591 0.031691385536231111 0 0.32801258046435111 0.036170166979635328 0 0.33632782521092219 0.048924662700562782 0 0.33609782728063148 0.04111054955314445 0 0.33051084790212298 0.042529329228536181 0 0.33632782521092219 0.048924662700562782 0 0.33051084790212298 0.042529329228536181 0 0.32327528761916352 0.043108517346294839 0 0.33609782728063148 0.04111054955314445 0 0.33051084790212298 0.042529329228536181 0 0.32801258046435111 0.036170166979635328 0 0.33632782521092219 0.048924662700562782 0 0.32327528761916352 0.043108517346294839 0 0.31456469921871788 0.048028881697348168 0 0.33051084790212298 0.042529329228536181 0 0.32327528761916352 0.043108517346294839 0 0.32801258046435111 0.036170166979635328 0 0.32327528761916352 0.043108517346294839 0 0.32801258046435111 0.036170166979635328 0 0.31497710433926901 0.036033128519756527 0 0.32327528761916352 0.043108517346294839 0 0.31497710433926901 0.036033128519756527 0 0.31456469921871788 0.048028881697348168 0 0.33828509493208109 0.051113002016081502 0 0.31456469921871788 0.048028881697348168 0 0.32846421329825382 0.059059627678852658 0 0.33828509493208109 0.051113002016081502 0 0.31456469921871788 0.048028881697348168 0 0.32846421329825382 0.059059627678852658 0 0.31456469921871788 0.048028881697348168 0 0.31750720709783492 0.060828210965220328 0 0.31456469921871788 0.048028881697348168 0 0.31750720709783492 0.060828210965220328 0 0.30386903740065402 0.05697431224277244 0 0.31750720709783492 0.060828210965220328 0 0.30386903740065402 0.05697431224277244 0 0.30506359630307739 0.067813250175554993 0 0.31456469921871788 0.048028881697348168 0 0.30386903740065402 0.05697431224277244 0 0.29084430350535467 0.044944761378613682 0 0.30386903740065402 0.05697431224277244 0 0.29325963230024937 0.057606978803657879 0 0.29690158384745241 0.06457818982176422 0 0.31456469921871788 0.048028881697348168 0 0.30257644158749403 0.037675663858353942 0 0.29084430350535467 0.044944761378613682 0 0.31456469921871788 0.048028881697348168 0 0.29084430350535467 0.044944761378613682 0 0.30257644158749403 0.037675663858353942 0 0.28728110375769011 0.032980092644635972 0 0.30595588987094691 0.026092456194660541 0 0.31497710433926901 0.036033128519756527 0 0.31456469921871788 0.048028881697348168 0 0.30257644158749403 0.037675663858353942 0 0.31497710433926901 0.036033128519756527 0 0.30257644158749403 0.037675663858353942 0 0.30595588987094691 0.026092456194660541 0 0.28728110375769011 0.032980092644635972 0 0.28354425329012439 0.021068516806879451 0 0.27754771987688809 0.040797440569893019 0 0.30257644158749403 0.037675663858353942 0 0.29084430350535467 0.044944761378613682 0 0.28728110375769011 0.032980092644635972 0 0.28728110375769011 0.032980092644635972 0 0.2844924432277231 0.043204628682168907 0 0.27754771987688809 0.040797440569893019 0 0.29084430350535467 0.044944761378613682 0 0.28728110375769011 0.032980092644635972 0 0.2844924432277231 0.043204628682168907 0 0.2844924432277231 0.043204628682168907 0 0.28229664577095948 0.054096220135532967 0 0.27754771987688809 0.040797440569893019 0 0.29084430350535467 0.044944761378613682 0 0.2844924432277231 0.043204628682168907 0 0.28229664577095948 0.054096220135532967 0 0.29084430350535467 0.044944761378613682 0 0.28229664577095948 0.054096220135532967 0 0.29325963230024937 0.057606978803657879 0 0.28229664577095948 0.054096220135532967 0 0.28695696052130792 0.062426000594819037 0 0.29325963230024937 0.057606978803657879 0 0.28229664577095948 0.054096220135532967 0 0.28695696052130792 0.062426000594819037 0 0.27961998430175328 0.060695812266760227 0 0.28695696052130792 0.062426000594819037 0 0.29325963230024937 0.057606978803657879 0 0.29690158384745241 0.06457818982176422 0 0.30386903740065402 0.05697431224277244 0 0.29084430350535467 0.044944761378613682 0 0.29325963230024937 0.057606978803657879 0 0.31046320235639918 0.0067575729804437252 0 0.29633736445586178 0.016145334388179639 0 0.2895407867033607 0.0013395930438658619 0 0.31046320235639918 0.0067575729804437252 0 0.30595588987094691 0.026092456194660541 0 0.29633736445586178 0.016145334388179639 0 0.28728110375769011 0.032980092644635972 0 0.29633736445586178 0.016145334388179639 0 0.28354425329012439 0.021068516806879451 0 0.28728110375769011 0.032980092644635972 0 0.30595588987094691 0.026092456194660541 0 0.29633736445586178 0.016145334388179639 0 0.29633736445586178 0.016145334388179639 0 0.28354425329012439 0.021068516806879451 0 0.2895407867033607 0.0013395930438658619 0 0.28354425329012439 0.021068516806879451 0 0.2895407867033607 0.0013395930438658619 0 0.27605408581287011 0.0090157940159830471 0 0.28354425329012439 0.021068516806879451 0 0.2895407867033607 0.0013395930438658619 0 0.2895407867033607 0.0013395930438658619 0 0.27605408581287011 0.0090157940159830471 0 0.26778398551549509 -0.0036893303100333872 0 0.27605408581287011 0.0090157940159830471 0 0.26417056773795178 0.0090152440179189393 0 0.26778398551549509 -0.0036893303100333872 0 0.27605408581287011 0.0090157940159830471 0 0.26936383070045983 0.02007531215695801 0 0.26417056773795178 0.0090152440179189393 0 0.28354425329012439 0.021068516806879451 0 0.27754771987688809 0.040797440569893019 0 0.28354425329012439 0.021068516806879451 0 0.27605408581287011 0.0090157940159830471 0 0.26936383070045983 0.02007531215695801 0 0.28354425329012439 0.021068516806879451 0 0.26936383070045983 0.02007531215695801 0 0.27332262009486957 0.033728107725222278 0 0.26936383070045983 0.02007531215695801 0 0.26667678125960848 0.028969541142501901 0 0.27332262009486957 0.033728107725222278 0 0.26936383070045983 0.02007531215695801 0 0.26667678125960848 0.028969541142501901 0 0.25978705670837199 0.02772172808684556 0 0.26667678125960848 0.028969541142501901 0 0.25978705670837199 0.02772172808684556 0 0.26423361753473251 0.034353016600981737 0 0.24818833723327199 0.02644705719899533 0 0.25978705670837199 0.02772172808684556 0 0.25442723867738032 0.016379625870619269 0 0.24818833723327199 0.02644705719899533 0 0.25978705670837199 0.02772172808684556 0 0.25704478259505842 0.035809011079610743 0 0.26936383070045983 0.02007531215695801 0 0.25978705670837199 0.02772172808684556 0 0.25442723867738032 0.016379625870619269 0 0.26936383070045983 0.02007531215695801 0 0.25442723867738032 0.016379625870619269 0 0.26417056773795178 0.0090152440179189393 0 0.25442723867738032 0.016379625870619269 0 0.26417056773795178 0.0090152440179189393 0 0.25322369798355371 0.0032948183560677501 0 0.26417056773795178 0.0090152440179189393 0 0.25322369798355371 0.0032948183560677501 0 0.26778398551549509 -0.0036893303100333872 0 0.28229664577095948 0.054096220135532967 0 0.27155118646365262 0.060526364332906778 0 0.27754771987688809 0.040797440569893019 0 0.26803735397675288 0.057537922442449492 0 0.27155118646365262 0.060526364332906778 0 0.27754771987688809 0.040797440569893019 0 0.27155118646365262 0.060526364332906778 0 0.27754771987688809 0.040797440569893019 0 0.26803735397675288 0.057537922442449492 0 0.26717674565759131 0.061414912581717808 0 0.27155118646365262 0.060526364332906778 0 0.26803735397675288 0.057537922442449492 0 0.26717674565759131 0.061414912581717808 0 0.26717674565759131 0.061414912581717808 0 0.27082486665434358 0.062915996334918609 0 0.26717674565759131 0.061414912581717808 0 0.27155118646365262 0.060526364332906778 0 0.27082486665434358 0.062915996334918609 0 0.27155118646365262 0.060526364332906778 0 0.27082486665434358 0.062915996334918609 0 0.26803735397675288 0.057537922442449492 0 0.27155118646365262 0.060526364332906778 0 0.27155118646365262 0.060526364332906778 0 0.27961998430175328 0.060695812266760227 0 0.27767514445109232 0.065734664003783444 0 0.28229664577095948 0.054096220135532967 0 0.27155118646365262 0.060526364332906778 0 0.27961998430175328 0.060695812266760227 0 0.28354425329012439 0.021068516806879451 0 0.27754771987688809 0.040797440569893019 0 0.27332262009486957 0.033728107725222278 0 0.26803735397675288 0.057537922442449492 0 0.27754771987688809 0.040797440569893019 0 0.27332262009486957 0.033728107725222278 0 0.26803735397675288 0.057537922442449492 0 0.27332262009486957 0.033728107725222278 0 0.26337349528673171 0.044011131262296957 0 0.26803735397675288 0.057537922442449492 0 0.27332262009486957 0.033728107725222278 0 0.26667678125960848 0.028969541142501901 0 0.27332262009486957 0.033728107725222278 0 0.26423361753473251 0.034353016600981737 0 0.27332262009486957 0.033728107725222278 0 0.26337349528673171 0.044011131262296957 0 0.26423361753473251 0.034353016600981737 0 0.25978705670837199 0.02772172808684556 0 0.26423361753473251 0.034353016600981737 0 0.25704478259505842 0.035809011079610743 0 0.26337349528673171 0.044011131262296957 0 0.26423361753473251 0.034353016600981737 0 0.25704478259505842 0.035809011079610743 0 0.2492733855269578 0.041579555173777823 0 0.24818833723327199 0.02644705719899533 0 0.25704478259505842 0.035809011079610743 0 0.2492733855269578 0.041579555173777823 0 0.26337349528673171 0.044011131262296957 0 0.25704478259505842 0.035809011079610743 0 0.2492733855269578 0.041579555173777823 0 0.26803735397675288 0.057537922442449492 0 0.26337349528673171 0.044011131262296957 0 0.2492733855269578 0.041579555173777823 0 0.26803735397675288 0.057537922442449492 0 0.24629062771517271 0.052820950830226497 0 0.2492733855269578 0.041579555173777823 0 0.26803735397675288 0.057537922442449492 0 0.24874122334595 0.07170785510379532 0 0.24629062771517271 0.052820950830226497 0 0.26717674565759131 0.061414912581717808 0 0.24629062771517271 0.052820950830226497 0 0.26717674565759131 0.061414912581717808 0 0.24629062771517271 0.052820950830226497 0 0.26803735397675288 0.057537922442449492 0 0.26717674565759131 0.061414912581717808 0 0.24874122334595 0.07170785510379532 0 0.26717674565759131 0.061414912581717808 0 0.26207170159221099 0.084412837492877896 0 0.26717674565759131 0.061414912581717808 0 0.26207170159221099 0.084412837492877896 0 0.26717674565759131 0.061414912581717808 0 0.26459661937193729 0.083407271434054076 0 0.26207170159221099 0.084412837492877896 0 0.24736227196270541 0.090270970101712061 0 0.24874122334595 0.07170785510379532 0 0.26207170159221099 0.084412837492877896 0 0.24736227196270541 0.090270970101712061 0 0.26207170159221099 0.084412837492877896 0 0.24736227196270541 0.090270970101712061 0 0.26016144869860108 0.09301841504440217 0 0.25459763100830068 0.096141582858552177 0 0.24736227196270541 0.090270970101712061 0 0.26207170159221099 0.084412837492877896 0 0.26016144869860108 0.09301841504440217 0 0.24736227196270541 0.090270970101712061 0 0.25459763100830068 0.096141582858552177 0 0.26459661937193729 0.083407271434054076 0 0.26207170159221099 0.084412837492877896 0 0.26207170159221099 0.084412837492877896 0 0.26016144869860108 0.09301841504440217 0 0.26459661937193729 0.083407271434054076 0 0.2619867778419176 0.09199379318438361 0 0.26207170159221099 0.084412837492877896 0 0.2619867778419176 0.09199379318438361 0 0.26016144869860108 0.09301841504440217 0 0.26459661937193729 0.083407271434054076 0 0.26207170159221099 0.084412837492877896 0 0.2619867778419176 0.09199379318438361 0 0.2619867778419176 0.09199379318438361 0 0.26016144869860108 0.09301841504440217 0 0.26459661937193729 0.083407271434054076 0 0.28765643041333783 0.074223541376674432 0 0.26459661937193729 0.083407271434054076 0 0.27601190449835611 0.084120993139366301 0 0.28765643041333783 0.074223541376674432 0 0.2619867778419176 0.09199379318438361 0 0.27601190449835611 0.084120993139366301 0 0.27597760534302263 0.093816081557894046 0 0.2619867778419176 0.09199379318438361 0 0.27601190449835611 0.084120993139366301 0 0.26459661937193729 0.083407271434054076 0 0.2619867778419176 0.09199379318438361 0 0.27601190449835611 0.084120993139366301 0 0.27601190449835611 0.084120993139366301 0 0.28527214605629803 0.093542631019163408 0 0.27597760534302263 0.093816081557894046 0 0.26459661937193729 0.083407271434054076 0 0.27082486665434358 0.062915996334918609 0 0.26717674565759131 0.061414912581717808 0 0.26459661937193729 0.083407271434054076 0 0.27082486665434358 0.062915996334918609 0 0.26459661937193729 0.083407271434054076 0 0.27082486665434358 0.062915996334918609 0 0.27767514445109232 0.065734664003783444 0 0.26459661937193729 0.083407271434054076 0 0.27767514445109232 0.065734664003783444 0 0.28765643041333783 0.074223541376674432 0 0.27155118646365262 0.060526364332906778 0 0.27082486665434358 0.062915996334918609 0 0.27767514445109232 0.065734664003783444 0 0.27082486665434358 0.062915996334918609 0 0.27767514445109232 0.065734664003783444 0 0.27155118646365262 0.060526364332906778 0 0.27767514445109232 0.065734664003783444 0 0.27767514445109232 0.065734664003783444 0 0.28765643041333783 0.074223541376674432 0 0.27767514445109232 0.065734664003783444 0 0.29306802488508721 0.072068336257275281 0 0.28695696052130792 0.062426000594819037 0 0.27961998430175328 0.060695812266760227 0 0.27767514445109232 0.065734664003783444 0 0.28695696052130792 0.062426000594819037 0 0.27767514445109232 0.065734664003783444 0 0.29306802488508721 0.072068336257275281 0 0.28695696052130792 0.062426000594819037 0 0.29306802488508721 0.072068336257275281 0 0.29690158384745241 0.06457818982176422 0 0.29561576852942001 0.073116650333272012 0 0.29306802488508721 0.072068336257275281 0 0.29561576852942001 0.073116650333272012 0 0.29306802488508721 0.072068336257275281 0 0.29003703115479512 0.076248193094349867 0 0.29306802488508721 0.072068336257275281 0 0.28765643041333783 0.074223541376674432 0 0.29306802488508721 0.072068336257275281 0 0.29003703115479512 0.076248193094349867 0 0.28765643041333783 0.074223541376674432 0 0.29561576852942001 0.073116650333272012 0 0.29003703115479512 0.076248193094349867 0 0.27767514445109232 0.065734664003783444 0 0.29306802488508721 0.072068336257275281 0 0.28765643041333783 0.074223541376674432 0 0.29003703115479512 0.076248193094349867 0 0.28765643041333783 0.074223541376674432 0 0.27601190449835611 0.084120993139366301 0 0.29003703115479512 0.076248193094349867 0 0.27601190449835611 0.084120993139366301 0 0.29003703115479512 0.076248193094349867 0 0.28765643041333783 0.074223541376674432 0 0.27601190449835611 0.084120993139366301 0 0.29003703115479512 0.076248193094349867 0 0.28870857493654689 0.086239244916881869 0 0.27601190449835611 0.084120993139366301 0 0.28870857493654689 0.086239244916881869 0 0.28527214605629803 0.093542631019163408 0 0.28870857493654689 0.086239244916881869 0 0.28527214605629803 0.093542631019163408 0 0.29246213629446111 0.095768124011444758 0 0.28870857493654689 0.086239244916881869 0 0.29698271976236568 0.089899813846382556 0 0.29246213629446111 0.095768124011444758 0 0.29003703115479512 0.076248193094349867 0 0.28870857493654689 0.086239244916881869 0 0.29698271976236568 0.089899813846382556 0 0.29561576852942001 0.073116650333272012 0 0.29003703115479512 0.076248193094349867 0 0.31111548734401751 0.094174984339189319 0 0.29003703115479512 0.076248193094349867 0 0.31111548734401751 0.094174984339189319 0 0.29003703115479512 0.076248193094349867 0 0.29698271976236568 0.089899813846382556 0 0.31111548734401751 0.094174984339189319 0 0.3184977734976509 0.082531855017860187 0 0.29561576852942001 0.073116650333272012 0 0.31111548734401751 0.094174984339189319 0 0.3184977734976509 0.082531855017860187 0 0.29561576852942001 0.073116650333272012 0 0.3184977734976509 0.082531855017860187 0 0.29561576852942001 0.073116650333272012 0 0.30506359630307739 0.067813250175554993 0 0.31750720709783492 0.060828210965220328 0 0.30506359630307739 0.067813250175554993 0 0.29306802488508721 0.072068336257275281 0 0.30506359630307739 0.067813250175554993 0 0.29690158384745241 0.06457818982176422 0 0.30386903740065402 0.05697431224277244 0 0.30506359630307739 0.067813250175554993 0 0.29690158384745241 0.06457818982176422 0 0.29306802488508721 0.072068336257275281 0 0.30506359630307739 0.067813250175554993 0 0.29561576852942001 0.073116650333272012 0 0.30506359630307739 0.067813250175554993 0 0.29561576852942001 0.073116650333272012 0 0.29306802488508721 0.072068336257275281 0 0.30506359630307739 0.067813250175554993 0 0.31151194808720201 0.1150643222194616 0 0.30247500772594699 0.1071381656543656 0 0.29129275041579278 0.1172303442398579 0 0.31151194808720201 0.1150643222194616 0 0.29622008012258699 0.12991313160987961 0 0.32387679174541939 0.1297141718462434 0 0.31151194808720201 0.1150643222194616 0 0.29129275041579278 0.1172303442398579 0 0.29622008012258699 0.12991313160987961 0 0.31151194808720201 0.1150643222194616 0 0.31111548734401751 0.094174984339189319 0 0.30247500772594699 0.1071381656543656 0 0.31111548734401751 0.094174984339189319 0 0.30128354362195031 0.098124169066782854 0 0.30247500772594699 0.1071381656543656 0 0.29698271976236568 0.089899813846382556 0 0.30128354362195031 0.098124169066782854 0 0.29246213629446111 0.095768124011444758 0 0.29698271976236568 0.089899813846382556 0 0.31111548734401751 0.094174984339189319 0 0.30128354362195031 0.098124169066782854 0 0.30128354362195031 0.098124169066782854 0 0.30247500772594699 0.1071381656543656 0 0.29260899031297011 0.10538418601464609 0 0.29260899031297011 0.10538418601464609 0 0.29246213629446111 0.095768124011444758 0 0.28702757351663483 0.1001100210532227 0 0.30128354362195031 0.098124169066782854 0 0.29260899031297011 0.10538418601464609 0 0.29246213629446111 0.095768124011444758 0 0.28527214605629803 0.093542631019163408 0 0.29246213629446111 0.095768124011444758 0 0.28702757351663483 0.1001100210532227 0 0.28527214605629803 0.093542631019163408 0 0.28702757351663483 0.1001100210532227 0 0.28108272677848523 0.099874609951530163 0 0.29260899031297011 0.10538418601464609 0 0.28356239405763972 0.106033323917978 0 0.28664880997705461 0.11131452551203889 0 0.29260899031297011 0.10538418601464609 0 0.28702757351663483 0.1001100210532227 0 0.28356239405763972 0.106033323917978 0 0.28702757351663483 0.1001100210532227 0 0.28356239405763972 0.106033323917978 0 0.28108272677848523 0.099874609951530163 0 0.28356239405763972 0.106033323917978 0 0.2814598539497668 0.10990299155730229 0 0.28664880997705461 0.11131452551203889 0 0.27786688771157569 0.1150217509861922 0 0.29622008012258699 0.12991313160987961 0 0.28664880997705461 0.11131452551203889 0 0.29129275041579278 0.1172303442398579 0 0.27786688771157569 0.1150217509861922 0 0.27786688771157569 0.1150217509861922 0 0.27913813953766042 0.12972245958528131 0 0.29622008012258699 0.12991313160987961 0 0.29129275041579278 0.1172303442398579 0 0.27786688771157569 0.1150217509861922 0 0.29622008012258699 0.12991313160987961 0 0.2814598539497668 0.10990299155730229 0 0.28664880997705461 0.11131452551203889 0 0.27786688771157569 0.1150217509861922 0 0.30247500772594699 0.1071381656543656 0 0.29260899031297011 0.10538418601464609 0 0.29129275041579278 0.1172303442398579 0 0.29260899031297011 0.10538418601464609 0 0.28664880997705461 0.11131452551203889 0 0.29129275041579278 0.1172303442398579 0 0.27418517611644572 0.1163335826691398 0 0.26638390190257438 0.1102685147937751 0 0.25655208948606423 0.10927836717886751 0 0.27786688771157569 0.1150217509861922 0 0.27418517611644572 0.1163335826691398 0 0.27913813953766042 0.12972245958528131 0 0.27418517611644572 0.1163335826691398 0 0.27248198541775659 0.12784311929978001 0 0.27913813953766042 0.12972245958528131 0 0.2814598539497668 0.10990299155730229 0 0.27786688771157569 0.1150217509861922 0 0.27702128122739278 0.10689832557857171 0 0.27786688771157569 0.1150217509861922 0 0.27418517611644572 0.1163335826691398 0 0.26638390190257438 0.1102685147937751 0 0.27418517611644572 0.1163335826691398 0 0.26888095198589312 0.11979825388229511 0 0.26487973471170051 0.1148861259760711 0 0.27418517611644572 0.1163335826691398 0 0.26888095198589312 0.11979825388229511 0 0.27248198541775659 0.12784311929978001 0 0.26888095198589312 0.11979825388229511 0 0.26519442307348812 0.1188177922564181 0 0.26487973471170051 0.1148861259760711 0 0.26888095198589312 0.11979825388229511 0 0.26562400985315288 0.1251654340079911 0 0.27248198541775659 0.12784311929978001 0 0.26888095198589312 0.11979825388229511 0 0.26519442307348812 0.1188177922564181 0 0.26562400985315288 0.1251654340079911 0 0.27786688771157569 0.1150217509861922 0 0.26638390190257438 0.1102685147937751 0 0.25872482925013801 0.09949030162923457 0 0.27786688771157569 0.1150217509861922 0 0.25872482925013801 0.09949030162923457 0 0.27786688771157569 0.1150217509861922 0 0.27150352658480642 0.1040925172930806 0 0.25872482925013801 0.09949030162923457 0 0.28527214605629803 0.093542631019163408 0 0.27597760534302263 0.093816081557894046 0 0.28108272677848523 0.099874609951530163 0 0.27597760534302263 0.093816081557894046 0 0.28108272677848523 0.099874609951530163 0 0.27461357126647679 0.10027579108255071 0 0.27786688771157569 0.1150217509861922 0 0.27702128122739278 0.10689832557857171 0 0.27150352658480642 0.1040925172930806 0 0.27461357126647679 0.10027579108255071 0 0.27702128122739278 0.10689832557857171 0 0.27150352658480642 0.1040925172930806 0 0.28356239405763972 0.106033323917978 0 0.28108272677848523 0.099874609951530163 0 0.27702128122739278 0.10689832557857171 0 0.28108272677848523 0.099874609951530163 0 0.27461357126647679 0.10027579108255071 0 0.27702128122739278 0.10689832557857171 0 0.28356239405763972 0.106033323917978 0 0.2814598539497668 0.10990299155730229 0 0.27702128122739278 0.10689832557857171 0 0.2619867778419176 0.09199379318438361 0 0.27597760534302263 0.093816081557894046 0 0.26850219741802223 0.0981363484555835 0 0.27150352658480642 0.1040925172930806 0 0.26850219741802223 0.0981363484555835 0 0.25872482925013801 0.09949030162923457 0 0.27461357126647679 0.10027579108255071 0 0.27150352658480642 0.1040925172930806 0 0.26850219741802223 0.0981363484555835 0 0.27597760534302263 0.093816081557894046 0 0.27461357126647679 0.10027579108255071 0 0.26850219741802223 0.0981363484555835 0 0.2619867778419176 0.09199379318438361 0 0.26850219741802223 0.0981363484555835 0 0.25872482925013801 0.09949030162923457 0 0.2619867778419176 0.09199379318438361 0 0.26016144869860108 0.09301841504440217 0 0.25872482925013801 0.09949030162923457 0 0.2619867778419176 0.09199379318438361 0 0.25872482925013801 0.09949030162923457 0 0.26016144869860108 0.09301841504440217 0 0.25872482925013801 0.09949030162923457 0 0.26016144869860108 0.09301841504440217 0 0.25872482925013801 0.09949030162923457 0 0.25459763100830068 0.096141582858552177 0 0.26638390190257438 0.1102685147937751 0 0.25872482925013801 0.09949030162923457 0 0.26054083413963042 0.1068609537315081 0 0.26638390190257438 0.1102685147937751 0 0.26054083413963042 0.1068609537315081 0 0.25655208948606423 0.10927836717886751 0 0.25872482925013801 0.09949030162923457 0 0.258042440935632 0.10497087790269199 0 0.26054083413963042 0.1068609537315081 0 0.25872482925013801 0.09949030162923457 0 0.258042440935632 0.10497087790269199 0 0.258042440935632 0.10497087790269199 0 0.26054083413963042 0.1068609537315081 0 0.25655208948606423 0.10927836717886751 0 0.25872482925013801 0.09949030162923457 0 0.25655208948606423 0.10927836717886751 0 0.25872482925013801 0.09949030162923457 0 0.25655208948606423 0.10927836717886751 0 0.25459763100830068 0.096141582858552177 0 0.24174744587836799 0.1033548466348798 0 0.25655208948606423 0.10927836717886751 0 0.25459763100830068 0.096141582858552177 0 0.25872482925013801 0.09949030162923457 0 0.258042440935632 0.10497087790269199 0 0.25655208948606423 0.10927836717886751 0 0.25872482925013801 0.09949030162923457 0 0.25459763100830068 0.096141582858552177 0 0.26016144869860108 0.09301841504440217 0 0.25459763100830068 0.096141582858552177 0 0.27418517611644572 0.1163335826691398 0 0.25655208948606423 0.10927836717886751 0 0.26487973471170051 0.1148861259760711 0 0.27418517611644572 0.1163335826691398 0 0.25655208948606423 0.10927836717886751 0 0.2613903323121034 0.11972876860365821 0 0.25824300399834771 0.11754386918627879 0 0.25813574029091341 0.12532111527980791 0 0.2613903323121034 0.11972876860365821 0 0.25824300399834771 0.11754386918627879 0 0.26064106818342869 0.11649387083006101 0 0.2613903323121034 0.11972876860365821 0 0.26303182906276251 0.1167652494283456 0 0.26064106818342869 0.11649387083006101 0 0.2613903323121034 0.11972876860365821 0 0.25813574029091341 0.12532111527980791 0 0.26562400985315288 0.1251654340079911 0 0.2613903323121034 0.11972876860365821 0 0.26519442307348812 0.1188177922564181 0 0.26562400985315288 0.1251654340079911 0 0.2613903323121034 0.11972876860365821 0 0.26519442307348812 0.1188177922564181 0 0.26303182906276251 0.1167652494283456 0 0.26487973471170051 0.1148861259760711 0 0.2618287337373767 0.1148464313763837 0 0.2589676606418963 0.1122376160430168 0 0.25655208948606423 0.10927836717886751 0 0.26487973471170051 0.1148861259760711 0 0.2589676606418963 0.1122376160430168 0 0.26519442307348812 0.1188177922564181 0 0.26487973471170051 0.1148861259760711 0 0.26303182906276251 0.1167652494283456 0 0.26487973471170051 0.1148861259760711 0 0.2618287337373767 0.1148464313763837 0 0.26303182906276251 0.1167652494283456 0 0.2618287337373767 0.1148464313763837 0 0.26303182906276251 0.1167652494283456 0 0.26064106818342869 0.11649387083006101 0 0.2618287337373767 0.1148464313763837 0 0.26064106818342869 0.11649387083006101 0 0.26015078570541528 0.1146524558252945 0 0.2618287337373767 0.1148464313763837 0 0.2589676606418963 0.1122376160430168 0 0.26015078570541528 0.1146524558252945 0 0.2589676606418963 0.1122376160430168 0 0.26015078570541528 0.1146524558252945 0 0.25777400528710798 0.1147846643059361 0 0.25824300399834771 0.11754386918627879 0 0.26015078570541528 0.1146524558252945 0 0.25777400528710798 0.1147846643059361 0 0.25824300399834771 0.11754386918627879 0 0.26064106818342869 0.11649387083006101 0 0.26015078570541528 0.1146524558252945 0 0.24646482385440791 0.1109165710353929 0 0.25655208948606423 0.10927836717886751 0 0.255186127323073 0.11543194682551421 0 0.25824300399834771 0.11754386918627879 0 0.25777400528710798 0.1147846643059361 0 0.255186127323073 0.11543194682551421 0 0.2589676606418963 0.1122376160430168 0 0.25777400528710798 0.1147846643059361 0 0.255186127323073 0.11543194682551421 0 0.25655208948606423 0.10927836717886751 0 0.255186127323073 0.11543194682551421 0 0.25655208948606423 0.10927836717886751 0 0.2589676606418963 0.1122376160430168 0 0.255186127323073 0.11543194682551421 0 0.255186127323073 0.11543194682551421 0 0.25238596385504641 0.12804651946228041 0 0.24420216851797599 0.1292372680552665 0 0.255186127323073 0.11543194682551421 0 0.25238596385504641 0.12804651946228041 0 0.255186127323073 0.11543194682551421 0 0.25238596385504641 0.12804651946228041 0 0.25813574029091341 0.12532111527980791 0 0.25824300399834771 0.11754386918627879 0 0.255186127323073 0.11543194682551421 0 0.25813574029091341 0.12532111527980791 0 0.25238596385504641 0.12804651946228041 0 0.25813574029091341 0.12532111527980791 0 0.26818611498992623 0.1403022215883418 0 0.24420216851797599 0.1292372680552665 0 0.26818611498992623 0.1403022215883418 0 0.24301228879775941 0.13939302681245261 0 0.24420216851797599 0.1292372680552665 0 0.26818611498992623 0.1403022215883418 0 0.24420216851797599 0.1292372680552665 0 0.25238596385504641 0.12804651946228041 0 0.26818611498992623 0.1403022215883418 0 0.25813574029091341 0.12532111527980791 0 0.26562400985315288 0.1251654340079911 0 0.26818611498992623 0.1403022215883418 0 0.27248198541775659 0.12784311929978001 0 0.26818611498992623 0.1403022215883418 0 0.27913813953766042 0.12972245958528131 0 0.26562400985315288 0.1251654340079911 0 0.27248198541775659 0.12784311929978001 0 0.26818611498992623 0.1403022215883418 0 0.26818611498992623 0.1403022215883418 0 0.27913813953766042 0.12972245958528131 0 0.28414721419066807 0.1482284927670183 0 0.26818611498992623 0.1403022215883418 0 0.26583546295036609 0.16369396270660089 0 0.28414721419066807 0.1482284927670183 0 0.26818611498992623 0.1403022215883418 0 0.25486404381895789 0.1523024957907583 0 0.26583546295036609 0.16369396270660089 0 0.24301228879775941 0.13939302681245261 0 0.26818611498992623 0.1403022215883418 0 0.25486404381895789 0.1523024957907583 0 0.2424223085377801 0.16582077205563811 0 0.25486404381895789 0.1523024957907583 0 0.26583546295036609 0.16369396270660089 0 0.2424223085377801 0.16582077205563811 0 0.26032431562704572 0.18342712708893841 0 0.26583546295036609 0.16369396270660089 0 0.26032431562704572 0.18342712708893841 0 0.27712404590978218 0.18082877805207789 0 0.26583546295036609 0.16369396270660089 0 0.27712404590978218 0.18082877805207789 0 0.26583546295036609 0.16369396270660089 0 0.28977860037431658 0.16805367250728201 0 0.26583546295036609 0.16369396270660089 0 0.28977860037431658 0.16805367250728201 0 0.28414721419066807 0.1482284927670183 0 0.27712404590978218 0.18082877805207789 0 0.28977860037431658 0.16805367250728201 0 0.29478084704188562 0.18627619782702401 0 0.28977860037431658 0.16805367250728201 0 0.29478084704188562 0.18627619782702401 0 0.31259037162619269 0.16725562300018509 0 0.29478084704188562 0.18627619782702401 0 0.31732062797233113 0.1926592597090995 0 0.31259037162619269 0.16725562300018509 0 0.28977860037431658 0.16805367250728201 0 0.29946190776947251 0.15165108642358641 0 0.31259037162619269 0.16725562300018509 0 0.29946190776947251 0.15165108642358641 0 0.31457327253359829 0.14480451223356691 0 0.31259037162619269 0.16725562300018509 0 0.29946190776947251 0.15165108642358641 0 0.29622008012258699 0.12991313160987961 0 0.31457327253359829 0.14480451223356691 0 0.29622008012258699 0.12991313160987961 0 0.31457327253359829 0.14480451223356691 0 0.29622008012258699 0.12991313160987961 0 0.32387679174541939 0.1297141718462434 0 0.31457327253359829 0.14480451223356691 0 0.27913813953766042 0.12972245958528131 0 0.29622008012258699 0.12991313160987961 0 0.28414721419066807 0.1482284927670183 0 0.29946190776947251 0.15165108642358641 0 0.29622008012258699 0.12991313160987961 0 0.28414721419066807 0.1482284927670183 0 0.28977860037431658 0.16805367250728201 0 0.29946190776947251 0.15165108642358641 0 0.28414721419066807 0.1482284927670183 0 0.27355486584907379 0.24364475180805101 0 0.25452501640087027 0.2374112721999547 0 0.26408278890255732 0.22479217687295791 0 0.25404003316197471 0.25208422786308371 0 0.27355486584907379 0.24364475180805101 0 0.25452501640087027 0.2374112721999547 0 0.24523436150048811 0.24199469982198529 0 0.25404003316197471 0.25208422786308371 0 0.25452501640087027 0.2374112721999547 0 0.24868260911088891 0.2303107595792985 0 0.2471090749199483 0.2357199094212839 0 0.25452501640087027 0.2374112721999547 0 0.24868260911088891 0.2303107595792985 0 0.25452501640087027 0.2374112721999547 0 0.26408278890255732 0.22479217687295791 0 0.24868260911088891 0.2303107595792985 0 0.26408278890255732 0.22479217687295791 0 0.25357276657721323 0.21641202867955539 0 0.27355486584907379 0.24364475180805101 0 0.26408278890255732 0.22479217687295791 0 0.28109637724199782 0.22150209212538899 0 0.26408278890255732 0.22479217687295791 0 0.28109637724199782 0.22150209212538899 0 0.27306509823529962 0.19947215684549871 0 0.26408278890255732 0.22479217687295791 0 0.25357276657721323 0.21641202867955539 0 0.27306509823529962 0.19947215684549871 0 0.25357276657721323 0.21641202867955539 0 0.25471258750952741 0.20148162901819469 0 0.27306509823529962 0.19947215684549871 0 0.25357276657721323 0.21641202867955539 0 0.27306509823529962 0.19947215684549871 0 0.2418323282778008 0.1922485172988235 0 0.26032431562704572 0.18342712708893841 0 0.25471258750952741 0.20148162901819469 0 0.26032431562704572 0.18342712708893841 0 0.25471258750952741 0.20148162901819469 0 0.27306509823529962 0.19947215684549871 0 0.26032431562704572 0.18342712708893841 0 0.27712404590978218 0.18082877805207789 0 0.27306509823529962 0.19947215684549871 0 0.29478084704188562 0.18627619782702401 0 0.27306509823529962 0.19947215684549871 0 0.29788838547339219 0.20777731020547871 0 0.27712404590978218 0.18082877805207789 0 0.29478084704188562 0.18627619782702401 0 0.27306509823529962 0.19947215684549871 0 0.29478084704188562 0.18627619782702401 0 0.29788838547339219 0.20777731020547871 0 0.31732062797233113 0.1926592597090995 0 0.29788838547339219 0.20777731020547871 0 0.31916040529159301 0.2166328624030785 0 0.31732062797233113 0.1926592597090995 0 0.28109637724199782 0.22150209212538899 0 0.27306509823529962 0.19947215684549871 0 0.29788838547339219 0.20777731020547871 0 0.28109637724199782 0.22150209212538899 0 0.29788838547339219 0.20777731020547871 0 0.29668368374297521 0.23238313674276659 0 0.27355486584907379 0.24364475180805101 0 0.28109637724199782 0.22150209212538899 0 0.29668368374297521 0.23238313674276659 0 0.29788838547339219 0.20777731020547871 0 0.29668368374297521 0.23238313674276659 0 0.31916040529159301 0.2166328624030785 0 0.29692855903906679 0.25537037528416417 0 0.29668368374297521 0.23238313674276659 0 0.32448256229391081 0.244023600812113 0 0.29692855903906679 0.25537037528416417 0 0.27355486584907379 0.24364475180805101 0 0.29668368374297521 0.23238313674276659 0 0.32448256229391081 0.244023600812113 0 0.33724611662768478 0.226971671205 0 0.35052125483258301 0.2434514759103418 0 0.32448256229391081 0.244023600812113 0 0.33724611662768478 0.226971671205 0 0.31916040529159301 0.2166328624030785 0 0.29668368374297521 0.23238313674276659 0 0.32448256229391081 0.244023600812113 0 0.31916040529159301 0.2166328624030785 0 0.33724611662768478 0.226971671205 0 0.31916040529159301 0.2166328624030785 0 0.34036716376080012 0.20191553243135291 0 0.31916040529159301 0.2166328624030785 0 0.31732062797233113 0.1926592597090995 0 0.34036716376080012 0.20191553243135291 0 0.31732062797233113 0.1926592597090995 0 0.34036716376080012 0.20191553243135291 0 0.33327910971122948 0.1769249887409369 0 0.34036716376080012 0.20191553243135291 0 0.33327910971122948 0.1769249887409369 0 0.35363051640006049 0.1838751638919715 0 0.34036716376080012 0.20191553243135291 0 0.36940151407566268 0.20038014978660379 0 0.35363051640006049 0.1838751638919715 0 0.36940151407566268 0.20038014978660379 0 0.35418005050780299 0.2186338278764331 0 0.36970064025412291 0.2313836502337521 0 0.34036716376080012 0.20191553243135291 0 0.36940151407566268 0.20038014978660379 0 0.35418005050780299 0.2186338278764331 0 0.33724611662768478 0.226971671205 0 0.34036716376080012 0.20191553243135291 0 0.35418005050780299 0.2186338278764331 0 0.33724611662768478 0.226971671205 0 0.35418005050780299 0.2186338278764331 0 0.35052125483258301 0.2434514759103418 0 0.35418005050780299 0.2186338278764331 0 0.36970064025412291 0.2313836502337521 0 0.35052125483258301 0.2434514759103418 0 0.37478492512234668 0.26235925763296819 0 0.36970064025412291 0.2313836502337521 0 0.35052125483258301 0.2434514759103418 0 0.33497932682518311 0.1519205034936916 0 0.32387679174541939 0.1297141718462434 0 0.35327239972246333 0.1300285668288671 0 0.33497932682518311 0.1519205034936916 0 0.31457327253359829 0.14480451223356691 0 0.31259037162619269 0.16725562300018509 0 0.33497932682518311 0.1519205034936916 0 0.32387679174541939 0.1297141718462434 0 0.31457327253359829 0.14480451223356691 0 0.33497932682518311 0.1519205034936916 0 0.31259037162619269 0.16725562300018509 0 0.33327910971122948 0.1769249887409369 0 0.31732062797233113 0.1926592597090995 0 0.31259037162619269 0.16725562300018509 0 0.33327910971122948 0.1769249887409369 0 0.33497932682518311 0.1519205034936916 0 0.33327910971122948 0.1769249887409369 0 0.34907151432127381 0.16521020144779211 0 0.34907151432127381 0.16521020144779211 0 0.35363051640006049 0.1838751638919715 0 0.37277469716236061 0.17385369407461371 0 0.33327910971122948 0.1769249887409369 0 0.34907151432127381 0.16521020144779211 0 0.35363051640006049 0.1838751638919715 0 0.36940151407566268 0.20038014978660379 0 0.35363051640006049 0.1838751638919715 0 0.37277469716236061 0.17385369407461371 0 0.37277469716236061 0.17385369407461371 0 0.36285879787080821 0.15032831482926681 0 0.3843829660287168 0.1587008111838667 0 0.34907151432127381 0.16521020144779211 0 0.37277469716236061 0.17385369407461371 0 0.36285879787080821 0.15032831482926681 0 0.36285879787080821 0.15032831482926681 0 0.36938385952287339 0.13266757129752671 0 0.38232915319187621 0.14145147187989651 0 0.33497932682518311 0.1519205034936916 0 0.36285879787080821 0.15032831482926681 0 0.35327239972246333 0.1300285668288671 0 0.33497932682518311 0.1519205034936916 0 0.34907151432127381 0.16521020144779211 0 0.36285879787080821 0.15032831482926681 0 0.36649271172908648 0.1176987398754743 0 0.35327239972246333 0.1300285668288671 0 0.36938385952287339 0.13266757129752671 0 0.36285879787080821 0.15032831482926681 0 0.35327239972246333 0.1300285668288671 0 0.36938385952287339 0.13266757129752671 0 0.39421974672685411 0.13240309148155921 0 0.38232915319187621 0.14145147187989651 0 0.38138511069115272 0.12353481432135879 0 0.36938385952287339 0.13266757129752671 0 0.38232915319187621 0.14145147187989651 0 0.38138511069115272 0.12353481432135879 0 0.39421974672685411 0.13240309148155921 0 0.41199731756477831 0.13352747615702071 0 0.3942733283070321 0.11371104406223111 0 0.39421974672685411 0.13240309148155921 0 0.40120830104283178 0.15077536395034899 0 0.41199731756477831 0.13352747615702071 0 0.39421974672685411 0.13240309148155921 0 0.40120830104283178 0.15077536395034899 0 0.38232915319187621 0.14145147187989651 0 0.36285879787080821 0.15032831482926681 0 0.38232915319187621 0.14145147187989651 0 0.3843829660287168 0.1587008111838667 0 0.40120830104283178 0.15077536395034899 0 0.38232915319187621 0.14145147187989651 0 0.3843829660287168 0.1587008111838667 0 0.37277469716236061 0.17385369407461371 0 0.3843829660287168 0.1587008111838667 0 0.39936082591505218 0.176604797209717 0 0.37277469716236061 0.17385369407461371 0 0.39936082591505218 0.176604797209717 0 0.38992891259608609 0.19548318162929729 0 0.40120830104283178 0.15077536395034899 0 0.39936082591505218 0.176604797209717 0 0.41410660213767347 0.1652382216241598 0 0.40120830104283178 0.15077536395034899 0 0.3843829660287168 0.1587008111838667 0 0.39936082591505218 0.176604797209717 0 0.40120830104283178 0.15077536395034899 0 0.41410660213767347 0.1652382216241598 0 0.42972130682252457 0.1533439082518103 0 0.39936082591505218 0.176604797209717 0 0.41410660213767347 0.1652382216241598 0 0.42626679864566441 0.18172907206941921 0 0.42626679864566441 0.18172907206941921 0 0.42972130682252457 0.1533439082518103 0 0.45055708181009879 0.1690731760043504 0 0.41410660213767347 0.1652382216241598 0 0.42626679864566441 0.18172907206941921 0 0.42972130682252457 0.1533439082518103 0 0.42972130682252457 0.1533439082518103 0 0.43054248402473921 0.1250848439374013 0 0.44904083753606949 0.1441389705362057 0 0.42972130682252457 0.1533439082518103 0 0.43054248402473921 0.1250848439374013 0 0.41199731756477831 0.13352747615702071 0 0.43054248402473921 0.1250848439374013 0 0.41199731756477831 0.13352747615702071 0 0.41135066019799099 0.1182158826350982 0 0.40120830104283178 0.15077536395034899 0 0.42972130682252457 0.1533439082518103 0 0.41199731756477831 0.13352747615702071 0 0.42972130682252457 0.1533439082518103 0 0.41199731756477831 0.13352747615702071 0 0.40097752291506289 0.25902709479471048 0 0.39333580902427501 0.24081282939082621 0 0.41286841049430861 0.24788583003777651 0 0.37478492512234668 0.26235925763296819 0 0.36970064025412291 0.2313836502337521 0 0.39333580902427501 0.24081282939082621 0 0.36970064025412291 0.2313836502337521 0 0.39333580902427501 0.24081282939082621 0 0.39338333076520482 0.2163019563834182 0 0.39338333076520482 0.2163019563834182 0 0.41736514745474701 0.23222376298023259 0 0.39333580902427501 0.24081282939082621 0 0.39338333076520482 0.2163019563834182 0 0.41736514745474701 0.23222376298023259 0 0.39338333076520482 0.2163019563834182 0 0.38992891259608609 0.19548318162929729 0 0.41508715600771068 0.20488700545500521 0 0.36940151407566268 0.20038014978660379 0 0.39338333076520482 0.2163019563834182 0 0.36940151407566268 0.20038014978660379 0 0.39338333076520482 0.2163019563834182 0 0.38992891259608609 0.19548318162929729 0 0.36940151407566268 0.20038014978660379 0 0.36970064025412291 0.2313836502337521 0 0.39338333076520482 0.2163019563834182 0 0.36940151407566268 0.20038014978660379 0 0.37277469716236061 0.17385369407461371 0 0.38992891259608609 0.19548318162929729 0 0.39936082591505218 0.176604797209717 0 0.38992891259608609 0.19548318162929729 0 0.41508715600771068 0.20488700545500521 0 0.39936082591505218 0.176604797209717 0 0.42626679864566441 0.18172907206941921 0 0.41508715600771068 0.20488700545500521 0 0.42626679864566441 0.18172907206941921 0 0.44140000057487638 0.20455834627575151 0 0.44473765559285833 0.18692520255949671 0 0.42626679864566441 0.18172907206941921 0 0.41508715600771068 0.20488700545500521 0 0.44140000057487638 0.20455834627575151 0 0.41508715600771068 0.20488700545500521 0 0.43790507610234408 0.2273079216372012 0 0.44140000057487638 0.20455834627575151 0 0.39338333076520482 0.2163019563834182 0 0.41508715600771068 0.20488700545500521 0 0.41736514745474701 0.23222376298023259 0 0.41508715600771068 0.20488700545500521 0 0.41736514745474701 0.23222376298023259 0 0.43790507610234408 0.2273079216372012 0 0.42717012070777932 0.25569493195645271 0 0.41736514745474701 0.23222376298023259 0 0.44134696414428898 0.24814556957704689 0 0.41736514745474701 0.23222376298023259 0 0.44134696414428898 0.24814556957704689 0 0.41736514745474701 0.23222376298023259 0 0.44134696414428898 0.24814556957704689 0 0.43790507610234408 0.2273079216372012 0 0.39333580902427501 0.24081282939082621 0 0.41736514745474701 0.23222376298023259 0 0.41286841049430861 0.24788583003777651 0 0.42717012070777932 0.25569493195645271 0 0.41736514745474701 0.23222376298023259 0 0.41286841049430861 0.24788583003777651 0 0.45336271850049548 0.25236276911819511 0 0.45602225988021539 0.23816249748875179 0 0.48180965237011408 0.2487438147612096 0 0.45336271850049548 0.25236276911819511 0 0.45602225988021539 0.23816249748875179 0 0.44134696414428898 0.24814556957704689 0 0.44600400848591359 0.23698591979390529 0 0.43790507610234408 0.2273079216372012 0 0.45336271850049548 0.25236276911819511 0 0.44134696414428898 0.24814556957704689 0 0.44600400848591359 0.23698591979390529 0 0.45336271850049548 0.25236276911819511 0 0.45602225988021539 0.23816249748875179 0 0.44600400848591359 0.23698591979390529 0 0.45602225988021539 0.23816249748875179 0 0.44600400848591359 0.23698591979390529 0 0.45492939023952461 0.2194397610932603 0 0.44600400848591359 0.23698591979390529 0 0.43790507610234408 0.2273079216372012 0 0.45492939023952461 0.2194397610932603 0 0.45602225988021539 0.23816249748875179 0 0.45492939023952461 0.2194397610932603 0 0.47419086539053962 0.2296972043723752 0 0.45492939023952461 0.2194397610932603 0 0.46072674134079361 0.19234021588846559 0 0.47847088324409548 0.2092058758105422 0 0.45492939023952461 0.2194397610932603 0 0.44140000057487638 0.20455834627575151 0 0.46072674134079361 0.19234021588846559 0 0.43790507610234408 0.2273079216372012 0 0.45492939023952461 0.2194397610932603 0 0.44140000057487638 0.20455834627575151 0 0.44140000057487638 0.20455834627575151 0 0.46072674134079361 0.19234021588846559 0 0.44473765559285833 0.18692520255949671 0 0.46072674134079361 0.19234021588846559 0 0.4812983336831132 0.1885899983914231 0 0.47847088324409548 0.2092058758105422 0 0.4812983336831132 0.1885899983914231 0 0.5 0.19797878532577309 0 0.47847088324409548 0.2092058758105422 0 0.5 0.19797878532577309 0 0.47847088324409548 0.2092058758105422 0 0.5 0.22793385045351919 0 0.47847088324409548 0.2092058758105422 0 0.47419086539053962 0.2296972043723752 0 0.5 0.22793385045351919 0 0.45492939023952461 0.2194397610932603 0 0.47847088324409548 0.2092058758105422 0 0.47419086539053962 0.2296972043723752 0 0.5 0.25788891558126559 0 0.5 0.22793385045351919 0 0.48180965237011408 0.2487438147612096 0 0.47419086539053962 0.2296972043723752 0 0.5 0.22793385045351919 0 0.48180965237011408 0.2487438147612096 0 0.45602225988021539 0.23816249748875179 0 0.47419086539053962 0.2296972043723752 0 0.48180965237011408 0.2487438147612096 0 0.46287167922105149 0.15545842773829099 0 0.44904083753606949 0.1441389705362057 0 0.45055708181009879 0.1690731760043504 0 0.46287167922105149 0.15545842773829099 0 0.46355845200513762 0.13850516077978961 0 0.47909635670674228 0.14767892477560191 0 0.46287167922105149 0.15545842773829099 0 0.46355845200513762 0.13850516077978961 0 0.44904083753606949 0.1441389705362057 0 0.46355845200513762 0.13850516077978961 0 0.47795750643906171 0.12649365297180731 0 0.4559740449914913 0.1245921335342187 0 0.46355845200513762 0.13850516077978961 0 0.44904083753606949 0.1441389705362057 0 0.4559740449914913 0.1245921335342187 0 0.43054248402473921 0.1250848439374013 0 0.44904083753606949 0.1441389705362057 0 0.4559740449914913 0.1245921335342187 0 0.42972130682252457 0.1533439082518103 0 0.44904083753606949 0.1441389705362057 0 0.45055708181009879 0.1690731760043504 0 0.42626679864566441 0.18172907206941921 0 0.45055708181009879 0.1690731760043504 0 0.44473765559285833 0.18692520255949671 0 0.46072674134079361 0.19234021588846559 0 0.45055708181009879 0.1690731760043504 0 0.44473765559285833 0.18692520255949671 0 0.46072674134079361 0.19234021588846559 0 0.45055708181009879 0.1690731760043504 0 0.4752785409050499 0.1685484481011886 0 0.46287167922105149 0.15545842773829099 0 0.45055708181009879 0.1690731760043504 0 0.4752785409050499 0.1685484481011886 0 0.45055708181009879 0.1690731760043504 0 0.4752785409050499 0.1685484481011886 0 0.46287167922105149 0.15545842773829099 0 0.4752785409050499 0.1685484481011886 0 0.47909635670674228 0.14767892477560191 0 0.46072674134079361 0.19234021588846559 0 0.4812983336831132 0.1885899983914231 0 0.4752785409050499 0.1685484481011886 0 0.4812983336831132 0.1885899983914231 0 0.4752785409050499 0.1685484481011886 0 0.50000000000000111 0.1680237201980268 0 0.4812983336831132 0.1885899983914231 0 0.5 0.19797878532577309 0 0.50000000000000111 0.1680237201980268 0 0.4752785409050499 0.1685484481011886 0 0.50000000000000111 0.1680237201980268 0 0.4752785409050499 0.1685484481011886 0 0.50000000000000111 0.1680237201980268 0 0.47909635670674228 0.14767892477560191 0 0.50000000000000111 0.1680237201980268 0 0.5 0.14405257421324749 0 0.47909635670674228 0.14767892477560191 0 0.46355845200513762 0.13850516077978961 0 0.47909635670674228 0.14767892477560191 0 0.47795750643906171 0.12649365297180731 0 0.5 0.14405257421324749 0 0.47795750643906171 0.12649365297180731 0 0.5 0.12008142822846821 0 0.5 0.14405257421324749 0 0.47909635670674228 0.14767892477560191 0 0.47795750643906171 0.12649365297180731 0 0.47795750643906171 0.12649365297180731 0 0.5 0.12008142822846821 0 0.48437617198066579 0.1083096126220475 0 0.48437617198066579 0.1083096126220475 0 0.5 0.096110282243688894 0 0.4787628640296252 0.09057766153942011 0 0.5 0.12008142822846821 0 0.48437617198066579 0.1083096126220475 0 0.5 0.096110282243688894 0 0.48437617198066579 0.1083096126220475 0 0.4787628640296252 0.09057766153942011 0 0.46516048943464161 0.10828503812685281 0 0.47795750643906171 0.12649365297180731 0 0.48437617198066579 0.1083096126220475 0 0.46516048943464161 0.10828503812685281 0 0.49999999999999389 0.072139136258909636 0 0.47264706529987838 0.068582714068275596 0 0.5 0.096110282243688894 0 0.49999999999999389 0.072139136258909636 0 0.4787628640296252 0.09057766153942011 0 0.49999999999999389 0.072139136258909636 0 0.4787628640296252 0.09057766153942011 0 0.47264706529987838 0.068582714068275596 0 0.47264706529987838 0.068582714068275596 0 0.44529413059976319 0.065026291877640793 0 0.47264706529987838 0.068582714068275596 0 0.45009241250792742 0.089848104882156193 0 0.44529413059976319 0.065026291877640793 0 0.4787628640296252 0.09057766153942011 0 0.47264706529987838 0.068582714068275596 0 0.45009241250792742 0.089848104882156193 0 0.45009241250792742 0.089848104882156193 0 0.44529413059976319 0.065026291877640793 0 0.42710943965072512 0.080764761008918995 0 0.4559740449914913 0.1245921335342187 0 0.46516048943464161 0.10828503812685281 0 0.44660059903698529 0.1095612823054605 0 0.47795750643906171 0.12649365297180731 0 0.4559740449914913 0.1245921335342187 0 0.46516048943464161 0.10828503812685281 0 0.45009241250792742 0.089848104882156193 0 0.46516048943464161 0.10828503812685281 0 0.44660059903698529 0.1095612823054605 0 0.4787628640296252 0.09057766153942011 0 0.45009241250792742 0.089848104882156193 0 0.46516048943464161 0.10828503812685281 0 0.45009241250792742 0.089848104882156193 0 0.44660059903698529 0.1095612823054605 0 0.42999027194599682 0.1018780191517587 0 0.43054248402473921 0.1250848439374013 0 0.4559740449914913 0.1245921335342187 0 0.44660059903698529 0.1095612823054605 0 0.43054248402473921 0.1250848439374013 0 0.44660059903698529 0.1095612823054605 0 0.42999027194599682 0.1018780191517587 0 0.43054248402473921 0.1250848439374013 0 0.41661501870526302 0.10782610780512 0 0.42999027194599682 0.1018780191517587 0 0.43054248402473921 0.1250848439374013 0 0.41135066019799099 0.1182158826350982 0 0.41661501870526302 0.10782610780512 0 0.43054248402473921 0.1250848439374013 0 0.41135066019799099 0.1182158826350982 0 0.41135066019799099 0.1182158826350982 0 0.41661501870526302 0.10782610780512 0 0.40605193543095291 0.1101899923625959 0 0.41199731756477831 0.13352747615702071 0 0.40856435551682457 0.1195913393650266 0 0.41135066019799099 0.1182158826350982 0 0.41661501870526302 0.10782610780512 0 0.42999027194599682 0.1018780191517587 0 0.41050144950628809 0.092342992232264526 0 0.41661501870526302 0.10782610780512 0 0.41050144950628809 0.092342992232264526 0 0.40408322644931421 0.10337105767737099 0 0.41661501870526302 0.10782610780512 0 0.40605193543095291 0.1101899923625959 0 0.40408322644931421 0.10337105767737099 0 0.45009241250792742 0.089848104882156193 0 0.42999027194599682 0.1018780191517587 0 0.42710943965072512 0.080764761008918995 0 0.42999027194599682 0.1018780191517587 0 0.42710943965072512 0.080764761008918995 0 0.41050144950628809 0.092342992232264526 0 0.44529413059976319 0.065026291877640793 0 0.42710943965072512 0.080764761008918995 0 0.41794119589964812 0.061469869687005997 0 0.44529413059976319 0.065026291877640793 0 0.41794119589964812 0.061469869687005997 0 0.42710943965072512 0.080764761008918995 0 0.40780427562880051 0.074340584248736047 0 0.41794119589964812 0.061469869687005997 0 0.42710943965072512 0.080764761008918995 0 0.40780427562880051 0.074340584248736047 0 0.41050144950628809 0.092342992232264526 0 0.41050144950628809 0.092342992232264526 0 0.39288103188780799 0.079211850819119467 0 0.39173805803946632 0.094638931286680023 0 0.40780427562880051 0.074340584248736047 0 0.41050144950628809 0.092342992232264526 0 0.39288103188780799 0.079211850819119467 0 0.40780427562880051 0.074340584248736047 0 0.39058826119953283 0.057913447496371839 0 0.41794119589964812 0.061469869687005997 0 0.40780427562880051 0.074340584248736047 0 0.39288103188780799 0.079211850819119467 0 0.39058826119953283 0.057913447496371839 0 0.39288103188780799 0.079211850819119467 0 0.37575225644292037 0.071709270247263784 0 0.39058826119953283 0.057913447496371839 0 0.3742009225581896 0.091268948227223284 0 0.39288103188780799 0.079211850819119467 0 0.39173805803946632 0.094638931286680023 0 0.3742009225581896 0.091268948227223284 0 0.39288103188780799 0.079211850819119467 0 0.37575225644292037 0.071709270247263784 0 0.3742009225581896 0.091268948227223284 0 0.39215883637124299 0.11134692133279479 0 0.39173805803946632 0.094638931286680023 0 0.3742009225581896 0.091268948227223284 0 0.39215883637124299 0.11134692133279479 0 0.3742009225581896 0.091268948227223284 0 0.3795225325030368 0.1068242515199407 0 0.39215883637124299 0.11134692133279479 0 0.3795225325030368 0.1068242515199407 0 0.39215883637124299 0.11134692133279479 0 0.3795225325030368 0.1068242515199407 0 0.38138511069115272 0.12353481432135879 0 0.3942733283070321 0.11371104406223111 0 0.36649271172908648 0.1176987398754743 0 0.3795225325030368 0.1068242515199407 0 0.38138511069115272 0.12353481432135879 0 0.39421974672685411 0.13240309148155921 0 0.38138511069115272 0.12353481432135879 0 0.3942733283070321 0.11371104406223111 0 0.3795225325030368 0.1068242515199407 0 0.3942733283070321 0.11371104406223111 0 0.3795225325030368 0.1068242515199407 0 0.39215883637124299 0.11134692133279479 0 0.3942733283070321 0.11371104406223111 0 0.41135066019799099 0.1182158826350982 0 0.39215883637124299 0.11134692133279479 0 0.40605193543095291 0.1101899923625959 0 0.41135066019799099 0.1182158826350982 0 0.39215883637124299 0.11134692133279479 0 0.3942733283070321 0.11371104406223111 0 0.41135066019799099 0.1182158826350982 0 0.39215883637124299 0.11134692133279479 0 0.41199731756477831 0.13352747615702071 0 0.40856435551682457 0.1195913393650266 0 0.3942733283070321 0.11371104406223111 0 0.41199731756477831 0.13352747615702071 0 0.3942733283070321 0.11371104406223111 0 0.40856435551682457 0.1195913393650266 0 0.41135066019799099 0.1182158826350982 0 0.3942733283070321 0.11371104406223111 0 0.39215883637124299 0.11134692133279479 0 0.3942733283070321 0.11371104406223111 0 0.40856435551682457 0.1195913393650266 0 0.3942733283070321 0.11371104406223111 0 0.39215883637124299 0.11134692133279479 0 0.40408322644931421 0.10337105767737099 0 0.39173805803946632 0.094638931286680023 0 0.39215883637124299 0.11134692133279479 0 0.40605193543095291 0.1101899923625959 0 0.40408322644931421 0.10337105767737099 0 0.41050144950628809 0.092342992232264526 0 0.40408322644931421 0.10337105767737099 0 0.39173805803946632 0.094638931286680023 0 0.4038432128890253 0.016274120358417851 0 0.39452024459155199 0.029629145094844 0 0.3798040161112804 0.028996110171619349 0 0.4038432128890253 0.016274120358417851 0 0.39452024459155199 0.029629145094844 0 0.40714332068978548 0.032011032787191827 0 0.4038432128890253 0.016274120358417851 0 0.3798040161112804 0.028996110171619349 0 0.4038432128890253 0.016274120358417851 0 0.39390920682105918 0.0040204267233196643 0 0.38813729234829519 0.016219836643301819 0 0.4038432128890253 0.016274120358417851 0 0.39390920682105918 0.0040204267233196643 0 0.40369857438468087 -0.0060371637805465179 0 0.39390920682105918 0.0040204267233196643 0 0.38212023564171321 0.001094655884648786 0 0.38813729234829519 0.016219836643301819 0 0.38212023564171321 0.001094655884648786 0 0.37537418671591988 0.012891754799621079 0 0.3700201466167648 -0.002195575246397889 0 0.38212023564171321 0.001094655884648786 0 0.37537418671591988 0.012891754799621079 0 0.38813729234829519 0.016219836643301819 0 0.38029426512156322 0.021339738828328979 0 0.38813729234829519 0.016219836643301819 0 0.3798040161112804 0.028996110171619349 0 0.4038432128890253 0.016274120358417851 0 0.38813729234829519 0.016219836643301819 0 0.3798040161112804 0.028996110171619349 0 0.37537418671591988 0.012891754799621079 0 0.38029426512156322 0.021339738828328979 0 0.37786156531075732 0.02725125369877367 0 0.37537418671591988 0.012891754799621079 0 0.38029426512156322 0.021339738828328979 0 0.38813729234829519 0.016219836643301819 0 0.39452024459155199 0.029629145094844 0 0.3798040161112804 0.028996110171619349 0 0.384792923869274 0.033192425096464057 0 0.38029426512156322 0.021339738828328979 0 0.3798040161112804 0.028996110171619349 0 0.37786156531075732 0.02725125369877367 0 0.36984281421283938 0.03924660656396721 0 0.3798040161112804 0.028996110171619349 0 0.37675727284589372 0.036323400775862158 0 0.3798040161112804 0.028996110171619349 0 0.38012370578730592 0.033949837724153123 0 0.37675727284589372 0.036323400775862158 0 0.3798040161112804 0.028996110171619349 0 0.38012370578730592 0.033949837724153123 0 0.384792923869274 0.033192425096464057 0 0.38012370578730592 0.033949837724153123 0 0.38115894465086869 0.037510150111343843 0 0.384792923869274 0.033192425096464057 0 0.38012370578730592 0.033949837724153123 0 0.38115894465086869 0.037510150111343843 0 0.37675727284589372 0.036323400775862158 0 0.38115894465086869 0.037510150111343843 0 0.37675727284589372 0.036323400775862158 0 0.37726993283737248 0.041439113600633092 0 0.37726993283737248 0.041439113600633092 0 0.38325871491723518 0.0441773091346798 0 0.37608467898805159 0.048096788967416412 0 0.38115894465086869 0.037510150111343843 0 0.37726993283737248 0.041439113600633092 0 0.38325871491723518 0.0441773091346798 0 0.38115894465086869 0.037510150111343843 0 0.38325871491723518 0.0441773091346798 0 0.38884635116990662 0.036871995634108659 0 0.38325871491723518 0.0441773091346798 0 0.38884635116990662 0.036871995634108659 0 0.39118926401298038 0.043344116461786472 0 0.39452024459155199 0.029629145094844 0 0.38884635116990662 0.036871995634108659 0 0.384792923869274 0.033192425096464057 0 0.38115894465086869 0.037510150111343843 0 0.38884635116990662 0.036871995634108659 0 0.384792923869274 0.033192425096464057 0 0.36737709041569239 0.056764699852256018 0 0.39058826119953283 0.057913447496371839 0 0.36443667806580698 0.054513224756226962 0 0.37608467898805159 0.048096788967416412 0 0.39058826119953283 0.057913447496371839 0 0.36737709041569239 0.056764699852256018 0 0.37575225644292037 0.071709270247263784 0 0.39058826119953283 0.057913447496371839 0 0.36443667806580698 0.054513224756226962 0 0.39058826119953283 0.057913447496371839 0 0.38325871491723518 0.0441773091346798 0 0.37608467898805159 0.048096788967416412 0 0.39058826119953283 0.057913447496371839 0 0.38325871491723518 0.0441773091346798 0 0.39058826119953283 0.057913447496371839 0 0.39118926401298038 0.043344116461786472 0 0.39058826119953283 0.057913447496371839 0 0.39917917489280202 0.048669550515315511 0 0.40824027372044169 0.058787065978875973 0 0.39058826119953283 0.057913447496371839 0 0.40824027372044169 0.058787065978875973 0 0.39058826119953283 0.057913447496371839 0 0.41794119589964812 0.061469869687005997 0 0.40824027372044169 0.058787065978875973 0 0.39058826119953283 0.057913447496371839 0 0.41794119589964812 0.061469869687005997 0 0.39058826119953283 0.057913447496371839 0 0.39917917489280202 0.048669550515315511 0 0.39118926401298038 0.043344116461786472 0 0.39917917489280202 0.048669550515315511 0 0.40803146459590139 0.044566129264659721 0 0.40824027372044169 0.058787065978875973 0 0.39452024459155199 0.029629145094844 0 0.38884635116990662 0.036871995634108659 0 0.39784661093515339 0.038736993374884177 0 0.39917917489280202 0.048669550515315511 0 0.39784661093515339 0.038736993374884177 0 0.39118926401298038 0.043344116461786472 0 0.38884635116990662 0.036871995634108659 0 0.39784661093515339 0.038736993374884177 0 0.39118926401298038 0.043344116461786472 0 0.39917917489280202 0.048669550515315511 0 0.39784661093515339 0.038736993374884177 0 0.40803146459590139 0.044566129264659721 0 0.39452024459155199 0.029629145094844 0 0.39784661093515339 0.038736993374884177 0 0.40714332068978548 0.032011032787191827 0 0.39784661093515339 0.038736993374884177 0 0.40714332068978548 0.032011032787191827 0 0.40803146459590139 0.044566129264659721 0 0.40714332068978548 0.032011032787191827 0 0.40803146459590139 0.044566129264659721 0 0.41964440497126981 0.040250358009145122 0 0.40803146459590139 0.044566129264659721 0 0.41964440497126981 0.040250358009145122 0 0.41733432138732551 0.050785193364838402 0 0.40714332068978548 0.032011032787191827 0 0.41964440497126981 0.040250358009145122 0 0.41891932927970088 0.026081136014491389 0 0.40824027372044169 0.058787065978875973 0 0.41733432138732551 0.050785193364838402 0 0.42589228624135061 0.059660684461379461 0 0.40824027372044169 0.058787065978875973 0 0.42589228624135061 0.059660684461379461 0 0.41794119589964812 0.061469869687005997 0 0.40824027372044169 0.058787065978875973 0 0.42589228624135061 0.059660684461379461 0 0.40803146459590139 0.044566129264659721 0 0.40824027372044169 0.058787065978875973 0 0.41733432138732551 0.050785193364838402 0 0.41964440497126981 0.040250358009145122 0 0.41733432138732551 0.050785193364838402 0 0.42647272639553008 0.050672874727357403 0 0.44529413059976319 0.065026291877640793 0 0.42589228624135061 0.059660684461379461 0 0.43583307009461808 0.053135938561971199 0 0.44529413059976319 0.065026291877640793 0 0.41794119589964812 0.061469869687005997 0 0.42589228624135061 0.059660684461379461 0 0.42589228624135061 0.059660684461379461 0 0.42647272639553008 0.050672874727357403 0 0.43583307009461808 0.053135938561971199 0 0.41733432138732551 0.050785193364838402 0 0.42589228624135061 0.059660684461379461 0 0.42647272639553008 0.050672874727357403 0 0.42647272639553008 0.050672874727357403 0 0.43583307009461808 0.053135938561971199 0 0.4340740022190257 0.043822740937536728 0 0.41964440497126981 0.040250358009145122 0 0.42987588244635011 0.033334548906864728 0 0.41891932927970088 0.026081136014491389 0 0.41964440497126981 0.040250358009145122 0 0.4340740022190257 0.043822740937536728 0 0.42987588244635011 0.033334548906864728 0 0.41964440497126981 0.040250358009145122 0 0.42647272639553008 0.050672874727357403 0 0.4340740022190257 0.043822740937536728 0 0.4340740022190257 0.043822740937536728 0 0.42987588244635011 0.033334548906864728 0 0.44528176508543132 0.032905620831071007 0 0.42987588244635011 0.033334548906864728 0 0.43184963590009789 0.021236349906575389 0 0.44528176508543132 0.032905620831071007 0 0.43184963590009789 0.021236349906575389 0 0.42259879527057942 0.015927249454054739 0 0.43188165484739188 0.01287087804949661 0 0.43184963590009789 0.021236349906575389 0 0.42259879527057942 0.015927249454054739 0 0.41891932927970088 0.026081136014491389 0 0.42987588244635011 0.033334548906864728 0 0.43184963590009789 0.021236349906575389 0 0.41891932927970088 0.026081136014491389 0 0.4038432128890253 0.016274120358417851 0 0.42259879527057942 0.015927249454054739 0 0.41891932927970088 0.026081136014491389 0 0.4038432128890253 0.016274120358417851 0 0.40714332068978548 0.032011032787191827 0 0.41891932927970088 0.026081136014491389 0 0.4038432128890253 0.016274120358417851 0 0.41402040698134779 -0.0025911497673051101 0 0.40369857438468087 -0.0060371637805465179 0 0.4038432128890253 0.016274120358417851 0 0.42788240966677021 0.003552130545216341 0 0.4038432128890253 0.016274120358417851 0 0.42101935538117791 0.0050386314779034547 0 0.41402040698134779 -0.0025911497673051101 0 0.4038432128890253 0.016274120358417851 0 0.42259879527057942 0.015927249454054739 0 0.42788240966677021 0.003552130545216341 0 0.4038432128890253 0.016274120358417851 0 0.42101935538117791 0.0050386314779034547 0 0.42788240966677021 0.003552130545216341 0 0.42788240966677021 0.003552130545216341 0 0.43188165484739188 0.01287087804949661 0 0.44740740452026229 0.01137317045841814 0 0.42259879527057942 0.015927249454054739 0 0.42788240966677021 0.003552130545216341 0 0.43188165484739188 0.01287087804949661 0 0.43184963590009789 0.021236349906575389 0 0.43188165484739188 0.01287087804949661 0 0.44740740452026229 0.01137317045841814 0 0.42788240966677021 0.003552130545216341 0 0.44740740452026229 0.01137317045841814 0 0.45192160644451512 -0.0091698592679851504 0 0.43184963590009789 0.021236349906575389 0 0.44740740452026229 0.01137317045841814 0 0.44528176508543132 0.032905620831071007 0 0.44740740452026229 0.01137317045841814 0 0.44528176508543132 0.032905620831071007 0 0.46875558315454652 0.02621282055229885 0 0.44740740452026229 0.01137317045841814 0 0.4740075662235973 0.0028935560396234419 0 0.46875558315454652 0.02621282055229885 0 0.44740740452026229 0.01137317045841814 0 0.4740075662235973 0.0028935560396234419 0 0.45192160644451512 -0.0091698592679851504 0 0.44529413059976319 0.065026291877640793 0 0.44587589901867808 0.047550444472131762 0 0.4614262583005877 0.04791767975015173 0 0.44529413059976319 0.065026291877640793 0 0.43583307009461808 0.053135938561971199 0 0.44587589901867808 0.047550444472131762 0 0.43583307009461808 0.053135938561971199 0 0.4340740022190257 0.043822740937536728 0 0.44587589901867808 0.047550444472131762 0 0.44587589901867808 0.047550444472131762 0 0.44528176508543132 0.032905620831071007 0 0.4614262583005877 0.04791767975015173 0 0.4340740022190257 0.043822740937536728 0 0.44587589901867808 0.047550444472131762 0 0.44528176508543132 0.032905620831071007 0 0.44528176508543132 0.032905620831071007 0 0.4614262583005877 0.04791767975015173 0 0.46875558315454652 0.02621282055229885 0 0.47264706529987838 0.068582714068275596 0 0.44529413059976319 0.065026291877640793 0 0.4614262583005877 0.04791767975015173 0 0.47264706529987838 0.068582714068275596 0 0.4614262583005877 0.04791767975015173 0 0.48053199367993171 0.043851827509569327 0 0.4614262583005877 0.04791767975015173 0 0.48053199367993171 0.043851827509569327 0 0.46875558315454652 0.02621282055229885 0 0.48053199367993171 0.043851827509569327 0 0.5 0.04545089247058498 0 0.5 0.018762648682260189 0 0.49999999999999389 0.072139136258909636 0 0.47264706529987838 0.068582714068275596 0 0.48053199367993171 0.043851827509569327 0 0.49999999999999389 0.072139136258909636 0 0.48053199367993171 0.043851827509569327 0 0.5 0.04545089247058498 0 0.48053199367993171 0.043851827509569327 0 0.46875558315454652 0.02621282055229885 0 0.5 0.018762648682260189 0 0.4740075662235973 0.0028935560396234419 0 0.46875558315454652 0.02621282055229885 0 0.5 0.018762648682260189 0 0.4740075662235973 0.0028935560396234419 0 0.5 0.018762648682260189 0 0.5 -0.0079255951060647756 0 0.4740075662235973 0.0028935560396234419 0 0.5 -0.0079255951060647756 0 0.47596080322225992 -0.02189184908118659 0 0.47596080322225992 -0.02189184908118659 0 0.50000000000000377 -0.034613838894389633 0 0.5 -0.0079255951060647756 0 0.47596080322225992 -0.02189184908118659 0 0.50000000000000377 -0.034613838894389633 0 0.47596080322225992 -0.02189184908118659 0 0.50000000000000377 -0.034613838894389633 0 0.48339532061042467 -0.042675677639817791 0 0.50000000000000377 -0.034613838894389633 0 0.5 -0.052291970509826757 0 0.48339532061042467 -0.042675677639817791 0 0.5 -0.052291970509826757 0 0.48378938215607542 -0.060491629721736481 0 0.49999999999999678 -0.069970102125263903 0 0.5 -0.052291970509826757 0 0.48378938215607542 -0.060491629721736481 0 0.48339532061042467 -0.042675677639817791 0 0.48378938215607542 -0.060491629721736481 0 0.47035919737641452 -0.05083356829212015 0 0.48339532061042467 -0.042675677639817791 0 0.48378938215607542 -0.060491629721736481 0 0.47035919737641452 -0.05083356829212015 0 0.46263532094350251 -0.0655193079319734 0 0.47596080322225992 -0.02189184908118659 0 0.48339532061042467 -0.042675677639817791 0 0.46122373864745198 -0.034064038759572521 0 0.47035919737641452 -0.05083356829212015 0 0.48339532061042467 -0.042675677639817791 0 0.46122373864745198 -0.034064038759572521 0 0.46122373864745198 -0.034064038759572521 0 0.45641225836005789 -0.05051217933658872 0 0.44483042593949818 -0.041063070916932051 0 0.47035919737641452 -0.05083356829212015 0 0.46122373864745198 -0.034064038759572521 0 0.45641225836005789 -0.05051217933658872 0 0.45641225836005789 -0.05051217933658872 0 0.44526353314296241 -0.062107813217869068 0 0.46263532094350251 -0.0655193079319734 0 0.47035919737641452 -0.05083356829212015 0 0.45641225836005789 -0.05051217933658872 0 0.46263532094350251 -0.0655193079319734 0 0.45641225836005789 -0.05051217933658872 0 0.44526353314296241 -0.062107813217869068 0 0.44483042593949818 -0.041063070916932051 0 0.44526353314296241 -0.062107813217869068 0 0.44483042593949818 -0.041063070916932051 0 0.42768193525564641 -0.052738548234870043 0 0.46122373864745198 -0.034064038759572521 0 0.44483042593949818 -0.041063070916932051 0 0.44260817666721519 -0.025216613737701819 0 0.44483042593949818 -0.041063070916932051 0 0.44260817666721519 -0.025216613737701819 0 0.43454865465473302 -0.032105158367880783 0 0.46122373864745198 -0.034064038759572521 0 0.44260817666721519 -0.025216613737701819 0 0.45192160644451512 -0.0091698592679851504 0 0.42788240966677021 0.003552130545216341 0 0.45192160644451512 -0.0091698592679851504 0 0.44260817666721519 -0.025216613737701819 0 0.45192160644451512 -0.0091698592679851504 0 0.43543049063324413 -0.012350052332502739 0 0.42788240966677021 0.003552130545216341 0 0.45192160644451512 -0.0091698592679851504 0 0.43543049063324413 -0.012350052332502739 0 0.4740075662235973 0.0028935560396234419 0 0.47596080322225992 -0.02189184908118659 0 0.45192160644451512 -0.0091698592679851504 0 0.47596080322225992 -0.02189184908118659 0 0.45192160644451512 -0.0091698592679851504 0 0.47596080322225992 -0.02189184908118659 0 0.46122373864745198 -0.034064038759572521 0 0.45192160644451512 -0.0091698592679851504 0 0.47621403880257929 -0.099362679963144546 0 0.45825176112352212 -0.1171944005084963 0 0.47461064769812122 -0.12772964805397971 0 0.50000000000000433 -0.1143432737178363 0 0.47621403880257929 -0.099362679963144546 0 0.47461064769812122 -0.12772964805397971 0 0.50000000000000433 -0.1143432737178363 0 0.47461064769812122 -0.12772964805397971 0 0.49999999999998102 -0.1000967699598443 0 0.47621403880257929 -0.099362679963144546 0 0.49999999999998102 -0.1000967699598443 0 0.47621403880257929 -0.099362679963144546 0 0.48785951469139027 -0.086657123706384981 0 0.50000000000000433 -0.1143432737178363 0 0.49999999999998102 -0.1000967699598443 0 0.47621403880257929 -0.099362679963144546 0 0.47621403880257929 -0.099362679963144546 0 0.48785951469139027 -0.086657123706384981 0 0.47522401996300467 -0.077198942777287505 0 0.47621403880257929 -0.099362679963144546 0 0.47522401996300467 -0.077198942777287505 0 0.46460819440086443 -0.0896918568577834 0 0.49999999999998102 -0.1000967699598443 0 0.48785951469139027 -0.086657123706384981 0 0.49999999999999678 -0.069970102125263903 0 0.49999999999999678 -0.069970102125263903 0 0.47522401996300467 -0.077198942777287505 0 0.48785951469139027 -0.086657123706384981 0 0.49999999999999678 -0.069970102125263903 0 0.47522401996300467 -0.077198942777287505 0 0.48378938215607542 -0.060491629721736481 0 0.49999999999999678 -0.069970102125263903 0 0.47522401996300467 -0.077198942777287505 0 0.48378938215607542 -0.060491629721736481 0 0.47522401996300467 -0.077198942777287505 0 0.46263532094350251 -0.0655193079319734 0 0.47522401996300467 -0.077198942777287505 0 0.46263532094350251 -0.0655193079319734 0 0.4504480399260129 -0.084427783429311939 0 0.44526353314296241 -0.062107813217869068 0 0.46263532094350251 -0.0655193079319734 0 0.4504480399260129 -0.084427783429311939 0 0.44526353314296241 -0.062107813217869068 0 0.4504480399260129 -0.084427783429311939 0 0.43069868055782679 -0.078899440675300136 0 0.4504480399260129 -0.084427783429311939 0 0.45242807760517778 -0.098628589966444233 0 0.42864211640777627 -0.097894499969741214 0 0.4504480399260129 -0.084427783429311939 0 0.42567205988902129 -0.091656624081337568 0 0.47522401996300467 -0.077198942777287505 0 0.4504480399260129 -0.084427783429311939 0 0.47522401996300467 -0.077198942777287505 0 0.4504480399260129 -0.084427783429311939 0 0.46460819440086443 -0.0896918568577834 0 0.4504480399260129 -0.084427783429311939 0 0.46460819440086443 -0.0896918568577834 0 0.45242807760517778 -0.098628589966444233 0 0.47621403880257929 -0.099362679963144546 0 0.45242807760517778 -0.098628589966444233 0 0.45825176112352212 -0.1171944005084963 0 0.47621403880257929 -0.099362679963144546 0 0.45242807760517778 -0.098628589966444233 0 0.47621403880257929 -0.099362679963144546 0 0.46460819440086443 -0.0896918568577834 0 0.45242807760517778 -0.098628589966444233 0 0.45242807760517778 -0.098628589966444233 0 0.42864211640777627 -0.097894499969741214 0 0.45242807760517778 -0.098628589966444233 0 0.43893170590200609 -0.1195052611799315 0 0.42864211640777627 -0.097894499969741214 0 0.45242807760517778 -0.098628589966444233 0 0.43893170590200609 -0.1195052611799315 0 0.45825176112352212 -0.1171944005084963 0 0.42080162445294911 -0.1170697999396166 0 0.40604313277712428 -0.1171380761358455 0 0.41368108829086198 -0.13554811058748131 0 0.42080162445294911 -0.1170697999396166 0 0.40662173914453831 -0.097214899993173481 0 0.40604313277712428 -0.1171380761358455 0 0.43893170590200609 -0.1195052611799315 0 0.42080162445294911 -0.1170697999396166 0 0.430889964195386 -0.135117951771525 0 0.43893170590200609 -0.1195052611799315 0 0.42080162445294911 -0.1170697999396166 0 0.42864211640777627 -0.097894499969741214 0 0.43893170590200609 -0.1195052611799315 0 0.42864211640777627 -0.097894499969741214 0 0.42864211640777627 -0.097894499969741214 0 0.42567205988902129 -0.091656624081337568 0 0.42864211640777627 -0.097894499969741214 0 0.40662173914453831 -0.097214899993173481 0 0.42567205988902129 -0.091656624081337568 0 0.42080162445294911 -0.1170697999396166 0 0.42864211640777627 -0.097894499969741214 0 0.40662173914453831 -0.097214899993173481 0 0.42864211640777627 -0.097894499969741214 0 0.40662173914453831 -0.097214899993173481 0 0.40662173914453831 -0.097214899993173481 0 0.42567205988902129 -0.091656624081337568 0 0.40662173914453831 -0.097214899993173481 0 0.41829766411352998 -0.087706900461061957 0 0.42567205988902129 -0.091656624081337568 0 0.40662173914453831 -0.097214899993173481 0 0.41020628866808312 -0.08357079425946129 0 0.41829766411352998 -0.087706900461061957 0 0.41020628866808312 -0.08357079425946129 0 0.42012861486432151 -0.07981881462850364 0 0.41094109939792961 -0.074512111623280808 0 0.41020628866808312 -0.08357079425946129 0 0.41094109939792961 -0.074512111623280808 0 0.40556094342569721 -0.078918860306745137 0 0.41020628866808312 -0.08357079425946129 0 0.42012861486432151 -0.07981881462850364 0 0.41829766411352998 -0.087706900461061957 0 0.42012861486432151 -0.07981881462850364 0 0.41829766411352998 -0.087706900461061957 0 0.42254342745458301 -0.084546146485576762 0 0.41829766411352998 -0.087706900461061957 0 0.42461385466063262 -0.08943412331831832 0 0.42254342745458301 -0.084546146485576762 0 0.42567205988902129 -0.091656624081337568 0 0.42461385466063262 -0.08943412331831832 0 0.43069868055782679 -0.078899440675300136 0 0.4504480399260129 -0.084427783429311939 0 0.42567205988902129 -0.091656624081337568 0 0.43069868055782679 -0.078899440675300136 0 0.4504480399260129 -0.084427783429311939 0 0.42864211640777627 -0.097894499969741214 0 0.42567205988902129 -0.091656624081337568 0 0.42567205988902129 -0.091656624081337568 0 0.42461385466063262 -0.08943412331831832 0 0.41829766411352998 -0.087706900461061957 0 0.42567205988902129 -0.091656624081337568 0 0.42461385466063262 -0.08943412331831832 0 0.42012861486432151 -0.07981881462850364 0 0.43069868055782679 -0.078899440675300136 0 0.42254342745458301 -0.084546146485576762 0 0.42461385466063262 -0.08943412331831832 0 0.43069868055782679 -0.078899440675300136 0 0.42254342745458301 -0.084546146485576762 0 0.43069868055782679 -0.078899440675300136 0 0.42085386234523608 -0.065266903626460593 0 0.41911482919747139 -0.073234494934215744 0 0.43069868055782679 -0.078899440675300136 0 0.42085386234523608 -0.065266903626460593 0 0.42768193525564641 -0.052738548234870043 0 0.44526353314296241 -0.062107813217869068 0 0.43069868055782679 -0.078899440675300136 0 0.42768193525564641 -0.052738548234870043 0 0.43069868055782679 -0.078899440675300136 0 0.42768193525564641 -0.052738548234870043 0 0.42012861486432151 -0.07981881462850364 0 0.43069868055782679 -0.078899440675300136 0 0.41911482919747139 -0.073234494934215744 0 0.42085386234523608 -0.065266903626460593 0 0.41911482919747139 -0.073234494934215744 0 0.41247118756252621 -0.068972059658544485 0 0.41911482919747139 -0.073234494934215744 0 0.41094109939792961 -0.074512111623280808 0 0.41247118756252621 -0.068972059658544485 0 0.42012861486432151 -0.07981881462850364 0 0.41911482919747139 -0.073234494934215744 0 0.41094109939792961 -0.074512111623280808 0 0.41094109939792961 -0.074512111623280808 0 0.41247118756252621 -0.068972059658544485 0 0.40519344017519737 -0.069697512887539489 0 0.42085386234523608 -0.065266903626460593 0 0.41247118756252621 -0.068972059658544485 0 0.40625270669679608 -0.06214927522122575 0 0.41247118756252621 -0.068972059658544485 0 0.40519344017519737 -0.069697512887539489 0 0.40625270669679608 -0.06214927522122575 0 0.40519344017519737 -0.069697512887539489 0 0.3909339432522656 -0.07145852807871525 0 0.40625270669679608 -0.06214927522122575 0 0.41094109939792961 -0.074512111623280808 0 0.40094221169150912 -0.074554002884685597 0 0.40556094342569721 -0.078918860306745137 0 0.40519344017519737 -0.069697512887539489 0 0.40094221169150912 -0.074554002884685597 0 0.3909339432522656 -0.07145852807871525 0 0.41094109939792961 -0.074512111623280808 0 0.40519344017519737 -0.069697512887539489 0 0.40094221169150912 -0.074554002884685597 0 0.40094221169150912 -0.074554002884685597 0 0.3909339432522656 -0.07145852807871525 0 0.39616481607021642 -0.077435810443283751 0 0.3909339432522656 -0.07145852807871525 0 0.39616481607021642 -0.077435810443283751 0 0.39262893539182381 -0.080692178350181262 0 0.39181446083091098 -0.066763706552935329 0 0.38421934743036401 -0.068446750892908373 0 0.38398729378694407 -0.058429379279077209 0 0.38421934743036401 -0.068446750892908373 0 0.37813424473731178 -0.068262582352726586 0 0.38398729378694407 -0.058429379279077209 0 0.37813424473731178 -0.068262582352726586 0 0.38294139036628899 -0.080331335386894381 0 0.37353404377441052 -0.075370636612477671 0 0.38421934743036401 -0.068446750892908373 0 0.37813424473731178 -0.068262582352726586 0 0.38294139036628899 -0.080331335386894381 0 0.39181446083091098 -0.066763706552935329 0 0.38294139036628899 -0.080331335386894381 0 0.39181446083091098 -0.066763706552935329 0 0.38421934743036401 -0.068446750892908373 0 0.38294139036628899 -0.080331335386894381 0 0.3909339432522656 -0.07145852807871525 0 0.39181446083091098 -0.066763706552935329 0 0.38294139036628899 -0.080331335386894381 0 0.38598565568847482 -0.085166122563822014 0 0.39289996883908601 -0.089154852807517448 0 0.39262893539182381 -0.080692178350181262 0 0.3909339432522656 -0.07145852807871525 0 0.38598565568847482 -0.085166122563822014 0 0.39262893539182381 -0.080692178350181262 0 0.3909339432522656 -0.07145852807871525 0 0.37406831990166722 -0.093898964220853504 0 0.3909339432522656 -0.07145852807871525 0 0.38598565568847482 -0.085166122563822014 0 0.37406831990166722 -0.093898964220853504 0 0.3909339432522656 -0.07145852807871525 0 0.38294139036628899 -0.080331335386894381 0 0.37406831990166722 -0.093898964220853504 0 0.38294139036628899 -0.080331335386894381 0 0.37406831990166722 -0.093898964220853504 0 0.38598565568847482 -0.085166122563822014 0 0.38240509603332101 -0.092127683864182172 0 0.37406831990166722 -0.093898964220853504 0 0.38240509603332101 -0.092127683864182172 0 0.39289996883908601 -0.089154852807517448 0 0.38960421283109031 -0.096689699614190994 0 0.38598565568847482 -0.085166122563822014 0 0.38240509603332101 -0.092127683864182172 0 0.39289996883908601 -0.089154852807517448 0 0.39289996883908601 -0.089154852807517448 0 0.39262893539182381 -0.080692178350181262 0 0.40015417394526698 -0.083038532459552866 0 0.39616481607021642 -0.077435810443283751 0 0.39262893539182381 -0.080692178350181262 0 0.40015417394526698 -0.083038532459552866 0 0.40094221169150912 -0.074554002884685597 0 0.40556094342569721 -0.078918860306745137 0 0.40015417394526698 -0.083038532459552866 0 0.40094221169150912 -0.074554002884685597 0 0.39616481607021642 -0.077435810443283751 0 0.40015417394526698 -0.083038532459552866 0 0.41020628866808312 -0.08357079425946129 0 0.40556094342569721 -0.078918860306745137 0 0.40015417394526698 -0.083038532459552866 0 0.40662173914453831 -0.097214899993173481 0 0.39289996883908601 -0.089154852807517448 0 0.40015417394526698 -0.083038532459552866 0 0.40662173914453831 -0.097214899993173481 0 0.41020628866808312 -0.08357079425946129 0 0.40015417394526698 -0.083038532459552866 0 0.40662173914453831 -0.097214899993173481 0 0.3851668720105898 -0.10347474583943909 0 0.38960421283109031 -0.096689699614190994 0 0.40662173914453831 -0.097214899993173481 0 0.3851668720105898 -0.10347474583943909 0 0.40662173914453831 -0.097214899993173481 0 0.39289996883908601 -0.089154852807517448 0 0.38960421283109031 -0.096689699614190994 0 0.40662173914453831 -0.097214899993173481 0 0.38960421283109031 -0.096689699614190994 0 0.40662173914453831 -0.097214899993173481 0 0.3851668720105898 -0.10347474583943909 0 0.39374350655696688 -0.1137959578468639 0 0.38960421283109031 -0.096689699614190994 0 0.37237061700676077 -0.09615783082836224 0 0.3851668720105898 -0.10347474583943909 0 0.38960421283109031 -0.096689699614190994 0 0.37237061700676077 -0.09615783082836224 0 0.38240509603332101 -0.092127683864182172 0 0.38960421283109031 -0.096689699614190994 0 0.37237061700676077 -0.09615783082836224 0 0.38240509603332101 -0.092127683864182172 0 0.37406831990166722 -0.093898964220853504 0 0.37237061700676077 -0.09615783082836224 0 0.3785150876385216 -0.1195111518185689 0 0.39374350655696688 -0.1137959578468639 0 0.39237070121405998 -0.13164091544729051 0 0.3851668720105898 -0.10347474583943909 0 0.3785150876385216 -0.1195111518185689 0 0.36371200487664068 -0.10973459168570281 0 0.3851668720105898 -0.10347474583943909 0 0.3785150876385216 -0.1195111518185689 0 0.39374350655696688 -0.1137959578468639 0 0.40662173914453831 -0.097214899993173481 0 0.39374350655696688 -0.1137959578468639 0 0.40604313277712428 -0.1171380761358455 0 0.39374350655696688 -0.1137959578468639 0 0.40604313277712428 -0.1171380761358455 0 0.39237070121405998 -0.13164091544729051 0 0.41728163952739061 -0.019334187549187701 0 0.42284227266732188 -0.010769512158268201 0 0.42466518995346408 -0.026577655794440151 0 0.41728163952739061 -0.019334187549187701 0 0.41227128108974659 -0.029924501558089681 0 0.42466518995346408 -0.026577655794440151 0 0.41227128108974659 -0.029924501558089681 0 0.40863720631140932 -0.019892986955346081 0 0.40014031603924488 -0.033106741091830219 0 0.41728163952739061 -0.019334187549187701 0 0.41227128108974659 -0.029924501558089681 0 0.40863720631140932 -0.019892986955346081 0 0.41728163952739061 -0.019334187549187701 0 0.40863720631140932 -0.019892986955346081 0 0.41436166681859882 -0.01226683791037885 0 0.40863720631140932 -0.019892986955346081 0 0.41436166681859882 -0.01226683791037885 0 0.40369857438468087 -0.0060371637805465179 0 0.42101935538117791 0.0050386314779034547 0 0.41402040698134779 -0.0025911497673051101 0 0.42284227266732188 -0.010769512158268201 0 0.41402040698134779 -0.0025911497673051101 0 0.41436166681859882 -0.01226683791037885 0 0.40369857438468087 -0.0060371637805465179 0 0.41402040698134779 -0.0025911497673051101 0 0.41436166681859882 -0.01226683791037885 0 0.42284227266732188 -0.010769512158268201 0 0.41728163952739061 -0.019334187549187701 0 0.41436166681859882 -0.01226683791037885 0 0.42284227266732188 -0.010769512158268201 0 0.42284227266732188 -0.010769512158268201 0 0.43543049063324413 -0.012350052332502739 0 0.42769414368384923 -0.02254750278133769 0 0.42101935538117791 0.0050386314779034547 0 0.42284227266732188 -0.010769512158268201 0 0.42101935538117791 0.0050386314779034547 0 0.42788240966677021 0.003552130545216341 0 0.42284227266732188 -0.010769512158268201 0 0.42788240966677021 0.003552130545216341 0 0.42284227266732188 -0.010769512158268201 0 0.43543049063324413 -0.012350052332502739 0 0.42284227266732188 -0.010769512158268201 0 0.42466518995346408 -0.026577655794440151 0 0.42284227266732188 -0.010769512158268201 0 0.42769414368384923 -0.02254750278133769 0 0.42466518995346408 -0.026577655794440151 0 0.44260817666721519 -0.025216613737701819 0 0.43543049063324413 -0.012350052332502739 0 0.42769414368384923 -0.02254750278133769 0 0.42769414368384923 -0.02254750278133769 0 0.42466518995346408 -0.026577655794440151 0 0.43454865465473302 -0.032105158367880783 0 0.42769414368384923 -0.02254750278133769 0 0.42466518995346408 -0.026577655794440151 0 0.44260817666721519 -0.025216613737701819 0 0.42769414368384923 -0.02254750278133769 0 0.43454865465473302 -0.032105158367880783 0 0.42466518995346408 -0.026577655794440151 0 0.43454865465473302 -0.032105158367880783 0 0.42768193525564641 -0.052738548234870043 0 0.42466518995346408 -0.026577655794440151 0 0.42768193525564641 -0.052738548234870043 0 0.44483042593949818 -0.041063070916932051 0 0.43454865465473302 -0.032105158367880783 0 0.42768193525564641 -0.052738548234870043 0 0.42085386234523608 -0.065266903626460593 0 0.42768193525564641 -0.052738548234870043 0 0.40779956660286398 -0.049018091936576927 0 0.42085386234523608 -0.065266903626460593 0 0.40779956660286398 -0.049018091936576927 0 0.40625270669679608 -0.06214927522122575 0 0.42466518995346408 -0.026577655794440151 0 0.42768193525564641 -0.052738548234870043 0 0.40779956660286398 -0.049018091936576927 0 0.42466518995346408 -0.026577655794440151 0 0.40779956660286398 -0.049018091936576927 0 0.41227128108974659 -0.029924501558089681 0 0.42466518995346408 -0.026577655794440151 0 0.40779956660286398 -0.049018091936576927 0 0.41227128108974659 -0.029924501558089681 0 0.40779956660286398 -0.049018091936576927 0 0.40014031603924488 -0.033106741091830219 0 0.40779956660286398 -0.049018091936576927 0 0.40014031603924488 -0.033106741091830219 0 0.3912967176308087 -0.04756724484766426 0 0.40014031603924488 -0.033106741091830219 0 0.3912967176308087 -0.04756724484766426 0 0.38547037370043469 -0.032308846426106139 0 0.3909339432522656 -0.07145852807871525 0 0.40779956660286398 -0.049018091936576927 0 0.40625270669679608 -0.06214927522122575 0 0.3909339432522656 -0.07145852807871525 0 0.39181446083091098 -0.066763706552935329 0 0.40779956660286398 -0.049018091936576927 0 0.39181446083091098 -0.066763706552935329 0 0.40779956660286398 -0.049018091936576927 0 0.3912967176308087 -0.04756724484766426 0 0.3909339432522656 -0.07145852807871525 0 0.40779956660286398 -0.049018091936576927 0 0.3912967176308087 -0.04756724484766426 0 0.38398729378694407 -0.058429379279077209 0 0.37514153202862571 -0.045861082966856079 0 0.39181446083091098 -0.066763706552935329 0 0.3912967176308087 -0.04756724484766426 0 0.38398729378694407 -0.058429379279077209 0 0.38398729378694407 -0.058429379279077209 0 0.37514153202862571 -0.045861082966856079 0 0.37192531576168952 -0.05914395824800911 0 0.37813424473731178 -0.068262582352726586 0 0.38398729378694407 -0.058429379279077209 0 0.37192531576168952 -0.05914395824800911 0 0.3912967176308087 -0.04756724484766426 0 0.38547037370043469 -0.032308846426106139 0 0.37514153202862571 -0.045861082966856079 0 0.38547037370043469 -0.032308846426106139 0 0.37514153202862571 -0.045861082966856079 0 0.36877413775607049 -0.02995327657106206 0 0.38547037370043469 -0.032308846426106139 0 0.37927030083329177 -0.015743113788958679 0 0.36877413775607049 -0.02995327657106206 0 0.38547037370043469 -0.032308846426106139 0 0.37927030083329177 -0.015743113788958679 0 0.39536675090020662 -0.019928774827198261 0 0.40014031603924488 -0.033106741091830219 0 0.38547037370043469 -0.032308846426106139 0 0.39536675090020662 -0.019928774827198261 0 0.40863720631140932 -0.019892986955346081 0 0.40014031603924488 -0.033106741091830219 0 0.39536675090020662 -0.019928774827198261 0 0.40863720631140932 -0.019892986955346081 0 0.39536675090020662 -0.019928774827198261 0 0.40369857438468087 -0.0060371637805465179 0 0.39536675090020662 -0.019928774827198261 0 0.40369857438468087 -0.0060371637805465179 0 0.39174671884158141 -0.0074493154892236006 0 0.39390920682105918 0.0040204267233196643 0 0.40369857438468087 -0.0060371637805465179 0 0.39174671884158141 -0.0074493154892236006 0 0.38212023564171321 0.001094655884648786 0 0.37927030083329177 -0.015743113788958679 0 0.39174671884158141 -0.0074493154892236006 0 0.38212023564171321 0.001094655884648786 0 0.37927030083329177 -0.015743113788958679 0 0.3700201466167648 -0.002195575246397889 0 0.37927030083329177 -0.015743113788958679 0 0.39536675090020662 -0.019928774827198261 0 0.39174671884158141 -0.0074493154892236006 0 0.39390920682105918 0.0040204267233196643 0 0.38212023564171321 0.001094655884648786 0 0.39174671884158141 -0.0074493154892236006 0 0.35686418876597309 0.010252504770385159 0 0.3700201466167648 -0.002195575246397889 0 0.35727920934793722 -0.0129667368589869 0 0.37927030083329177 -0.015743113788958679 0 0.3700201466167648 -0.002195575246397889 0 0.35727920934793722 -0.0129667368589869 0 0.36877413775607049 -0.02995327657106206 0 0.35727920934793722 -0.0129667368589869 0 0.35227314840285812 -0.03152257084722427 0 0.37927030083329177 -0.015743113788958679 0 0.36877413775607049 -0.02995327657106206 0 0.35727920934793722 -0.0129667368589869 0 0.35727920934793722 -0.0129667368589869 0 0.33875503928457851 -0.02222753562310531 0 0.35227314840285812 -0.03152257084722427 0 0.35727920934793722 -0.0129667368589869 0 0.33586681222118892 -0.0067462441580033658 0 0.33875503928457851 -0.02222753562310531 0 0.35686418876597309 0.010252504770385159 0 0.35727920934793722 -0.0129667368589869 0 0.33586681222118892 -0.0067462441580033658 0 0.33586681222118892 -0.0067462441580033658 0 0.33875503928457851 -0.02222753562310531 0 0.31486943567640469 -0.023744993086391868 0 0.33875503928457851 -0.02222753562310531 0 0.31486943567640469 -0.023744993086391868 0 0.33348659077450338 -0.036157133164920148 0 0.33875503928457851 -0.02222753562310531 0 0.33348659077450338 -0.036157133164920148 0 0.35227314840285812 -0.03152257084722427 0 0.31046320235639918 0.0067575729804437252 0 0.33586681222118892 -0.0067462441580033658 0 0.3153830815233527 -0.0087530987426132929 0 0.33586681222118892 -0.0067462441580033658 0 0.31486943567640469 -0.023744993086391868 0 0.3153830815233527 -0.0087530987426132929 0 0.33586681222118892 -0.0067462441580033658 0 0.31486943567640469 -0.023744993086391868 0 0.32115491610998381 -0.052976688016941227 0 0.32092150739102382 -0.073097043805500014 0 0.30601744289912669 -0.055409131432484229 0 0.32115491610998381 -0.052976688016941227 0 0.31197137499350902 -0.041008225260955711 0 0.30601744289912669 -0.055409131432484229 0 0.31486943567640469 -0.023744993086391868 0 0.33348659077450338 -0.036157133164920148 0 0.31197137499350902 -0.041008225260955711 0 0.32115491610998381 -0.052976688016941227 0 0.33348659077450338 -0.036157133164920148 0 0.31197137499350902 -0.041008225260955711 0 0.33348659077450338 -0.036157133164920148 0 0.3363568723602065 -0.050864743298462772 0 0.35116628403686417 -0.048621598638038131 0 0.32115491610998381 -0.052976688016941227 0 0.33348659077450338 -0.036157133164920148 0 0.3363568723602065 -0.050864743298462772 0 0.32115491610998381 -0.052976688016941227 0 0.3363568723602065 -0.050864743298462772 0 0.33388625794764348 -0.064812423232177271 0 0.3363568723602065 -0.050864743298462772 0 0.34794047334546518 -0.063974584280765273 0 0.33388625794764348 -0.064812423232177271 0 0.3363568723602065 -0.050864743298462772 0 0.35116628403686417 -0.048621598638038131 0 0.34794047334546518 -0.063974584280765273 0 0.35116628403686417 -0.048621598638038131 0 0.35914505774559541 -0.060409417065886872 0 0.36392372675137458 -0.051574144679805103 0 0.35116628403686417 -0.048621598638038131 0 0.36240463436463582 -0.041692596330413237 0 0.36392372675137458 -0.051574144679805103 0 0.35116628403686417 -0.048621598638038131 0 0.35914505774559541 -0.060409417065886872 0 0.34794047334546518 -0.063974584280765273 0 0.35116628403686417 -0.048621598638038131 0 0.35227314840285812 -0.03152257084722427 0 0.36240463436463582 -0.041692596330413237 0 0.33348659077450338 -0.036157133164920148 0 0.35116628403686417 -0.048621598638038131 0 0.35227314840285812 -0.03152257084722427 0 0.37514153202862571 -0.045861082966856079 0 0.36877413775607049 -0.02995327657106206 0 0.36240463436463582 -0.041692596330413237 0 0.36877413775607049 -0.02995327657106206 0 0.35227314840285812 -0.03152257084722427 0 0.36240463436463582 -0.041692596330413237 0 0.37514153202862571 -0.045861082966856079 0 0.36240463436463582 -0.041692596330413237 0 0.36392372675137458 -0.051574144679805103 0 0.35914505774559541 -0.060409417065886872 0 0.36392372675137458 -0.051574144679805103 0 0.37192531576168952 -0.05914395824800911 0 0.37514153202862571 -0.045861082966856079 0 0.36392372675137458 -0.051574144679805103 0 0.37192531576168952 -0.05914395824800911 0 0.37813424473731178 -0.068262582352726586 0 0.37192531576168952 -0.05914395824800911 0 0.3680772617285144 -0.06977757947088653 0 0.35914505774559541 -0.060409417065886872 0 0.37192531576168952 -0.05914395824800911 0 0.3680772617285144 -0.06977757947088653 0 0.35914505774559541 -0.060409417065886872 0 0.3680772617285144 -0.06977757947088653 0 0.35837286676988928 -0.071968688592424085 0 0.3680772617285144 -0.06977757947088653 0 0.36498327826552668 -0.083111049239403226 0 0.35837286676988928 -0.071968688592424085 0 0.3680772617285144 -0.06977757947088653 0 0.37353404377441052 -0.075370636612477671 0 0.36498327826552668 -0.083111049239403226 0 0.37813424473731178 -0.068262582352726586 0 0.3680772617285144 -0.06977757947088653 0 0.37353404377441052 -0.075370636612477671 0 0.38294139036628899 -0.080331335386894381 0 0.37353404377441052 -0.075370636612477671 0 0.36498327826552668 -0.083111049239403226 0 0.36498327826552668 -0.083111049239403226 0 0.37237061700676077 -0.09615783082836224 0 0.34241852099989789 -0.095233439592861846 0 0.38294139036628899 -0.080331335386894381 0 0.36498327826552668 -0.083111049239403226 0 0.37406831990166722 -0.093898964220853504 0 0.36498327826552668 -0.083111049239403226 0 0.37406831990166722 -0.093898964220853504 0 0.37237061700676077 -0.09615783082836224 0 0.36498327826552668 -0.083111049239403226 0 0.3449175019875389 -0.076917716904771144 0 0.34241852099989789 -0.095233439592861846 0 0.36498327826552668 -0.083111049239403226 0 0.3449175019875389 -0.076917716904771144 0 0.35837286676988928 -0.071968688592424085 0 0.3449175019875389 -0.076917716904771144 0 0.34794047334546518 -0.063974584280765273 0 0.35837286676988928 -0.071968688592424085 0 0.35914505774559541 -0.060409417065886872 0 0.34794047334546518 -0.063974584280765273 0 0.35837286676988928 -0.071968688592424085 0 0.36371200487664068 -0.10973459168570281 0 0.35664352332635268 -0.13060513793896061 0 0.36779594019891898 -0.12729788290040461 0 0.3785150876385216 -0.1195111518185689 0 0.36371200487664068 -0.10973459168570281 0 0.36779594019891898 -0.12729788290040461 0 0.36371200487664068 -0.10973459168570281 0 0.37237061700676077 -0.09615783082836224 0 0.34241852099989789 -0.095233439592861846 0 0.3851668720105898 -0.10347474583943909 0 0.36371200487664068 -0.10973459168570281 0 0.37237061700676077 -0.09615783082836224 0 0.3851668720105898 -0.10347474583943909 0 0.36371200487664068 -0.10973459168570281 0 0.36371200487664068 -0.10973459168570281 0 0.37237061700676077 -0.09615783082836224 0 0.37406831990166722 -0.093898964220853504 0 0.37237061700676077 -0.09615783082836224 0 0.36371200487664068 -0.10973459168570281 0 0.34332012240242971 -0.1020930362129598 0 0.34241852099989789 -0.095233439592861846 0 0.36371200487664068 -0.10973459168570281 0 0.35002252173753962 -0.112446561286345 0 0.34332012240242971 -0.1020930362129598 0 0.37237061700676077 -0.09615783082836224 0 0.34241852099989789 -0.095233439592861846 0 0.35002252173753962 -0.112446561286345 0 0.34025414842832208 -0.11782241666052221 0 0.34332012240242971 -0.1020930362129598 0 0.36371200487664068 -0.10973459168570281 0 0.35355367174401742 -0.1211945845718113 0 0.34779048707731292 -0.1340798558009649 0 0.36371200487664068 -0.10973459168570281 0 0.35664352332635268 -0.13060513793896061 0 0.34779048707731292 -0.1340798558009649 0 0.36371200487664068 -0.10973459168570281 0 0.34779048707731292 -0.1340798558009649 0 0.36371200487664068 -0.10973459168570281 0 0.35002252173753962 -0.112446561286345 0 0.35355367174401742 -0.1211945845718113 0 0.36371200487664068 -0.10973459168570281 0 0.35355367174401742 -0.1211945845718113 0 0.35002252173753962 -0.112446561286345 0 0.35355367174401742 -0.1211945845718113 0 0.34025414842832208 -0.11782241666052221 0 0.35355367174401742 -0.1211945845718113 0 0.34025414842832208 -0.11782241666052221 0 0.34381162934489939 -0.12854128697128539 0 0.33094534805706732 -0.1177437606496905 0 0.31854024801571379 -0.1183964408803808 0 0.33718817445421712 -0.13355179710808501 0 0.34025414842832208 -0.11782241666052221 0 0.33378984816934337 -0.1086297847084315 0 0.34332012240242971 -0.1020930362129598 0 0.33094534805706732 -0.1177437606496905 0 0.34025414842832208 -0.11782241666052221 0 0.33718817445421712 -0.13355179710808501 0 0.34025414842832208 -0.11782241666052221 0 0.34332012240242971 -0.1020930362129598 0 0.33094534805706732 -0.1177437606496905 0 0.33378984816934337 -0.1086297847084315 0 0.32495432121773932 -0.110318363891034 0 0.33094534805706732 -0.1177437606496905 0 0.34025414842832208 -0.11782241666052221 0 0.33378984816934337 -0.1086297847084315 0 0.33378984816934337 -0.1086297847084315 0 0.32725903490077729 -0.10071499943534749 0 0.32495432121773932 -0.110318363891034 0 0.33378984816934337 -0.1086297847084315 0 0.33669688161811212 -0.1016678149874002 0 0.32725903490077729 -0.10071499943534749 0 0.33378984816934337 -0.1086297847084315 0 0.34332012240242971 -0.1020930362129598 0 0.33669688161811212 -0.1016678149874002 0 0.34332012240242971 -0.1020930362129598 0 0.33669688161811212 -0.1016678149874002 0 0.34241852099989789 -0.095233439592861846 0 0.33669688161811212 -0.1016678149874002 0 0.34241852099989789 -0.095233439592861846 0 0.32725903490077729 -0.10071499943534749 0 0.34241852099989789 -0.095233439592861846 0 0.31246642499303512 -0.0943090483573608 0 0.34241852099989789 -0.095233439592861846 0 0.32725903490077729 -0.10071499943534749 0 0.31246642499303512 -0.0943090483573608 0 0.32725903490077729 -0.10071499943534749 0 0.31716114910448651 -0.10565591717263 0 0.31246642499303512 -0.0943090483573608 0 0.32725903490077729 -0.10071499943534749 0 0.31716114910448651 -0.10565591717263 0 0.32495432121773932 -0.110318363891034 0 0.33094534805706732 -0.1177437606496905 0 0.32495432121773932 -0.110318363891034 0 0.31854024801571379 -0.1183964408803808 0 0.31716114910448651 -0.10565591717263 0 0.32495432121773932 -0.110318363891034 0 0.31854024801571379 -0.1183964408803808 0 0.31716114910448651 -0.10565591717263 0 0.31854024801571379 -0.1183964408803808 0 0.30531265091832138 -0.10738965970164049 0 0.3449175019875389 -0.076917716904771144 0 0.33388625794764348 -0.064812423232177271 0 0.32092150739102382 -0.073097043805500014 0 0.3449175019875389 -0.076917716904771144 0 0.34794047334546518 -0.063974584280765273 0 0.33388625794764348 -0.064812423232177271 0 0.3449175019875389 -0.076917716904771144 0 0.34241852099989789 -0.095233439592861846 0 0.32092150739102382 -0.073097043805500014 0 0.34241852099989789 -0.095233439592861846 0 0.32092150739102382 -0.073097043805500014 0 0.31246642499303512 -0.0943090483573608 0 0.32115491610998381 -0.052976688016941227 0 0.33388625794764348 -0.064812423232177271 0 0.32092150739102382 -0.073097043805500014 0 0.32092150739102382 -0.073097043805500014 0 0.28819319405889499 -0.06706419956831737 0 0.31246642499303512 -0.0943090483573608 0 0.32092150739102382 -0.073097043805500014 0 0.28819319405889499 -0.06706419956831737 0 0.30601744289912669 -0.055409131432484229 0 0.28251432898617262 -0.093384657121855619 0 0.28819319405889499 -0.06706419956831737 0 0.31246642499303512 -0.0943090483573608 0 0.28251432898617262 -0.093384657121855619 0 0.28819319405889499 -0.06706419956831737 0 0.28251432898617262 -0.093384657121855619 0 0.28819319405889499 -0.06706419956831737 0 0.2788070763813692 -0.075616481315712358 0 0.30531265091832138 -0.10738965970164049 0 0.29209333803684512 -0.1204183792118467 0 0.30316218715013699 -0.13585617877411299 0 0.31854024801571379 -0.1183964408803808 0 0.30531265091832138 -0.10738965970164049 0 0.30316218715013699 -0.13585617877411299 0 0.30531265091832138 -0.10738965970164049 0 0.30316218715013699 -0.13585617877411299 0 0.30531265091832138 -0.10738965970164049 0 0.31246642499303512 -0.0943090483573608 0 0.2913954051317153 -0.1063448066268642 0 0.28251432898617262 -0.093384657121855619 0 0.31246642499303512 -0.0943090483573608 0 0.31716114910448651 -0.10565591717263 0 0.30531265091832138 -0.10738965970164049 0 0.31246642499303512 -0.0943090483573608 0 0.28251432898617262 -0.093384657121855619 0 0.31246642499303512 -0.0943090483573608 0 0.2913954051317153 -0.1063448066268642 0 0.28251432898617262 -0.093384657121855619 0 0.2913954051317153 -0.1063448066268642 0 0.27794998204403759 -0.11453953550188679 0 0.30531265091832138 -0.10738965970164049 0 0.2913954051317153 -0.1063448066268642 0 0.29209333803684512 -0.1204183792118467 0 0.2913954051317153 -0.1063448066268642 0 0.29209333803684512 -0.1204183792118467 0 0.27794998204403759 -0.11453953550188679 0 0.27794998204403759 -0.11453953550188679 0 0.25915390151091949 -0.11811210275817149 0 0.27338563510190422 -0.1356944138819183 0 0.29209333803684512 -0.1204183792118467 0 0.27794998204403759 -0.11453953550188679 0 0.27338563510190422 -0.1356944138819183 0 0.28251432898617262 -0.093384657121855619 0 0.27794998204403759 -0.11453953550188679 0 0.25666672159796139 -0.092586939936295867 0 0.28251432898617262 -0.093384657121855619 0 0.27794998204403759 -0.11453953550188679 0 0.25915390151091949 -0.11811210275817149 0 0.25666672159796139 -0.092586939936295867 0 0.23839025179526999 -0.1151992729885977 0 0.27794998204403759 -0.11453953550188679 0 0.25915390151091949 -0.11811210275817149 0 0.25666672159796139 -0.092586939936295867 0 0.28819319405889499 -0.06706419956831737 0 0.27512965144911827 -0.070681904186227995 0 0.27783686619476677 -0.05372527893061739 0 0.26897876163713708 -0.070467118147906876 0 0.27512965144911827 -0.070681904186227995 0 0.27783686619476677 -0.05372527893061739 0 0.26897876163713708 -0.070467118147906876 0 0.26180167325791431 -0.066706815846455908 0 0.27783686619476677 -0.05372527893061739 0 0.27067132333055188 -0.076788874412469815 0 0.26897876163713708 -0.070467118147906876 0 0.26145119023330071 -0.079000043976386408 0 0.27067132333055188 -0.076788874412469815 0 0.26897876163713708 -0.070467118147906876 0 0.2788070763813692 -0.075616481315712358 0 0.26897876163713708 -0.070467118147906876 0 0.27512965144911827 -0.070681904186227995 0 0.28819319405889499 -0.06706419956831737 0 0.2788070763813692 -0.075616481315712358 0 0.27512965144911827 -0.070681904186227995 0 0.26897876163713708 -0.070467118147906876 0 0.2788070763813692 -0.075616481315712358 0 0.26897876163713708 -0.070467118147906876 0 0.2788070763813692 -0.075616481315712358 0 0.27512965144911827 -0.070681904186227995 0 0.28251432898617262 -0.093384657121855619 0 0.25666672159796139 -0.092586939936295867 0 0.28251432898617262 -0.093384657121855619 0 0.27051227275229911 -0.08315566172012806 0 0.25666672159796139 -0.092586939936295867 0 0.28251432898617262 -0.093384657121855619 0 0.2788070763813692 -0.075616481315712358 0 0.27051227275229911 -0.08315566172012806 0 0.27067132333055188 -0.076788874412469815 0 0.27051227275229911 -0.08315566172012806 0 0.26145119023330071 -0.079000043976386408 0 0.27067132333055188 -0.076788874412469815 0 0.2788070763813692 -0.075616481315712358 0 0.27051227275229911 -0.08315566172012806 0 0.26145119023330071 -0.079000043976386408 0 0.25666672159796139 -0.092586939936295867 0 0.24423239209720191 -0.080930297464084477 0 0.27051227275229911 -0.08315566172012806 0 0.26145119023330071 -0.079000043976386408 0 0.25666672159796139 -0.092586939936295867 0 0.26180167325791431 -0.066706815846455908 0 0.25764566998465072 -0.070071372177431313 0 0.24120587699226881 -0.055916030502087773 0 0.26145119023330071 -0.079000043976386408 0 0.25764566998465072 -0.070071372177431313 0 0.24423239209720191 -0.080930297464084477 0 0.25764566998465072 -0.070071372177431313 0 0.24423239209720191 -0.080930297464084477 0 0.26897876163713708 -0.070467118147906876 0 0.26145119023330071 -0.079000043976386408 0 0.25764566998465072 -0.070071372177431313 0 0.26897876163713708 -0.070467118147906876 0 0.26180167325791431 -0.066706815846455908 0 0.25764566998465072 -0.070071372177431313 0 0.26897876163713708 -0.070467118147906876 0 0.25764566998465072 -0.070071372177431313 0 0.26897876163713708 -0.070467118147906876 0 0.26180167325791431 -0.066706815846455908 0 0.26180167325791431 -0.066706815846455908 0 0.25764566998465072 -0.070071372177431313 0 0.26180167325791431 -0.066706815846455908 0 0.26029261894245981 -0.048826031507571623 0 0.24120587699226881 -0.055916030502087773 0 0.26180167325791431 -0.066706815846455908 0 0.24120587699226881 -0.055916030502087773 0 0.26180167325791431 -0.066706815846455908 0 0.26029261894245981 -0.048826031507571623 0 0.27783686619476677 -0.05372527893061739 0 0.26180167325791431 -0.066706815846455908 0 0.27783686619476677 -0.05372527893061739 0 0.26029261894245981 -0.048826031507571623 0 0.27783686619476677 -0.05372527893061739 0 0.27031708646619812 -0.033638605470610219 0 0.27783686619476677 -0.05372527893061739 0 0.27031708646619812 -0.033638605470610219 0 0.28437966209514692 -0.033534114227583768 0 0.26029261894245981 -0.048826031507571623 0 0.27031708646619812 -0.033638605470610219 0 0.25030159180115191 -0.034143426788088307 0 0.26029261894245981 -0.048826031507571623 0 0.25030159180115191 -0.034143426788088307 0 0.24120587699226881 -0.055916030502087773 0 0.25030159180115191 -0.034143426788088307 0 0.26299580833271302 -0.019789195105520681 0 0.2464198669495459 -0.012097030270161889 0 0.27031708646619812 -0.033638605470610219 0 0.25030159180115191 -0.034143426788088307 0 0.26299580833271302 -0.019789195105520681 0 0.25322369798355371 0.0032948183560677501 0 0.26778398551549509 -0.0036893303100333872 0 0.2464198669495459 -0.012097030270161889 0 0.26299580833271302 -0.019789195105520681 0 0.26778398551549509 -0.0036893303100333872 0 0.2464198669495459 -0.012097030270161889 0 0.26299580833271302 -0.019789195105520681 0 0.26778398551549509 -0.0036893303100333872 0 0.28231604015163769 -0.018351258625531171 0 0.2895407867033607 0.0013395930438658619 0 0.26778398551549509 -0.0036893303100333872 0 0.28231604015163769 -0.018351258625531171 0 0.27031708646619812 -0.033638605470610219 0 0.26299580833271302 -0.019789195105520681 0 0.28231604015163769 -0.018351258625531171 0 0.27031708646619812 -0.033638605470610219 0 0.28231604015163769 -0.018351258625531171 0 0.28437966209514692 -0.033534114227583768 0 0.28231604015163769 -0.018351258625531171 0 0.29600028882747859 -0.03087980289019443 0 0.28437966209514692 -0.033534114227583768 0 0.28231604015163769 -0.018351258625531171 0 0.29600028882747859 -0.03087980289019443 0 0.30132541624728598 -0.01217829343577128 0 0.2895407867033607 0.0013395930438658619 0 0.28231604015163769 -0.018351258625531171 0 0.30132541624728598 -0.01217829343577128 0 0.31046320235639918 0.0067575729804437252 0 0.2895407867033607 0.0013395930438658619 0 0.30132541624728598 -0.01217829343577128 0 0.31046320235639918 0.0067575729804437252 0 0.3153830815233527 -0.0087530987426132929 0 0.30132541624728598 -0.01217829343577128 0 0.31486943567640469 -0.023744993086391868 0 0.3153830815233527 -0.0087530987426132929 0 0.30132541624728598 -0.01217829343577128 0 0.31486943567640469 -0.023744993086391868 0 0.29600028882747859 -0.03087980289019443 0 0.30132541624728598 -0.01217829343577128 0 0.31486943567640469 -0.023744993086391868 0 0.31197137499350902 -0.041008225260955711 0 0.29387205913161968 -0.04074374201477949 0 0.31486943567640469 -0.023744993086391868 0 0.29600028882747859 -0.03087980289019443 0 0.29387205913161968 -0.04074374201477949 0 0.31486943567640469 -0.023744993086391868 0 0.29387205913161968 -0.04074374201477949 0 0.31197137499350902 -0.041008225260955711 0 0.30601744289912669 -0.055409131432484229 0 0.29387205913161968 -0.04074374201477949 0 0.28819319405889499 -0.06706419956831737 0 0.27783686619476677 -0.05372527893061739 0 0.29387205913161968 -0.04074374201477949 0 0.28819319405889499 -0.06706419956831737 0 0.29387205913161968 -0.04074374201477949 0 0.27783686619476677 -0.05372527893061739 0 0.29387205913161968 -0.04074374201477949 0 0.28819319405889499 -0.06706419956831737 0 0.30601744289912669 -0.055409131432484229 0 0.29387205913161968 -0.04074374201477949 0 0.27783686619476677 -0.05372527893061739 0 0.28437966209514692 -0.033534114227583768 0 0.29387205913161968 -0.04074374201477949 0 0.29600028882747859 -0.03087980289019443 0 0.28437966209514692 -0.033534114227583768 0 0.29387205913161968 -0.04074374201477949 0 0.29600028882747859 -0.03087980289019443 0 0.29387205913161968 -0.04074374201477949 0 0.28925369461552242 -0.21547475378801551 0 0.29798535605087828 -0.20438389051808681 0 0.27851755886665591 -0.20371457102860641 0 0.28925369461552242 -0.21547475378801551 0 0.28465086540799672 -0.2254021489655588 0 0.27851755886665591 -0.20371457102860641 0 0.28925369461552242 -0.21547475378801551 0 0.29798535605087828 -0.20438389051808681 0 0.29625974568445868 -0.22722646109941139 0 0.28994099481116897 -0.19128490440727269 0 0.29798535605087828 -0.20438389051808681 0 0.29971096641729777 -0.18154131993676231 0 0.28994099481116897 -0.19128490440727269 0 0.27851755886665591 -0.20371457102860641 0 0.28355009790984409 -0.17549983614563519 0 0.28994099481116897 -0.19128490440727269 0 0.29798535605087828 -0.20438389051808681 0 0.27851755886665591 -0.20371457102860641 0 0.30866677822314281 -0.19370433905286669 0 0.29798535605087828 -0.20438389051808681 0 0.29971096641729777 -0.18154131993676231 0 0.29798535605087828 -0.20438389051808681 0 0.29971096641729777 -0.18154131993676231 0 0.30866677822314281 -0.19370433905286669 0 0.30817512199612251 -0.208018461664154 0 0.29798535605087828 -0.20438389051808681 0 0.29798535605087828 -0.20438389051808681 0 0.29625974568445868 -0.22722646109941139 0 0.30367267472900389 -0.2178556058656746 0 0.31200739898088131 -0.22851072207886541 0 0.31883562653249692 -0.20986103607638071 0 0.29798535605087828 -0.20438389051808681 0 0.30367267472900389 -0.2178556058656746 0 0.29625974568445868 -0.22722646109941139 0 0.30817512199612251 -0.208018461664154 0 0.29798535605087828 -0.20438389051808681 0 0.30367267472900389 -0.2178556058656746 0 0.30817512199612251 -0.208018461664154 0 0.30367267472900389 -0.2178556058656746 0 0.31883562653249692 -0.20986103607638071 0 0.30367267472900389 -0.2178556058656746 0 0.31883562653249692 -0.20986103607638071 0 0.31200739898088131 -0.22851072207886541 0 0.30517917142926537 -0.24716040808135001 0 0.29625974568445868 -0.22722646109941139 0 0.30367267472900389 -0.2178556058656746 0 0.31200739898088131 -0.22851072207886541 0 0.29625974568445868 -0.22722646109941139 0 0.31200739898088131 -0.22851072207886541 0 0.30517917142926537 -0.24716040808135001 0 0.30517917142926537 -0.24716040808135001 0 0.28765229627979871 -0.24304032400626949 0 0.29625974568445868 -0.22722646109941139 0 0.28765229627979871 -0.24304032400626949 0 0.29625974568445868 -0.22722646109941139 0 0.28465086540799672 -0.2254021489655588 0 0.28765229627979871 -0.24304032400626949 0 0.28465086540799672 -0.2254021489655588 0 0.27348501982346762 -0.23192930591157759 0 0.28925369461552242 -0.21547475378801551 0 0.29625974568445868 -0.22722646109941139 0 0.28465086540799672 -0.2254021489655588 0 0.28465086540799672 -0.2254021489655588 0 0.27348501982346762 -0.23192930591157759 0 0.27851755886665591 -0.20371457102860641 0 0.27348501982346762 -0.23192930591157759 0 0.25787859859726192 -0.24372773219337371 0 0.26845248078028039 -0.26014404079454911 0 0.28765229627979871 -0.24304032400626949 0 0.27348501982346762 -0.23192930591157759 0 0.26845248078028039 -0.26014404079454911 0 0.27348501982346762 -0.23192930591157759 0 0.26845248078028039 -0.26014404079454911 0 0.27348501982346762 -0.23192930591157759 0 0.25787859859726192 -0.24372773219337371 0 0.2485278721491469 -0.22983386195931649 0 0.27348501982346762 -0.23192930591157759 0 0.25806059678156651 -0.21160485628964759 0 0.2485278721491469 -0.22983386195931649 0 0.27348501982346762 -0.23192930591157759 0 0.27851755886665591 -0.20371457102860641 0 0.27348501982346762 -0.23192930591157759 0 0.25806059678156651 -0.21160485628964759 0 0.27851755886665591 -0.20371457102860641 0 0.27851755886665591 -0.20371457102860641 0 0.26140201073716351 -0.19316186481753209 0 0.27335445324682811 -0.1824409541049711 0 0.25806059678156651 -0.21160485628964759 0 0.27851755886665591 -0.20371457102860641 0 0.26140201073716351 -0.19316186481753209 0 0.27851755886665591 -0.20371457102860641 0 0.28355009790984409 -0.17549983614563519 0 0.25806059678156651 -0.21160485628964759 0 0.26140201073716351 -0.19316186481753209 0 0.24624710011957149 -0.19756578472926509 0 0.26140201073716351 -0.19316186481753209 0 0.25030889548151403 -0.1837077448593728 0 0.24624710011957149 -0.19756578472926509 0 0.25969225384889538 -0.18295045636353721 0 0.2550208565069661 -0.17514012483034949 0 0.27335445324682811 -0.1824409541049711 0 0.26140201073716351 -0.19316186481753209 0 0.25030889548151403 -0.1837077448593728 0 0.25969225384889538 -0.18295045636353721 0 0.25030889548151403 -0.1837077448593728 0 0.25969225384889538 -0.18295045636353721 0 0.2550208565069661 -0.17514012483034949 0 0.2550208565069661 -0.17514012483034949 0 0.2530488896403309 -0.16079061319898569 0 0.27335445324682811 -0.1824409541049711 0 0.26140201073716351 -0.19316186481753209 0 0.25969225384889538 -0.18295045636353721 0 0.27335445324682811 -0.1824409541049711 0 0.2530488896403309 -0.16079061319898569 0 0.272260185211738 -0.168331689764908 0 0.26878477807763418 -0.16016356734556891 0 0.2530488896403309 -0.16079061319898569 0 0.26878477807763418 -0.16016356734556891 0 0.26293682869207591 -0.15391070786642169 0 0.2530488896403309 -0.16079061319898569 0 0.27335445324682811 -0.1824409541049711 0 0.272260185211738 -0.168331689764908 0 0.27899515764395177 -0.15443660918041571 0 0.28355009790984409 -0.17549983614563519 0 0.2530488896403309 -0.16079061319898569 0 0.272260185211738 -0.168331689764908 0 0.27335445324682811 -0.1824409541049711 0 0.272260185211738 -0.168331689764908 0 0.26878477807763418 -0.16016356734556891 0 0.27899515764395177 -0.15443660918041571 0 0.272260185211738 -0.168331689764908 0 0.27335445324682811 -0.1824409541049711 0 0.28355009790984409 -0.17549983614563519 0 0.27851755886665591 -0.20371457102860641 0 0.27335445324682811 -0.1824409541049711 0 0.28355009790984409 -0.17549983614563519 0 0.25915390151091949 -0.11811210275817149 0 0.25133622254172122 -0.13557462765415079 0 0.27338563510190422 -0.1356944138819183 0 0.25133622254172122 -0.13557462765415079 0 0.27338563510190422 -0.1356944138819183 0 0.25133622254172122 -0.13557462765415079 0 0.25208407187516418 -0.1419613505697605 0 0.27338563510190422 -0.1356944138819183 0 0.26557247671991108 -0.14774187414890411 0 0.25208407187516418 -0.1419613505697605 0 0.27142481771649529 -0.14478242884651979 0 0.25208407187516418 -0.1419613505697605 0 0.27142481771649529 -0.14478242884651979 0 0.2530488896403309 -0.16079061319898569 0 0.25208407187516418 -0.1419613505697605 0 0.26293682869207591 -0.15391070786642169 0 0.26557247671991108 -0.14774187414890411 0 0.25208407187516418 -0.1419613505697605 0 0.26293682869207591 -0.15391070786642169 0 0.27899515764395177 -0.15443660918041571 0 0.27142481771649529 -0.14478242884651979 0 0.28858263695303038 -0.1472851012626637 0 0.25208407187516418 -0.1419613505697605 0 0.27142481771649529 -0.14478242884651979 0 0.27338563510190422 -0.1356944138819183 0 0.27142481771649529 -0.14478242884651979 0 0.28858263695303038 -0.1472851012626637 0 0.27142481771649529 -0.14478242884651979 0 0.27338563510190422 -0.1356944138819183 0 0.28952553314766588 -0.14199879033185039 0 0.26878477807763418 -0.16016356734556891 0 0.27009527632936597 -0.15279308215900331 0 0.27899515764395177 -0.15443660918041571 0 0.26557247671991108 -0.14774187414890411 0 0.27009527632936597 -0.15279308215900331 0 0.27142481771649529 -0.14478242884651979 0 0.26878477807763418 -0.16016356734556891 0 0.26293682869207591 -0.15391070786642169 0 0.27009527632936597 -0.15279308215900331 0 0.26557247671991108 -0.14774187414890411 0 0.26293682869207591 -0.15391070786642169 0 0.27009527632936597 -0.15279308215900331 0 0.27009527632936597 -0.15279308215900331 0 0.27899515764395177 -0.15443660918041571 0 0.27142481771649529 -0.14478242884651979 0 0.27794998204403759 -0.11453953550188679 0 0.27338563510190422 -0.1356944138819183 0 0.27142481771649529 -0.14478242884651979 0 0.27338563510190422 -0.1356944138819183 0 0.27338563510190422 -0.1356944138819183 0 0.30316218715013699 -0.13585617877411299 0 0.29209333803684512 -0.1204183792118467 0 0.27338563510190422 -0.1356944138819183 0 0.30316218715013699 -0.13585617877411299 0 0.27338563510190422 -0.1356944138819183 0 0.28952553314766588 -0.14199879033185039 0 0.30316218715013699 -0.13585617877411299 0 0.27142481771649529 -0.14478242884651979 0 0.28952553314766588 -0.14199879033185039 0 0.28858263695303038 -0.1472851012626637 0 0.28858263695303038 -0.1472851012626637 0 0.30013596324633868 -0.14897029159077979 0 0.28952553314766588 -0.14199879033185039 0 0.28858263695303038 -0.1472851012626637 0 0.30013596324633868 -0.14897029159077979 0 0.28952553314766588 -0.14199879033185039 0 0.28858263695303038 -0.1472851012626637 0 0.28858263695303038 -0.1472851012626637 0 0.30013596324633868 -0.14897029159077979 0 0.29372711844303928 -0.1600295372122347 0 0.30316218715013699 -0.13585617877411299 0 0.30143657678371732 -0.15869874935543771 0 0.30013596324633868 -0.14897029159077979 0 0.30316218715013699 -0.13585617877411299 0 0.30143657678371732 -0.15869874935543771 0 0.30316218715013699 -0.13585617877411299 0 0.30143657678371732 -0.15869874935543771 0 0.31253980123811259 -0.14771969478669131 0 0.30013596324633868 -0.14897029159077979 0 0.29372711844303928 -0.1600295372122347 0 0.30143657678371732 -0.15869874935543771 0 0.30143657678371732 -0.15869874935543771 0 0.31557079919726838 -0.1590044961535387 0 0.31253980123811259 -0.14771969478669131 0 0.28952553314766588 -0.14199879033185039 0 0.30013596324633868 -0.14897029159077979 0 0.30316218715013699 -0.13585617877411299 0 0.30316218715013699 -0.13585617877411299 0 0.31993283661344418 -0.13594728745244961 0 0.31253980123811259 -0.14771969478669131 0 0.30316218715013699 -0.13585617877411299 0 0.31993283661344418 -0.13594728745244961 0 0.28994099481116897 -0.19128490440727269 0 0.28355009790984409 -0.17549983614563519 0 0.29971096641729777 -0.18154131993676231 0 0.28355009790984409 -0.17549983614563519 0 0.29493031732226571 -0.16969370770665679 0 0.29971096641729777 -0.18154131993676231 0 0.27899515764395177 -0.15443660918041571 0 0.28858263695303038 -0.1472851012626637 0 0.28355009790984409 -0.17549983614563519 0 0.28858263695303038 -0.1472851012626637 0 0.28355009790984409 -0.17549983614563519 0 0.28858263695303038 -0.1472851012626637 0 0.28355009790984409 -0.17549983614563519 0 0.29372711844303928 -0.1600295372122347 0 0.29372711844303928 -0.1600295372122347 0 0.29493031732226571 -0.16969370770665679 0 0.30143657678371732 -0.15869874935543771 0 0.28355009790984409 -0.17549983614563519 0 0.29372711844303928 -0.1600295372122347 0 0.29493031732226571 -0.16969370770665679 0 0.30143657678371732 -0.15869874935543771 0 0.29971096641729777 -0.18154131993676231 0 0.30143657678371732 -0.15869874935543771 0 0.30809610970482848 -0.16795036279156811 0 0.29971096641729777 -0.18154131993676231 0 0.29493031732226571 -0.16969370770665679 0 0.30143657678371732 -0.15869874935543771 0 0.29971096641729777 -0.18154131993676231 0 0.30143657678371732 -0.15869874935543771 0 0.30809610970482848 -0.16795036279156811 0 0.31557079919726838 -0.1590044961535387 0 0.29971096641729777 -0.18154131993676231 0 0.31498869866721663 -0.1848028620899877 0 0.3156660964210305 -0.17255688572053399 0 0.30809610970482848 -0.16795036279156811 0 0.29971096641729777 -0.18154131993676231 0 0.3156660964210305 -0.17255688572053399 0 0.30866677822314281 -0.19370433905286669 0 0.29971096641729777 -0.18154131993676231 0 0.31498869866721663 -0.1848028620899877 0 0.32729102930978993 -0.18432716657830939 0 0.3156660964210305 -0.17255688572053399 0 0.33199725769327038 -0.160182781354547 0 0.31498869866721663 -0.1848028620899877 0 0.32729102930978993 -0.18432716657830939 0 0.3156660964210305 -0.17255688572053399 0 0.3156660964210305 -0.17255688572053399 0 0.31557079919726838 -0.1590044961535387 0 0.33199725769327038 -0.160182781354547 0 0.30809610970482848 -0.16795036279156811 0 0.3156660964210305 -0.17255688572053399 0 0.31557079919726838 -0.1590044961535387 0 0.32729102930978993 -0.18432716657830939 0 0.34572674800851178 -0.17666980330527179 0 0.34152908302092871 -0.19789605564194099 0 0.32729102930978993 -0.18432716657830939 0 0.33199725769327038 -0.160182781354547 0 0.34572674800851178 -0.17666980330527179 0 0.32729102930978993 -0.18432716657830939 0 0.33199725769327038 -0.160182781354547 0 0.31854024801571379 -0.1183964408803808 0 0.30316218715013699 -0.13585617877411299 0 0.31993283661344418 -0.13594728745244961 0 0.31993283661344418 -0.13594728745244961 0 0.32334883616376942 -0.1477785311756023 0 0.33670348607675138 -0.13603839613078461 0 0.31854024801571379 -0.1183964408803808 0 0.31993283661344418 -0.13594728745244961 0 0.33718817445421712 -0.13355179710808501 0 0.31854024801571379 -0.1183964408803808 0 0.33718817445421712 -0.13355179710808501 0 0.31557079919726838 -0.1590044961535387 0 0.33199725769327038 -0.160182781354547 0 0.32334883616376942 -0.1477785311756023 0 0.31993283661344418 -0.13594728745244961 0 0.32334883616376942 -0.1477785311756023 0 0.31253980123811259 -0.14771969478669131 0 0.31557079919726838 -0.1590044961535387 0 0.32334883616376942 -0.1477785311756023 0 0.31253980123811259 -0.14771969478669131 0 0.33199725769327038 -0.160182781354547 0 0.34027166502062639 -0.13605778071504529 0 0.33670348607675138 -0.13603839613078461 0 0.33199725769327038 -0.160182781354547 0 0.32334883616376942 -0.1477785311756023 0 0.33670348607675138 -0.13603839613078461 0 0.33199725769327038 -0.160182781354547 0 0.33670348607675138 -0.13603839613078461 0 0.31993283661344418 -0.13594728745244961 0 0.33670348607675138 -0.13603839613078461 0 0.31993283661344418 -0.13594728745244961 0 0.33670348607675138 -0.13603839613078461 0 0.33718817445421712 -0.13355179710808501 0 0.34025414842832208 -0.11782241666052221 0 0.33718817445421712 -0.13355179710808501 0 0.34381162934489939 -0.12854128697128539 0 0.34025414842832208 -0.11782241666052221 0 0.33718817445421712 -0.13355179710808501 0 0.34027166502062639 -0.13605778071504529 0 0.33670348607675138 -0.13603839613078461 0 0.33718817445421712 -0.13355179710808501 0 0.34027166502062639 -0.13605778071504529 0 0.33718817445421712 -0.13355179710808501 0 0.34027166502062639 -0.13605778071504529 0 0.33670348607675138 -0.13603839613078461 0 0.33670348607675138 -0.13603839613078461 0 0.33718817445421712 -0.13355179710808501 0 0.34027166502062639 -0.13605778071504529 0 0.33718817445421712 -0.13355179710808501 0 0.34381162934489939 -0.12854128697128539 0 0.33199725769327038 -0.160182781354547 0 0.34027166502062639 -0.13605778071504529 0 0.36359383050920879 -0.15501193774405861 0 0.35355367174401742 -0.1211945845718113 0 0.34381162934489939 -0.12854128697128539 0 0.34779048707731292 -0.1340798558009649 0 0.34027166502062639 -0.13605778071504529 0 0.34884821061351562 -0.13610437388577321 0 0.35664352332635268 -0.13060513793896061 0 0.34779048707731292 -0.1340798558009649 0 0.34884821061351562 -0.13610437388577321 0 0.34027166502062639 -0.13605778071504529 0 0.34779048707731292 -0.1340798558009649 0 0.34884821061351562 -0.13610437388577321 0 0.34027166502062639 -0.13605778071504529 0 0.34381162934489939 -0.12854128697128539 0 0.34779048707731292 -0.1340798558009649 0 0.35664352332635268 -0.13060513793896061 0 0.34884821061351562 -0.13610437388577321 0 0.36374720336072303 -0.13810563056468389 0 0.34884821061351562 -0.13610437388577321 0 0.36359383050920879 -0.15501193774405861 0 0.36374720336072303 -0.13810563056468389 0 0.34027166502062639 -0.13605778071504529 0 0.36359383050920879 -0.15501193774405861 0 0.34027166502062639 -0.13605778071504529 0 0.34884821061351562 -0.13610437388577321 0 0.36359383050920879 -0.15501193774405861 0 0.36359383050920879 -0.15501193774405861 0 0.36374720336072303 -0.13810563056468389 0 0.37656812491251679 -0.13846106794218549 0 0.3785150876385216 -0.1195111518185689 0 0.36779594019891898 -0.12729788290040461 0 0.37656812491251679 -0.13846106794218549 0 0.36374720336072303 -0.13810563056468389 0 0.36779594019891898 -0.12729788290040461 0 0.37656812491251679 -0.13846106794218549 0 0.35664352332635268 -0.13060513793896061 0 0.36374720336072303 -0.13810563056468389 0 0.36779594019891898 -0.12729788290040461 0 0.33199725769327038 -0.160182781354547 0 0.36359383050920879 -0.15501193774405861 0 0.34572674800851178 -0.17666980330527179 0 0.34572674800851178 -0.17666980330527179 0 0.36422253950936112 -0.1859310752075029 0 0.34152908302092871 -0.19789605564194099 0 0.36359383050920879 -0.15501193774405861 0 0.34572674800851178 -0.17666980330527179 0 0.36422253950936112 -0.1859310752075029 0 0.36359383050920879 -0.15501193774405861 0 0.36422253950936112 -0.1859310752075029 0 0.38691599599779503 -0.1739660947730671 0 0.36422253950936112 -0.1859310752075029 0 0.37220629557919183 -0.19612338441269381 0 0.37910290544765168 -0.18685571494790659 0 0.36422253950936112 -0.1859310752075029 0 0.37220629557919183 -0.19612338441269381 0 0.35685044422528578 -0.20027094664828951 0 0.37220629557919183 -0.19612338441269381 0 0.3556522221671049 -0.2162457527497984 0 0.35685044422528578 -0.20027094664828951 0 0.37220629557919183 -0.19612338441269381 0 0.3556522221671049 -0.2162457527497984 0 0.37273333868611941 -0.2093978965492076 0 0.3556522221671049 -0.2162457527497984 0 0.3731990688381891 -0.2228302363117915 0 0.37220629557919183 -0.19612338441269381 0 0.37273333868611941 -0.2093978965492076 0 0.3556522221671049 -0.2162457527497984 0 0.34913249600123192 -0.20719712371303781 0 0.34152908302092871 -0.19789605564194099 0 0.34144894007629428 -0.2139395960038605 0 0.3556522221671049 -0.2162457527497984 0 0.34913249600123192 -0.20719712371303781 0 0.35685044422528578 -0.20027094664828951 0 0.3556522221671049 -0.2162457527497984 0 0.34913249600123192 -0.20719712371303781 0 0.34144894007629428 -0.2139395960038605 0 0.36422253950936112 -0.1859310752075029 0 0.35685044422528578 -0.20027094664828951 0 0.34152908302092871 -0.19789605564194099 0 0.36422253950936112 -0.1859310752075029 0 0.34152908302092871 -0.19789605564194099 0 0.34913249600123192 -0.20719712371303781 0 0.35685044422528578 -0.20027094664828951 0 0.34152908302092871 -0.19789605564194099 0 0.32729102930978993 -0.18432716657830939 0 0.34152908302092871 -0.19789605564194099 0 0.32289957828838461 -0.19876131457419149 0 0.34152908302092871 -0.19789605564194099 0 0.31883562653249692 -0.20986103607638071 0 0.34152908302092871 -0.19789605564194099 0 0.34144894007629428 -0.2139395960038605 0 0.31883562653249692 -0.20986103607638071 0 0.34144894007629428 -0.2139395960038605 0 0.31883562653249692 -0.20986103607638071 0 0.32331405575278033 -0.23055000204260581 0 0.31883562653249692 -0.20986103607638071 0 0.32289957828838461 -0.19876131457419149 0 0.30817512199612251 -0.208018461664154 0 0.31883562653249692 -0.20986103607638071 0 0.32289957828838461 -0.19876131457419149 0 0.30866677822314281 -0.19370433905286669 0 0.30817512199612251 -0.208018461664154 0 0.32289957828838461 -0.19876131457419149 0 0.34152908302092871 -0.19789605564194099 0 0.31883562653249692 -0.20986103607638071 0 0.32289957828838461 -0.19876131457419149 0 0.30866677822314281 -0.19370433905286669 0 0.31498869866721663 -0.1848028620899877 0 0.32289957828838461 -0.19876131457419149 0 0.31498869866721663 -0.1848028620899877 0 0.32729102930978993 -0.18432716657830939 0 0.32289957828838461 -0.19876131457419149 0 0.30517917142926537 -0.24716040808135001 0 0.32331405575278033 -0.23055000204260581 0 0.30517917142926537 -0.24716040808135001 0 0.32331405575278033 -0.23055000204260581 0 0.322544075342931 -0.25649048942400782 0 0.31200739898088131 -0.22851072207886541 0 0.30517917142926537 -0.24716040808135001 0 0.32331405575278033 -0.23055000204260581 0 0.31200739898088131 -0.22851072207886541 0 0.31883562653249692 -0.20986103607638071 0 0.31200739898088131 -0.22851072207886541 0 0.31883562653249692 -0.20986103607638071 0 0.32331405575278033 -0.23055000204260581 0 0.34144894007629428 -0.2139395960038605 0 0.32331405575278033 -0.23055000204260581 0 0.34144894007629428 -0.2139395960038605 0 0.32331405575278033 -0.23055000204260581 0 0.33909814875501798 -0.23636812108690311 0 0.33909814875501798 -0.23636812108690311 0 0.322544075342931 -0.25649048942400782 0 0.32331405575278033 -0.23055000204260581 0 0.33909814875501798 -0.23636812108690311 0 0.322544075342931 -0.25649048942400782 0 0.33909814875501798 -0.23636812108690311 0 0.35007299243335749 -0.24785688602667111 0 0.33700232267718733 -0.25494009872172468 0 0.33909814875501798 -0.23636812108690311 0 0.322544075342931 -0.25649048942400782 0 0.33700232267718733 -0.25494009872172468 0 0.33909814875501798 -0.23636812108690311 0 0.35007299243335749 -0.24785688602667111 0 0.35471840821638012 -0.232162972911199 0 0.35007299243335749 -0.24785688602667111 0 0.35471840821638012 -0.232162972911199 0 0.36225179838031341 -0.2439392928582107 0 0.35007299243335749 -0.24785688602667111 0 0.36225179838031341 -0.2439392928582107 0 0.36124693131331159 -0.25807728632712912 0 0.3556522221671049 -0.2162457527497984 0 0.33909814875501798 -0.23636812108690311 0 0.3556522221671049 -0.2162457527497984 0 0.33909814875501798 -0.23636812108690311 0 0.35471840821638012 -0.232162972911199 0 0.3556522221671049 -0.2162457527497984 0 0.34144894007629428 -0.2139395960038605 0 0.33909814875501798 -0.23636812108690311 0 0.35471840821638012 -0.232162972911199 0 0.3731990688381891 -0.2228302363117915 0 0.36225179838031341 -0.2439392928582107 0 0.3556522221671049 -0.2162457527497984 0 0.35471840821638012 -0.232162972911199 0 0.3731990688381891 -0.2228302363117915 0 0.3731990688381891 -0.2228302363117915 0 0.36225179838031341 -0.2439392928582107 0 0.3731990688381891 -0.2228302363117915 0 0.36225179838031341 -0.2439392928582107 0 0.38186963046980549 -0.2367879359972051 0 0.36225179838031341 -0.2439392928582107 0 0.38186963046980549 -0.2367879359972051 0 0.37510228513818711 -0.25237727586059511 0 0.38186963046980549 -0.2367879359972051 0 0.39206528024080278 -0.24921397013056479 0 0.37510228513818711 -0.25237727586059511 0 0.39206528024080278 -0.24921397013056479 0 0.40137725565661481 -0.22692044649349019 0 0.4148006158986044 -0.24103970595398019 0 0.39206528024080278 -0.24921397013056479 0 0.4148006158986044 -0.24103970595398019 0 0.40884184876520419 -0.25890250189124958 0 0.38186963046980549 -0.2367879359972051 0 0.39206528024080278 -0.24921397013056479 0 0.40137725565661481 -0.22692044649349019 0 0.40137725565661481 -0.22692044649349019 0 0.39915185452682361 -0.21610044156742811 0 0.41396763236883027 -0.21470461273584779 0 0.40137725565661481 -0.22692044649349019 0 0.38700545273377529 -0.2233412248148075 0 0.39915185452682361 -0.21610044156742811 0 0.38186963046980549 -0.2367879359972051 0 0.40137725565661481 -0.22692044649349019 0 0.38700545273377529 -0.2233412248148075 0 0.3731990688381891 -0.2228302363117915 0 0.38186963046980549 -0.2367879359972051 0 0.38700545273377529 -0.2233412248148075 0 0.3731990688381891 -0.2228302363117915 0 0.38414633929606479 -0.2017211797653724 0 0.37273333868611941 -0.2093978965492076 0 0.3731990688381891 -0.2228302363117915 0 0.38414633929606479 -0.2017211797653724 0 0.3731990688381891 -0.2228302363117915 0 0.38675328488958288 -0.2095276895359276 0 0.38414633929606479 -0.2017211797653724 0 0.3731990688381891 -0.2228302363117915 0 0.38700545273377529 -0.2233412248148075 0 0.38675328488958288 -0.2095276895359276 0 0.38675328488958288 -0.2095276895359276 0 0.38414633929606479 -0.2017211797653724 0 0.39287005569986072 -0.20314648074516001 0 0.38414633929606479 -0.2017211797653724 0 0.38373621375160438 -0.1885238144486111 0 0.39509360975394031 -0.18061212321895309 0 0.38414633929606479 -0.2017211797653724 0 0.39509360975394031 -0.18061212321895309 0 0.37999921147615667 -0.19503406661491049 0 0.38373621375160438 -0.1885238144486111 0 0.37910290544765168 -0.18685571494790659 0 0.37999921147615667 -0.19503406661491049 0 0.38414633929606479 -0.2017211797653724 0 0.38373621375160438 -0.1885238144486111 0 0.37220629557919183 -0.19612338441269381 0 0.37999921147615667 -0.19503406661491049 0 0.37910290544765168 -0.18685571494790659 0 0.37220629557919183 -0.19612338441269381 0 0.37273333868611941 -0.2093978965492076 0 0.38414633929606479 -0.2017211797653724 0 0.37220629557919183 -0.19612338441269381 0 0.37999921147615667 -0.19503406661491049 0 0.38414633929606479 -0.2017211797653724 0 0.38414633929606479 -0.2017211797653724 0 0.39694758591794982 -0.18886739411602391 0 0.39509360975394031 -0.18061212321895309 0 0.39694758591794982 -0.18886739411602391 0 0.3969424320709618 -0.1972324897541754 0 0.40101572763622523 -0.19231380306325679 0 0.38414633929606479 -0.2017211797653724 0 0.39694758591794982 -0.18886739411602391 0 0.3969424320709618 -0.1972324897541754 0 0.38414633929606479 -0.2017211797653724 0 0.3969424320709618 -0.1972324897541754 0 0.39287005569986072 -0.20314648074516001 0 0.3969424320709618 -0.1972324897541754 0 0.400612395600416 -0.20053006859666331 0 0.39287005569986072 -0.20314648074516001 0 0.3969424320709618 -0.1972324897541754 0 0.4059814476455269 -0.19573306963025069 0 0.400612395600416 -0.20053006859666331 0 0.4059814476455269 -0.19573306963025069 0 0.400612395600416 -0.20053006859666331 0 0.40665564698531481 -0.2060082342570673 0 0.3969424320709618 -0.1972324897541754 0 0.4059814476455269 -0.19573306963025069 0 0.40101572763622523 -0.19231380306325679 0 0.4059814476455269 -0.19573306963025069 0 0.40101572763622523 -0.19231380306325679 0 0.40419144491046238 -0.1874222587525772 0 0.39694758591794982 -0.18886739411602391 0 0.40101572763622523 -0.19231380306325679 0 0.40419144491046238 -0.1874222587525772 0 0.38675328488958288 -0.2095276895359276 0 0.40665564698531481 -0.2060082342570673 0 0.38675328488958288 -0.2095276895359276 0 0.39915185452682361 -0.21610044156742811 0 0.40665564698531481 -0.2060082342570673 0 0.38675328488958288 -0.2095276895359276 0 0.39287005569986072 -0.20314648074516001 0 0.40665564698531481 -0.2060082342570673 0 0.38700545273377529 -0.2233412248148075 0 0.38675328488958288 -0.2095276895359276 0 0.39915185452682361 -0.21610044156742811 0 0.400612395600416 -0.20053006859666331 0 0.39287005569986072 -0.20314648074516001 0 0.40665564698531481 -0.2060082342570673 0 0.41396763236883027 -0.21470461273584779 0 0.40665564698531481 -0.2060082342570673 0 0.42655800908104652 -0.20248877897820619 0 0.40665564698531481 -0.2060082342570673 0 0.42655800908104652 -0.20248877897820619 0 0.39915185452682361 -0.21610044156742811 0 0.41396763236883027 -0.21470461273584779 0 0.40665564698531481 -0.2060082342570673 0 0.41396763236883027 -0.21470461273584779 0 0.42655800908104652 -0.20248877897820619 0 0.40665564698531481 -0.2060082342570673 0 0.41640017291144837 -0.19588579121564459 0 0.42655800908104652 -0.20248877897820619 0 0.4059814476455269 -0.19573306963025069 0 0.41640017291144837 -0.19588579121564459 0 0.41453364601533049 -0.1862870086825022 0 0.4059814476455269 -0.19573306963025069 0 0.40419144491046238 -0.1874222587525772 0 0.41453364601533049 -0.1862870086825022 0 0.4059814476455269 -0.19573306963025069 0 0.40665564698531481 -0.2060082342570673 0 0.41640017291144837 -0.19588579121564459 0 0.41640017291144837 -0.19588579121564459 0 0.42581299264578848 -0.18832250896932939 0 0.41453364601533049 -0.1862870086825022 0 0.42655800908104652 -0.20248877897820619 0 0.444302871767289 -0.18527179670816579 0 0.42581299264578848 -0.18832250896932939 0 0.42655800908104652 -0.20248877897820619 0 0.444302871767289 -0.18527179670816579 0 0.41640017291144837 -0.19588579121564459 0 0.42581299264578848 -0.18832250896932939 0 0.42655800908104652 -0.20248877897820619 0 0.42655800908104652 -0.20248877897820619 0 0.43237997939727391 -0.21969514264188619 0 0.44995934289594253 -0.19835057932979169 0 0.41396763236883027 -0.21470461273584779 0 0.42655800908104652 -0.20248877897820619 0 0.43237997939727391 -0.21969514264188619 0 0.43237997939727391 -0.21969514264188619 0 0.43199948472716282 -0.23703470349933331 0 0.4148006158986044 -0.24103970595398019 0 0.43237997939727391 -0.21969514264188619 0 0.4148006158986044 -0.24103970595398019 0 0.43199948472716282 -0.23703470349933331 0 0.4148006158986044 -0.24103970595398019 0 0.42892204251950339 -0.2594807324876427 0 0.43199948472716282 -0.23703470349933331 0 0.44338493428344739 -0.24574379201886831 0 0.42892204251950339 -0.2594807324876427 0 0.43237997939727391 -0.21969514264188619 0 0.4148006158986044 -0.24103970595398019 0 0.41563137083033092 -0.22558997695630109 0 0.41396763236883027 -0.21470461273584779 0 0.43237997939727391 -0.21969514264188619 0 0.41563137083033092 -0.22558997695630109 0 0.40137725565661481 -0.22692044649349019 0 0.4148006158986044 -0.24103970595398019 0 0.41563137083033092 -0.22558997695630109 0 0.40137725565661481 -0.22692044649349019 0 0.41396763236883027 -0.21470461273584779 0 0.40137725565661481 -0.22692044649349019 0 0.41396763236883027 -0.21470461273584779 0 0.41563137083033092 -0.22558997695630109 0 0.39237070121405998 -0.13164091544729051 0 0.39988799210863701 -0.14408364481314989 0 0.41368108829086198 -0.13554811058748131 0 0.40604313277712428 -0.1171380761358455 0 0.39237070121405998 -0.13164091544729051 0 0.41368108829086198 -0.13554811058748131 0 0.39237070121405998 -0.13164091544729051 0 0.37656812491251679 -0.13846106794218549 0 0.38605620033535121 -0.1499684147877679 0 0.3785150876385216 -0.1195111518185689 0 0.39237070121405998 -0.13164091544729051 0 0.37656812491251679 -0.13846106794218549 0 0.36359383050920879 -0.15501193774405861 0 0.37656812491251679 -0.13846106794218549 0 0.38605620033535121 -0.1499684147877679 0 0.39237070121405998 -0.13164091544729051 0 0.38605620033535121 -0.1499684147877679 0 0.39988799210863701 -0.14408364481314989 0 0.38605620033535121 -0.1499684147877679 0 0.39988799210863701 -0.14408364481314989 0 0.39700055726989097 -0.15664682800685811 0 0.39988799210863701 -0.14408364481314989 0 0.39700055726989097 -0.15664682800685811 0 0.40766935758353628 -0.1563629578155839 0 0.40291487034120532 -0.16553079014728059 0 0.39700055726989097 -0.15664682800685811 0 0.38691599599779503 -0.1739660947730671 0 0.40291487034120532 -0.16553079014728059 0 0.38691599599779503 -0.1739660947730671 0 0.40291487034120532 -0.16553079014728059 0 0.39700055726989097 -0.15664682800685811 0 0.40766935758353628 -0.1563629578155839 0 0.40291487034120532 -0.16553079014728059 0 0.40766935758353628 -0.1563629578155839 0 0.38605620033535121 -0.1499684147877679 0 0.39700055726989097 -0.15664682800685811 0 0.38691599599779503 -0.1739660947730671 0 0.36359383050920879 -0.15501193774405861 0 0.38691599599779503 -0.1739660947730671 0 0.36359383050920879 -0.15501193774405861 0 0.38605620033535121 -0.1499684147877679 0 0.38691599599779503 -0.1739660947730671 0 0.36422253950936112 -0.1859310752075029 0 0.38691599599779503 -0.1739660947730671 0 0.37910290544765168 -0.18685571494790659 0 0.36422253950936112 -0.1859310752075029 0 0.38691599599779503 -0.1739660947730671 0 0.38691599599779503 -0.1739660947730671 0 0.38753717637180268 -0.18155585423065651 0 0.39509360975394031 -0.18061212321895309 0 0.38373621375160438 -0.1885238144486111 0 0.38753717637180268 -0.18155585423065651 0 0.39509360975394031 -0.18061212321895309 0 0.38691599599779503 -0.1739660947730671 0 0.37910290544765168 -0.18685571494790659 0 0.38753717637180268 -0.18155585423065651 0 0.38373621375160438 -0.1885238144486111 0 0.37910290544765168 -0.18685571494790659 0 0.38753717637180268 -0.18155585423065651 0 0.40291487034120532 -0.16553079014728059 0 0.38691599599779503 -0.1739660947730671 0 0.39509360975394031 -0.18061212321895309 0 0.39694758591794982 -0.18886739411602391 0 0.39665445354372708 -0.18451779314135289 0 0.39509360975394031 -0.18061212321895309 0 0.39694758591794982 -0.18886739411602391 0 0.39665445354372708 -0.18451779314135289 0 0.40021252966215071 -0.18382207331845951 0 0.39665445354372708 -0.18451779314135289 0 0.39509360975394031 -0.18061212321895309 0 0.40021252966215071 -0.18382207331845951 0 0.38691599599779503 -0.1739660947730671 0 0.39509360975394031 -0.18061212321895309 0 0.40291487034120532 -0.16553079014728059 0 0.39509360975394031 -0.18061212321895309 0 0.40549068313545528 -0.17742909809594989 0 0.40291487034120532 -0.16553079014728059 0 0.39509360975394031 -0.18061212321895309 0 0.40549068313545528 -0.17742909809594989 0 0.40419144491046238 -0.1874222587525772 0 0.40021252966215071 -0.18382207331845951 0 0.39509360975394031 -0.18061212321895309 0 0.40549068313545528 -0.17742909809594989 0 0.40021252966215071 -0.18382207331845951 0 0.39694758591794982 -0.18886739411602391 0 0.40419144491046238 -0.1874222587525772 0 0.40021252966215071 -0.18382207331845951 0 0.42581299264578848 -0.18832250896932939 0 0.41453364601533049 -0.1862870086825022 0 0.42235201908535791 -0.17050045814039369 0 0.40549068313545528 -0.17742909809594989 0 0.41453364601533049 -0.1862870086825022 0 0.42235201908535791 -0.17050045814039369 0 0.40549068313545528 -0.17742909809594989 0 0.40419144491046238 -0.1874222587525772 0 0.41453364601533049 -0.1862870086825022 0 0.42235201908535791 -0.17050045814039369 0 0.44127751826325029 -0.16493106072254701 0 0.444302871767289 -0.18527179670816579 0 0.42581299264578848 -0.18832250896932939 0 0.42235201908535791 -0.17050045814039369 0 0.444302871767289 -0.18527179670816579 0 0.42235201908535791 -0.17050045814039369 0 0.42606808286872072 -0.1533234062687002 0 0.44127751826325029 -0.16493106072254701 0 0.40291487034120532 -0.16553079014728059 0 0.40766935758353628 -0.1563629578155839 0 0.42606808286872072 -0.1533234062687002 0 0.40291487034120532 -0.16553079014728059 0 0.42606808286872072 -0.1533234062687002 0 0.40291487034120532 -0.16553079014728059 0 0.42235201908535791 -0.17050045814039369 0 0.42606808286872072 -0.1533234062687002 0 0.40291487034120532 -0.16553079014728059 0 0.40549068313545528 -0.17742909809594989 0 0.42235201908535791 -0.17050045814039369 0 0.41182663021293903 -0.1473295298712288 0 0.42606808286872072 -0.1533234062687002 0 0.41368108829086198 -0.13554811058748131 0 0.40766935758353628 -0.1563629578155839 0 0.41182663021293903 -0.1473295298712288 0 0.42606808286872072 -0.1533234062687002 0 0.39988799210863701 -0.14408364481314989 0 0.40766935758353628 -0.1563629578155839 0 0.41182663021293903 -0.1473295298712288 0 0.39988799210863701 -0.14408364481314989 0 0.41182663021293903 -0.1473295298712288 0 0.41368108829086198 -0.13554811058748131 0 0.42606808286872072 -0.1533234062687002 0 0.430889964195386 -0.135117951771525 0 0.44922129539623712 -0.14111602239012119 0 0.42606808286872072 -0.1533234062687002 0 0.430889964195386 -0.135117951771525 0 0.41368108829086198 -0.13554811058748131 0 0.42080162445294911 -0.1170697999396166 0 0.430889964195386 -0.135117951771525 0 0.41368108829086198 -0.13554811058748131 0 0.45825176112352212 -0.1171944005084963 0 0.44922129539623712 -0.14111602239012119 0 0.47461064769812122 -0.12772964805397971 0 0.44922129539623712 -0.14111602239012119 0 0.47461064769812122 -0.12772964805397971 0 0.44922129539623712 -0.14111602239012119 0 0.47041229806123103 -0.14236165737458781 0 0.47461064769812122 -0.12772964805397971 0 0.43893170590200609 -0.1195052611799315 0 0.430889964195386 -0.135117951771525 0 0.44922129539623712 -0.14111602239012119 0 0.43893170590200609 -0.1195052611799315 0 0.45825176112352212 -0.1171944005084963 0 0.44922129539623712 -0.14111602239012119 0 0.43893170590200609 -0.1195052611799315 0 0.44922129539623712 -0.14111602239012119 0 0.42606808286872072 -0.1533234062687002 0 0.44922129539623712 -0.14111602239012119 0 0.44127751826325029 -0.16493106072254701 0 0.42606808286872072 -0.1533234062687002 0 0.44922129539623712 -0.14111602239012119 0 0.44922129539623712 -0.14111602239012119 0 0.46204773445353348 -0.16805481443812731 0 0.44922129539623712 -0.14111602239012119 0 0.46204773445353348 -0.16805481443812731 0 0.47041229806123103 -0.14236165737458781 0 0.44922129539623712 -0.14111602239012119 0 0.46204773445353348 -0.16805481443812731 0 0.44127751826325029 -0.16493106072254701 0 0.46204773445353348 -0.16805481443812731 0 0.44127751826325029 -0.16493106072254701 0 0.444302871767289 -0.18527179670816579 0 0.46204773445353348 -0.16805481443812731 0 0.444302871767289 -0.18527179670816579 0 0.46675991992270621 -0.1779516052682695 0 0.47013600328087812 -0.185042241033678 0 0.44995934289594253 -0.19835057932979169 0 0.444302871767289 -0.18527179670816579 0 0.46675991992270621 -0.1779516052682695 0 0.44995934289594253 -0.19835057932979169 0 0.46204773445353348 -0.16805481443812731 0 0.444302871767289 -0.18527179670816579 0 0.46675991992270621 -0.1779516052682695 0 0.46204773445353348 -0.16805481443812731 0 0.46675991992270621 -0.1779516052682695 0 0.46675991992270621 -0.1779516052682695 0 0.47013600328087812 -0.185042241033678 0 0.46675991992270621 -0.1779516052682695 0 0.48388214138120561 -0.17390417728894431 0 0.47927416581767118 -0.18397687174081401 0 0.46675991992270621 -0.1779516052682695 0 0.47013600328087812 -0.185042241033678 0 0.47927416581767118 -0.18397687174081401 0 0.48388214138120561 -0.17390417728894431 0 0.47927416581767118 -0.18397687174081401 0 0.48987334582395858 -0.18140433091368091 0 0.48987334582395858 -0.18140433091368091 0 0.5 -0.16492372169971509 0 0.5 -0.19225537639104809 0 0.48388214138120561 -0.17390417728894431 0 0.48987334582395858 -0.18140433091368091 0 0.5 -0.16492372169971509 0 0.47927416581767118 -0.18397687174081401 0 0.48987334582395858 -0.18140433091368091 0 0.48552241192915191 -0.19206174635411891 0 0.48388214138120561 -0.17390417728894431 0 0.5 -0.16492372169971509 0 0.48337995996135552 -0.1577718361383266 0 0.46675991992270621 -0.1779516052682695 0 0.48388214138120561 -0.17390417728894431 0 0.48337995996135552 -0.1577718361383266 0 0.46204773445353348 -0.16805481443812731 0 0.46675991992270621 -0.1779516052682695 0 0.48337995996135552 -0.1577718361383266 0 0.46204773445353348 -0.16805481443812731 0 0.48337995996135552 -0.1577718361383266 0 0.47713463147989749 -0.15341672773068571 0 0.46675991992270621 -0.1779516052682695 0 0.48337995996135552 -0.1577718361383266 0 0.46204773445353348 -0.16805481443812731 0 0.47713463147989749 -0.15341672773068571 0 0.46204773445353348 -0.16805481443812731 0 0.47041229806123103 -0.14236165737458781 0 0.47713463147989749 -0.15341672773068571 0 0.48337995996135552 -0.1577718361383266 0 0.47713463147989749 -0.15341672773068571 0 0.48456351921585428 -0.1397192317593817 0 0.47041229806123103 -0.14236165737458781 0 0.47713463147989749 -0.15341672773068571 0 0.48456351921585428 -0.1397192317593817 0 0.48337995996135552 -0.1577718361383266 0 0.50000000000000311 -0.1375920670083822 0 0.48456351921585428 -0.1397192317593817 0 0.5 -0.16492372169971509 0 0.48337995996135552 -0.1577718361383266 0 0.50000000000000311 -0.1375920670083822 0 0.48337995996135552 -0.1577718361383266 0 0.50000000000000311 -0.1375920670083822 0 0.50000000000000433 -0.1143432737178363 0 0.50000000000000311 -0.1375920670083822 0 0.48456351921585428 -0.1397192317593817 0 0.50000000000000433 -0.1143432737178363 0 0.48456351921585428 -0.1397192317593817 0 0.47461064769812122 -0.12772964805397971 0 0.47041229806123103 -0.14236165737458781 0 0.48456351921585428 -0.1397192317593817 0 0.47461064769812122 -0.12772964805397971 0 0.46695018322910392 -0.22473955239466681 0 0.44975785303280541 -0.2255898949688982 0 0.46528918090086291 -0.2095084705765255 0 0.46695018322910392 -0.22473955239466681 0 0.46086119099944728 -0.24298014516654151 0 0.44975785303280541 -0.2255898949688982 0 0.46086119099944728 -0.24298014516654151 0 0.44338493428344739 -0.24574379201886831 0 0.44975785303280541 -0.2255898949688982 0 0.43199948472716282 -0.23703470349933331 0 0.44338493428344739 -0.24574379201886831 0 0.44975785303280541 -0.2255898949688982 0 0.46086119099944728 -0.24298014516654151 0 0.44338493428344739 -0.24574379201886831 0 0.45165913482636821 -0.26068325523694041 0 0.43237997939727391 -0.21969514264188619 0 0.43199948472716282 -0.23703470349933331 0 0.44975785303280541 -0.2255898949688982 0 0.43237997939727391 -0.21969514264188619 0 0.44975785303280541 -0.2255898949688982 0 0.44995934289594253 -0.19835057932979169 0 0.43237997939727391 -0.21969514264188619 0 0.44995934289594253 -0.19835057932979169 0 0.42655800908104652 -0.20248877897820619 0 0.444302871767289 -0.18527179670816579 0 0.44995934289594253 -0.19835057932979169 0 0.42655800908104652 -0.20248877897820619 0 0.44995934289594253 -0.19835057932979169 0 0.46675991992270621 -0.1779516052682695 0 0.44995934289594253 -0.19835057932979169 0 0.44995934289594253 -0.19835057932979169 0 0.46774087741254722 -0.19520616284195491 0 0.47013600328087812 -0.185042241033678 0 0.44995934289594253 -0.19835057932979169 0 0.46774087741254722 -0.19520616284195491 0 0.44995934289594253 -0.19835057932979169 0 0.46774087741254722 -0.19520616284195491 0 0.46528918090086291 -0.2095084705765255 0 0.44975785303280541 -0.2255898949688982 0 0.44995934289594253 -0.19835057932979169 0 0.46528918090086291 -0.2095084705765255 0 0.46695018322910392 -0.22473955239466681 0 0.46528918090086291 -0.2095084705765255 0 0.48029579162163721 -0.21558854579597769 0 0.46528918090086291 -0.2095084705765255 0 0.47801733861628259 -0.20339364304417529 0 0.48029579162163721 -0.21558854579597769 0 0.47801733861628259 -0.20339364304417529 0 0.48029579162163721 -0.21558854579597769 0 0.48876710843341442 -0.20457726853354019 0 0.46774087741254722 -0.19520616284195491 0 0.47801733861628259 -0.20339364304417529 0 0.48552241192915191 -0.19206174635411891 0 0.47927416581767118 -0.18397687174081401 0 0.46774087741254722 -0.19520616284195491 0 0.48552241192915191 -0.19206174635411891 0 0.46774087741254722 -0.19520616284195491 0 0.48552241192915191 -0.19206174635411891 0 0.47013600328087812 -0.185042241033678 0 0.47927416581767118 -0.18397687174081401 0 0.46774087741254722 -0.19520616284195491 0 0.46774087741254722 -0.19520616284195491 0 0.46528918090086291 -0.2095084705765255 0 0.47801733861628259 -0.20339364304417529 0 0.47801733861628259 -0.20339364304417529 0 0.48552241192915191 -0.19206174635411891 0 0.48876710843341442 -0.20457726853354019 0 0.48987334582395858 -0.18140433091368091 0 0.48552241192915191 -0.19206174635411891 0 0.5 -0.19225537639104809 0 0.48552241192915191 -0.19206174635411891 0 0.5 -0.19225537639104809 0 0.48876710843341442 -0.20457726853354019 0 0.5 -0.19225537639104809 0 0.48876710843341442 -0.20457726853354019 0 0.5 -0.21958703108238101 0 0.48029579162163721 -0.21558854579597769 0 0.48876710843341442 -0.20457726853354019 0 0.5 -0.21958703108238101 0 0.5 -0.21958703108238101 0 0.48033598971293961 -0.23536730169414519 0 0.5 -0.24691868577371379 0 0.48029579162163721 -0.21558854579597769 0 0.5 -0.21958703108238101 0 0.48033598971293961 -0.23536730169414519 0 0.46695018322910392 -0.22473955239466681 0 0.46086119099944728 -0.24298014516654151 0 0.48033598971293961 -0.23536730169414519 0 0.46695018322910392 -0.22473955239466681 0 0.48029579162163721 -0.21558854579597769 0 0.48033598971293961 -0.23536730169414519 0 0.46086119099944728 -0.24298014516654151 0 0.48033598971293961 -0.23536730169414519 0 0.47450143065275591 -0.2599846894272051 0 0.48033598971293961 -0.23536730169414519 0 0.5 -0.24691868577371379 0 0.47450143065275591 -0.2599846894272051 0 0.5 -0.24691868577371379 0 0.50000000000000222 -0.27425034046504659 0 0.47450143065275591 -0.2599846894272051 0 0.50000000000000222 -0.27425034046504659 0 0.47605513413645029 -0.28008102786359129 0 0.47450143065275591 -0.2599846894272051 0 0.47605513413645029 -0.28008102786359129 0 0.47450143065275591 -0.2599846894272051 0 0.45931845050930209 -0.27772900618102819 0 0.46086119099944728 -0.24298014516654151 0 0.47450143065275591 -0.2599846894272051 0 0.45165913482636821 -0.26068325523694041 0 0.47450143065275591 -0.2599846894272051 0 0.45931845050930209 -0.27772900618102819 0 0.45165913482636821 -0.26068325523694041 0 0.45931845050930209 -0.27772900618102819 0 0.44355941821905998 -0.27577600561597132 0 0.45165913482636821 -0.26068325523694041 0 0.44338493428344739 -0.24574379201886831 0 0.45165913482636821 -0.26068325523694041 0 0.42892204251950339 -0.2594807324876427 0 0.44355941821905998 -0.27577600561597132 0 0.45165913482636821 -0.26068325523694041 0 0.42892204251950339 -0.2594807324876427 0 0.44743457629936911 -0.29125199491084608 0 0.45088585771739531 -0.31517042999936162 0 0.43686388954492023 -0.30206384222820981 0 0.45088585771739531 -0.31517042999936162 0 0.43602078127065758 -0.31524868357114688 0 0.43686388954492023 -0.30206384222820981 0 0.45931845050930209 -0.27772900618102819 0 0.44355941821905998 -0.27577600561597132 0 0.44743457629936911 -0.29125199491084608 0 0.44355941821905998 -0.27577600561597132 0 0.44743457629936911 -0.29125199491084608 0 0.42611848489587972 -0.28658767974219163 0 0.47605513413645029 -0.28008102786359129 0 0.45931845050930209 -0.27772900618102819 0 0.46516191830632447 -0.295844547827811 0 0.45931845050930209 -0.27772900618102819 0 0.44743457629936911 -0.29125199491084608 0 0.46516191830632447 -0.295844547827811 0 0.44743457629936911 -0.29125199491084608 0 0.46516191830632447 -0.295844547827811 0 0.45088585771739531 -0.31517042999936162 0 0.46516191830632447 -0.295844547827811 0 0.47218478901913252 -0.31616939882945228 0 0.45088585771739531 -0.31517042999936162 0 0.4860923945095682 -0.29520986964724988 0 0.47218478901913252 -0.31616939882945228 0 0.50000000000000222 -0.27425034046504659 0 0.4860923945095682 -0.29520986964724988 0 0.5 -0.307151228172029 0 0.46516191830632447 -0.295844547827811 0 0.4860923945095682 -0.29520986964724988 0 0.47218478901913252 -0.31616939882945228 0 0.47605513413645029 -0.28008102786359129 0 0.46516191830632447 -0.295844547827811 0 0.4860923945095682 -0.29520986964724988 0 0.50000000000000222 -0.27425034046504659 0 0.47605513413645029 -0.28008102786359129 0 0.4860923945095682 -0.29520986964724988 0 0.50000000000000222 -0.27425034046504659 0 0.4860923945095682 -0.29520986964724988 0 0.4860923945095682 -0.29520986964724988 0 0.5 -0.307151228172029 0 0.47218478901913252 -0.31616939882945228 0 0.5 -0.307151228172029 0 0.47500442815187882 -0.33618410333150461 0 0.5 -0.35237408365171952 0 0.5 -0.307151228172029 0 0.47500442815187882 -0.33618410333150461 0 0.47218478901913252 -0.31616939882945228 0 0.47500442815187882 -0.33618410333150461 0 0.5 -0.35237408365171952 0 0.46252966193221051 -0.36479181955861489 0 0.5 -0.35237408365171952 0 0.46252966193221051 -0.36479181955861489 0 0.4680243894331878 -0.39009447735167219 0 0.46252966193221051 -0.36479181955861489 0 0.44439653888602387 -0.37108278870097211 0 0.45518384933885458 -0.37953704158418422 0 0.46252966193221051 -0.36479181955861489 0 0.4490308344886651 -0.35295870566956811 0 0.45703493443123322 -0.33948916176555749 0 0.47500442815187882 -0.33618410333150461 0 0.46252966193221051 -0.36479181955861489 0 0.45703493443123322 -0.33948916176555749 0 0.46252966193221051 -0.36479181955861489 0 0.45703493443123322 -0.33948916176555749 0 0.4490308344886651 -0.35295870566956811 0 0.44439653888602387 -0.37108278870097211 0 0.43547581015886039 -0.35374612963373181 0 0.44432011104097457 -0.34600420025309703 0 0.4490308344886651 -0.35295870566956811 0 0.45042795048268808 -0.34263813410543531 0 0.4490308344886651 -0.35295870566956811 0 0.45703493443123322 -0.33948916176555749 0 0.45042795048268808 -0.34263813410543531 0 0.44432011104097457 -0.34600420025309703 0 0.4490308344886651 -0.35295870566956811 0 0.43547581015886039 -0.35374612963373181 0 0.44432011104097457 -0.34600420025309703 0 0.43877314986606192 -0.33818418946214152 0 0.43547581015886039 -0.35374612963373181 0 0.46252966193221051 -0.36479181955861489 0 0.4490308344886651 -0.35295870566956811 0 0.44439653888602387 -0.37108278870097211 0 0.47218478901913252 -0.31616939882945228 0 0.45845081404400378 -0.32484725803309861 0 0.45088585771739531 -0.31517042999936162 0 0.47218478901913252 -0.31616939882945228 0 0.45845081404400378 -0.32484725803309861 0 0.45827718352869679 -0.33712892801165451 0 0.47218478901913252 -0.31616939882945228 0 0.45827718352869679 -0.33712892801165451 0 0.45845081404400378 -0.32484725803309861 0 0.45465012105844921 -0.33200612518688721 0 0.44755831468875862 -0.32470483606049327 0 0.47500442815187882 -0.33618410333150461 0 0.45703493443123322 -0.33948916176555749 0 0.45827718352869679 -0.33712892801165451 0 0.47500442815187882 -0.33618410333150461 0 0.47218478901913252 -0.31616939882945228 0 0.45827718352869679 -0.33712892801165451 0 0.45703493443123322 -0.33948916176555749 0 0.4547926195999189 -0.33699511694280199 0 0.45042795048268808 -0.34263813410543531 0 0.45703493443123322 -0.33948916176555749 0 0.45827718352869679 -0.33712892801165451 0 0.4547926195999189 -0.33699511694280199 0 0.45845081404400378 -0.32484725803309861 0 0.45827718352869679 -0.33712892801165451 0 0.45465012105844921 -0.33200612518688721 0 0.4547926195999189 -0.33699511694280199 0 0.45465012105844921 -0.33200612518688721 0 0.45190540097192972 -0.33615439765103378 0 0.45827718352869679 -0.33712892801165451 0 0.4547926195999189 -0.33699511694280199 0 0.45465012105844921 -0.33200612518688721 0 0.45465012105844921 -0.33200612518688721 0 0.44749393872662357 -0.33307274595813069 0 0.44755831468875862 -0.32470483606049327 0 0.45465012105844921 -0.33200612518688721 0 0.44749393872662357 -0.33307274595813069 0 0.45190540097192972 -0.33615439765103378 0 0.4547926195999189 -0.33699511694280199 0 0.45042795048268808 -0.34263813410543531 0 0.45190540097192972 -0.33615439765103378 0 0.45042795048268808 -0.34263813410543531 0 0.45190540097192972 -0.33615439765103378 0 0.44691761172297523 -0.33872250108465612 0 0.44749393872662357 -0.33307274595813069 0 0.45190540097192972 -0.33615439765103378 0 0.44691761172297523 -0.33872250108465612 0 0.44432011104097457 -0.34600420025309703 0 0.45042795048268808 -0.34263813410543531 0 0.44691761172297523 -0.33872250108465612 0 0.44432011104097457 -0.34600420025309703 0 0.44691761172297523 -0.33872250108465612 0 0.43877314986606192 -0.33818418946214152 0 0.44749393872662357 -0.33307274595813069 0 0.44691761172297523 -0.33872250108465612 0 0.43877314986606192 -0.33818418946214152 0 0.44749393872662357 -0.33307274595813069 0 0.43877314986606192 -0.33818418946214152 0 0.43784837531542259 -0.32788377361433518 0 0.44749393872662357 -0.33307274595813069 0 0.43784837531542259 -0.32788377361433518 0 0.44755831468875862 -0.32470483606049327 0 0.43784837531542259 -0.32788377361433518 0 0.44755831468875862 -0.32470483606049327 0 0.43602078127065758 -0.31524868357114688 0 0.45845081404400378 -0.32484725803309861 0 0.44755831468875862 -0.32470483606049327 0 0.45088585771739531 -0.31517042999936162 0 0.44755831468875862 -0.32470483606049327 0 0.45088585771739531 -0.31517042999936162 0 0.43602078127065758 -0.31524868357114688 0 0.43784837531542259 -0.32788377361433518 0 0.42583518759170652 -0.33528639298719382 0 0.41775460495295358 -0.31793141321765611 0 0.43784837531542259 -0.32788377361433518 0 0.43602078127065758 -0.31524868357114688 0 0.41775460495295358 -0.31793141321765611 0 0.43877314986606192 -0.33818418946214152 0 0.43784837531542259 -0.32788377361433518 0 0.42583518759170652 -0.33528639298719382 0 0.43877314986606192 -0.33818418946214152 0 0.42583518759170652 -0.33528639298719382 0 0.43547581015886039 -0.35374612963373181 0 0.41250416259223432 -0.33960725990233392 0 0.41775460495295358 -0.31793141321765611 0 0.39805431729583179 -0.33510365622952631 0 0.41250416259223432 -0.33960725990233392 0 0.41775460495295358 -0.31793141321765611 0 0.42583518759170652 -0.33528639298719382 0 0.41250416259223432 -0.33960725990233392 0 0.41775460495295358 -0.31793141321765611 0 0.42583518759170652 -0.33528639298719382 0 0.41250416259223432 -0.33960725990233392 0 0.42034794007649889 -0.35298104146800569 0 0.43547581015886039 -0.35374612963373181 0 0.42034794007649889 -0.35298104146800569 0 0.42578668388574042 -0.37577956855813549 0 0.44439653888602387 -0.37108278870097211 0 0.43547581015886039 -0.35374612963373181 0 0.42578668388574042 -0.37577956855813549 0 0.42583518759170652 -0.33528639298719382 0 0.43547581015886039 -0.35374612963373181 0 0.42034794007649889 -0.35298104146800569 0 0.41250416259223432 -0.33960725990233392 0 0.42034794007649889 -0.35298104146800569 0 0.40725372023151529 -0.36128310658701179 0 0.41250416259223432 -0.33960725990233392 0 0.40725372023151529 -0.36128310658701179 0 0.40725372023151529 -0.36128310658701179 0 0.42578668388574042 -0.37577956855813549 0 0.40193856510946419 -0.3832261124550107 0 0.40725372023151529 -0.36128310658701179 0 0.42578668388574042 -0.37577956855813549 0 0.42034794007649889 -0.35298104146800569 0 0.40725372023151529 -0.36128310658701179 0 0.42578668388574042 -0.37577956855813549 0 0.40725372023151529 -0.36128310658701179 0 0.39425043507280438 -0.36432915978129837 0 0.40193856510946419 -0.3832261124550107 0 0.40725372023151529 -0.36128310658701179 0 0.40193856510946419 -0.3832261124550107 0 0.39425043507280438 -0.36432915978129837 0 0.38081427771294768 -0.36737052156009248 0 0.40193856510946419 -0.3832261124550107 0 0.40725372023151529 -0.36128310658701179 0 0.38699517723729038 -0.34543689852307891 0 0.39805431729583179 -0.33510365622952631 0 0.40725372023151529 -0.36128310658701179 0 0.39425043507280438 -0.36432915978129837 0 0.38699517723729038 -0.34543689852307891 0 0.40725372023151529 -0.36128310658701179 0 0.38699517723729038 -0.34543689852307891 0 0.41250416259223432 -0.33960725990233392 0 0.40725372023151529 -0.36128310658701179 0 0.39805431729583179 -0.33510365622952631 0 0.38699517723729038 -0.34543689852307891 0 0.38081427771294768 -0.36737052156009248 0 0.37640125955739012 -0.35149107478397351 0 0.38465179156333151 -0.34360390505586791 0 0.36805061276354478 -0.3427907498460791 0 0.39425043507280438 -0.36432915978129837 0 0.38699517723729038 -0.34543689852307891 0 0.38081427771294768 -0.36737052156009248 0 0.38699517723729038 -0.34543689852307891 0 0.37640125955739012 -0.35149107478397351 0 0.38081427771294768 -0.36737052156009248 0 0.38699517723729038 -0.34543689852307891 0 0.38465179156333151 -0.34360390505586791 0 0.38699517723729038 -0.34543689852307891 0 0.37640125955739012 -0.35149107478397351 0 0.38465179156333151 -0.34360390505586791 0 0.41775460495295358 -0.31793141321765611 0 0.39401776620237461 -0.32051644503610022 0 0.39805431729583179 -0.33510365622952631 0 0.38699517723729038 -0.34543689852307891 0 0.39401776620237461 -0.32051644503610022 0 0.39805431729583179 -0.33510365622952631 0 0.38699517723729038 -0.34543689852307891 0 0.39401776620237461 -0.32051644503610022 0 0.38465179156333151 -0.34360390505586791 0 0.37858644206980091 -0.32769985780377792 0 0.36805061276354478 -0.3427907498460791 0 0.38699517723729038 -0.34543689852307891 0 0.39401776620237461 -0.32051644503610022 0 0.38465179156333151 -0.34360390505586791 0 0.39401776620237461 -0.32051644503610022 0 0.38465179156333151 -0.34360390505586791 0 0.37858644206980091 -0.32769985780377792 0 0.39401776620237461 -0.32051644503610022 0 0.37858644206980091 -0.32769985780377792 0 0.37861767820969228 -0.30691821554646831 0 0.41775460495295358 -0.31793141321765611 0 0.39401776620237461 -0.32051644503610022 0 0.40104035516745928 -0.29559599154912142 0 0.39401776620237461 -0.32051644503610022 0 0.37861767820969228 -0.30691821554646831 0 0.40104035516745928 -0.29559599154912142 0 0.39401776620237461 -0.32051644503610022 0 0.40104035516745928 -0.29559599154912142 0 0.40104035516745928 -0.29559599154912142 0 0.38498320530945151 -0.287592927137584 0 0.39655653748852282 -0.27284147297554762 0 0.38498320530945151 -0.287592927137584 0 0.37764450162479901 -0.26965755496232408 0 0.36873774536035581 -0.28861226174546889 0 0.37861767820969228 -0.30691821554646831 0 0.40104035516745928 -0.29559599154912142 0 0.38498320530945151 -0.287592927137584 0 0.37861767820969228 -0.30691821554646831 0 0.38498320530945151 -0.287592927137584 0 0.36873774536035581 -0.28861226174546889 0 0.38498320530945151 -0.287592927137584 0 0.37764450162479901 -0.26965755496232408 0 0.39655653748852282 -0.27284147297554762 0 0.39206528024080278 -0.24921397013056479 0 0.37764450162479901 -0.26965755496232408 0 0.39655653748852282 -0.27284147297554762 0 0.39206528024080278 -0.24921397013056479 0 0.37764450162479901 -0.26965755496232408 0 0.37510228513818711 -0.25237727586059511 0 0.39206528024080278 -0.24921397013056479 0 0.39655653748852282 -0.27284147297554762 0 0.40884184876520419 -0.25890250189124958 0 0.40104035516745928 -0.29559599154912142 0 0.39655653748852282 -0.27284147297554762 0 0.4136044294752057 -0.2739163227279473 0 0.39655653748852282 -0.27284147297554762 0 0.4136044294752057 -0.2739163227279473 0 0.40884184876520419 -0.25890250189124958 0 0.4148006158986044 -0.24103970595398019 0 0.40884184876520419 -0.25890250189124958 0 0.42892204251950339 -0.2594807324876427 0 0.4136044294752057 -0.2739163227279473 0 0.40884184876520419 -0.25890250189124958 0 0.42892204251950339 -0.2594807324876427 0 0.4136044294752057 -0.2739163227279473 0 0.42892204251950339 -0.2594807324876427 0 0.42611848489587972 -0.28658767974219163 0 0.44355941821905998 -0.27577600561597132 0 0.42892204251950339 -0.2594807324876427 0 0.42611848489587972 -0.28658767974219163 0 0.44743457629936911 -0.29125199491084608 0 0.42611848489587972 -0.28658767974219163 0 0.43686388954492023 -0.30206384222820981 0 0.43602078127065758 -0.31524868357114688 0 0.41775460495295358 -0.31793141321765611 0 0.42179240152309172 -0.30222108271158582 0 0.42611848489587972 -0.28658767974219163 0 0.43686388954492023 -0.30206384222820981 0 0.42179240152309172 -0.30222108271158582 0 0.43602078127065758 -0.31524868357114688 0 0.43686388954492023 -0.30206384222820981 0 0.42179240152309172 -0.30222108271158582 0 0.41775460495295358 -0.31793141321765611 0 0.40104035516745928 -0.29559599154912142 0 0.42179240152309172 -0.30222108271158582 0 0.40104035516745928 -0.29559599154912142 0 0.4136044294752057 -0.2739163227279473 0 0.42611848489587972 -0.28658767974219163 0 0.40104035516745928 -0.29559599154912142 0 0.42611848489587972 -0.28658767974219163 0 0.42179240152309172 -0.30222108271158582 0 0.5 -0.5 0 0.478892924595126 -0.45923392689990328 0 0.5 -0.41454166856117469 0 0.5 -0.5 0 0.47943423265092072 -0.49342116463239621 0 0.40014079662082208 -0.5 0 0.43983937115661631 -0.46972557693384148 0 0.47943423265092072 -0.49342116463239621 0 0.40014079662082208 -0.5 0 0.43983937115661631 -0.46972557693384148 0 0.46715606132834708 -0.47012790102379598 0 0.47943423265092072 -0.49342116463239621 0 0.5 -0.5 0 0.47943423265092072 -0.49342116463239621 0 0.478892924595126 -0.45923392689990328 0 0.46715606132834708 -0.47012790102379598 0 0.47943423265092072 -0.49342116463239621 0 0.478892924595126 -0.45923392689990328 0 0.46715606132834708 -0.47012790102379598 0 0.47943423265092072 -0.49342116463239621 0 0.478892924595126 -0.45923392689990328 0 0.45487789000577361 -0.44683463741519602 0 0.47188936358571532 -0.4304781897668572 0 0.46715606132834708 -0.47012790102379598 0 0.45487789000577361 -0.44683463741519602 0 0.46715606132834708 -0.47012790102379598 0 0.478892924595126 -0.45923392689990328 0 0.45487789000577361 -0.44683463741519602 0 0.43983937115661631 -0.46972557693384148 0 0.46715606132834708 -0.47012790102379598 0 0.45487789000577361 -0.44683463741519602 0 0.43983937115661631 -0.46972557693384148 0 0.45487789000577361 -0.44683463741519602 0 0.43095981599733307 -0.44753658110846528 0 0.45487789000577361 -0.44683463741519602 0 0.43408281430989271 -0.43319973453275151 0 0.43095981599733307 -0.44753658110846528 0 0.45487789000577361 -0.44683463741519602 0 0.44259971868320003 -0.42354137380659601 0 0.45487789000577361 -0.44683463741519602 0 0.44259971868320003 -0.42354137380659601 0 0.43408281430989271 -0.43319973453275151 0 0.45487789000577361 -0.44683463741519602 0 0.44259971868320003 -0.42354137380659601 0 0.45959372781066021 -0.42263882295877442 0 0.44259971868320003 -0.42354137380659601 0 0.45186952978880229 -0.40983589673226128 0 0.45959372781066021 -0.42263882295877442 0 0.44259971868320003 -0.42354137380659601 0 0.45186952978880229 -0.40983589673226128 0 0.44161148704613862 -0.40579593671517361 0 0.44259971868320003 -0.42354137380659601 0 0.44161148704613862 -0.40579593671517361 0 0.43098246877755192 -0.41858878846052949 0 0.45186952978880229 -0.40983589673226128 0 0.45959372781066021 -0.42263882295877442 0 0.46285261119418991 -0.40477249250038388 0 0.45959372781066021 -0.42263882295877442 0 0.4735191169341651 -0.41539713514472942 0 0.46285261119418991 -0.40477249250038388 0 0.45959372781066021 -0.42263882295877442 0 0.47188936358571532 -0.4304781897668572 0 0.4735191169341651 -0.41539713514472942 0 0.45487789000577361 -0.44683463741519602 0 0.45959372781066021 -0.42263882295877442 0 0.47188936358571532 -0.4304781897668572 0 0.5 -0.41454166856117469 0 0.4735191169341651 -0.41539713514472942 0 0.4680243894331878 -0.39009447735167219 0 0.478892924595126 -0.45923392689990328 0 0.47188936358571532 -0.4304781897668572 0 0.5 -0.41454166856117469 0 0.47188936358571532 -0.4304781897668572 0 0.5 -0.41454166856117469 0 0.4735191169341651 -0.41539713514472942 0 0.5 -0.35237408365171952 0 0.5 -0.41454166856117469 0 0.4680243894331878 -0.39009447735167219 0 0.4735191169341651 -0.41539713514472942 0 0.4680243894331878 -0.39009447735167219 0 0.46252966193221051 -0.36479181955861489 0 0.45518384933885458 -0.37953704158418422 0 0.4680243894331878 -0.39009447735167219 0 0.45518384933885458 -0.37953704158418422 0 0.4680243894331878 -0.39009447735167219 0 0.44431964753996511 -0.39027603052925969 0 0.46252966193221051 -0.36479181955861489 0 0.4680243894331878 -0.39009447735167219 0 0.4735191169341651 -0.41539713514472942 0 0.4680243894331878 -0.39009447735167219 0 0.46285261119418991 -0.40477249250038388 0 0.4680243894331878 -0.39009447735167219 0 0.46285261119418991 -0.40477249250038388 0 0.44431964753996511 -0.39027603052925969 0 0.46285261119418991 -0.40477249250038388 0 0.44431964753996511 -0.39027603052925969 0 0.45186952978880229 -0.40983589673226128 0 0.44161148704613862 -0.40579593671517361 0 0.44431964753996511 -0.39027603052925969 0 0.45186952978880229 -0.40983589673226128 0 0.46285261119418991 -0.40477249250038388 0 0.44431964753996511 -0.39027603052925969 0 0.44439653888602387 -0.37108278870097211 0 0.44431964753996511 -0.39027603052925969 0 0.42578668388574042 -0.37577956855813549 0 0.44439653888602387 -0.37108278870097211 0 0.45518384933885458 -0.37953704158418422 0 0.44431964753996511 -0.39027603052925969 0 0.44431964753996511 -0.39027603052925969 0 0.42578668388574042 -0.37577956855813549 0 0.42627525148907153 -0.39512359141131242 0 0.44431964753996511 -0.39027603052925969 0 0.42578668388574042 -0.37577956855813549 0 0.44161148704613862 -0.40579593671517361 0 0.44431964753996511 -0.39027603052925969 0 0.42627525148907153 -0.39512359141131242 0 0.44161148704613862 -0.40579593671517361 0 0.42627525148907153 -0.39512359141131242 0 0.41380476734409732 -0.40903711363024231 0 0.41288573556315727 -0.39366710087554208 0 0.39662340998741341 -0.40516911832300972 0 0.41380476734409732 -0.40903711363024231 0 0.42627525148907153 -0.39512359141131242 0 0.41288573556315727 -0.39366710087554208 0 0.41380476734409732 -0.40903711363024231 0 0.42578668388574042 -0.37577956855813549 0 0.41288573556315727 -0.39366710087554208 0 0.40193856510946419 -0.3832261124550107 0 0.42578668388574042 -0.37577956855813549 0 0.42627525148907153 -0.39512359141131242 0 0.41288573556315727 -0.39366710087554208 0 0.38081427771294768 -0.36737052156009248 0 0.37463337818860382 -0.38930414459710588 0 0.3737028077843495 -0.38742295831448542 0 0.38081427771294768 -0.36737052156009248 0 0.38897026210220897 -0.39170162293651239 0 0.37463337818860382 -0.38930414459710588 0 0.38081427771294768 -0.36737052156009248 0 0.37463337818860382 -0.38930414459710588 0 0.38081427771294768 -0.36737052156009248 0 0.40193856510946419 -0.3832261124550107 0 0.38897026210220897 -0.39170162293651239 0 0.38599804764205609 -0.41227829054531151 0 0.37463337818860382 -0.38930414459710588 0 0.38897026210220897 -0.39170162293651239 0 0.39662340998741341 -0.40516911832300972 0 0.38599804764205609 -0.41227829054531151 0 0.38599804764205609 -0.41227829054531151 0 0.36755341006792419 -0.41442821452601158 0 0.37463337818860382 -0.38930414459710588 0 0.38897026210220897 -0.39170162293651239 0 0.38599804764205609 -0.41227829054531151 0 0.37463337818860382 -0.38930414459710588 0 0.40193856510946419 -0.3832261124550107 0 0.38897026210220897 -0.39170162293651239 0 0.39662340998741341 -0.40516911832300972 0 0.41288573556315727 -0.39366710087554208 0 0.40193856510946419 -0.3832261124550107 0 0.39662340998741341 -0.40516911832300972 0 0.40193856510946419 -0.3832261124550107 0 0.39662340998741341 -0.40516911832300972 0 0.38599804764205609 -0.41227829054531151 0 0.41380476734409732 -0.40903711363024231 0 0.39662340998741341 -0.40516911832300972 0 0.38599804764205609 -0.41227829054531151 0 0.41380476734409732 -0.40903711363024231 0 0.40147331832312588 -0.42054231308375889 0 0.38599804764205609 -0.41227829054531151 0 0.41380476734409732 -0.40903711363024231 0 0.38599804764205609 -0.41227829054531151 0 0.36755341006792419 -0.41442821452601158 0 0.38599804764205609 -0.41227829054531151 0 0.37837193070639508 -0.43074191130029282 0 0.36755341006792419 -0.41442821452601158 0 0.38599804764205609 -0.41227829054531151 0 0.37837193070639508 -0.43074191130029282 0 0.39716653888589531 -0.43485585418744782 0 0.37837193070639508 -0.43074191130029282 0 0.39716653888589531 -0.43485585418744782 0 0.38455236834147782 -0.44235831893697952 0 0.38599804764205609 -0.41227829054531151 0 0.39716653888589531 -0.43485585418744782 0 0.40147331832312588 -0.42054231308375889 0 0.38599804764205609 -0.41227829054531151 0 0.39716653888589531 -0.43485585418744782 0 0.40147331832312588 -0.42054231308375889 0 0.39716653888589531 -0.43485585418744782 0 0.40988830344794153 -0.42850982814637428 0 0.39716653888589531 -0.43485585418744782 0 0.40988830344794153 -0.42850982814637428 0 0.41424956646142452 -0.44145335337101582 0 0.40988830344794153 -0.42850982814637428 0 0.42255857874347952 -0.42798536962106742 0 0.41424956646142452 -0.44145335337101582 0 0.40147331832312588 -0.42054231308375889 0 0.40988830344794153 -0.42850982814637428 0 0.41380476734409732 -0.40903711363024231 0 0.40988830344794153 -0.42850982814637428 0 0.41380476734409732 -0.40903711363024231 0 0.42255857874347952 -0.42798536962106742 0 0.44161148704613862 -0.40579593671517361 0 0.41380476734409732 -0.40903711363024231 0 0.43098246877755192 -0.41858878846052949 0 0.44161148704613862 -0.40579593671517361 0 0.41380476734409732 -0.40903711363024231 0 0.41380476734409732 -0.40903711363024231 0 0.43098246877755192 -0.41858878846052949 0 0.42255857874347952 -0.42798536962106742 0 0.43408281430989271 -0.43319973453275151 0 0.42255857874347952 -0.42798536962106742 0 0.43095981599733307 -0.44753658110846528 0 0.44259971868320003 -0.42354137380659601 0 0.43098246877755192 -0.41858878846052949 0 0.43408281430989271 -0.43319973453275151 0 0.43098246877755192 -0.41858878846052949 0 0.43408281430989271 -0.43319973453275151 0 0.42255857874347952 -0.42798536962106742 0 0.42255857874347952 -0.42798536962106742 0 0.43095981599733307 -0.44753658110846528 0 0.41424956646142452 -0.44145335337101582 0 0.43983937115661631 -0.46972557693384148 0 0.42706067288056998 -0.45966910190407051 0 0.41707216494033877 -0.46659444091922031 0 0.43983937115661631 -0.46972557693384148 0 0.43095981599733307 -0.44753658110846528 0 0.42706067288056998 -0.45966910190407051 0 0.43095981599733307 -0.44753658110846528 0 0.42706067288056998 -0.45966910190407051 0 0.42037133942799187 -0.45481980865475502 0 0.42037133942799187 -0.45481980865475502 0 0.41707216494033877 -0.46659444091922031 0 0.40833503012973449 -0.45743341782958391 0 0.42706067288056998 -0.45966910190407051 0 0.42037133942799187 -0.45481980865475502 0 0.41707216494033877 -0.46659444091922031 0 0.41707216494033877 -0.46659444091922031 0 0.40833503012973449 -0.45743341782958391 0 0.39424227281986102 -0.46676003377889269 0 0.43095981599733307 -0.44753658110846528 0 0.42037133942799187 -0.45481980865475502 0 0.41424956646142452 -0.44145335337101582 0 0.42037133942799187 -0.45481980865475502 0 0.40833503012973449 -0.45743341782958391 0 0.41424956646142452 -0.44145335337101582 0 0.39716653888589531 -0.43485585418744782 0 0.40833503012973449 -0.45743341782958391 0 0.41424956646142452 -0.44145335337101582 0 0.39716653888589531 -0.43485585418744782 0 0.39345157537004599 -0.45057062730194619 0 0.38455236834147782 -0.44235831893697952 0 0.39716653888589531 -0.43485585418744782 0 0.40833503012973449 -0.45743341782958391 0 0.39345157537004599 -0.45057062730194619 0 0.39716653888589531 -0.43485585418744782 0 0.40833503012973449 -0.45743341782958391 0 0.39345157537004599 -0.45057062730194619 0 0.38455236834147782 -0.44235831893697952 0 0.38182359321740972 -0.45292134106576409 0 0.38455236834147782 -0.44235831893697952 0 0.38182359321740972 -0.45292134106576409 0 0.37194820352764257 -0.4427018608294464 0 0.37837193070639508 -0.43074191130029282 0 0.38455236834147782 -0.44235831893697952 0 0.37194820352764257 -0.4427018608294464 0 0.38182359321740972 -0.45292134106576409 0 0.39424227281986102 -0.46676003377889269 0 0.37141238069938332 -0.46692562663856529 0 0.39345157537004599 -0.45057062730194619 0 0.38182359321740972 -0.45292134106576409 0 0.39424227281986102 -0.46676003377889269 0 0.39424227281986102 -0.46676003377889269 0 0.37141238069938332 -0.46692562663856529 0 0.40833503012973449 -0.45743341782958391 0 0.39345157537004599 -0.45057062730194619 0 0.39424227281986102 -0.46676003377889269 0 0.41707216494033877 -0.46659444091922031 0 0.39424227281986102 -0.46676003377889269 0 0.41707216494033877 -0.46659444091922031 0 0.39424227281986102 -0.46676003377889269 0 0.40014079662082208 -0.5 0 0.39424227281986102 -0.46676003377889269 0 0.40014079662082208 -0.5 0 0.37141238069938332 -0.46692562663856529 0 0.43983937115661631 -0.46972557693384148 0 0.41707216494033877 -0.46659444091922031 0 0.40014079662082208 -0.5 0 0.40014079662082208 -0.5 0 0.32546065004022617 -0.5 0 0.3462765218470546 -0.48033279556006703 0 0.32546065004022617 -0.5 0 0.3462765218470546 -0.48033279556006703 0 0.30631021868456298 -0.48072311486568892 0 0.3462765218470546 -0.48033279556006703 0 0.32575259645842791 -0.46725681235791028 0 0.30631021868456298 -0.48072311486568892 0 0.3462765218470546 -0.48033279556006703 0 0.3485824885789055 -0.46709121949823779 0 0.32575259645842791 -0.46725681235791028 0 0.40014079662082208 -0.5 0 0.3462765218470546 -0.48033279556006703 0 0.37141238069938332 -0.46692562663856529 0 0.3462765218470546 -0.48033279556006703 0 0.3485824885789055 -0.46709121949823779 0 0.37141238069938332 -0.46692562663856529 0 0.3485824885789055 -0.46709121949823779 0 0.37141238069938332 -0.46692562663856529 0 0.35324569388809701 -0.44989359131069062 0 0.3485824885789055 -0.46709121949823779 0 0.35324569388809701 -0.44989359131069062 0 0.33806214337105372 -0.45777686618061397 0 0.38182359321740972 -0.45292134106576409 0 0.37141238069938332 -0.46692562663856529 0 0.35324569388809701 -0.44989359131069062 0 0.3485824885789055 -0.46709121949823779 0 0.37141238069938332 -0.46692562663856529 0 0.36060935802898147 -0.43906997082244181 0 0.37194820352764257 -0.4427018608294464 0 0.35324569388809701 -0.44989359131069062 0 0.38182359321740972 -0.45292134106576409 0 0.35324569388809701 -0.44989359131069062 0 0.37837193070639508 -0.43074191130029282 0 0.36060935802898147 -0.43906997082244181 0 0.37194820352764257 -0.4427018608294464 0 0.38182359321740972 -0.45292134106576409 0 0.37194820352764257 -0.4427018608294464 0 0.35324569388809701 -0.44989359131069062 0 0.36060935802898147 -0.43906997082244181 0 0.35324569388809701 -0.44989359131069062 0 0.34315104194743368 -0.43483422324315929 0 0.32466779455878442 -0.44686584155561709 0 0.32761501992215097 -0.43116249501185328 0 0.34315104194743368 -0.43483422324315929 0 0.35324569388809701 -0.44989359131069062 0 0.33806214337105372 -0.45777686618061397 0 0.32466779455878442 -0.44686584155561709 0 0.35324569388809701 -0.44989359131069062 0 0.32466779455878442 -0.44686584155561709 0 0.34315104194743368 -0.43483422324315929 0 0.35324569388809701 -0.44989359131069062 0 0.32466779455878442 -0.44686584155561709 0 0.3485824885789055 -0.46709121949823779 0 0.32575259645842791 -0.46725681235791028 0 0.3485824885789055 -0.46709121949823779 0 0.33806214337105372 -0.45777686618061397 0 0.32575259645842791 -0.46725681235791028 0 0.33806214337105372 -0.45777686618061397 0 0.32575259645842791 -0.46725681235791028 0 0.32466779455878442 -0.44686584155561709 0 0.32575259645842791 -0.46725681235791028 0 0.30904716904302271 -0.45792120175055678 0 0.30631021868456298 -0.48072311486568892 0 0.32575259645842791 -0.46725681235791028 0 0.32466779455878442 -0.44686584155561709 0 0.30904716904302271 -0.45792120175055678 0 0.32466779455878442 -0.44686584155561709 0 0.31800868577585262 -0.43516031519895321 0 0.30735360635596409 -0.43632211706289747 0 0.32466779455878442 -0.44686584155561709 0 0.32761501992215097 -0.43116249501185328 0 0.31800868577585262 -0.43516031519895321 0 0.32761501992215097 -0.43116249501185328 0 0.32339131420283213 -0.41656724990055422 0 0.31239832226651099 -0.42629080716544471 0 0.32761501992215097 -0.43116249501185328 0 0.31800868577585262 -0.43516031519895321 0 0.31239832226651099 -0.42629080716544471 0 0.31800868577585262 -0.43516031519895321 0 0.31239832226651099 -0.42629080716544471 0 0.30735360635596409 -0.43632211706289747 0 0.32339131420283213 -0.41656724990055422 0 0.31120060169272079 -0.4133373498197 0 0.31239832226651099 -0.42629080716544471 0 0.32339131420283213 -0.41656724990055422 0 0.319673984964159 -0.40346676889879052 0 0.31120060169272079 -0.4133373498197 0 0.319673984964159 -0.40346676889879052 0 0.30884060304287331 -0.40229515593698711 0 0.31120060169272079 -0.4133373498197 0 0.32339131420283213 -0.41656724990055422 0 0.33281994217864741 -0.40778505865636938 0 0.319673984964159 -0.40346676889879052 0 0.32761501992215097 -0.43116249501185328 0 0.32339131420283213 -0.41656724990055422 0 0.33796042338316851 -0.41787760036937549 0 0.32339131420283213 -0.41656724990055422 0 0.33281994217864741 -0.40778505865636938 0 0.33796042338316851 -0.41787760036937549 0 0.33281994217864741 -0.40778505865636938 0 0.33796042338316851 -0.41787760036937549 0 0.34601675315157321 -0.40486547886918423 0 0.32761501992215097 -0.43116249501185328 0 0.33796042338316851 -0.41787760036937549 0 0.34315104194743368 -0.43483422324315929 0 0.33796042338316851 -0.41787760036937549 0 0.34315104194743368 -0.43483422324315929 0 0.35231855835687692 -0.42655250224024699 0 0.36060935802898147 -0.43906997082244181 0 0.34315104194743368 -0.43483422324315929 0 0.35231855835687692 -0.42655250224024699 0 0.37837193070639508 -0.43074191130029282 0 0.36060935802898147 -0.43906997082244181 0 0.36755341006792419 -0.41442821452601158 0 0.36060935802898147 -0.43906997082244181 0 0.35231855835687692 -0.42655250224024699 0 0.36755341006792419 -0.41442821452601158 0 0.36060935802898147 -0.43906997082244181 0 0.36755341006792419 -0.41442821452601158 0 0.33796042338316851 -0.41787760036937549 0 0.35231855835687692 -0.42655250224024699 0 0.36755341006792419 -0.41442821452601158 0 0.33796042338316851 -0.41787760036937549 0 0.36755341006792419 -0.41442821452601158 0 0.34601675315157321 -0.40486547886918423 0 0.33796042338316851 -0.41787760036937549 0 0.36755341006792419 -0.41442821452601158 0 0.36755341006792419 -0.41442821452601158 0 0.34601675315157321 -0.40486547886918423 0 0.35566250251704978 -0.3975177511027051 0 0.34601675315157321 -0.40486547886918423 0 0.34667365318154342 -0.39629832909528578 0 0.35566250251704978 -0.3975177511027051 0 0.34667365318154342 -0.39629832909528578 0 0.34795812186604658 -0.38666189116531141 0 0.33705723519150399 -0.3961481952439429 0 0.34667365318154342 -0.39629832909528578 0 0.35566250251704978 -0.3975177511027051 0 0.34795812186604658 -0.38666189116531141 0 0.36755341006792419 -0.41442821452601158 0 0.35566250251704978 -0.3975177511027051 0 0.36706103815962848 -0.39187921332532882 0 0.36755341006792419 -0.41442821452601158 0 0.37463337818860382 -0.38930414459710588 0 0.36755341006792419 -0.41442821452601158 0 0.36706103815962848 -0.39187921332532882 0 0.37463337818860382 -0.38930414459710588 0 0.35566250251704978 -0.3975177511027051 0 0.36706103815962848 -0.39187921332532882 0 0.35924801608749379 -0.38543857686598643 0 0.38081427771294768 -0.36737052156009248 0 0.36848073339739068 -0.37517807712711049 0 0.3737028077843495 -0.38742295831448542 0 0.36848073339739068 -0.37517807712711049 0 0.3737028077843495 -0.38742295831448542 0 0.36599997940964812 -0.38379980358563692 0 0.36706103815962848 -0.39187921332532882 0 0.3737028077843495 -0.38742295831448542 0 0.36599997940964812 -0.38379980358563692 0 0.36706103815962848 -0.39187921332532882 0 0.37463337818860382 -0.38930414459710588 0 0.3737028077843495 -0.38742295831448542 0 0.37463337818860382 -0.38930414459710588 0 0.3737028077843495 -0.38742295831448542 0 0.36706103815962848 -0.39187921332532882 0 0.36599997940964812 -0.38379980358563692 0 0.35924801608749379 -0.38543857686598643 0 0.36599997940964812 -0.38379980358563692 0 0.36207090148421361 -0.37959838259465167 0 0.35924801608749379 -0.38543857686598643 0 0.36848073339739068 -0.37517807712711049 0 0.36599997940964812 -0.38379980358563692 0 0.36207090148421361 -0.37959838259465167 0 0.36848073339739068 -0.37517807712711049 0 0.36207090148421361 -0.37959838259465167 0 0.3554566368260581 -0.37480617727887811 0 0.36207090148421361 -0.37959838259465167 0 0.35924801608749379 -0.38543857686598643 0 0.3554566368260581 -0.37480617727887811 0 0.35924801608749379 -0.38543857686598643 0 0.34795812186604658 -0.38666189116531141 0 0.3554566368260581 -0.37480617727887811 0 0.35566250251704978 -0.3975177511027051 0 0.35924801608749379 -0.38543857686598643 0 0.34795812186604658 -0.38666189116531141 0 0.34795812186604658 -0.38666189116531141 0 0.34537995690420659 -0.3737828605913362 0 0.3554566368260581 -0.37480617727887811 0 0.34795812186604658 -0.38666189116531141 0 0.33323562740676532 -0.37769939737979058 0 0.34537995690420659 -0.3737828605913362 0 0.34795812186604658 -0.38666189116531141 0 0.33323562740676532 -0.37769939737979058 0 0.33705723519150399 -0.3961481952439429 0 0.33323562740676532 -0.37769939737979058 0 0.33705723519150399 -0.3961481952439429 0 0.319673984964159 -0.40346676889879052 0 0.33281994217864741 -0.40778505865636938 0 0.33705723519150399 -0.3961481952439429 0 0.319673984964159 -0.40346676889879052 0 0.33281994217864741 -0.40778505865636938 0 0.34601675315157321 -0.40486547886918423 0 0.33705723519150399 -0.3961481952439429 0 0.34601675315157321 -0.40486547886918423 0 0.34667365318154342 -0.39629832909528578 0 0.33705723519150399 -0.3961481952439429 0 0.33323562740676532 -0.37769939737979058 0 0.319673984964159 -0.40346676889879052 0 0.31422368515007948 -0.393427126581603 0 0.319673984964159 -0.40346676889879052 0 0.31422368515007948 -0.393427126581603 0 0.30884060304287331 -0.40229515593698711 0 0.33323562740676532 -0.37769939737979058 0 0.319673984964159 -0.40346676889879052 0 0.31422368515007948 -0.393427126581603 0 0.30591552541026101 -0.37751124227982003 0 0.32002671755222051 -0.36641101040373808 0 0.33323562740676532 -0.37769939737979058 0 0.31422368515007948 -0.393427126581603 0 0.32002671755222051 -0.36641101040373808 0 0.31422368515007948 -0.393427126581603 0 0.32002671755222051 -0.36641101040373808 0 0.30591552541026101 -0.37751124227982003 0 0.29934269892459558 -0.39453707190143028 0 0.28871394442674109 -0.38265385864092483 0 0.31422368515007948 -0.393427126581603 0 0.30591552541026101 -0.37751124227982003 0 0.29934269892459558 -0.39453707190143028 0 0.31422368515007948 -0.393427126581603 0 0.30884060304287331 -0.40229515593698711 0 0.29934269892459558 -0.39453707190143028 0 0.30884060304287331 -0.40229515593698711 0 0.29934269892459558 -0.39453707190143028 0 0.29896657827583012 -0.40866065312134409 0 0.28871394442674109 -0.38265385864092483 0 0.27786210523133942 -0.40981541802129928 0 0.29934269892459558 -0.39453707190143028 0 0.27786210523133942 -0.40981541802129928 0 0.29896657827583012 -0.40866065312134409 0 0.29934269892459558 -0.39453707190143028 0 0.28871394442674109 -0.38265385864092483 0 0.27786210523133942 -0.40981541802129928 0 0.28871394442674109 -0.38265385864092483 0 0.26416245427686541 -0.38049931320234009 0 0.26125098829365018 -0.39969694482297641 0 0.28871394442674109 -0.38265385864092483 0 0.26416245427686541 -0.38049931320234009 0 0.27571190406721402 -0.36345127203525351 0 0.26416245427686541 -0.38049931320234009 0 0.24971336314328341 -0.36520417674804972 0 0.24502858373403441 -0.39146921073642488 0 0.26416245427686541 -0.38049931320234009 0 0.26125098829365018 -0.39969694482297641 0 0.24502858373403441 -0.39146921073642488 0 0.28871394442674109 -0.38265385864092483 0 0.26125098829365018 -0.39969694482297641 0 0.27786210523133942 -0.40981541802129928 0 0.26125098829365018 -0.39969694482297641 0 0.25610826383841628 -0.42120346698794331 0 0.2333640889907381 -0.41241884790723538 0 0.26125098829365018 -0.39969694482297641 0 0.27786210523133942 -0.40981541802129928 0 0.25610826383841628 -0.42120346698794331 0 0.25610826383841628 -0.42120346698794331 0 0.26701026603593758 -0.43697697740167368 0 0.2518592606704963 -0.43815060111373921 0 0.27786210523133942 -0.40981541802129928 0 0.26701026603593758 -0.43697697740167368 0 0.28078102790119369 -0.4274552938509788 0 0.27786210523133942 -0.40981541802129928 0 0.26701026603593758 -0.43697697740167368 0 0.27786210523133942 -0.40981541802129928 0 0.25610826383841628 -0.42120346698794331 0 0.26701026603593758 -0.43697697740167368 0 0.26701026603593758 -0.43697697740167368 0 0.28078102790119369 -0.4274552938509788 0 0.27712236562531017 -0.4375193999175232 0 0.28078102790119369 -0.4274552938509788 0 0.28865243891263809 -0.43215364344327012 0 0.27712236562531017 -0.4375193999175232 0 0.28865243891263809 -0.43215364344327012 0 0.28959476197880307 -0.44168956347039928 0 0.27712236562531017 -0.4375193999175232 0 0.28865243891263809 -0.43215364344327012 0 0.29503220707493127 -0.43614369036708622 0 0.29829711678041942 -0.42866378264525379 0 0.28865243891263809 -0.43215364344327012 0 0.29503220707493127 -0.43614369036708622 0 0.28959476197880307 -0.44168956347039928 0 0.28865243891263809 -0.43215364344327012 0 0.29108715411517122 -0.42145013040837909 0 0.29829711678041942 -0.42866378264525379 0 0.28078102790119369 -0.4274552938509788 0 0.28865243891263809 -0.43215364344327012 0 0.29108715411517122 -0.42145013040837909 0 0.27786210523133942 -0.40981541802129928 0 0.28078102790119369 -0.4274552938509788 0 0.29108715411517122 -0.42145013040837909 0 0.27786210523133942 -0.40981541802129928 0 0.29108715411517122 -0.42145013040837909 0 0.29896657827583012 -0.40866065312134409 0 0.29108715411517122 -0.42145013040837909 0 0.30377653118007591 -0.4205559058691733 0 0.29896657827583012 -0.40866065312134409 0 0.30377653118007591 -0.4205559058691733 0 0.29896657827583012 -0.40866065312134409 0 0.31120060169272079 -0.4133373498197 0 0.30884060304287331 -0.40229515593698711 0 0.29896657827583012 -0.40866065312134409 0 0.31120060169272079 -0.4133373498197 0 0.30377653118007591 -0.4205559058691733 0 0.31120060169272079 -0.4133373498197 0 0.31239832226651099 -0.42629080716544471 0 0.30377653118007591 -0.4205559058691733 0 0.31239832226651099 -0.42629080716544471 0 0.29829711678041942 -0.42866378264525379 0 0.31239832226651099 -0.42629080716544471 0 0.30735360635596409 -0.43632211706289747 0 0.29829711678041942 -0.42866378264525379 0 0.29503220707493127 -0.43614369036708622 0 0.30735360635596409 -0.43632211706289747 0 0.29829711678041942 -0.42866378264525379 0 0.29108715411517122 -0.42145013040837909 0 0.30377653118007591 -0.4205559058691733 0 0.29829711678041942 -0.42866378264525379 0 0.32466779455878442 -0.44686584155561709 0 0.30904716904302271 -0.45792120175055678 0 0.29608989522947149 -0.44383809180054362 0 0.32466779455878442 -0.44686584155561709 0 0.29608989522947149 -0.44383809180054362 0 0.32466779455878442 -0.44686584155561709 0 0.30735360635596409 -0.43632211706289747 0 0.29608989522947149 -0.44383809180054362 0 0.30904716904302271 -0.45792120175055678 0 0.29860320416278402 -0.45529674645956592 0 0.29608989522947149 -0.44383809180054362 0 0.29503220707493127 -0.43614369036708622 0 0.30735360635596409 -0.43632211706289747 0 0.29608989522947149 -0.44383809180054362 0 0.30904716904302271 -0.45792120175055678 0 0.29721119201091789 -0.46522563712477349 0 0.30631021868456298 -0.48072311486568892 0 0.30904716904302271 -0.45792120175055678 0 0.29721119201091789 -0.46522563712477349 0 0.29860320416278402 -0.45529674645956592 0 0.28932919617959602 -0.45338424297023883 0 0.27756010650442758 -0.45518222858252849 0 0.28072062580449653 -0.47155582870540619 0 0.29721119201091789 -0.46522563712477349 0 0.28932919617959602 -0.45338424297023883 0 0.28072062580449653 -0.47155582870540619 0 0.29721119201091789 -0.46522563712477349 0 0.29860320416278402 -0.45529674645956592 0 0.28932919617959602 -0.45338424297023883 0 0.28932919617959602 -0.45338424297023883 0 0.28959476197880307 -0.44168956347039928 0 0.27756010650442758 -0.45518222858252849 0 0.29860320416278402 -0.45529674645956592 0 0.28932919617959602 -0.45338424297023883 0 0.29608989522947149 -0.44383809180054362 0 0.28932919617959602 -0.45338424297023883 0 0.29608989522947149 -0.44383809180054362 0 0.28959476197880307 -0.44168956347039928 0 0.29503220707493127 -0.43614369036708622 0 0.29608989522947149 -0.44383809180054362 0 0.28959476197880307 -0.44168956347039928 0 0.28959476197880307 -0.44168956347039928 0 0.26138620688844749 -0.44792543592233808 0 0.26701026603593758 -0.43697697740167368 0 0.27712236562531017 -0.4375193999175232 0 0.26138620688844749 -0.44792543592233808 0 0.28959476197880307 -0.44168956347039928 0 0.26138620688844749 -0.44792543592233808 0 0.27756010650442758 -0.45518222858252849 0 0.28959476197880307 -0.44168956347039928 0 0.27712236562531017 -0.4375193999175232 0 0.26138620688844749 -0.44792543592233808 0 0.26701026603593758 -0.43697697740167368 0 0.26138620688844749 -0.44792543592233808 0 0.2518592606704963 -0.43815060111373921 0 0.26138620688844749 -0.44792543592233808 0 0.26339579246569877 -0.46312143350125029 0 0.23317765179809191 -0.45416130837427687 0 0.26138620688844749 -0.44792543592233808 0 0.26339579246569877 -0.46312143350125029 0 0.27756010650442758 -0.45518222858252849 0 0.26339579246569877 -0.46312143350125029 0 0.27756010650442758 -0.45518222858252849 0 0.28072062580449653 -0.47155582870540619 0 0.28072062580449653 -0.47155582870540619 0 0.2532296876789632 -0.47497352743918242 0 0.27004646425256568 -0.5 0 0.26339579246569877 -0.46312143350125029 0 0.28072062580449653 -0.47155582870540619 0 0.2532296876789632 -0.47497352743918242 0 0.32546065004022617 -0.5 0 0.27004646425256568 -0.5 0 0.30631021868456298 -0.48072311486568892 0 0.28072062580449653 -0.47155582870540619 0 0.27004646425256568 -0.5 0 0.30631021868456298 -0.48072311486568892 0 0.29721119201091789 -0.46522563712477349 0 0.28072062580449653 -0.47155582870540619 0 0.30631021868456298 -0.48072311486568892 0 0.33743581475864359 -0.28536266187014298 0 0.3388307833371127 -0.27886836189579028 0 0.34706744656536048 -0.28007479224216619 0 0.33743581475864359 -0.28536266187014298 0 0.3388307833371127 -0.27886836189579028 0 0.33743581475864359 -0.28536266187014298 0 0.33163278235650262 -0.31237877804800812 0 0.33743581475864359 -0.28536266187014298 0 0.33163278235650262 -0.31237877804800812 0 0.34308905326158867 -0.30070827197480321 0 0.33743581475864359 -0.28536266187014298 0 0.33163278235650262 -0.31237877804800812 0 0.32364365619397351 -0.29600562892690968 0 0.33163278235650262 -0.31237877804800812 0 0.32364365619397351 -0.29600562892690968 0 0.30954970221622308 -0.30462347215273478 0 0.31296692944630888 -0.29314018565426941 0 0.32364365619397351 -0.29600562892690968 0 0.30954970221622308 -0.30462347215273478 0 0.31296692944630888 -0.29314018565426941 0 0.32364365619397351 -0.29600562892690968 0 0.31569414790308259 -0.28159305760617132 0 0.33743581475864359 -0.28536266187014298 0 0.32364365619397351 -0.29600562892690968 0 0.31569414790308259 -0.28159305760617132 0 0.33743581475864359 -0.28536266187014298 0 0.31569414790308259 -0.28159305760617132 0 0.33743581475864359 -0.28536266187014298 0 0.31569414790308259 -0.28159305760617132 0 0.32852563272885182 -0.27784073863383552 0 0.31569414790308259 -0.28159305760617132 0 0.31275786215232049 -0.27168837282467972 0 0.32066228436037369 -0.27402337931129878 0 0.31275786215232049 -0.27168837282467972 0 0.32001527731196461 -0.26686042829596718 0 0.31054181011664339 -0.26140137874582919 0 0.31275786215232049 -0.27168837282467972 0 0.32001527731196461 -0.26686042829596718 0 0.32066228436037369 -0.27402337931129878 0 0.32001527731196461 -0.26686042829596718 0 0.32631850170564902 -0.27213429919584042 0 0.32066228436037369 -0.27402337931129878 0 0.32001527731196461 -0.26686042829596718 0 0.32631850170564902 -0.27213429919584042 0 0.32861545200372733 -0.26431566092564712 0 0.32631850170564902 -0.27213429919584042 0 0.32066228436037369 -0.27402337931129878 0 0.32852563272885182 -0.27784073863383552 0 0.31569414790308259 -0.28159305760617132 0 0.32066228436037369 -0.27402337931129878 0 0.32852563272885182 -0.27784073863383552 0 0.30517917142926537 -0.24716040808135001 0 0.322544075342931 -0.25649048942400782 0 0.31054181011664339 -0.26140137874582919 0 0.32001527731196461 -0.26686042829596718 0 0.322544075342931 -0.25649048942400782 0 0.31054181011664339 -0.26140137874582919 0 0.32001527731196461 -0.26686042829596718 0 0.322544075342931 -0.25649048942400782 0 0.32861545200372733 -0.26431566092564712 0 0.322544075342931 -0.25649048942400782 0 0.32861545200372733 -0.26431566092564712 0 0.33700232267718733 -0.25494009872172468 0 0.32861545200372733 -0.26431566092564712 0 0.33700232267718733 -0.25494009872172468 0 0.3370936559567923 -0.26597622971595652 0 0.33700232267718733 -0.25494009872172468 0 0.3370936559567923 -0.26597622971595652 0 0.34612034525793539 -0.26165354425485998 0 0.32852563272885182 -0.27784073863383552 0 0.33374486488877292 -0.2728357791174113 0 0.3388307833371127 -0.27886836189579028 0 0.33743581475864359 -0.28536266187014298 0 0.32852563272885182 -0.27784073863383552 0 0.3388307833371127 -0.27886836189579028 0 0.32631850170564902 -0.27213429919584042 0 0.32852563272885182 -0.27784073863383552 0 0.33374486488877292 -0.2728357791174113 0 0.32631850170564902 -0.27213429919584042 0 0.32861545200372733 -0.26431566092564712 0 0.33374486488877292 -0.2728357791174113 0 0.32861545200372733 -0.26431566092564712 0 0.33374486488877292 -0.2728357791174113 0 0.3370936559567923 -0.26597622971595652 0 0.34349817463331772 -0.27223575233246988 0 0.3370936559567923 -0.26597622971595652 0 0.34612034525793539 -0.26165354425485998 0 0.33374486488877292 -0.2728357791174113 0 0.34349817463331772 -0.27223575233246988 0 0.3370936559567923 -0.26597622971595652 0 0.33374486488877292 -0.2728357791174113 0 0.34349817463331772 -0.27223575233246988 0 0.3388307833371127 -0.27886836189579028 0 0.34349817463331772 -0.27223575233246988 0 0.3388307833371127 -0.27886836189579028 0 0.34706744656536048 -0.28007479224216619 0 0.34349817463331772 -0.27223575233246988 0 0.34706744656536048 -0.28007479224216619 0 0.35711558672006172 -0.27354793744083078 0 0.34349817463331772 -0.27223575233246988 0 0.35711558672006172 -0.27354793744083078 0 0.34612034525793539 -0.26165354425485998 0 0.34706744656536048 -0.28007479224216619 0 0.35711558672006172 -0.27354793744083078 0 0.35357832102308678 -0.28816147489813743 0 0.35007299243335749 -0.24785688602667111 0 0.33700232267718733 -0.25494009872172468 0 0.34612034525793539 -0.26165354425485998 0 0.35711558672006172 -0.27354793744083078 0 0.34612034525793539 -0.26165354425485998 0 0.36124693131331159 -0.25807728632712912 0 0.35007299243335749 -0.24785688602667111 0 0.34612034525793539 -0.26165354425485998 0 0.36124693131331159 -0.25807728632712912 0 0.37764450162479901 -0.26965755496232408 0 0.37510228513818711 -0.25237727586059511 0 0.36124693131331159 -0.25807728632712912 0 0.36225179838031341 -0.2439392928582107 0 0.37510228513818711 -0.25237727586059511 0 0.36124693131331159 -0.25807728632712912 0 0.37764450162479901 -0.26965755496232408 0 0.35711558672006172 -0.27354793744083078 0 0.36124693131331159 -0.25807728632712912 0 0.37764450162479901 -0.26965755496232408 0 0.35711558672006172 -0.27354793744083078 0 0.36873774536035581 -0.28861226174546889 0 0.36873774536035581 -0.28861226174546889 0 0.35357832102308678 -0.28816147489813743 0 0.36087634202934032 -0.30211297570133377 0 0.35711558672006172 -0.27354793744083078 0 0.36873774536035581 -0.28861226174546889 0 0.35357832102308678 -0.28816147489813743 0 0.33743581475864359 -0.28536266187014298 0 0.35357832102308678 -0.28816147489813743 0 0.33743581475864359 -0.28536266187014298 0 0.34706744656536048 -0.28007479224216619 0 0.35357832102308678 -0.28816147489813743 0 0.33743581475864359 -0.28536266187014298 0 0.34308905326158867 -0.30070827197480321 0 0.35357832102308678 -0.28816147489813743 0 0.34308905326158867 -0.30070827197480321 0 0.36087634202934032 -0.30211297570133377 0 0.3603589122919777 -0.32616465434179109 0 0.34308905326158867 -0.30070827197480321 0 0.35357832102308678 -0.28816147489813743 0 0.36087634202934032 -0.30211297570133377 0 0.37861767820969228 -0.30691821554646831 0 0.36873774536035581 -0.28861226174546889 0 0.36087634202934032 -0.30211297570133377 0 0.37861767820969228 -0.30691821554646831 0 0.36087634202934032 -0.30211297570133377 0 0.3603589122919777 -0.32616465434179109 0 0.37858644206980091 -0.32769985780377792 0 0.37861767820969228 -0.30691821554646831 0 0.3603589122919777 -0.32616465434179109 0 0.37858644206980091 -0.32769985780377792 0 0.3603589122919777 -0.32616465434179109 0 0.36805061276354478 -0.3427907498460791 0 0.3603589122919777 -0.32616465434179109 0 0.34679726984937148 -0.35193202586079081 0 0.3603589122919777 -0.32616465434179109 0 0.34679726984937148 -0.35193202586079081 0 0.3423644242317993 -0.33453707324987059 0 0.3603589122919777 -0.32616465434179109 0 0.36805061276354478 -0.3427907498460791 0 0.34679726984937148 -0.35193202586079081 0 0.33163278235650262 -0.31237877804800812 0 0.34308905326158867 -0.30070827197480321 0 0.3603589122919777 -0.32616465434179109 0 0.33163278235650262 -0.31237877804800812 0 0.3603589122919777 -0.32616465434179109 0 0.3423644242317993 -0.33453707324987059 0 0.37640125955739012 -0.35149107478397351 0 0.38081427771294768 -0.36737052156009248 0 0.36600013168445039 -0.36059477107615401 0 0.36848073339739068 -0.37517807712711049 0 0.36600013168445039 -0.36059477107615401 0 0.3554566368260581 -0.37480617727887811 0 0.38081427771294768 -0.36737052156009248 0 0.36848073339739068 -0.37517807712711049 0 0.36600013168445039 -0.36059477107615401 0 0.36805061276354478 -0.3427907498460791 0 0.36600013168445039 -0.36059477107615401 0 0.34679726984937148 -0.35193202586079081 0 0.37640125955739012 -0.35149107478397351 0 0.36805061276354478 -0.3427907498460791 0 0.36600013168445039 -0.36059477107615401 0 0.36600013168445039 -0.36059477107615401 0 0.34679726984937148 -0.35193202586079081 0 0.3554566368260581 -0.37480617727887811 0 0.34679726984937148 -0.35193202586079081 0 0.34537995690420659 -0.3737828605913362 0 0.3554566368260581 -0.37480617727887811 0 0.33323562740676532 -0.37769939737979058 0 0.33171275220581908 -0.35441984147836231 0 0.32002671755222051 -0.36641101040373808 0 0.33323562740676532 -0.37769939737979058 0 0.34679726984937148 -0.35193202586079081 0 0.33323562740676532 -0.37769939737979058 0 0.34679726984937148 -0.35193202586079081 0 0.34537995690420659 -0.3737828605913362 0 0.33323562740676532 -0.37769939737979058 0 0.34679726984937148 -0.35193202586079081 0 0.33171275220581908 -0.35441984147836231 0 0.34679726984937148 -0.35193202586079081 0 0.33171275220581908 -0.35441984147836231 0 0.3423644242317993 -0.33453707324987059 0 0.33171275220581908 -0.35441984147836231 0 0.32002671755222051 -0.36641101040373808 0 0.32582974995436148 -0.33939489422587321 0 0.32002671755222051 -0.36641101040373808 0 0.32582974995436148 -0.33939489422587321 0 0.31500009593534162 -0.35119999692538878 0 0.32002671755222051 -0.36641101040373808 0 0.32582974995436148 -0.33939489422587321 0 0.33163278235650262 -0.31237877804800812 0 0.32582974995436148 -0.33939489422587321 0 0.33163278235650262 -0.31237877804800812 0 0.3423644242317993 -0.33453707324987059 0 0.32582974995436148 -0.33939489422587321 0 0.33171275220581908 -0.35441984147836231 0 0.3423644242317993 -0.33453707324987059 0 0.32582974995436148 -0.33939489422587321 0 0.31500009593534162 -0.35119999692538878 0 0.32582974995436148 -0.33939489422587321 0 0.31041762281754448 -0.32833073988017608 0 0.33163278235650262 -0.31237877804800812 0 0.32582974995436148 -0.33939489422587321 0 0.31041762281754448 -0.32833073988017608 0 0.33163278235650262 -0.31237877804800812 0 0.31041762281754448 -0.32833073988017608 0 0.30954970221622308 -0.30462347215273478 0 0.31041762281754448 -0.32833073988017608 0 0.29592063247569211 -0.31558436997640987 0 0.30954970221622308 -0.30462347215273478 0 0.31041762281754448 -0.32833073988017608 0 0.29132656616613523 -0.33188180257029998 0 0.29592063247569211 -0.31558436997640987 0 0.31041762281754448 -0.32833073988017608 0 0.29132656616613523 -0.33188180257029998 0 0.29956578362214281 -0.35549229926055048 0 0.31041762281754448 -0.32833073988017608 0 0.29956578362214281 -0.35549229926055048 0 0.29132656616613523 -0.33188180257029998 0 0.28219501787468609 -0.34702129220438421 0 0.27282035448602859 -0.33554085100614839 0 0.29132656616613523 -0.33188180257029998 0 0.29592063247569211 -0.31558436997640987 0 0.27986439667319313 -0.31630171845149863 0 0.29132656616613523 -0.33188180257029998 0 0.27986439667319313 -0.31630171845149863 0 0.27282035448602859 -0.33554085100614839 0 0.30591552541026101 -0.37751124227982003 0 0.28871394442674109 -0.38265385864092483 0 0.29956578362214281 -0.35549229926055048 0 0.30591552541026101 -0.37751124227982003 0 0.32002671755222051 -0.36641101040373808 0 0.29956578362214281 -0.35549229926055048 0 0.31500009593534162 -0.35119999692538878 0 0.32002671755222051 -0.36641101040373808 0 0.29956578362214281 -0.35549229926055048 0 0.31500009593534162 -0.35119999692538878 0 0.31041762281754448 -0.32833073988017608 0 0.29956578362214281 -0.35549229926055048 0 0.29956578362214281 -0.35549229926055048 0 0.28219501787468609 -0.34702129220438421 0 0.27571190406721402 -0.36345127203525351 0 0.29132656616613523 -0.33188180257029998 0 0.29956578362214281 -0.35549229926055048 0 0.28219501787468609 -0.34702129220438421 0 0.28871394442674109 -0.38265385864092483 0 0.29956578362214281 -0.35549229926055048 0 0.27571190406721402 -0.36345127203525351 0 0.28871394442674109 -0.38265385864092483 0 0.29956578362214281 -0.35549229926055048 0 0.28219501787468609 -0.34702129220438421 0 0.27571190406721402 -0.36345127203525351 0 0.2669677564247489 -0.35003134695070198 0 0.28219501787468609 -0.34702129220438421 0 0.2669677564247489 -0.35003134695070198 0 0.27282035448602859 -0.33554085100614839 0 0.2669677564247489 -0.35003134695070198 0 0.2543981425525324 -0.33893914275967452 0 0.24971336314328341 -0.36520417674804972 0 0.2543981425525324 -0.33893914275967452 0 0.24971336314328341 -0.36520417674804972 0 0.26416245427686541 -0.38049931320234009 0 0.27571190406721402 -0.36345127203525351 0 0.24971336314328341 -0.36520417674804972 0 0.27571190406721402 -0.36345127203525351 0 0.2669677564247489 -0.35003134695070198 0 0.24971336314328341 -0.36520417674804972 0 0.27986439667319313 -0.31630171845149863 0 0.27282035448602859 -0.33554085100614839 0 0.27986439667319313 -0.31630171845149863 0 0.27282035448602859 -0.33554085100614839 0 0.2590829219617814 -0.31267410877129931 0 0.2669677564247489 -0.35003134695070198 0 0.27282035448602859 -0.33554085100614839 0 0.2543981425525324 -0.33893914275967452 0 0.27282035448602859 -0.33554085100614839 0 0.2543981425525324 -0.33893914275967452 0 0.2590829219617814 -0.31267410877129931 0 0.2543981425525324 -0.33893914275967452 0 0.2590829219617814 -0.31267410877129931 0 0.24087195768162309 -0.32614810142562012 0 0.2543981425525324 -0.33893914275967452 0 0.2590829219617814 -0.31267410877129931 0 0.2590829219617814 -0.31267410877129931 0 0.26376770137103039 -0.2864090747829241 0 0.27385105082646688 -0.29718155094811333 0 0.2590829219617814 -0.31267410877129931 0 0.26376770137103039 -0.2864090747829241 0 0.24821325608307901 -0.29522124281265988 0 0.2590829219617814 -0.31267410877129931 0 0.26376770137103039 -0.2864090747829241 0 0.26376770137103039 -0.2864090747829241 0 0.24785603391849151 -0.27709942466880599 0 0.24821325608307901 -0.29522124281265988 0 0.26376770137103039 -0.2864090747829241 0 0.27275834958840189 -0.28372268528309152 0 0.2724225943816766 -0.27409056785933389 0 0.26376770137103039 -0.2864090747829241 0 0.27275834958840189 -0.28372268528309152 0 0.27385105082646688 -0.29718155094811333 0 0.28072449650403741 -0.28691913250301798 0 0.27385105082646688 -0.29718155094811333 0 0.2869084388603575 -0.29706258589684881 0 0.27275834958840189 -0.28372268528309152 0 0.28072449650403741 -0.28691913250301798 0 0.27385105082646688 -0.29718155094811333 0 0.27275834958840189 -0.28372268528309152 0 0.28072449650403741 -0.28691913250301798 0 0.27996448038040939 -0.28063895974691061 0 0.27986439667319313 -0.31630171845149863 0 0.2590829219617814 -0.31267410877129931 0 0.27385105082646688 -0.29718155094811333 0 0.27986439667319313 -0.31630171845149863 0 0.27385105082646688 -0.29718155094811333 0 0.2869084388603575 -0.29706258589684881 0 0.27986439667319313 -0.31630171845149863 0 0.2869084388603575 -0.29706258589684881 0 0.29592063247569211 -0.31558436997640987 0 0.27986439667319313 -0.31630171845149863 0 0.2869084388603575 -0.29706258589684881 0 0.2869084388603575 -0.29706258589684881 0 0.30298021147195658 -0.29033858393126172 0 0.29395248104752192 -0.27782345334219888 0 0.28072449650403741 -0.28691913250301798 0 0.2869084388603575 -0.29706258589684881 0 0.29395248104752192 -0.27782345334219888 0 0.2869084388603575 -0.29706258589684881 0 0.29395248104752192 -0.27782345334219888 0 0.28072449650403741 -0.28691913250301798 0 0.29395248104752192 -0.27782345334219888 0 0.27996448038040939 -0.28063895974691061 0 0.31569414790308259 -0.28159305760617132 0 0.30298021147195658 -0.29033858393126172 0 0.29395248104752192 -0.27782345334219888 0 0.31296692944630888 -0.29314018565426941 0 0.31569414790308259 -0.28159305760617132 0 0.30298021147195658 -0.29033858393126172 0 0.31296692944630888 -0.29314018565426941 0 0.30298021147195658 -0.29033858393126172 0 0.30954970221622308 -0.30462347215273478 0 0.2869084388603575 -0.29706258589684881 0 0.30298021147195658 -0.29033858393126172 0 0.30954970221622308 -0.30462347215273478 0 0.29592063247569211 -0.31558436997640987 0 0.2869084388603575 -0.29706258589684881 0 0.30954970221622308 -0.30462347215273478 0 0.30517917142926537 -0.24716040808135001 0 0.31054181011664339 -0.26140137874582919 0 0.2976408850071105 -0.26774945168120262 0 0.30517917142926537 -0.24716040808135001 0 0.2976408850071105 -0.26774945168120262 0 0.31275786215232049 -0.27168837282467972 0 0.2976408850071105 -0.26774945168120262 0 0.29395248104752192 -0.27782345334219888 0 0.31275786215232049 -0.27168837282467972 0 0.2976408850071105 -0.26774945168120262 0 0.31275786215232049 -0.27168837282467972 0 0.31054181011664339 -0.26140137874582919 0 0.2976408850071105 -0.26774945168120262 0 0.31569414790308259 -0.28159305760617132 0 0.29395248104752192 -0.27782345334219888 0 0.31569414790308259 -0.28159305760617132 0 0.31275786215232049 -0.27168837282467972 0 0.29395248104752192 -0.27782345334219888 0 0.2976408850071105 -0.26774945168120262 0 0.28600938745522969 -0.26471871668720698 0 0.2976408850071105 -0.26774945168120262 0 0.29395248104752192 -0.27782345334219888 0 0.29395248104752192 -0.27782345334219888 0 0.27996448038040939 -0.28063895974691061 0 0.2724225943816766 -0.27409056785933389 0 0.29395248104752192 -0.27782345334219888 0 0.28600938745522969 -0.26471871668720698 0 0.27658132089261911 -0.27335422882897692 0 0.2976408850071105 -0.26774945168120262 0 0.29395248104752192 -0.27782345334219888 0 0.28600938745522969 -0.26471871668720698 0 0.29395248104752192 -0.27782345334219888 0 0.2724225943816766 -0.27409056785933389 0 0.28600938745522969 -0.26471871668720698 0 0.27658132089261911 -0.27335422882897692 0 0.30517917142926537 -0.24716040808135001 0 0.28600938745522969 -0.26471871668720698 0 0.30517917142926537 -0.24716040808135001 0 0.2976408850071105 -0.26774945168120262 0 0.28600938745522969 -0.26471871668720698 0 0.30517917142926537 -0.24716040808135001 0 0.28765229627979871 -0.24304032400626949 0 0.28600938745522969 -0.26471871668720698 0 0.28600938745522969 -0.26471871668720698 0 0.26845248078028039 -0.26014404079454911 0 0.28765229627979871 -0.24304032400626949 0 0.28600938745522969 -0.26471871668720698 0 0.26845248078028039 -0.26014404079454911 0 0.26376770137103039 -0.2864090747829241 0 0.26845248078028039 -0.26014404079454911 0 0.2724225943816766 -0.27409056785933389 0 0.28600938745522969 -0.26471871668720698 0 0.26845248078028039 -0.26014404079454911 0 0.27658132089261911 -0.27335422882897692 0 0.26376770137103039 -0.2864090747829241 0 0.26845248078028039 -0.26014404079454911 0 0.29395248104752192 -0.27782345334219888 0 0.27658132089261911 -0.27335422882897692 0 0.2724225943816766 -0.27409056785933389 0 0.27275834958840189 -0.28372268528309152 0 0.27996448038040939 -0.28063895974691061 0 0.2724225943816766 -0.27409056785933389 0 0.26845248078028039 -0.26014404079454911 0 0.27658132089261911 -0.27335422882897692 0 0.2724225943816766 -0.27409056785933389 0 0.26376770137103039 -0.2864090747829241 0 0.26845248078028039 -0.26014404079454911 0 0.24785603391849151 -0.27709942466880599 0 0.26845248078028039 -0.26014404079454911 0 0.2410490216361528 -0.25300372010805161 0 0.26845248078028039 -0.26014404079454911 0 0.2410490216361528 -0.25300372010805161 0 0.24785603391849151 -0.27709942466880599 0 0.25787859859726192 -0.24372773219337371 0 0.26845248078028039 -0.26014404079454911 0 0.2410490216361528 -0.25300372010805161 0 0.2410490216361528 -0.25300372010805161 0 0.24785603391849151 -0.27709942466880599 0 0.23139485578507429 -0.27647983237136509 0 0.23139485578507429 -0.27647983237136509 0 0.2171028506536257 -0.26700629366950379 0 0.21674952071488601 -0.28686299221921707 0 0.2410490216361528 -0.25300372010805161 0 0.23139485578507429 -0.27647983237136509 0 0.2171028506536257 -0.26700629366950379 0 0.2410490216361528 -0.25300372010805161 0 0.2171028506536257 -0.26700629366950379 0 0.2136455624920251 -0.24586339942155419 0 0.2171028506536257 -0.26700629366950379 0 0.1960217485778272 -0.26205501631648559 0 0.2136455624920251 -0.24586339942155419 0 0.2171028506536257 -0.26700629366950379 0 0.2037572178097509 -0.27803645254629672 0 0.1960217485778272 -0.26205501631648559 0 0.2171028506536257 -0.26700629366950379 0 0.2037572178097509 -0.27803645254629672 0 0.21674952071488601 -0.28686299221921707 0 0.2037572178097509 -0.27803645254629672 0 0.1960217485778272 -0.26205501631648559 0 0.18672217274589489 -0.28463667424064248 0 0.1960217485778272 -0.26205501631648559 0 0.2136455624920251 -0.24586339942155419 0 0.1970165427207646 -0.2431475676051908 0 0.1960217485778272 -0.26205501631648559 0 0.1970165427207646 -0.2431475676051908 0 0.18013525364959199 -0.24590787480667409 0 0.19163287831415901 -0.30538761534618902 0 0.20219697373587131 -0.29192032270869461 0 0.2153952098199983 -0.30425933719731207 0 0.2037572178097509 -0.27803645254629672 0 0.20219697373587131 -0.29192032270869461 0 0.18672217274589489 -0.28463667424064248 0 0.19163287831415901 -0.30538761534618902 0 0.20219697373587131 -0.29192032270869461 0 0.18672217274589489 -0.28463667424064248 0 0.20219697373587131 -0.29192032270869461 0 0.21674952071488601 -0.28686299221921707 0 0.2153952098199983 -0.30425933719731207 0 0.2037572178097509 -0.27803645254629672 0 0.20219697373587131 -0.29192032270869461 0 0.21674952071488601 -0.28686299221921707 0 0.19163287831415901 -0.30538761534618902 0 0.2153952098199983 -0.30425933719731207 0 0.20381788977078771 -0.32236963909420019 0 0.2153952098199983 -0.30425933719731207 0 0.2333373149176502 -0.29099433783704243 0 0.2370223082464416 -0.30892926800322767 0 0.2153952098199983 -0.30425933719731207 0 0.2370223082464416 -0.30892926800322767 0 0.22300958304019269 -0.32335118517261402 0 0.21674952071488601 -0.28686299221921707 0 0.2153952098199983 -0.30425933719731207 0 0.2333373149176502 -0.29099433783704243 0 0.23139485578507429 -0.27647983237136509 0 0.21674952071488601 -0.28686299221921707 0 0.2333373149176502 -0.29099433783704243 0 0.24785603391849151 -0.27709942466880599 0 0.2333373149176502 -0.29099433783704243 0 0.24821325608307901 -0.29522124281265988 0 0.24785603391849151 -0.27709942466880599 0 0.23139485578507429 -0.27647983237136509 0 0.2333373149176502 -0.29099433783704243 0 0.2333373149176502 -0.29099433783704243 0 0.24821325608307901 -0.29522124281265988 0 0.2370223082464416 -0.30892926800322767 0 0.2590829219617814 -0.31267410877129931 0 0.24821325608307901 -0.29522124281265988 0 0.2370223082464416 -0.30892926800322767 0 0.2590829219617814 -0.31267410877129931 0 0.2370223082464416 -0.30892926800322767 0 0.24087195768162309 -0.32614810142562012 0 0.2543981425525324 -0.33893914275967452 0 0.24087195768162309 -0.32614810142562012 0 0.2308468326071676 -0.34684680242128502 0 0.24087195768162309 -0.32614810142562012 0 0.22300958304019269 -0.32335118517261402 0 0.2308468326071676 -0.34684680242128502 0 0.22300958304019269 -0.32335118517261402 0 0.2308468326071676 -0.34684680242128502 0 0.21275128108028149 -0.33749920242868869 0 0.2370223082464416 -0.30892926800322767 0 0.24087195768162309 -0.32614810142562012 0 0.22300958304019269 -0.32335118517261402 0 0.24971336314328341 -0.36520417674804972 0 0.2308468326071676 -0.34684680242128502 0 0.229200177642885 -0.36995291413531828 0 0.2543981425525324 -0.33893914275967452 0 0.24971336314328341 -0.36520417674804972 0 0.2308468326071676 -0.34684680242128502 0 0.229200177642885 -0.36995291413531828 0 0.20725651587090471 -0.36571099534901208 0 0.22031030243082139 -0.38906492162812378 0 0.2308468326071676 -0.34684680242128502 0 0.229200177642885 -0.36995291413531828 0 0.20725651587090471 -0.36571099534901208 0 0.2308468326071676 -0.34684680242128502 0 0.20725651587090471 -0.36571099534901208 0 0.21275128108028149 -0.33749920242868869 0 0.20725651587090471 -0.36571099534901208 0 0.21275128108028149 -0.33749920242868869 0 0.194202729310988 -0.34235706906990038 0 0.20725651587090471 -0.36571099534901208 0 0.194202729310988 -0.34235706906990038 0 0.180238718969634 -0.3612454971324468 0 0.20725651587090471 -0.36571099534901208 0 0.194202729310988 -0.34235706906990038 0 0.20725651587090471 -0.36571099534901208 0 0.19261827162763251 -0.374541644607297 0 0.180238718969634 -0.3612454971324468 0 0.22300958304019269 -0.32335118517261402 0 0.20381788977078771 -0.32236963909420019 0 0.21275128108028149 -0.33749920242868869 0 0.2153952098199983 -0.30425933719731207 0 0.22300958304019269 -0.32335118517261402 0 0.20381788977078771 -0.32236963909420019 0 0.20381788977078771 -0.32236963909420019 0 0.21275128108028149 -0.33749920242868869 0 0.194202729310988 -0.34235706906990038 0 0.20381788977078771 -0.32236963909420019 0 0.194202729310988 -0.34235706906990038 0 0.18384400034678741 -0.32250280289756078 0 0.19163287831415901 -0.30538761534618902 0 0.20381788977078771 -0.32236963909420019 0 0.18384400034678741 -0.32250280289756078 0 0.18384400034678741 -0.32250280289756078 0 0.17702055828029431 -0.33666004199980942 0 0.15719449589681389 -0.32866913917705798 0 0.194202729310988 -0.34235706906990038 0 0.18384400034678741 -0.32250280289756078 0 0.17702055828029431 -0.33666004199980942 0 0.15719449589681389 -0.32866913917705798 0 0.16581699513551909 -0.35306125248096398 0 0.17702055828029431 -0.33666004199980942 0 0.15719449589681389 -0.32866913917705798 0 0.16581699513551909 -0.35306125248096398 0 0.18384400034678741 -0.32250280289756078 0 0.15719449589681389 -0.32866913917705798 0 0.17186855286937899 -0.30453082832045192 0 0.180238718969634 -0.3612454971324468 0 0.1834568796589737 -0.38583095226508418 0 0.17443949437422429 -0.37745336578486988 0 0.180238718969634 -0.3612454971324468 0 0.16581699513551909 -0.35306125248096398 0 0.17443949437422429 -0.37745336578486988 0 0.180238718969634 -0.3612454971324468 0 0.1834568796589737 -0.38583095226508418 0 0.19261827162763251 -0.374541644607297 0 0.180238718969634 -0.3612454971324468 0 0.1834568796589737 -0.38583095226508418 0 0.17702055828029431 -0.33666004199980942 0 0.180238718969634 -0.3612454971324468 0 0.16581699513551909 -0.35306125248096398 0 0.17702055828029431 -0.33666004199980942 0 0.180238718969634 -0.3612454971324468 0 0.194202729310988 -0.34235706906990038 0 0.17702055828029431 -0.33666004199980942 0 0.180238718969634 -0.3612454971324468 0 0.16581699513551909 -0.35306125248096398 0 0.1602354860011011 -0.36875954027416918 0 0.14952990885070691 -0.36034775620209553 0 0.16581699513551909 -0.35306125248096398 0 0.17443949437422429 -0.37745336578486988 0 0.16581699513551909 -0.35306125248096398 0 0.1602354860011011 -0.36875954027416918 0 0.17443949437422429 -0.37745336578486988 0 0.1602354860011011 -0.36875954027416918 0 0.14673951295096799 -0.37363029079717242 0 0.14952990885070691 -0.36034775620209553 0 0.16581699513551909 -0.35306125248096398 0 0.14952990885070691 -0.36034775620209553 0 0.144826286403443 -0.34676284914488159 0 0.14952990885070691 -0.36034775620209553 0 0.144826286403443 -0.34676284914488159 0 0.12334710111447229 -0.36406834251145731 0 0.144826286403443 -0.34676284914488159 0 0.12334710111447229 -0.36406834251145731 0 0.144826286403443 -0.34676284914488159 0 0.12334710111447229 -0.36406834251145731 0 0.11573058637367541 -0.34380091622275832 0 0.13273239812562251 -0.3803535413873157 0 0.1208593498238435 -0.38006314209191833 0 0.12334710111447229 -0.36406834251145731 0 0.14673951295096799 -0.37363029079717242 0 0.14952990885070691 -0.36034775620209553 0 0.12334710111447229 -0.36406834251145731 0 0.14673951295096799 -0.37363029079717242 0 0.13273239812562251 -0.3803535413873157 0 0.12334710111447229 -0.36406834251145731 0 0.15719449589681389 -0.32866913917705798 0 0.13978194378111039 -0.33004063130878142 0 0.14857199665810869 -0.30427702587315197 0 0.15719449589681389 -0.32866913917705798 0 0.14857199665810869 -0.30427702587315197 0 0.15719449589681389 -0.32866913917705798 0 0.144826286403443 -0.34676284914488159 0 0.13978194378111039 -0.33004063130878142 0 0.15719449589681389 -0.32866913917705798 0 0.16581699513551909 -0.35306125248096398 0 0.144826286403443 -0.34676284914488159 0 0.13978194378111039 -0.33004063130878142 0 0.1249111379911398 -0.32186001205002218 0 0.11573058637367541 -0.34380091622275832 0 0.144826286403443 -0.34676284914488159 0 0.13978194378111039 -0.33004063130878142 0 0.11573058637367541 -0.34380091622275832 0 0.13978194378111039 -0.33004063130878142 0 0.14857199665810869 -0.30427702587315197 0 0.1249111379911398 -0.32186001205002218 0 0.14857199665810869 -0.30427702587315197 0 0.13584279120622419 -0.29064916595208462 0 0.1212075847983899 -0.30357596212866123 0 0.14857199665810869 -0.30427702587315197 0 0.1212075847983899 -0.30357596212866123 0 0.1249111379911398 -0.32186001205002218 0 0.14857199665810869 -0.30427702587315197 0 0.14941647374314521 -0.28066083506566319 0 0.1659314811884508 -0.28303851802095531 0 0.14857199665810869 -0.30427702587315197 0 0.13584279120622419 -0.29064916595208462 0 0.14941647374314521 -0.28066083506566319 0 0.13554841089854469 -0.28148943716570812 0 0.13584279120622419 -0.29064916595208462 0 0.14941647374314521 -0.28066083506566319 0 0.13554841089854469 -0.28148943716570812 0 0.13584279120622419 -0.29064916595208462 0 0.1176113560141319 -0.2851589593963586 0 0.1376178273856396 -0.2676878026278281 0 0.13932302263067731 -0.26948878824872591 0 0.1176113560141319 -0.2851589593963586 0 0.13554841089854469 -0.28148943716570812 0 0.13932302263067731 -0.26948878824872591 0 0.1176113560141319 -0.2851589593963586 0 0.13932302263067731 -0.26948878824872591 0 0.1176113560141319 -0.2851589593963586 0 0.1376178273856396 -0.2676878026278281 0 0.1200034520355143 -0.24749468667538321 0 0.1376178273856396 -0.2676878026278281 0 0.1200034520355143 -0.24749468667538321 0 0.1412434604122122 -0.24631040783256791 0 0.1376178273856396 -0.2676878026278281 0 0.16103468924722281 -0.25381861710109321 0 0.1412434604122122 -0.24631040783256791 0 0.1376178273856396 -0.2676878026278281 0 0.13932302263067731 -0.26948878824872591 0 0.16103468924722281 -0.25381861710109321 0 0.13932302263067731 -0.26948878824872591 0 0.16103468924722281 -0.25381861710109321 0 0.13932302263067731 -0.26948878824872591 0 0.14941647374314521 -0.28066083506566319 0 0.16103468924722281 -0.25381861710109321 0 0.13554841089854469 -0.28148943716570812 0 0.13932302263067731 -0.26948878824872591 0 0.14941647374314521 -0.28066083506566319 0 0.14941647374314521 -0.28066083506566319 0 0.16103468924722281 -0.25381861710109321 0 0.1659314811884508 -0.28303851802095531 0 0.16103468924722281 -0.25381861710109321 0 0.1779690690817976 -0.26589134009717008 0 0.1659314811884508 -0.28303851802095531 0 0.16103468924722281 -0.25381861710109321 0 0.1779690690817976 -0.26589134009717008 0 0.18013525364959199 -0.24590787480667409 0 0.1960217485778272 -0.26205501631648559 0 0.1779690690817976 -0.26589134009717008 0 0.18013525364959199 -0.24590787480667409 0 0.1960217485778272 -0.26205501631648559 0 0.1779690690817976 -0.26589134009717008 0 0.18672217274589489 -0.28463667424064248 0 0.1779690690817976 -0.26589134009717008 0 0.18672217274589489 -0.28463667424064248 0 0.1659314811884508 -0.28303851802095531 0 0.18672217274589489 -0.28463667424064248 0 0.17186855286937899 -0.30453082832045192 0 0.1659314811884508 -0.28303851802095531 0 0.19163287831415901 -0.30538761534618902 0 0.18384400034678741 -0.32250280289756078 0 0.17186855286937899 -0.30453082832045192 0 0.19163287831415901 -0.30538761534618902 0 0.18672217274589489 -0.28463667424064248 0 0.17186855286937899 -0.30453082832045192 0 0.14857199665810869 -0.30427702587315197 0 0.17186855286937899 -0.30453082832045192 0 0.1659314811884508 -0.28303851802095531 0 0.15719449589681389 -0.32866913917705798 0 0.14857199665810869 -0.30427702587315197 0 0.17186855286937899 -0.30453082832045192 0 0.27004646425256568 -0.5 0 0.19840125792562099 -0.499999999999995 0 0.2258071254777905 -0.47806137695806639 0 0.19840125792562099 -0.499999999999995 0 0.1955652389629654 -0.47833395417678298 0 0.19840125792562099 -0.499999999999995 0 0.1955652389629654 -0.47833395417678298 0 0.1857239970351309 -0.48926605560099218 0 0.1955652389629654 -0.47833395417678298 0 0.2258071254777905 -0.47806137695806639 0 0.20496909670773639 -0.46039718082621561 0 0.19840125792562099 -0.499999999999995 0 0.1955652389629654 -0.47833395417678298 0 0.2258071254777905 -0.47806137695806639 0 0.2532296876789632 -0.47497352743918242 0 0.27004646425256568 -0.5 0 0.2258071254777905 -0.47806137695806639 0 0.2532296876789632 -0.47497352743918242 0 0.2258071254777905 -0.47806137695806639 0 0.23317765179809191 -0.45416130837427687 0 0.2258071254777905 -0.47806137695806639 0 0.23317765179809191 -0.45416130837427687 0 0.20496909670773639 -0.46039718082621561 0 0.23317765179809191 -0.45416130837427687 0 0.20496909670773639 -0.46039718082621561 0 0.26339579246569877 -0.46312143350125029 0 0.2532296876789632 -0.47497352743918242 0 0.23317765179809191 -0.45416130837427687 0 0.26138620688844749 -0.44792543592233808 0 0.2518592606704963 -0.43815060111373921 0 0.23317765179809191 -0.45416130837427687 0 0.26138620688844749 -0.44792543592233808 0 0.23317765179809191 -0.45416130837427687 0 0.2518592606704963 -0.43815060111373921 0 0.23317765179809191 -0.45416130837427687 0 0.24161391479158839 -0.43048581688246368 0 0.23317765179809191 -0.45416130837427687 0 0.21274467024756119 -0.44537306322652892 0 0.22596778666418391 -0.43195218695593612 0 0.23317765179809191 -0.45416130837427687 0 0.22596778666418391 -0.43195218695593612 0 0.24161391479158839 -0.43048581688246368 0 0.20738663592967541 -0.43977689630152639 0 0.21274467024756119 -0.44537306322652892 0 0.21231789143938981 -0.43260924517595267 0 0.20738663592967541 -0.43977689630152639 0 0.20306963394956029 -0.44528763306514119 0 0.2014143480821905 -0.43583764373848299 0 0.20738663592967541 -0.43977689630152639 0 0.21274467024756119 -0.44537306322652892 0 0.20306963394956029 -0.44528763306514119 0 0.21274467024756119 -0.44537306322652892 0 0.20306963394956029 -0.44528763306514119 0 0.20202636709778779 -0.45196992376671852 0 0.21274467024756119 -0.44537306322652892 0 0.20496909670773639 -0.46039718082621561 0 0.20202636709778779 -0.45196992376671852 0 0.23317765179809191 -0.45416130837427687 0 0.21274467024756119 -0.44537306322652892 0 0.20496909670773639 -0.46039718082621561 0 0.1955652389629654 -0.47833395417678298 0 0.20496909670773639 -0.46039718082621561 0 0.1927292200003092 -0.45666790835357102 0 0.1955652389629654 -0.47833395417678298 0 0.1927292200003092 -0.45666790835357102 0 0.1955652389629654 -0.47833395417678298 0 0.19047701204926121 -0.46094242075341862 0 0.1927292200003092 -0.45666790835357102 0 0.20496909670773639 -0.46039718082621561 0 0.1927292200003092 -0.45666790835357102 0 0.20202636709778779 -0.45196992376671852 0 0.19047701204926121 -0.46094242075341862 0 0.1927292200003092 -0.45666790835357102 0 0.1876592352144193 -0.45673372923780892 0 0.1927292200003092 -0.45666790835357102 0 0.1876592352144193 -0.45673372923780892 0 0.18777566972406101 -0.44981142861604279 0 0.1927292200003092 -0.45666790835357102 0 0.19595067699787469 -0.4453334870477933 0 0.18989320103765239 -0.43500186253035911 0 0.1927292200003092 -0.45666790835357102 0 0.18989320103765239 -0.43500186253035911 0 0.1927292200003092 -0.45666790835357102 0 0.18777566972406101 -0.44981142861604279 0 0.18989320103765239 -0.43500186253035911 0 0.19521760998379711 -0.43854214036159178 0 0.19595067699787469 -0.4453334870477933 0 0.1916906899727929 -0.43609695451772118 0 0.19595067699787469 -0.4453334870477933 0 0.1916906899727929 -0.43609695451772118 0 0.18989320103765239 -0.43500186253035911 0 0.19521760998379711 -0.43854214036159178 0 0.19821003569121751 -0.44088076654097252 0 0.19595067699787469 -0.4453334870477933 0 0.19821003569121751 -0.44088076654097252 0 0.20306963394956029 -0.44528763306514119 0 0.19595067699787469 -0.4453334870477933 0 0.19821003569121751 -0.44088076654097252 0 0.20306963394956029 -0.44528763306514119 0 0.2014143480821905 -0.43583764373848299 0 0.19521760998379711 -0.43854214036159178 0 0.19821003569121751 -0.44088076654097252 0 0.19632921389935129 -0.43529695882979857 0 0.20306963394956029 -0.44528763306514119 0 0.20202636709778779 -0.45196992376671852 0 0.19595067699787469 -0.4453334870477933 0 0.1927292200003092 -0.45666790835357102 0 0.20202636709778779 -0.45196992376671852 0 0.19595067699787469 -0.4453334870477933 0 0.18989320103765239 -0.43500186253035911 0 0.193210065479164 -0.42351508711829272 0 0.18667504034831339 -0.41041640739772162 0 0.18989320103765239 -0.43500186253035911 0 0.18667504034831339 -0.41041640739772162 0 0.1973860855611401 -0.42692030526330021 0 0.193210065479164 -0.42351508711829272 0 0.19846083006015189 -0.42045811652912207 0 0.1973860855611401 -0.42692030526330021 0 0.19846083006015189 -0.42045811652912207 0 0.20326441538295181 -0.42746054266679712 0 0.1973860855611401 -0.42692030526330021 0 0.19826447490927249 -0.43151164360587502 0 0.20326441538295181 -0.42746054266679712 0 0.2014143480821905 -0.43583764373848299 0 0.19826447490927249 -0.43151164360587502 0 0.20326441538295181 -0.42746054266679712 0 0.19821003569121751 -0.44088076654097252 0 0.2014143480821905 -0.43583764373848299 0 0.19632921389935129 -0.43529695882979857 0 0.2014143480821905 -0.43583764373848299 0 0.19632921389935129 -0.43529695882979857 0 0.19826447490927249 -0.43151164360587502 0 0.19632921389935129 -0.43529695882979857 0 0.19826447490927249 -0.43151164360587502 0 0.1929283116207289 -0.43204276753099607 0 0.1973860855611401 -0.42692030526330021 0 0.19826447490927249 -0.43151164360587502 0 0.1929283116207289 -0.43204276753099607 0 0.1929283116207289 -0.43204276753099607 0 0.18989320103765239 -0.43500186253035911 0 0.193210065479164 -0.42351508711829272 0 0.19521760998379711 -0.43854214036159178 0 0.19632921389935129 -0.43529695882979857 0 0.19377820557052011 -0.43520734882518619 0 0.19521760998379711 -0.43854214036159178 0 0.19377820557052011 -0.43520734882518619 0 0.1916906899727929 -0.43609695451772118 0 0.19632921389935129 -0.43529695882979857 0 0.1929283116207289 -0.43204276753099607 0 0.19377820557052011 -0.43520734882518619 0 0.1929283116207289 -0.43204276753099607 0 0.19210490899723079 -0.4345610298626873 0 0.18989320103765239 -0.43500186253035911 0 0.19377820557052011 -0.43520734882518619 0 0.19210490899723079 -0.4345610298626873 0 0.1916906899727929 -0.43609695451772118 0 0.1929283116207289 -0.43204276753099607 0 0.19377820557052011 -0.43520734882518619 0 0.19210490899723079 -0.4345610298626873 0 0.1916906899727929 -0.43609695451772118 0 0.18989320103765239 -0.43500186253035911 0 0.19210490899723079 -0.4345610298626873 0 0.1916906899727929 -0.43609695451772118 0 0.18989320103765239 -0.43500186253035911 0 0.1973860855611401 -0.42692030526330021 0 0.1929283116207289 -0.43204276753099607 0 0.193210065479164 -0.42351508711829272 0 0.193210065479164 -0.42351508711829272 0 0.1939169242469973 -0.41625106345825691 0 0.18667504034831339 -0.41041640739772162 0 0.193210065479164 -0.42351508711829272 0 0.1939169242469973 -0.41625106345825691 0 0.19846083006015189 -0.42045811652912207 0 0.1968341740193896 -0.41150644481021997 0 0.19418069224578771 -0.40518464808912641 0 0.18667504034831339 -0.41041640739772162 0 0.1939169242469973 -0.41625106345825691 0 0.1968341740193896 -0.41150644481021997 0 0.18667504034831339 -0.41041640739772162 0 0.1968341740193896 -0.41150644481021997 0 0.20469814770209749 -0.41520386531910081 0 0.20485234226760879 -0.40188257102108682 0 0.19846083006015189 -0.42045811652912207 0 0.20469814770209749 -0.41520386531910081 0 0.20326441538295181 -0.42746054266679712 0 0.1939169242469973 -0.41625106345825691 0 0.1968341740193896 -0.41150644481021997 0 0.19846083006015189 -0.42045811652912207 0 0.1968341740193896 -0.41150644481021997 0 0.19846083006015189 -0.42045811652912207 0 0.20469814770209749 -0.41520386531910081 0 0.20469814770209749 -0.41520386531910081 0 0.21626227209603979 -0.41615869782113413 0 0.20326441538295181 -0.42746054266679712 0 0.20469814770209749 -0.41520386531910081 0 0.21626227209603979 -0.41615869782113413 0 0.20485234226760879 -0.40188257102108682 0 0.21626227209603979 -0.41615869782113413 0 0.20326441538295181 -0.42746054266679712 0 0.21231789143938981 -0.43260924517595267 0 0.21626227209603979 -0.41615869782113413 0 0.21231789143938981 -0.43260924517595267 0 0.22596778666418391 -0.43195218695593612 0 0.20738663592967541 -0.43977689630152639 0 0.2014143480821905 -0.43583764373848299 0 0.21231789143938981 -0.43260924517595267 0 0.2014143480821905 -0.43583764373848299 0 0.20326441538295181 -0.42746054266679712 0 0.21231789143938981 -0.43260924517595267 0 0.21274467024756119 -0.44537306322652892 0 0.21231789143938981 -0.43260924517595267 0 0.22596778666418391 -0.43195218695593612 0 0.22596778666418391 -0.43195218695593612 0 0.24161391479158839 -0.43048581688246368 0 0.2333640889907381 -0.41241884790723538 0 0.25610826383841628 -0.42120346698794331 0 0.2518592606704963 -0.43815060111373921 0 0.24161391479158839 -0.43048581688246368 0 0.25610826383841628 -0.42120346698794331 0 0.24161391479158839 -0.43048581688246368 0 0.2333640889907381 -0.41241884790723538 0 0.21626227209603979 -0.41615869782113413 0 0.22596778666418391 -0.43195218695593612 0 0.2333640889907381 -0.41241884790723538 0 0.2333640889907381 -0.41241884790723538 0 0.24502858373403441 -0.39146921073642488 0 0.22031030243082139 -0.38906492162812378 0 0.21626227209603979 -0.41615869782113413 0 0.2333640889907381 -0.41241884790723538 0 0.22031030243082139 -0.38906492162812378 0 0.2333640889907381 -0.41241884790723538 0 0.22031030243082139 -0.38906492162812378 0 0.26125098829365018 -0.39969694482297641 0 0.2333640889907381 -0.41241884790723538 0 0.24502858373403441 -0.39146921073642488 0 0.24971336314328341 -0.36520417674804972 0 0.24502858373403441 -0.39146921073642488 0 0.24971336314328341 -0.36520417674804972 0 0.229200177642885 -0.36995291413531828 0 0.24502858373403441 -0.39146921073642488 0 0.229200177642885 -0.36995291413531828 0 0.24502858373403441 -0.39146921073642488 0 0.22031030243082139 -0.38906492162812378 0 0.20725651587090471 -0.36571099534901208 0 0.22031030243082139 -0.38906492162812378 0 0.19952097201101759 -0.38537913368264481 0 0.20725651587090471 -0.36571099534901208 0 0.22031030243082139 -0.38906492162812378 0 0.21626227209603979 -0.41615869782113413 0 0.22031030243082139 -0.38906492162812378 0 0.20485234226760879 -0.40188257102108682 0 0.22031030243082139 -0.38906492162812378 0 0.20485234226760879 -0.40188257102108682 0 0.19952097201101759 -0.38537913368264481 0 0.20485234226760879 -0.40188257102108682 0 0.19159455078491761 -0.39726910731705511 0 0.19952097201101759 -0.38537913368264481 0 0.1968341740193896 -0.41150644481021997 0 0.20485234226760879 -0.40188257102108682 0 0.19418069224578771 -0.40518464808912641 0 0.20485234226760879 -0.40188257102108682 0 0.19418069224578771 -0.40518464808912641 0 0.19159455078491761 -0.39726910731705511 0 0.19418069224578771 -0.40518464808912641 0 0.19159455078491761 -0.39726910731705511 0 0.18667504034831339 -0.41041640739772162 0 0.20725651587090471 -0.36571099534901208 0 0.19261827162763251 -0.374541644607297 0 0.19952097201101759 -0.38537913368264481 0 0.19261827162763251 -0.374541644607297 0 0.19952097201101759 -0.38537913368264481 0 0.1834568796589737 -0.38583095226508418 0 0.19159455078491761 -0.39726910731705511 0 0.19952097201101759 -0.38537913368264481 0 0.1834568796589737 -0.38583095226508418 0 0.17443949437422429 -0.37745336578486988 0 0.18306199361292941 -0.40184547908877583 0 0.1834568796589737 -0.38583095226508418 0 0.17443949437422429 -0.37745336578486988 0 0.18306199361292941 -0.40184547908877583 0 0.17443949437422429 -0.37745336578486988 0 0.18306199361292941 -0.40184547908877583 0 0.1699565165384864 -0.39219147373696051 0 0.19159455078491761 -0.39726910731705511 0 0.1834568796589737 -0.38583095226508418 0 0.18667504034831339 -0.41041640739772162 0 0.1834568796589737 -0.38583095226508418 0 0.18667504034831339 -0.41041640739772162 0 0.1834568796589737 -0.38583095226508418 0 0.18306199361292941 -0.40184547908877583 0 0.18667504034831339 -0.41041640739772162 0 0.18306199361292941 -0.40184547908877583 0 0.1699565165384864 -0.39219147373696051 0 0.17103987791038719 -0.40450309618882169 0 0.18306199361292941 -0.40184547908877583 0 0.17103987791038719 -0.40450309618882169 0 0.1814131781600461 -0.40758752999736902 0 0.1699565165384864 -0.39219147373696051 0 0.17103987791038719 -0.40450309618882169 0 0.15993177942481909 -0.39557864441750712 0 0.17103987791038719 -0.40450309618882169 0 0.15993177942481909 -0.39557864441750712 0 0.14638679418839309 -0.40849626541203388 0 0.1699565165384864 -0.39219147373696051 0 0.15993177942481909 -0.39557864441750712 0 0.1595700277473481 -0.38298567724053401 0 0.17443949437422429 -0.37745336578486988 0 0.1699565165384864 -0.39219147373696051 0 0.1595700277473481 -0.38298567724053401 0 0.1602354860011011 -0.36875954027416918 0 0.17443949437422429 -0.37745336578486988 0 0.1595700277473481 -0.38298567724053401 0 0.1602354860011011 -0.36875954027416918 0 0.14673951295096799 -0.37363029079717242 0 0.1595700277473481 -0.38298567724053401 0 0.14673951295096799 -0.37363029079717242 0 0.1595700277473481 -0.38298567724053401 0 0.14586341328622179 -0.39002728499933198 0 0.14673951295096799 -0.37363029079717242 0 0.14586341328622179 -0.39002728499933198 0 0.13273239812562251 -0.3803535413873157 0 0.15993177942481909 -0.39557864441750712 0 0.1595700277473481 -0.38298567724053401 0 0.14586341328622179 -0.39002728499933198 0 0.14586341328622179 -0.39002728499933198 0 0.13273239812562251 -0.3803535413873157 0 0.12412735500694751 -0.39493505064503392 0 0.13273239812562251 -0.3803535413873157 0 0.12412735500694751 -0.39493505064503392 0 0.1208593498238435 -0.38006314209191833 0 0.14586341328622179 -0.39002728499933198 0 0.14638679418839309 -0.40849626541203388 0 0.12412735500694751 -0.39493505064503392 0 0.14638679418839309 -0.40849626541203388 0 0.1185943653130178 -0.41089393958744808 0 0.12412735500694751 -0.39493505064503392 0 0.14638679418839309 -0.40849626541203388 0 0.12412735500694751 -0.39493505064503392 0 0.15993177942481909 -0.39557864441750712 0 0.14586341328622179 -0.39002728499933198 0 0.14638679418839309 -0.40849626541203388 0 0.14638679418839309 -0.40849626541203388 0 0.12945713117598301 -0.42527718494859718 0 0.1185943653130178 -0.41089393958744808 0 0.12945713117598301 -0.42527718494859718 0 0.1521605439778134 -0.43517333823265708 0 0.13567485458578729 -0.448289196286278 0 0.14638679418839309 -0.40849626541203388 0 0.12945713117598301 -0.42527718494859718 0 0.1521605439778134 -0.43517333823265708 0 0.14638679418839309 -0.40849626541203388 0 0.1521605439778134 -0.43517333823265708 0 0.16864623336983819 -0.42205748017903449 0 0.1521605439778134 -0.43517333823265708 0 0.16864623336983819 -0.42205748017903449 0 0.1521605439778134 -0.43517333823265708 0 0.16864623336983819 -0.42205748017903449 0 0.16573483381671769 -0.43911683261624462 0 0.16864623336983819 -0.42205748017903449 0 0.17670256027174869 -0.43608133600128551 0 0.16573483381671769 -0.43911683261624462 0 0.17103987791038719 -0.40450309618882169 0 0.14638679418839309 -0.40849626541203388 0 0.16962733287145829 -0.41306172809692981 0 0.14638679418839309 -0.40849626541203388 0 0.16864623336983819 -0.42205748017903449 0 0.14638679418839309 -0.40849626541203388 0 0.16864623336983819 -0.42205748017903449 0 0.16962733287145829 -0.41306172809692981 0 0.16864623336983819 -0.42205748017903449 0 0.17965678171287719 -0.41329759239238029 0 0.18989320103765239 -0.43500186253035911 0 0.17965678171287719 -0.41329759239238029 0 0.18667504034831339 -0.41041640739772162 0 0.16864623336983819 -0.42205748017903449 0 0.16962733287145829 -0.41306172809692981 0 0.17965678171287719 -0.41329759239238029 0 0.17103987791038719 -0.40450309618882169 0 0.16962733287145829 -0.41306172809692981 0 0.17965678171287719 -0.41329759239238029 0 0.17103987791038719 -0.40450309618882169 0 0.17965678171287719 -0.41329759239238029 0 0.1814131781600461 -0.40758752999736902 0 0.18306199361292941 -0.40184547908877583 0 0.1814131781600461 -0.40758752999736902 0 0.18667504034831339 -0.41041640739772162 0 0.17965678171287719 -0.41329759239238029 0 0.1814131781600461 -0.40758752999736902 0 0.18667504034831339 -0.41041640739772162 0 0.18989320103765239 -0.43500186253035911 0 0.16864623336983819 -0.42205748017903449 0 0.18989320103765239 -0.43500186253035911 0 0.16864623336983819 -0.42205748017903449 0 0.17965678171287719 -0.41329759239238029 0 0.18989320103765239 -0.43500186253035911 0 0.16864623336983819 -0.42205748017903449 0 0.17670256027174869 -0.43608133600128551 0 0.18989320103765239 -0.43500186253035911 0 0.17670256027174869 -0.43608133600128551 0 0.18208037526260021 -0.440172852945236 0 0.17851738694434799 -0.45081987712854771 0 0.17618275988476059 -0.44374183802639611 0 0.18401323307134959 -0.44581129240036288 0 0.17851738694434799 -0.45081987712854771 0 0.1776998484129505 -0.456552179461992 0 0.17120073938054131 -0.45123220200337888 0 0.17851738694434799 -0.45081987712854771 0 0.17618275988476059 -0.44374183802639611 0 0.17120073938054131 -0.45123220200337888 0 0.17670256027174869 -0.43608133600128551 0 0.17618275988476059 -0.44374183802639611 0 0.16573483381671769 -0.43911683261624462 0 0.17670256027174869 -0.43608133600128551 0 0.17618275988476059 -0.44374183802639611 0 0.18208037526260021 -0.440172852945236 0 0.18989320103765239 -0.43500186253035911 0 0.18208037526260021 -0.440172852945236 0 0.18401323307134959 -0.44581129240036288 0 0.18777566972406101 -0.44981142861604279 0 0.18989320103765239 -0.43500186253035911 0 0.18401323307134959 -0.44581129240036288 0 0.17618275988476059 -0.44374183802639611 0 0.18208037526260021 -0.440172852945236 0 0.18401323307134959 -0.44581129240036288 0 0.18777566972406101 -0.44981142861604279 0 0.18401323307134959 -0.44581129240036288 0 0.18385690407389799 -0.45446609953290928 0 0.17851738694434799 -0.45081987712854771 0 0.18401323307134959 -0.44581129240036288 0 0.18385690407389799 -0.45446609953290928 0 0.19047701204926121 -0.46094242075341862 0 0.1876592352144193 -0.45673372923780892 0 0.1806900259799068 -0.46227126151247672 0 0.1876592352144193 -0.45673372923780892 0 0.18777566972406101 -0.44981142861604279 0 0.18385690407389799 -0.45446609953290928 0 0.19047701204926121 -0.46094242075341862 0 0.1806900259799068 -0.46227126151247672 0 0.17298031468751371 -0.48047121037671059 0 0.1876592352144193 -0.45673372923780892 0 0.18385690407389799 -0.45446609953290928 0 0.1806900259799068 -0.46227126151247672 0 0.18385690407389799 -0.45446609953290928 0 0.1806900259799068 -0.46227126151247672 0 0.1776998484129505 -0.456552179461992 0 0.17851738694434799 -0.45081987712854771 0 0.18385690407389799 -0.45446609953290928 0 0.1776998484129505 -0.456552179461992 0 0.1806900259799068 -0.46227126151247672 0 0.1776998484129505 -0.456552179461992 0 0.17146684144139809 -0.46446192971202138 0 0.1776998484129505 -0.456552179461992 0 0.17146684144139809 -0.46446192971202138 0 0.17120073938054131 -0.45123220200337888 0 0.17146684144139809 -0.46446192971202138 0 0.15759213853868431 -0.45113306297151079 0 0.14900727366634989 -0.46501884712825781 0 0.17146684144139809 -0.46446192971202138 0 0.15759213853868431 -0.45113306297151079 0 0.17120073938054131 -0.45123220200337888 0 0.1521605439778134 -0.43517333823265708 0 0.15759213853868431 -0.45113306297151079 0 0.16573483381671769 -0.43911683261624462 0 0.15759213853868431 -0.45113306297151079 0 0.17120073938054131 -0.45123220200337888 0 0.16573483381671769 -0.43911683261624462 0 0.17618275988476059 -0.44374183802639611 0 0.17120073938054131 -0.45123220200337888 0 0.16573483381671769 -0.43911683261624462 0 0.1521605439778134 -0.43517333823265708 0 0.15759213853868431 -0.45113306297151079 0 0.13567485458578729 -0.448289196286278 0 0.1521605439778134 -0.43517333823265708 0 0.13567485458578729 -0.448289196286278 0 0.13567485458578729 -0.448289196286278 0 0.1191891651937612 -0.46140505433989892 0 0.12203304576274319 -0.43975504748265359 0 0.12945713117598301 -0.42527718494859718 0 0.13567485458578729 -0.448289196286278 0 0.12203304576274319 -0.43975504748265359 0 0.13567485458578729 -0.448289196286278 0 0.1191891651937612 -0.46140505433989892 0 0.13567485458578729 -0.448289196286278 0 0.13480127744719991 -0.46410976413563299 0 0.1191891651937612 -0.46140505433989892 0 0.13567485458578729 -0.448289196286278 0 0.13480127744719991 -0.46410976413563299 0 0.14900727366634989 -0.46501884712825781 0 0.15759213853868431 -0.45113306297151079 0 0.13567485458578729 -0.448289196286278 0 0.14900727366634989 -0.46501884712825781 0 0.14900727366634989 -0.46501884712825781 0 0.15577652408963519 -0.48266000469618581 0 0.13873200589539489 -0.47945912496791759 0 0.13480127744719991 -0.46410976413563299 0 0.14900727366634989 -0.46501884712825781 0 0.13873200589539489 -0.47945912496791759 0 0.13480127744719991 -0.46410976413563299 0 0.13873200589539489 -0.47945912496791759 0 0.11801755443736479 -0.48060781756800708 0 0.13873200589539489 -0.47945912496791759 0 0.13581988522262109 -0.50000000000000244 0 0.11801755443736479 -0.48060781756800708 0 0.13581988522262109 -0.50000000000000244 0 0.11801755443736479 -0.48060781756800708 0 0.15577652408963519 -0.48266000469618581 0 0.13873200589539489 -0.47945912496791759 0 0.13581988522262109 -0.50000000000000244 0 0.15577652408963519 -0.48266000469618581 0 0.13581988522262109 -0.50000000000000244 0 0.15548361732576529 -0.50000000000000178 0 0.15577652408963519 -0.48266000469618581 0 0.15548361732576529 -0.50000000000000178 0 0.17298031468751371 -0.48047121037671059 0 0.15548361732576529 -0.50000000000000178 0 0.17298031468751371 -0.48047121037671059 0 0.1769424376256932 -0.5 0 0.15548361732576529 -0.50000000000000178 0 0.17298031468751371 -0.48047121037671059 0 0.17146684144139809 -0.46446192971202138 0 0.15577652408963519 -0.48266000469618581 0 0.17298031468751371 -0.48047121037671059 0 0.17146684144139809 -0.46446192971202138 0 0.14900727366634989 -0.46501884712825781 0 0.15577652408963519 -0.48266000469618581 0 0.19047701204926121 -0.46094242075341862 0 0.17298031468751371 -0.48047121037671059 0 0.1806900259799068 -0.46227126151247672 0 0.17146684144139809 -0.46446192971202138 0 0.17298031468751371 -0.48047121037671059 0 0.1955652389629654 -0.47833395417678298 0 0.19047701204926121 -0.46094242075341862 0 0.17298031468751371 -0.48047121037671059 0 0.1955652389629654 -0.47833395417678298 0 0.17298031468751371 -0.48047121037671059 0 0.1857239970351309 -0.48926605560099218 0 0.19840125792562099 -0.499999999999995 0 0.1857239970351309 -0.48926605560099218 0 0.1769424376256932 -0.5 0 0.17298031468751371 -0.48047121037671059 0 0.1857239970351309 -0.48926605560099218 0 0.1769424376256932 -0.5 0 0.074737975103940479 -0.48487994098964171 0 0.071046826552429457 -0.50000000000000733 0 0.059434139084113012 -0.47963991399004141 0 0.071046826552429457 -0.50000000000000733 0 0.059434139084113012 -0.47963991399004141 0 0.074737975103940479 -0.48487994098964171 0 0.05802097188470097 -0.46975988197928431 0 0.059434139084113012 -0.47963991399004141 0 0.074737975103940479 -0.48487994098964171 0 0.071955909258469009 -0.46877079283141743 0 0.05802097188470097 -0.46975988197928431 0 0.074737975103940479 -0.48487994098964171 0 0.071955909258469009 -0.46877079283141743 0 0.082737354296077953 -0.47427357099325013 0 0.074737975103940479 -0.48487994098964171 0 0.05802097188470097 -0.46975988197928431 0 0.074737975103940479 -0.48487994098964171 0 0.082737354296077953 -0.47427357099325013 0 0.094811061721812542 -0.48112121468145302 0 0.082737354296077953 -0.47427357099325013 0 0.094811061721812542 -0.48112121468145302 0 0.1002152236521098 -0.46121563513601083 0 0.074737975103940479 -0.48487994098964171 0 0.091454978323179614 -0.49999999999999939 0 0.094811061721812542 -0.48112121468145302 0 0.074737975103940479 -0.48487994098964171 0 0.091454978323179614 -0.49999999999999939 0 0.074737975103940479 -0.48487994098964171 0 0.071046826552429457 -0.50000000000000733 0 0.091454978323179614 -0.49999999999999939 0 0.1136374317729003 -0.5 0 0.11801755443736479 -0.48060781756800708 0 0.094811061721812542 -0.48112121468145302 0 0.091454978323179614 -0.49999999999999939 0 0.1136374317729003 -0.5 0 0.094811061721812542 -0.48112121468145302 0 0.13581988522262109 -0.50000000000000244 0 0.1136374317729003 -0.5 0 0.11801755443736479 -0.48060781756800708 0 0.11801755443736479 -0.48060781756800708 0 0.094811061721812542 -0.48112121468145302 0 0.1002152236521098 -0.46121563513601083 0 0.11801755443736479 -0.48060781756800708 0 0.1002152236521098 -0.46121563513601083 0 0.1002152236521098 -0.46121563513601083 0 0.1191891651937612 -0.46140505433989892 0 0.1082504500781146 -0.44478934181291102 0 0.11801755443736479 -0.48060781756800708 0 0.1002152236521098 -0.46121563513601083 0 0.1191891651937612 -0.46140505433989892 0 0.13480127744719991 -0.46410976413563299 0 0.11801755443736479 -0.48060781756800708 0 0.1191891651937612 -0.46140505433989892 0 0.1191891651937612 -0.46140505433989892 0 0.12203304576274319 -0.43975504748265359 0 0.1082504500781146 -0.44478934181291102 0 0.1002152236521098 -0.46121563513601083 0 0.1082504500781146 -0.44478934181291102 0 0.082412892866854714 -0.44182345270401441 0 0.1002152236521098 -0.46121563513601083 0 0.082412892866854714 -0.44182345270401441 0 0.082737354296077953 -0.47427357099325013 0 0.1002152236521098 -0.46121563513601083 0 0.07989865607697158 -0.46093656822545309 0 0.1002152236521098 -0.46121563513601083 0 0.082412892866854714 -0.44182345270401441 0 0.07989865607697158 -0.46093656822545309 0 0.071955909258469009 -0.46877079283141743 0 0.082737354296077953 -0.47427357099325013 0 0.07989865607697158 -0.46093656822545309 0 0.071955909258469009 -0.46877079283141743 0 0.07989865607697158 -0.46093656822545309 0 0.064942869781788204 -0.45298741250561531 0 0.071955909258469009 -0.46877079283141743 0 0.064942869781788204 -0.45298741250561531 0 0.05802097188470097 -0.46975988197928431 0 0.082412892866854714 -0.44182345270401441 0 0.07989865607697158 -0.46093656822545309 0 0.064942869781788204 -0.45298741250561531 0 0.082412892866854714 -0.44182345270401441 0 0.064942869781788204 -0.45298741250561531 0 0.064610562081599654 -0.42243127027201799 0 0.082412892866854714 -0.44182345270401441 0 0.064610562081599654 -0.42243127027201799 0 0.085410796704641828 -0.41553833344022301 0 0.082412892866854714 -0.44182345270401441 0 0.064610562081599654 -0.42243127027201799 0 0.064610562081599654 -0.42243127027201799 0 0.085410796704641828 -0.41553833344022301 0 0.071260751408415451 -0.40583032332525898 0 0.082412892866854714 -0.44182345270401441 0 0.085410796704641828 -0.41553833344022301 0 0.10565257718969159 -0.42402980380391259 0 0.1082504500781146 -0.44478934181291102 0 0.10565257718969159 -0.42402980380391259 0 0.1082504500781146 -0.44478934181291102 0 0.082412892866854714 -0.44182345270401441 0 0.10565257718969159 -0.42402980380391259 0 0.12203304576274319 -0.43975504748265359 0 0.1082504500781146 -0.44478934181291102 0 0.10565257718969159 -0.42402980380391259 0 0.12945713117598301 -0.42527718494859718 0 0.12203304576274319 -0.43975504748265359 0 0.10565257718969159 -0.42402980380391259 0 0.12945713117598301 -0.42527718494859718 0 0.10565257718969159 -0.42402980380391259 0 0.1185943653130178 -0.41089393958744808 0 0.10565257718969159 -0.42402980380391259 0 0.10305470430126849 -0.40327026579491432 0 0.10565257718969159 -0.42402980380391259 0 0.1185943653130178 -0.41089393958744808 0 0.10305470430126849 -0.40327026579491432 0 0.085410796704641828 -0.41553833344022301 0 0.10565257718969159 -0.42402980380391259 0 0.10305470430126849 -0.40327026579491432 0 0.10305470430126849 -0.40327026579491432 0 0.1092296532162271 -0.39195520602732847 0 0.1018679158255022 -0.38137383587803358 0 0.10305470430126849 -0.40327026579491432 0 0.1018679158255022 -0.38137383587803358 0 0.084827885114816814 -0.39510276155480978 0 0.10305470430126849 -0.40327026579491432 0 0.1018679158255022 -0.38137383587803358 0 0.1185943653130178 -0.41089393958744808 0 0.10305470430126849 -0.40327026579491432 0 0.1092296532162271 -0.39195520602732847 0 0.1185943653130178 -0.41089393958744808 0 0.1092296532162271 -0.39195520602732847 0 0.12412735500694751 -0.39493505064503392 0 0.12412735500694751 -0.39493505064503392 0 0.1208593498238435 -0.38006314209191833 0 0.1018679158255022 -0.38137383587803358 0 0.1092296532162271 -0.39195520602732847 0 0.12412735500694751 -0.39493505064503392 0 0.1018679158255022 -0.38137383587803358 0 0.12412735500694751 -0.39493505064503392 0 0.1018679158255022 -0.38137383587803358 0 0.1208593498238435 -0.38006314209191833 0 0.1018679158255022 -0.38137383587803358 0 0.12334710111447229 -0.36406834251145731 0 0.1018679158255022 -0.38137383587803358 0 0.1001863568717406 -0.38034937241650962 0 0.10879209213087419 -0.36797725762153549 0 0.1018679158255022 -0.38137383587803358 0 0.1001863568717406 -0.38034937241650962 0 0.092680417082859706 -0.38189565836938699 0 0.1018679158255022 -0.38137383587803358 0 0.1001863568717406 -0.38034937241650962 0 0.1001863568717406 -0.38034937241650962 0 0.092680417082859706 -0.38189565836938699 0 0.078941289569781151 -0.36740614783332631 0 0.1018679158255022 -0.38137383587803358 0 0.084827885114816814 -0.39510276155480978 0 0.1018679158255022 -0.38137383587803358 0 0.092680417082859706 -0.38189565836938699 0 0.084827885114816814 -0.39510276155480978 0 0.083667078469080447 -0.3817485906143725 0 0.076461538166658155 -0.38231907318138902 0 0.078941289569781151 -0.36740614783332631 0 0.092680417082859706 -0.38189565836938699 0 0.083667078469080447 -0.3817485906143725 0 0.078941289569781151 -0.36740614783332631 0 0.084827885114816814 -0.39510276155480978 0 0.073546264855348126 -0.39398280964304111 0 0.076461538166658155 -0.38231907318138902 0 0.083667078469080447 -0.3817485906143725 0 0.084827885114816814 -0.39510276155480978 0 0.076461538166658155 -0.38231907318138902 0 0.092680417082859706 -0.38189565836938699 0 0.083667078469080447 -0.3817485906143725 0 0.084827885114816814 -0.39510276155480978 0 0.085410796704641828 -0.41553833344022301 0 0.10305470430126849 -0.40327026579491432 0 0.084827885114816814 -0.39510276155480978 0 0.085410796704641828 -0.41553833344022301 0 0.084827885114816814 -0.39510276155480978 0 0.071260751408415451 -0.40583032332525898 0 0.084827885114816814 -0.39510276155480978 0 0.073546264855348126 -0.39398280964304111 0 0.071260751408415451 -0.40583032332525898 0 0.073546264855348126 -0.39398280964304111 0 0.071260751408415451 -0.40583032332525898 0 0.061634884731502082 -0.39267908051070671 0 0.076461538166658155 -0.38231907318138902 0 0.061634884731502082 -0.39267908051070671 0 0.076461538166658155 -0.38231907318138902 0 0.061634884731502082 -0.39267908051070671 0 0.061904282875925747 -0.37237526148823941 0 0.073546264855348126 -0.39398280964304111 0 0.076461538166658155 -0.38231907318138902 0 0.061634884731502082 -0.39267908051070671 0 0.051370350477500881 -0.3764161884637201 0 0.045801185216693012 -0.38580832539780119 0 0.043663507306638913 -0.36868104746756258 0 0.051370350477500881 -0.3764161884637201 0 0.061634884731502082 -0.39267908051070671 0 0.045801185216693012 -0.38580832539780119 0 0.051370350477500881 -0.3764161884637201 0 0.061634884731502082 -0.39267908051070671 0 0.061904282875925747 -0.37237526148823941 0 0.071260751408415451 -0.40583032332525898 0 0.061634884731502082 -0.39267908051070671 0 0.04680823129634433 -0.40303908784002201 0 0.061634884731502082 -0.39267908051070671 0 0.04680823129634433 -0.40303908784002201 0 0.045801185216693012 -0.38580832539780119 0 0.061634884731502082 -0.39267908051070671 0 0.04680823129634433 -0.40303908784002201 0 0.04680823129634433 -0.40303908784002201 0 0.02837172461734 -0.38295609391969199 0 0.04680823129634433 -0.40303908784002201 0 0.02837172461734 -0.38295609391969199 0 0.028215565298714249 -0.40094151263492078 0 0.045801185216693012 -0.38580832539780119 0 0.02837172461734 -0.38295609391969199 0 0.043663507306638913 -0.36868104746756258 0 0.04680823129634433 -0.40303908784002201 0 0.045801185216693012 -0.38580832539780119 0 0.02837172461734 -0.38295609391969199 0 0.02837172461734 -0.38295609391969199 0 0.0122991559467155 -0.37891225603134221 0 0.011208636448502229 -0.39508796301279092 0 -0.002178803782163227 -0.37161627006544062 0 0.0122991559467155 -0.37891225603134221 0 0.011208636448502229 -0.39508796301279092 0 -0.002178803782163227 -0.37161627006544062 0 0.011208636448502229 -0.39508796301279092 0 -0.002178803782163227 -0.37161627006544062 0 -0.0066930742226519926 -0.39143820132839208 0 0.011208636448502229 -0.39508796301279092 0 -0.001728596279610697 -0.40597762003102339 0 0.011208636448502229 -0.39508796301279092 0 0.0082246319185010179 -0.41465428951275207 0 -0.0066930742226519926 -0.39143820132839208 0 -0.001728596279610697 -0.40597762003102339 0 0.011208636448502229 -0.39508796301279092 0 0.011208636448502229 -0.39508796301279092 0 0.028215565298714249 -0.40094151263492078 0 0.024596076679173799 -0.41855965596013778 0 0.02837172461734 -0.38295609391969199 0 0.011208636448502229 -0.39508796301279092 0 0.028215565298714249 -0.40094151263492078 0 0.011208636448502229 -0.39508796301279092 0 0.024596076679173799 -0.41855965596013778 0 0.011208636448502229 -0.39508796301279092 0 0.024596076679173799 -0.41855965596013778 0 0.0082246319185010179 -0.41465428951275207 0 0.024596076679173799 -0.41855965596013778 0 0.0082246319185010179 -0.41465428951275207 0 0.01039378864355619 -0.42848339288335913 0 -0.009537301248459449 -0.42510302968362512 0 0.0082246319185010179 -0.41465428951275207 0 0.01039378864355619 -0.42848339288335913 0 0.024596076679173799 -0.41855965596013778 0 0.036208764147486278 -0.43891974197010591 0 0.024596076679173799 -0.41855965596013778 0 0.036208764147486278 -0.43891974197010591 0 0.020713539006084219 -0.44010250100644183 0 0.024596076679173799 -0.41855965596013778 0 0.01039378864355619 -0.42848339288335913 0 0.020713539006084219 -0.44010250100644183 0 0.024596076679173799 -0.41855965596013778 0 0.01039378864355619 -0.42848339288335913 0 0.024596076679173799 -0.41855965596013778 0 0.043950702345966319 -0.42295947833088071 0 0.036208764147486278 -0.43891974197010591 0 0.043950702345966319 -0.42295947833088071 0 0.051347790295756007 -0.43901682978775403 0 0.036208764147486278 -0.43891974197010591 0 0.04680823129634433 -0.40303908784002201 0 0.024596076679173799 -0.41855965596013778 0 0.04680823129634433 -0.40303908784002201 0 0.028215565298714249 -0.40094151263492078 0 0.024596076679173799 -0.41855965596013778 0 0.04680823129634433 -0.40303908784002201 0 0.024596076679173799 -0.41855965596013778 0 0.043950702345966319 -0.42295947833088071 0 0.064610562081599654 -0.42243127027201799 0 0.071260751408415451 -0.40583032332525898 0 0.04680823129634433 -0.40303908784002201 0 0.064610562081599654 -0.42243127027201799 0 0.04680823129634433 -0.40303908784002201 0 0.064610562081599654 -0.42243127027201799 0 0.04680823129634433 -0.40303908784002201 0 0.043950702345966319 -0.42295947833088071 0 0.064610562081599654 -0.42243127027201799 0 0.043950702345966319 -0.42295947833088071 0 0.051347790295756007 -0.43901682978775403 0 0.064942869781788204 -0.45298741250561531 0 0.064610562081599654 -0.42243127027201799 0 0.051347790295756007 -0.43901682978775403 0 0.064942869781788204 -0.45298741250561531 0 0.051347790295756007 -0.43901682978775403 0 0.047821451615799627 -0.45927982798007361 0 0.064942869781788204 -0.45298741250561531 0 0.047821451615799627 -0.45927982798007361 0 0.05802097188470097 -0.46975988197928431 0 0.047821451615799627 -0.45927982798007361 0 0.023714967739582489 -0.4565662814222432 0 0.032020960621095843 -0.47777188036233098 0 0.047821451615799627 -0.45927982798007361 0 0.036208764147486278 -0.43891974197010591 0 0.051347790295756007 -0.43901682978775403 0 0.047821451615799627 -0.45927982798007361 0 0.036208764147486278 -0.43891974197010591 0 0.047821451615799627 -0.45927982798007361 0 0.036208764147486278 -0.43891974197010591 0 0.023714967739582489 -0.4565662814222432 0 0.036208764147486278 -0.43891974197010591 0 0.020713539006084219 -0.44010250100644183 0 0.023714967739582489 -0.4565662814222432 0 -0.0013374034004768371 -0.44947558896604423 0 0.01039378864355619 -0.42848339288335913 0 0.020713539006084219 -0.44010250100644183 0 -0.0013374034004768371 -0.44947558896604423 0 0.020713539006084219 -0.44010250100644183 0 0.023714967739582489 -0.4565662814222432 0 -0.0013374034004768371 -0.44947558896604423 0 0.0068624944475057766 -0.47384814824846327 0 -0.0013374034004768371 -0.44947558896604423 0 0.023714967739582489 -0.4565662814222432 0 0.0068624944475057766 -0.47384814824846327 0 0.023714967739582489 -0.4565662814222432 0 0.0068624944475057766 -0.47384814824846327 0 0.032020960621095843 -0.47777188036233098 0 0.0068624944475057766 -0.47384814824846327 0 0.0150623922954884 -0.49822070753088238 0 0.032020960621095843 -0.47777188036233098 0 -0.015217900669161011 -0.5 0 0.0024053695883212941 -0.48891336768777249 0 0.013537008404702511 -0.5 0 0.0068624944475057766 -0.47384814824846327 0 0.0024053695883212941 -0.48891336768777249 0 0.0150623922954884 -0.49822070753088238 0 0.0068624944475057766 -0.47384814824846327 0 0.0150623922954884 -0.49822070753088238 0 0.0024053695883212941 -0.48891336768777249 0 0.0150623922954884 -0.49822070753088238 0 0.013537008404702511 -0.5 0 0.0150623922954884 -0.49822070753088238 0 0.013537008404702511 -0.5 0 0.042291917478565873 -0.5 0 0.0150623922954884 -0.49822070753088238 0 0.042291917478565873 -0.5 0 0.032020960621095843 -0.47777188036233098 0 0.042291917478565873 -0.5 0 0.032020960621095843 -0.47777188036233098 0 0.059434139084113012 -0.47963991399004141 0 0.047821451615799627 -0.45927982798007361 0 0.032020960621095843 -0.47777188036233098 0 0.059434139084113012 -0.47963991399004141 0 0.047821451615799627 -0.45927982798007361 0 0.05802097188470097 -0.46975988197928431 0 0.059434139084113012 -0.47963991399004141 0 0.047821451615799627 -0.45927982798007361 0 0.059434139084113012 -0.47963991399004141 0 0.071046826552429457 -0.50000000000000733 0 0.042291917478565873 -0.5 0 0.059434139084113012 -0.47963991399004141 0 0.078456545354339768 -0.28525100698693651 0 0.075192778843485145 -0.3004755496101415 0 0.095899689397586599 -0.3008291305439913 0 0.078456545354339768 -0.28525100698693651 0 0.095711127176573443 -0.2751242682777974 0 0.095899689397586599 -0.3008291305439913 0 0.075192778843485145 -0.3004755496101415 0 0.095899689397586599 -0.3008291305439913 0 0.074188022781041252 -0.31649930169162399 0 0.095899689397586599 -0.3008291305439913 0 0.074188022781041252 -0.31649930169162399 0 0.075192778843485145 -0.3004755496101415 0 0.074188022781041252 -0.31649930169162399 0 0.058270312985904418 -0.30816514798469019 0 0.075192778843485145 -0.3004755496101415 0 0.068995976747761104 -0.2945131319279734 0 0.058270312985904418 -0.30816514798469019 0 0.068995976747761104 -0.2945131319279734 0 0.064064269807315097 -0.28416082313012542 0 0.058270312985904418 -0.30816514798469019 0 0.078456545354339768 -0.28525100698693651 0 0.075192778843485145 -0.3004755496101415 0 0.068995976747761104 -0.2945131319279734 0 0.078456545354339768 -0.28525100698693651 0 0.068995976747761104 -0.2945131319279734 0 0.064064269807315097 -0.28416082313012542 0 0.064064269807315097 -0.28416082313012542 0 0.069858226628725775 -0.26015649827556059 0 0.078456545354339768 -0.28525100698693651 0 0.064064269807315097 -0.28416082313012542 0 0.069858226628725775 -0.26015649827556059 0 0.069858226628725775 -0.26015649827556059 0 0.095711127176573443 -0.2751242682777974 0 0.096521476943682558 -0.25181800011133371 0 0.078456545354339768 -0.28525100698693651 0 0.069858226628725775 -0.26015649827556059 0 0.095711127176573443 -0.2751242682777974 0 0.095711127176573443 -0.2751242682777974 0 0.114720785939063 -0.26575264298982931 0 0.1176113560141319 -0.2851589593963586 0 0.095711127176573443 -0.2751242682777974 0 0.096521476943682558 -0.25181800011133371 0 0.114720785939063 -0.26575264298982931 0 0.1376178273856396 -0.2676878026278281 0 0.114720785939063 -0.26575264298982931 0 0.1200034520355143 -0.24749468667538321 0 0.096521476943682558 -0.25181800011133371 0 0.114720785939063 -0.26575264298982931 0 0.1200034520355143 -0.24749468667538321 0 0.1376178273856396 -0.2676878026278281 0 0.114720785939063 -0.26575264298982931 0 0.1176113560141319 -0.2851589593963586 0 0.13584279120622419 -0.29064916595208462 0 0.1176113560141319 -0.2851589593963586 0 0.1212075847983899 -0.30357596212866123 0 0.1176113560141319 -0.2851589593963586 0 0.095899689397586599 -0.3008291305439913 0 0.1212075847983899 -0.30357596212866123 0 0.1176113560141319 -0.2851589593963586 0 0.095899689397586599 -0.3008291305439913 0 0.095711127176573443 -0.2751242682777974 0 0.1176113560141319 -0.2851589593963586 0 0.095899689397586599 -0.3008291305439913 0 0.095899689397586599 -0.3008291305439913 0 0.1212075847983899 -0.30357596212866123 0 0.1047724191350739 -0.31963875894108951 0 0.1212075847983899 -0.30357596212866123 0 0.1249111379911398 -0.32186001205002218 0 0.1047724191350739 -0.31963875894108951 0 0.1249111379911398 -0.32186001205002218 0 0.1047724191350739 -0.31963875894108951 0 0.11573058637367541 -0.34380091622275832 0 0.094619564876377599 -0.33586527524184762 0 0.1047724191350739 -0.31963875894108951 0 0.11573058637367541 -0.34380091622275832 0 0.094619564876377599 -0.33586527524184762 0 0.1047724191350739 -0.31963875894108951 0 0.086339338786571823 -0.32698567366184278 0 0.095899689397586599 -0.3008291305439913 0 0.1047724191350739 -0.31963875894108951 0 0.086339338786571823 -0.32698567366184278 0 0.1018679158255022 -0.38137383587803358 0 0.12334710111447229 -0.36406834251145731 0 0.1018679158255022 -0.38137383587803358 0 0.12334710111447229 -0.36406834251145731 0 0.10879209213087419 -0.36797725762153549 0 0.12334710111447229 -0.36406834251145731 0 0.11573058637367541 -0.34380091622275832 0 0.10879209213087419 -0.36797725762153549 0 0.11573058637367541 -0.34380091622275832 0 0.097402960874061584 -0.35810732382917831 0 0.10879209213087419 -0.36797725762153549 0 0.094619564876377599 -0.33586527524184762 0 0.11573058637367541 -0.34380091622275832 0 0.097402960874061584 -0.35810732382917831 0 0.094619564876377599 -0.33586527524184762 0 0.097402960874061584 -0.35810732382917831 0 0.1001863568717406 -0.38034937241650962 0 0.097402960874061584 -0.35810732382917831 0 0.1001863568717406 -0.38034937241650962 0 0.097402960874061584 -0.35810732382917831 0 0.10879209213087419 -0.36797725762153549 0 0.1001863568717406 -0.38034937241650962 0 0.097402960874061584 -0.35810732382917831 0 0.078941289569781151 -0.36740614783332631 0 0.1001863568717406 -0.38034937241650962 0 0.078941289569781151 -0.36740614783332631 0 0.094619564876377599 -0.33586527524184762 0 0.097402960874061584 -0.35810732382917831 0 0.084740357312199394 -0.34701535865000288 0 0.078941289569781151 -0.36740614783332631 0 0.084740357312199394 -0.34701535865000288 0 0.072564810466095128 -0.35396504242622201 0 0.097402960874061584 -0.35810732382917831 0 0.078941289569781151 -0.36740614783332631 0 0.084740357312199394 -0.34701535865000288 0 0.078941289569781151 -0.36740614783332631 0 0.072564810466095128 -0.35396504242622201 0 0.057696222267823373 -0.35446292325014028 0 0.084740357312199394 -0.34701535865000288 0 0.072564810466095128 -0.35396504242622201 0 0.073102422775426085 -0.33909783780230318 0 0.064643683218506637 -0.34920539315333932 0 0.072564810466095128 -0.35396504242622201 0 0.073102422775426085 -0.33909783780230318 0 0.064643683218506637 -0.34920539315333932 0 0.072564810466095128 -0.35396504242622201 0 0.057696222267823373 -0.35446292325014028 0 0.078941289569781151 -0.36740614783332631 0 0.057696222267823373 -0.35446292325014028 0 0.076461538166658155 -0.38231907318138902 0 0.078941289569781151 -0.36740614783332631 0 0.061904282875925747 -0.37237526148823941 0 0.078941289569781151 -0.36740614783332631 0 0.061904282875925747 -0.37237526148823941 0 0.057696222267823373 -0.35446292325014028 0 0.095899689397586599 -0.3008291305439913 0 0.086339338786571823 -0.32698567366184278 0 0.074188022781041252 -0.31649930169162399 0 0.094619564876377599 -0.33586527524184762 0 0.084740357312199394 -0.34701535865000288 0 0.086339338786571823 -0.32698567366184278 0 0.084740357312199394 -0.34701535865000288 0 0.086339338786571823 -0.32698567366184278 0 0.073102422775426085 -0.33909783780230318 0 0.073102422775426085 -0.33909783780230318 0 0.074188022781041252 -0.31649930169162399 0 0.052476356164494947 -0.33216947283925541 0 0.064643683218506637 -0.34920539315333932 0 0.073102422775426085 -0.33909783780230318 0 0.060945063747813971 -0.34285112352430303 0 0.074188022781041252 -0.31649930169162399 0 0.052476356164494947 -0.33216947283925541 0 0.086339338786571823 -0.32698567366184278 0 0.073102422775426085 -0.33909783780230318 0 0.074188022781041252 -0.31649930169162399 0 0.052476356164494947 -0.33216947283925541 0 0.058270312985904418 -0.30816514798469019 0 0.052476356164494947 -0.33216947283925541 0 0.044648526871603783 -0.31770081170742831 0 0.058270312985904418 -0.30816514798469019 0 0.074188022781041252 -0.31649930169162399 0 0.052476356164494947 -0.33216947283925541 0 0.058270312985904418 -0.30816514798469019 0 0.052476356164494947 -0.33216947283925541 0 0.047583047975914103 -0.35244241635483559 0 0.073102422775426085 -0.33909783780230318 0 0.060945063747813971 -0.34285112352430303 0 0.052476356164494947 -0.33216947283925541 0 0.060945063747813971 -0.34285112352430303 0 0.052476356164494947 -0.33216947283925541 0 0.054181307711507642 -0.34983992205818981 0 0.052476356164494947 -0.33216947283925541 0 0.04071506683574927 -0.34065806194451792 0 0.047583047975914103 -0.35244241635483559 0 0.052476356164494947 -0.33216947283925541 0 0.04071506683574927 -0.34065806194451792 0 0.044648526871603783 -0.31770081170742831 0 0.04071506683574927 -0.34065806194451792 0 0.03015636661650286 -0.3225410253719756 0 0.04071506683574927 -0.34065806194451792 0 0.03015636661650286 -0.3225410253719756 0 0.02636863849756152 -0.33688388254537838 0 0.052476356164494947 -0.33216947283925541 0 0.04071506683574927 -0.34065806194451792 0 0.04071506683574927 -0.34065806194451792 0 0.044648526871603783 -0.31770081170742831 0 0.03015636661650286 -0.3225410253719756 0 0.044648526871603783 -0.31770081170742831 0 0.03015636661650286 -0.3225410253719756 0 0.034491627806478041 -0.30853974567073322 0 0.061904282875925747 -0.37237526148823941 0 0.053259535722039633 -0.3641180164926533 0 0.057696222267823373 -0.35446292325014028 0 0.051370350477500881 -0.3764161884637201 0 0.053259535722039633 -0.3641180164926533 0 0.043663507306638913 -0.36868104746756258 0 0.051370350477500881 -0.3764161884637201 0 0.061904282875925747 -0.37237526148823941 0 0.053259535722039633 -0.3641180164926533 0 0.053259535722039633 -0.3641180164926533 0 0.048773826387857627 -0.3544856011778737 0 0.043663507306638913 -0.36868104746756258 0 0.052476356164494947 -0.33216947283925541 0 0.047583047975914103 -0.35244241635483559 0 0.054181307711507642 -0.34983992205818981 0 0.053259535722039633 -0.3641180164926533 0 0.053244657324237762 -0.3582642649149802 0 0.048773826387857627 -0.3544856011778737 0 0.053244657324237762 -0.3582642649149802 0 0.048773826387857627 -0.3544856011778737 0 0.054181307711507642 -0.34983992205818981 0 0.048773826387857627 -0.3544856011778737 0 0.047583047975914103 -0.35244241635483559 0 0.054181307711507642 -0.34983992205818981 0 0.048773826387857627 -0.3544856011778737 0 0.047583047975914103 -0.35244241635483559 0 0.053259535722039633 -0.3641180164926533 0 0.053244657324237762 -0.3582642649149802 0 0.057696222267823373 -0.35446292325014028 0 0.053244657324237762 -0.3582642649149802 0 0.057696222267823373 -0.35446292325014028 0 0.054181307711507642 -0.34983992205818981 0 0.064643683218506637 -0.34920539315333932 0 0.057696222267823373 -0.35446292325014028 0 0.054181307711507642 -0.34983992205818981 0 0.064643683218506637 -0.34920539315333932 0 0.060945063747813971 -0.34285112352430303 0 0.054181307711507642 -0.34983992205818981 0 0.048773826387857627 -0.3544856011778737 0 0.047583047975914103 -0.35244241635483559 0 0.043663507306638913 -0.36868104746756258 0 0.04071506683574927 -0.34065806194451792 0 0.047583047975914103 -0.35244241635483559 0 0.04071506683574927 -0.34065806194451792 0 0.047583047975914103 -0.35244241635483559 0 0.03985573710467899 -0.35136837444597901 0 0.04071506683574927 -0.34065806194451792 0 0.03985573710467899 -0.35136837444597901 0 0.03205896378917665 -0.35434441690964041 0 0.04071506683574927 -0.34065806194451792 0 0.03205896378917665 -0.35434441690964041 0 0.025431496553892478 -0.35168882095041942 0 0.04071506683574927 -0.34065806194451792 0 0.025431496553892478 -0.35168882095041942 0 0.03985573710467899 -0.35136837444597901 0 0.03205896378917665 -0.35434441690964041 0 0.039065869817875902 -0.35802860257492208 0 0.047583047975914103 -0.35244241635483559 0 0.03985573710467899 -0.35136837444597901 0 0.039065869817875902 -0.35802860257492208 0 0.02837172461734 -0.38295609391969199 0 0.033371525452051833 -0.36592480980272157 0 0.043663507306638913 -0.36868104746756258 0 0.047583047975914103 -0.35244241635483559 0 0.039065869817875902 -0.35802860257492208 0 0.043663507306638913 -0.36868104746756258 0 0.047583047975914103 -0.35244241635483559 0 0.043663507306638913 -0.36868104746756258 0 0.039065869817875902 -0.35802860257492208 0 0.033371525452051833 -0.36592480980272157 0 0.043663507306638913 -0.36868104746756258 0 0.03205896378917665 -0.35434441690964041 0 0.039065869817875902 -0.35802860257492208 0 0.033371525452051833 -0.36592480980272157 0 0.02837172461734 -0.38295609391969199 0 0.0099352179383349771 -0.36287309999936251 0 0.02837172461734 -0.38295609391969199 0 0.023697561729227701 -0.3656138881417908 0 0.0099352179383349771 -0.36287309999936251 0 0.02837172461734 -0.38295609391969199 0 0.033371525452051833 -0.36592480980272157 0 0.023697561729227701 -0.3656138881417908 0 0.02837172461734 -0.38295609391969199 0 0.0122991559467155 -0.37891225603134221 0 0.0099352179383349771 -0.36287309999936251 0 0.03205896378917665 -0.35434441690964041 0 0.033371525452051833 -0.36592480980272157 0 0.023697561729227701 -0.3656138881417908 0 0.023697561729227701 -0.3656138881417908 0 0.025431496553892478 -0.35168882095041942 0 0.0099352179383349771 -0.36287309999936251 0 0.025431496553892478 -0.35168882095041942 0 0.0075807645751098419 -0.34453611388615663 0 0.025431496553892478 -0.35168882095041942 0 0.0075807645751098419 -0.34453611388615663 0 0.02636863849756152 -0.33688388254537838 0 0.025431496553892478 -0.35168882095041942 0 0.0099352179383349771 -0.36287309999936251 0 0.03205896378917665 -0.35434441690964041 0 0.023697561729227701 -0.3656138881417908 0 0.025431496553892478 -0.35168882095041942 0 0.03205896378917665 -0.35434441690964041 0 0.025431496553892478 -0.35168882095041942 0 -0.0096343958099064687 -0.34155580596031437 0 0.0099352179383349771 -0.36287309999936251 0 -0.0096343958099064687 -0.34155580596031437 0 0.0075807645751098419 -0.34453611388615663 0 0.0099352179383349771 -0.36287309999936251 0 0.025431496553892478 -0.35168882095041942 0 0.0075807645751098419 -0.34453611388615663 0 0.0099352179383349771 -0.36287309999936251 0 -0.002178803782163227 -0.37161627006544062 0 0.0122991559467155 -0.37891225603134221 0 0.0099352179383349771 -0.36287309999936251 0 -0.0070150904897389628 -0.35875101633193152 0 -0.002178803782163227 -0.37161627006544062 0 0.0099352179383349771 -0.36287309999936251 0 -0.002178803782163227 -0.37161627006544062 0 0.0099352179383349771 -0.36287309999936251 0 0.03015636661650286 -0.3225410253719756 0 0.019597666397256509 -0.30442398879943339 0 0.03015636661650286 -0.3225410253719756 0 0.014793392922354411 -0.31628120652474823 0 0.019597666397256509 -0.30442398879943339 0 0.03015636661650286 -0.3225410253719756 0 0.01453256369494863 -0.32953892791496292 0 0.014793392922354411 -0.31628120652474823 0 0.03015636661650286 -0.3225410253719756 0 0.02636863849756152 -0.33688388254537838 0 0.01453256369494863 -0.32953892791496292 0 0.0075807645751098419 -0.34453611388615663 0 0.02636863849756152 -0.33688388254537838 0 0.01453256369494863 -0.32953892791496292 0 0.04071506683574927 -0.34065806194451792 0 0.025431496553892478 -0.35168882095041942 0 0.02636863849756152 -0.33688388254537838 0 0.0075807645751098419 -0.34453611388615663 0 0.01453256369494863 -0.32953892791496292 0 0.0034794820758208261 -0.33361449123698089 0 -0.010269967403673339 -0.33738340682189533 0 0.0075807645751098419 -0.34453611388615663 0 0.0034794820758208261 -0.33361449123698089 0 0.01453256369494863 -0.32953892791496292 0 0.0034794820758208261 -0.33361449123698089 0 0.001904989571353899 -0.32214434476741449 0 0.001904989571353899 -0.32214434476741449 0 0.014793392922354411 -0.31628120652474823 0 0.0019518825097332619 -0.30029273945570772 0 0.01453256369494863 -0.32953892791496292 0 0.001904989571353899 -0.32214434476741449 0 0.014793392922354411 -0.31628120652474823 0 0.0019518825097332619 -0.30029273945570772 0 0.0090389661780101715 -0.28630695222689118 0 0.019597666397256509 -0.30442398879943339 0 0.014793392922354411 -0.31628120652474823 0 0.0019518825097332619 -0.30029273945570772 0 0.019597666397256509 -0.30442398879943339 0 -0.0020851015340006161 -0.28052611142458661 0 0.0019518825097332619 -0.30029273945570772 0 0.0090389661780101715 -0.28630695222689118 0 0.0090389661780101715 -0.28630695222689118 0 0.019597666397256509 -0.30442398879943339 0 0.0090389661780101715 -0.28630695222689118 0 0.019597666397256509 -0.30442398879943339 0 0.033821918158706138 -0.27707393290215671 0 0.03015636661650286 -0.3225410253719756 0 0.019597666397256509 -0.30442398879943339 0 0.034491627806478041 -0.30853974567073322 0 0.019597666397256509 -0.30442398879943339 0 0.034491627806478041 -0.30853974567073322 0 0.043330632548044458 -0.29475484461045087 0 0.044648526871603783 -0.31770081170742831 0 0.034491627806478041 -0.30853974567073322 0 0.043330632548044458 -0.29475484461045087 0 0.019597666397256509 -0.30442398879943339 0 0.043330632548044458 -0.29475484461045087 0 0.033821918158706138 -0.27707393290215671 0 0.043330632548044458 -0.29475484461045087 0 0.062049371387241412 -0.28749956346879602 0 0.033821918158706138 -0.27707393290215671 0 0.064064269807315097 -0.28416082313012542 0 0.058270312985904418 -0.30816514798469019 0 0.062049371387241412 -0.28749956346879602 0 0.033821918158706138 -0.27707393290215671 0 0.064064269807315097 -0.28416082313012542 0 0.062049371387241412 -0.28749956346879602 0 0.058270312985904418 -0.30816514798469019 0 0.043330632548044458 -0.29475484461045087 0 0.062049371387241412 -0.28749956346879602 0 0.058270312985904418 -0.30816514798469019 0 0.044648526871603783 -0.31770081170742831 0 0.043330632548044458 -0.29475484461045087 0 0.058270312985904418 -0.30816514798469019 0 0.069858226628725775 -0.26015649827556059 0 0.051624075113339378 -0.26919050519125598 0 0.046498349670861652 -0.24826912251879649 0 0.064064269807315097 -0.28416082313012542 0 0.069858226628725775 -0.26015649827556059 0 0.051624075113339378 -0.26919050519125598 0 0.062049371387241412 -0.28749956346879602 0 0.051624075113339378 -0.26919050519125598 0 0.033821918158706138 -0.27707393290215671 0 0.064064269807315097 -0.28416082313012542 0 0.062049371387241412 -0.28749956346879602 0 0.051624075113339378 -0.26919050519125598 0 0.051624075113339378 -0.26919050519125598 0 0.033821918158706138 -0.27707393290215671 0 0.034240698289148337 -0.25967273023798509 0 0.051624075113339378 -0.26919050519125598 0 0.034240698289148337 -0.25967273023798509 0 0.046498349670861652 -0.24826912251879649 0 0.034240698289148337 -0.25967273023798509 0 0.02296875629887114 -0.2464092256209898 0 0.046498349670861652 -0.24826912251879649 0 0.034240698289148337 -0.25967273023798509 0 0.0055944649301708496 -0.26664830233551728 0 0.02296875629887114 -0.2464092256209898 0 0.0090389661780101715 -0.28630695222689118 0 0.033821918158706138 -0.27707393290215671 0 0.0055944649301708496 -0.26664830233551728 0 0.033821918158706138 -0.27707393290215671 0 0.034240698289148337 -0.25967273023798509 0 0.0055944649301708496 -0.26664830233551728 0 0.033821918158706138 -0.27707393290215671 0 0.0055944649301708496 -0.26664830233551728 0 -0.0020851015340006161 -0.28052611142458661 0 0.0090389661780101715 -0.28630695222689118 0 0.0055944649301708496 -0.26664830233551728 0 0.0055944649301708496 -0.26664830233551728 0 0.0055632338660241776 -0.24332209518663511 0 0.02296875629887114 -0.2464092256209898 0 -0.0080727856436109482 -0.2481099565327444 0 0.0055944649301708496 -0.26664830233551728 0 0.0055632338660241776 -0.24332209518663511 0 0.0055632338660241776 -0.24332209518663511 0 0.0032521440618358652 -0.23009641691855939 0 0.019268989126464159 -0.2308348024940351 0 -0.0084819670471955304 -0.2367225590632196 0 0.0055632338660241776 -0.24332209518663511 0 0.0032521440618358652 -0.23009641691855939 0 -0.0075276580997289226 -0.21896018305478171 0 0.0032521440618358652 -0.23009641691855939 0 0.012041166441398349 -0.21677938876306921 0 0.0032521440618358652 -0.23009641691855939 0 0.019268989126464159 -0.2308348024940351 0 0.012041166441398349 -0.21677938876306921 0 0.019268989126464159 -0.2308348024940351 0 0.028464877365028059 -0.21915571909051779 0 0.012041166441398349 -0.21677938876306921 0 0.019268989126464159 -0.2308348024940351 0 0.028464877365028059 -0.21915571909051779 0 0.041174919052571327 -0.22964645066930789 0 0.0055632338660241776 -0.24332209518663511 0 0.019268989126464159 -0.2308348024940351 0 0.02296875629887114 -0.2464092256209898 0 0.019268989126464159 -0.2308348024940351 0 0.02296875629887114 -0.2464092256209898 0 0.041174919052571327 -0.22964645066930789 0 -0.0075276580997289226 -0.21896018305478171 0 0.003555539334036632 -0.19934620758084881 0 0.012041166441398349 -0.21677938876306921 0 0.003555539334036632 -0.19934620758084881 0 0.012041166441398349 -0.21677938876306921 0 0.02523310686075431 -0.20228300343967229 0 0.028464877365028059 -0.21915571909051779 0 0.012041166441398349 -0.21677938876306921 0 0.02523310686075431 -0.20228300343967229 0 0.02523310686075431 -0.20228300343967229 0 0.033125333554059701 -0.1865598477748947 0 0.018588522793563201 -0.18166153924030251 0 0.003555539334036632 -0.19934620758084881 0 0.02523310686075431 -0.20228300343967229 0 0.018588522793563201 -0.18166153924030251 0 0.048648578511840943 -0.20623258170594561 0 0.049880579816306267 -0.17970719815632741 0 0.033125333554059701 -0.1865598477748947 0 0.02523310686075431 -0.20228300343967229 0 0.048648578511840943 -0.20623258170594561 0 0.033125333554059701 -0.1865598477748947 0 0.028464877365028059 -0.21915571909051779 0 0.02523310686075431 -0.20228300343967229 0 0.048648578511840943 -0.20623258170594561 0 0.028464877365028059 -0.21915571909051779 0 0.048648578511840943 -0.20623258170594561 0 0.041174919052571327 -0.22964645066930789 0 0.048648578511840943 -0.20623258170594561 0 0.059757914812518881 -0.22869522271940709 0 0.066598585428591164 -0.21133354617687591 0 0.048648578511840943 -0.20623258170594561 0 0.067160325985138131 -0.18691533881804831 0 0.049880579816306267 -0.17970719815632741 0 0.048648578511840943 -0.20623258170594561 0 0.066598585428591164 -0.21133354617687591 0 0.067160325985138131 -0.18691533881804831 0 0.069858226628725775 -0.26015649827556059 0 0.046498349670861652 -0.24826912251879649 0 0.059757914812518881 -0.22869522271940709 0 0.02296875629887114 -0.2464092256209898 0 0.046498349670861652 -0.24826912251879649 0 0.041174919052571327 -0.22964645066930789 0 0.048648578511840943 -0.20623258170594561 0 0.041174919052571327 -0.22964645066930789 0 0.059757914812518881 -0.22869522271940709 0 0.046498349670861652 -0.24826912251879649 0 0.041174919052571327 -0.22964645066930789 0 0.059757914812518881 -0.22869522271940709 0 0.069858226628725775 -0.26015649827556059 0 0.059757914812518881 -0.22869522271940709 0 0.080941623453078815 -0.2334444244951252 0 0.069858226628725775 -0.26015649827556059 0 0.096521476943682558 -0.25181800011133371 0 0.080941623453078815 -0.2334444244951252 0 0.096521476943682558 -0.25181800011133371 0 0.080941623453078815 -0.2334444244951252 0 0.102389076685389 -0.22730157072293841 0 0.080941623453078815 -0.2334444244951252 0 0.084774701335263575 -0.20710845477049339 0 0.102389076685389 -0.22730157072293841 0 0.059757914812518881 -0.22869522271940709 0 0.080941623453078815 -0.2334444244951252 0 0.066598585428591164 -0.21133354617687591 0 0.080941623453078815 -0.2334444244951252 0 0.066598585428591164 -0.21133354617687591 0 0.084774701335263575 -0.20710845477049339 0 0.084774701335263575 -0.20710845477049339 0 0.067160325985138131 -0.18691533881804831 0 0.066598585428591164 -0.21133354617687591 0 0.084774701335263575 -0.20710845477049339 0 0.067160325985138131 -0.18691533881804831 0 0.092537347032927528 -0.18889969997864839 0 0.084774701335263575 -0.20710845477049339 0 0.067160325985138131 -0.18691533881804831 0 0.084774701335263575 -0.20710845477049339 0 0.102389076685389 -0.22730157072293841 0 0.084774701335263575 -0.20710845477049339 0 0.10575093398731179 -0.20517541990618701 0 0.102389076685389 -0.22730157072293841 0 0.092537347032927528 -0.18889969997864839 0 0.10575093398731179 -0.20517541990618701 0 0.11404320040195411 -0.17785048998131209 0 0.092537347032927528 -0.18889969997864839 0 0.084774701335263575 -0.20710845477049339 0 0.10575093398731179 -0.20517541990618701 0 0.10575093398731179 -0.20517541990618701 0 0.11404320040195411 -0.17785048998131209 0 0.12592289232087811 -0.19910656028939411 0 0.10575093398731179 -0.20517541990618701 0 0.1284413173888232 -0.22347585252773641 0 0.12592289232087811 -0.19910656028939411 0 0.10575093398731179 -0.20517541990618701 0 0.102389076685389 -0.22730157072293841 0 0.1284413173888232 -0.22347585252773641 0 0.1200034520355143 -0.24749468667538321 0 0.102389076685389 -0.22730157072293841 0 0.1284413173888232 -0.22347585252773641 0 0.1200034520355143 -0.24749468667538321 0 0.102389076685389 -0.22730157072293841 0 0.096521476943682558 -0.25181800011133371 0 0.1200034520355143 -0.24749468667538321 0 0.102389076685389 -0.22730157072293841 0 0.099885875260422058 -0.15149088269105351 0 0.1161887790728692 -0.1476769396888597 0 0.1105045846919957 -0.16013033574144619 0 0.099885875260422058 -0.15149088269105351 0 0.099597293261818404 -0.1347502866929414 0 0.1161887790728692 -0.1476769396888597 0 0.099597293261818404 -0.1347502866929414 0 0.1161887790728692 -0.1476769396888597 0 0.099597293261818404 -0.1347502866929414 0 0.1047785765018954 -0.13712350701568179 0 0.1161887790728692 -0.1476769396888597 0 0.099597293261818404 -0.1347502866929414 0 0.093527805260815264 -0.13002146576964491 0 0.104312872852085 -0.12243825994362539 0 0.099597293261818404 -0.1347502866929414 0 0.093527805260815264 -0.13002146576964491 0 0.099597293261818404 -0.1347502866929414 0 0.093527805260815264 -0.13002146576964491 0 0.092996203934319052 -0.1329056080468716 0 0.099597293261818404 -0.1347502866929414 0 0.1088944047617572 -0.13480079442927331 0 0.104312872852085 -0.12243825994362539 0 0.099597293261818404 -0.1347502866929414 0 0.1047785765018954 -0.13712350701568179 0 0.1088944047617572 -0.13480079442927331 0 0.099597293261818404 -0.1347502866929414 0 0.1088944047617572 -0.13480079442927331 0 0.1047785765018954 -0.13712350701568179 0 0.1088944047617572 -0.13480079442927331 0 0.1088944047617572 -0.13480079442927331 0 0.1161887790728692 -0.1476769396888597 0 0.13638976604354719 -0.13495016646355951 0 0.1088944047617572 -0.13480079442927331 0 0.12800820934211829 -0.12401417466047961 0 0.13638976604354719 -0.13495016646355951 0 0.1047785765018954 -0.13712350701568179 0 0.1088944047617572 -0.13480079442927331 0 0.1161887790728692 -0.1476769396888597 0 0.1088944047617572 -0.13480079442927331 0 0.104312872852085 -0.12243825994362539 0 0.12800820934211829 -0.12401417466047961 0 0.1088944047617572 -0.13480079442927331 0 0.12800820934211829 -0.12401417466047961 0 0.1088944047617572 -0.13480079442927331 0 0.13638976604354719 -0.13495016646355951 0 0.1161887790728692 -0.1476769396888597 0 0.1105045846919957 -0.16013033574144619 0 0.1305387904294309 -0.15561497697083931 0 0.1105045846919957 -0.16013033574144619 0 0.11404320040195411 -0.17785048998131209 0 0.1305387904294309 -0.15561497697083931 0 0.092537347032927528 -0.18889969997864839 0 0.11404320040195411 -0.17785048998131209 0 0.090957573454969964 -0.1674487964172009 0 0.1105045846919957 -0.16013033574144619 0 0.11404320040195411 -0.17785048998131209 0 0.090957573454969964 -0.1674487964172009 0 0.099885875260422058 -0.15149088269105351 0 0.1105045846919957 -0.16013033574144619 0 0.090957573454969964 -0.1674487964172009 0 0.099885875260422058 -0.15149088269105351 0 0.090957573454969964 -0.1674487964172009 0 0.080257725164813276 -0.1505404030764457 0 0.090957573454969964 -0.1674487964172009 0 0.065342325237630991 -0.1650228072456788 0 0.080257725164813276 -0.1505404030764457 0 0.092537347032927528 -0.18889969997864839 0 0.090957573454969964 -0.1674487964172009 0 0.067160325985138131 -0.18691533881804831 0 0.090957573454969964 -0.1674487964172009 0 0.067160325985138131 -0.18691533881804831 0 0.065342325237630991 -0.1650228072456788 0 0.065342325237630991 -0.1650228072456788 0 0.080257725164813276 -0.1505404030764457 0 0.056224073158944461 -0.14994265306170279 0 0.080257725164813276 -0.1505404030764457 0 0.069539210615093855 -0.1345869923500955 0 0.056224073158944461 -0.14994265306170279 0 0.099885875260422058 -0.15149088269105351 0 0.099597293261818404 -0.1347502866929414 0 0.080257725164813276 -0.1505404030764457 0 0.099597293261818404 -0.1347502866929414 0 0.080257725164813276 -0.1505404030764457 0 0.069539210615093855 -0.1345869923500955 0 0.099597293261818404 -0.1347502866929414 0 0.092996203934319052 -0.1329056080468716 0 0.069539210615093855 -0.1345869923500955 0 0.099597293261818404 -0.1347502866929414 0 0.069539210615093855 -0.1345869923500955 0 0.092996203934319052 -0.1329056080468716 0 0.069539210615093855 -0.1345869923500955 0 0.079322302472514483 -0.11895376470488229 0 0.093527805260815264 -0.13002146576964491 0 0.092996203934319052 -0.1329056080468716 0 0.079322302472514483 -0.11895376470488229 0 0.093527805260815264 -0.13002146576964491 0 0.092996203934319052 -0.1329056080468716 0 0.069539210615093855 -0.1345869923500955 0 0.052298963826290519 -0.1211548808236817 0 0.066569319149528045 -0.1206454253796948 0 0.069539210615093855 -0.1345869923500955 0 0.039481127968369292 -0.1344236980072451 0 0.052298963826290519 -0.1211548808236817 0 0.069539210615093855 -0.1345869923500955 0 0.056224073158944461 -0.14994265306170279 0 0.039481127968369292 -0.1344236980072451 0 0.069539210615093855 -0.1345869923500955 0 0.039481127968369292 -0.1344236980072451 0 0.056224073158944461 -0.14994265306170279 0 0.038811693183881758 -0.15444647348478721 0 0.047368807546727579 -0.16279517251764489 0 0.056224073158944461 -0.14994265306170279 0 0.038811693183881758 -0.15444647348478721 0 0.039481127968369292 -0.1344236980072451 0 0.038811693183881758 -0.15444647348478721 0 0.039481127968369292 -0.1344236980072451 0 0.019056913867763529 -0.155566515408149 0 0.034777770017858589 -0.1343981464191871 0 0.039481127968369292 -0.1344236980072451 0 0.022320289212787989 -0.1422177528203018 0 0.034777770017858589 -0.1343981464191871 0 0.039481127968369292 -0.1344236980072451 0 0.034777770017858589 -0.1343981464191871 0 0.029299678594365521 -0.12697140115214181 0 0.037800108132664212 -0.12348471533883321 0 0.034777770017858589 -0.1343981464191871 0 0.039481127968369292 -0.1344236980072451 0 0.037800108132664212 -0.12348471533883321 0 0.039481127968369292 -0.1344236980072451 0 0.052298963826290519 -0.1211548808236817 0 0.039481127968369292 -0.1344236980072451 0 0.052298963826290519 -0.1211548808236817 0 0.037800108132664212 -0.12348471533883321 0 0.067160325985138131 -0.18691533881804831 0 0.065342325237630991 -0.1650228072456788 0 0.049880579816306267 -0.17970719815632741 0 0.065342325237630991 -0.1650228072456788 0 0.049880579816306267 -0.17970719815632741 0 0.047368807546727579 -0.16279517251764489 0 0.065342325237630991 -0.1650228072456788 0 0.056224073158944461 -0.14994265306170279 0 0.047368807546727579 -0.16279517251764489 0 0.049880579816306267 -0.17970719815632741 0 0.047368807546727579 -0.16279517251764489 0 0.031927543377605602 -0.16950432842919569 0 0.038811693183881758 -0.15444647348478721 0 0.047368807546727579 -0.16279517251764489 0 0.031927543377605602 -0.16950432842919569 0 0.049880579816306267 -0.17970719815632741 0 0.031927543377605602 -0.16950432842919569 0 0.033125333554059701 -0.1865598477748947 0 0.031927543377605602 -0.16950432842919569 0 0.033125333554059701 -0.1865598477748947 0 0.018588522793563201 -0.18166153924030251 0 0.031927543377605602 -0.16950432842919569 0 0.018588522793563201 -0.18166153924030251 0 0.019056913867763529 -0.155566515408149 0 0.038811693183881758 -0.15444647348478721 0 0.031927543377605602 -0.16950432842919569 0 0.019056913867763529 -0.155566515408149 0 -0.0013673002328405961 -0.1767093328090546 0 0.018588522793563201 -0.18166153924030251 0 0.019056913867763529 -0.155566515408149 0 -0.0013673002328405961 -0.1767093328090546 0 0.019056913867763529 -0.155566515408149 0 -0.0013673002328405961 -0.1767093328090546 0 0.019056913867763529 -0.155566515408149 0 0.0027310736070901482 -0.15493719994590471 0 -0.0013673002328405961 -0.1767093328090546 0 0.003555539334036632 -0.19934620758084881 0 0.018588522793563201 -0.18166153924030251 0 0.020222670022858619 -0.12863691797839069 0 0.022320289212787989 -0.1422177528203018 0 0.0088678229424013627 -0.13941235935176011 0 0.020222670022858619 -0.12863691797839069 0 0.02665510196196769 -0.1330560545925053 0 0.022320289212787989 -0.1422177528203018 0 0.034777770017858589 -0.1343981464191871 0 0.029299678594365521 -0.12697140115214181 0 0.02665510196196769 -0.1330560545925053 0 0.020222670022858619 -0.12863691797839069 0 0.029299678594365521 -0.12697140115214181 0 0.02665510196196769 -0.1330560545925053 0 0.034777770017858589 -0.1343981464191871 0 0.02665510196196769 -0.1330560545925053 0 0.022320289212787989 -0.1422177528203018 0 0.039481127968369292 -0.1344236980072451 0 0.019056913867763529 -0.155566515408149 0 0.019056913867763529 -0.155566515408149 0 0.022320289212787989 -0.1422177528203018 0 0.0088678229424013627 -0.13941235935176011 0 0.039481127968369292 -0.1344236980072451 0 0.019056913867763529 -0.155566515408149 0 0.022320289212787989 -0.1422177528203018 0 0.019056913867763529 -0.155566515408149 0 0.0027310736070901482 -0.15493719994590471 0 0.0088678229424013627 -0.13941235935176011 0 0.020222670022858619 -0.12863691797839069 0 0.0088678229424013627 -0.13941235935176011 0 0.0015243557028834459 -0.11711868301268021 0 0.020222670022858619 -0.12863691797839069 0 0.0015243557028834459 -0.11711868301268021 0 0.0144479962461943 -0.1082343501681014 0 0.020222670022858619 -0.12863691797839069 0 0.02728947708542654 -0.1146689930447462 0 0.0144479962461943 -0.1082343501681014 0 0.020222670022858619 -0.12863691797839069 0 0.029299678594365521 -0.12697140115214181 0 0.02728947708542654 -0.1146689930447462 0 0.0144479962461943 -0.1082343501681014 0 0.01674231050701382 -0.093658367309864349 0 0.03170108987002046 -0.10050694789866579 0 0.02728947708542654 -0.1146689930447462 0 0.0144479962461943 -0.1082343501681014 0 0.03170108987002046 -0.10050694789866579 0 0.01674231050701382 -0.093658367309864349 0 0.02745527456064175 -0.089089442263575569 0 0.03170108987002046 -0.10050694789866579 0 0.0144479962461943 -0.1082343501681014 0 0.001856719827670471 -0.098182337095309047 0 0.01674231050701382 -0.093658367309864349 0 0.0015243557028834459 -0.11711868301268021 0 0.0144479962461943 -0.1082343501681014 0 0.001856719827670471 -0.098182337095309047 0 0.001856719827670471 -0.098182337095309047 0 0.0065051428120863272 -0.082127796022149757 0 0.01674231050701382 -0.093658367309864349 0 0.0065051428120863272 -0.082127796022149757 0 0.018539693253586439 -0.071597204448153262 0 0.01731060528333208 -0.084118202510935727 0 0.0065051428120863272 -0.082127796022149757 0 0.01674231050701382 -0.093658367309864349 0 0.01731060528333208 -0.084118202510935727 0 0.0065051428120863272 -0.082127796022149757 0 0.018539693253586439 -0.071597204448153262 0 0.00035237720396625368 -0.061086817302918282 0 0.018539693253586439 -0.071597204448153262 0 0.00035237720396625368 -0.061086817302918282 0 0.029337839486141829 -0.062098975348790997 0 0.018539693253586439 -0.071597204448153262 0 0.036998616429076953 -0.080413518666692163 0 0.029337839486141829 -0.062098975348790997 0 0.018539693253586439 -0.071597204448153262 0 0.039278739387756327 -0.087755278287702396 0 0.018539693253586439 -0.071597204448153262 0 0.02745527456064175 -0.089089442263575569 0 0.039278739387756327 -0.087755278287702396 0 0.018539693253586439 -0.071597204448153262 0 0.01731060528333208 -0.084118202510935727 0 0.02745527456064175 -0.089089442263575569 0 0.01674231050701382 -0.093658367309864349 0 0.01731060528333208 -0.084118202510935727 0 0.02745527456064175 -0.089089442263575569 0 0.018539693253586439 -0.071597204448153262 0 0.036998616429076953 -0.080413518666692163 0 0.039278739387756327 -0.087755278287702396 0 0.02745527456064175 -0.089089442263575569 0 0.039278739387756327 -0.087755278287702396 0 0.036114206476440321 -0.094502097047588079 0 0.036998616429076953 -0.080413518666692163 0 0.039278739387756327 -0.087755278287702396 0 0.050747139898636717 -0.081209848062237813 0 0.058323301768317432 -0.063111133394663815 0 0.029337839486141829 -0.062098975348790997 0 0.036998616429076953 -0.080413518666692163 0 0.058323301768317432 -0.063111133394663815 0 0.029337839486141829 -0.062098975348790997 0 0.036998616429076953 -0.080413518666692163 0 0.058323301768317432 -0.063111133394663815 0 0.058323301768317432 -0.063111133394663815 0 0.050747139898636717 -0.081209848062237813 0 0.060228637404373828 -0.081759239016750626 0 0.036998616429076953 -0.080413518666692163 0 0.058323301768317432 -0.063111133394663815 0 0.050747139898636717 -0.081209848062237813 0 0.039278739387756327 -0.087755278287702396 0 0.050747139898636717 -0.081209848062237813 0 0.060818353003097771 -0.090653503469919336 0 0.050747139898636717 -0.081209848062237813 0 0.060228637404373828 -0.081759239016750626 0 0.060818353003097771 -0.090653503469919336 0 0.060017785521926562 -0.10391335212725129 0 0.042153090511964017 -0.099193769589441219 0 0.043653631303676513 -0.1092911725859987 0 0.060017785521926562 -0.10391335212725129 0 0.043653631303676513 -0.1092911725859987 0 0.039278739387756327 -0.087755278287702396 0 0.060818353003097771 -0.090653503469919336 0 0.060017785521926562 -0.10391335212725129 0 0.060017785521926562 -0.10391335212725129 0 0.053375718786791107 -0.1112883554404277 0 0.043653631303676513 -0.1092911725859987 0 0.039278739387756327 -0.087755278287702396 0 0.060017785521926562 -0.10391335212725129 0 0.039278739387756327 -0.087755278287702396 0 0.060017785521926562 -0.10391335212725129 0 0.042153090511964017 -0.099193769589441219 0 0.060017785521926562 -0.10391335212725129 0 0.053375718786791107 -0.1112883554404277 0 0.065116799684213397 -0.10788606364011991 0 0.052298963826290519 -0.1211548808236817 0 0.066569319149528045 -0.1206454253796948 0 0.065116799684213397 -0.10788606364011991 0 0.052298963826290519 -0.1211548808236817 0 0.065116799684213397 -0.10788606364011991 0 0.052298963826290519 -0.1211548808236817 0 0.053375718786791107 -0.1112883554404277 0 0.065116799684213397 -0.10788606364011991 0 0.052298963826290519 -0.1211548808236817 0 0.053375718786791107 -0.1112883554404277 0 0.043653631303676513 -0.1092911725859987 0 0.02728947708542654 -0.1146689930447462 0 0.037800108132664212 -0.12348471533883321 0 0.043653631303676513 -0.1092911725859987 0 0.02728947708542654 -0.1146689930447462 0 0.043653631303676513 -0.1092911725859987 0 0.052298963826290519 -0.1211548808236817 0 0.037800108132664212 -0.12348471533883321 0 0.043653631303676513 -0.1092911725859987 0 0.029299678594365521 -0.12697140115214181 0 0.02728947708542654 -0.1146689930447462 0 0.037800108132664212 -0.12348471533883321 0 0.02728947708542654 -0.1146689930447462 0 0.03170108987002046 -0.10050694789866579 0 0.043653631303676513 -0.1092911725859987 0 0.036114206476440321 -0.094502097047588079 0 0.03170108987002046 -0.10050694789866579 0 0.042153090511964017 -0.099193769589441219 0 0.02745527456064175 -0.089089442263575569 0 0.036114206476440321 -0.094502097047588079 0 0.03170108987002046 -0.10050694789866579 0 0.039278739387756327 -0.087755278287702396 0 0.036114206476440321 -0.094502097047588079 0 0.042153090511964017 -0.099193769589441219 0 0.03170108987002046 -0.10050694789866579 0 0.042153090511964017 -0.099193769589441219 0 0.043653631303676513 -0.1092911725859987 0 0.025695344612614111 0.0095801541182225364 0 0.02812452509478746 -0.0099579005571815878 0 0.006935528729737548 -0.0054826371559186567 0 0.02812452509478746 -0.0099579005571815878 0 0.006935528729737548 -0.0054826371559186567 0 0.01889941714368459 -0.025130787452367569 0 0.006935528729737548 -0.0054826371559186567 0 0.0027408304473846411 -0.028176541972939319 0 0.01889941714368459 -0.025130787452367569 0 0.02812452509478746 -0.0099579005571815878 0 0.01889941714368459 -0.025130787452367569 0 0.035567370731091272 -0.02454493013615917 0 0.01889941714368459 -0.025130787452367569 0 0.02846567832778216 -0.042756626880165419 0 0.035567370731091272 -0.02454493013615917 0 0.01889941714368459 -0.025130787452367569 0 0.02846567832778216 -0.042756626880165419 0 0.0096258971738255473 -0.043108802377643002 0 0.02846567832778216 -0.042756626880165419 0 0.0096258971738255473 -0.043108802377643002 0 0.016945448047928951 -0.052262805477379423 0 0.01889941714368459 -0.025130787452367569 0 0.0096258971738255473 -0.043108802377643002 0 -0.01026660782967455 -0.041229232136501717 0 0.0027408304473846411 -0.028176541972939319 0 0.0096258971738255473 -0.043108802377643002 0 0.0027408304473846411 -0.028176541972939319 0 0.01889941714368459 -0.025130787452367569 0 0.0096258971738255473 -0.043108802377643002 0 0.0096258971738255473 -0.043108802377643002 0 0.00035237720396625368 -0.061086817302918282 0 0.016945448047928951 -0.052262805477379423 0 0.00035237720396625368 -0.061086817302918282 0 0.016945448047928951 -0.052262805477379423 0 0.029337839486141829 -0.062098975348790997 0 0.0096258971738255473 -0.043108802377643002 0 0.00035237720396625368 -0.061086817302918282 0 0.00035237720396625368 -0.061086817302918282 0 0.029337839486141829 -0.062098975348790997 0 0.02846567832778216 -0.042756626880165419 0 0.016945448047928951 -0.052262805477379423 0 0.029337839486141829 -0.062098975348790997 0 0.02846567832778216 -0.042756626880165419 0 0.029337839486141829 -0.062098975348790997 0 0.044041605111135473 -0.049431168693685697 0 0.058323301768317432 -0.063111133394663815 0 0.029337839486141829 -0.062098975348790997 0 0.044041605111135473 -0.049431168693685697 0 0.058323301768317432 -0.063111133394663815 0 0.044041605111135473 -0.049431168693685697 0 0.059903341899081253 -0.040049795258846832 0 0.059903341899081253 -0.040049795258846832 0 0.045154502468205723 -0.035444412579530127 0 0.052999286202529479 -0.022291816621987929 0 0.044041605111135473 -0.049431168693685697 0 0.059903341899081253 -0.040049795258846832 0 0.045154502468205723 -0.035444412579530127 0 0.02846567832778216 -0.042756626880165419 0 0.044041605111135473 -0.049431168693685697 0 0.045154502468205723 -0.035444412579530127 0 0.02846567832778216 -0.042756626880165419 0 0.045154502468205723 -0.035444412579530127 0 0.035567370731091272 -0.02454493013615917 0 0.045154502468205723 -0.035444412579530127 0 0.035567370731091272 -0.02454493013615917 0 0.052999286202529479 -0.022291816621987929 0 0.035567370731091272 -0.02454493013615917 0 0.052999286202529479 -0.022291816621987929 0 0.04138045704507981 -0.013293391242584921 0 0.02812452509478746 -0.0099579005571815878 0 0.035567370731091272 -0.02454493013615917 0 0.04138045704507981 -0.013293391242584921 0 0.059903341899081253 -0.040049795258846832 0 0.052999286202529479 -0.022291816621987929 0 0.073093181043766914 -0.026775388104941698 0 0.052999286202529479 -0.022291816621987929 0 0.049896637954744763 -0.0073960790217490677 0 0.04138045704507981 -0.013293391242584921 0 0.052999286202529479 -0.022291816621987929 0 0.049896637954744763 -0.0073960790217490677 0 0.066530330394949447 -0.012320269852860621 0 0.049896637954744763 -0.0073960790217490677 0 0.040314465242246092 -0.002276229875846851 0 0.04138045704507981 -0.013293391242584921 0 0.025695344612614111 0.0095801541182225364 0 0.02812452509478746 -0.0099579005571815878 0 0.040314465242246092 -0.002276229875846851 0 0.046640351189982193 0.001482106492276504 0 0.049896637954744763 -0.0073960790217490677 0 0.040314465242246092 -0.002276229875846851 0 0.02812452509478746 -0.0099579005571815878 0 0.040314465242246092 -0.002276229875846851 0 0.04138045704507981 -0.013293391242584921 0 0.075461568133428525 0.0044331687040122013 0 0.081703970602104437 -0.011974759962048749 0 0.098011391193308373 -0.0056982583262641584 0 0.075461568133428525 0.0044331687040122013 0 0.049896637954744763 -0.0073960790217490677 0 0.075461568133428525 0.0044331687040122013 0 0.049896637954744763 -0.0073960790217490677 0 0.066530330394949447 -0.012320269852860621 0 0.075461568133428525 0.0044331687040122013 0 0.081703970602104437 -0.011974759962048749 0 0.066530330394949447 -0.012320269852860621 0 0.081703970602104437 -0.011974759962048749 0 0.066530330394949447 -0.012320269852860621 0 0.073093181043766914 -0.026775388104941698 0 0.052999286202529479 -0.022291816621987929 0 0.066530330394949447 -0.012320269852860621 0 0.073093181043766914 -0.026775388104941698 0 0.081703970602104437 -0.011974759962048749 0 0.097837743661838034 -0.031049975793767819 0 0.098011391193308373 -0.0056982583262641584 0 0.081703970602104437 -0.011974759962048749 0 0.073093181043766914 -0.026775388104941698 0 0.097837743661838034 -0.031049975793767819 0 0.078080522715077566 -0.047080554594215653 0 0.097861902682226248 -0.045151270938537998 0 0.097837743661838034 -0.031049975793767819 0 0.073093181043766914 -0.026775388104941698 0 0.078080522715077566 -0.047080554594215653 0 0.097837743661838034 -0.031049975793767819 0 0.078080522715077566 -0.047080554594215653 0 0.097837743661838034 -0.031049975793767819 0 0.059903341899081253 -0.040049795258846832 0 0.073093181043766914 -0.026775388104941698 0 0.078080522715077566 -0.047080554594215653 0 0.058323301768317432 -0.063111133394663815 0 0.078080522715077566 -0.047080554594215653 0 0.058323301768317432 -0.063111133394663815 0 0.059903341899081253 -0.040049795258846832 0 0.078080522715077566 -0.047080554594215653 0 0.058323301768317432 -0.063111133394663815 0 0.078080522715077566 -0.047080554594215653 0 0.081939961595450139 -0.063935815506958552 0 0.078080522715077566 -0.047080554594215653 0 0.094142039140793971 -0.055881476276546937 0 0.081939961595450139 -0.063935815506958552 0 0.078080522715077566 -0.047080554594215653 0 0.094142039140793971 -0.055881476276546937 0 0.097861902682226248 -0.045151270938537998 0 0.094142039140793971 -0.055881476276546937 0 0.081939961595450139 -0.063935815506958552 0 0.1067368008806147 -0.064801708903802782 0 0.094142039140793971 -0.055881476276546937 0 0.1075629424949773 -0.053875431803618333 0 0.097861902682226248 -0.045151270938537998 0 0.094142039140793971 -0.055881476276546937 0 0.1075629424949773 -0.053875431803618333 0 0.1067368008806147 -0.064801708903802782 0 0.1075629424949773 -0.053875431803618333 0 0.1067368008806147 -0.064801708903802782 0 0.1075629424949773 -0.053875431803618333 0 0.1232921759667842 -0.047663851323270827 0 0.1067368008806147 -0.064801708903802782 0 0.1232921759667842 -0.047663851323270827 0 0.1067368008806147 -0.064801708903802782 0 0.1075629424949773 -0.053875431803618333 0 0.1232921759667842 -0.047663851323270827 0 0.1109518143893137 -0.039435966374661548 0 0.1232921759667842 -0.047663851323270827 0 0.1067368008806147 -0.064801708903802782 0 0.13548767730717889 -0.06580567532731052 0 0.1232921759667842 -0.047663851323270827 0 0.1109518143893137 -0.039435966374661548 0 0.124582941869709 -0.030507807285028901 0 0.1109518143893137 -0.039435966374661548 0 0.097861902682226248 -0.045151270938537998 0 0.097837743661838034 -0.031049975793767819 0 0.1075629424949773 -0.053875431803618333 0 0.1109518143893137 -0.039435966374661548 0 0.097861902682226248 -0.045151270938537998 0 0.097837743661838034 -0.031049975793767819 0 0.1175949646085984 -0.015019396993320021 0 0.097837743661838034 -0.031049975793767819 0 0.1175949646085984 -0.015019396993320021 0 0.098011391193308373 -0.0056982583262641584 0 0.1109518143893137 -0.039435966374661548 0 0.097837743661838034 -0.031049975793767819 0 0.1175949646085984 -0.015019396993320021 0 0.1109518143893137 -0.039435966374661548 0 0.124582941869709 -0.030507807285028901 0 0.1175949646085984 -0.015019396993320021 0 0.124582941869709 -0.030507807285028901 0 0.1175949646085984 -0.015019396993320021 0 0.13165260102391191 -0.019660205177744808 0 0.11882011836095251 0.0065886106746579649 0 0.1175949646085984 -0.015019396993320021 0 0.098011391193308373 -0.0056982583262641584 0 0.11882011836095251 0.0065886106746579649 0 0.13735218555535891 0.001011181807127467 0 0.1175949646085984 -0.015019396993320021 0 0.073111172643960082 -0.099610417542301155 0 0.10058413041743761 -0.090581864498492995 0 0.088608598291174498 -0.101420796185217 0 0.073111172643960082 -0.099610417542301155 0 0.10058413041743761 -0.090581864498492995 0 0.083297568291202648 -0.10670285905343881 0 0.088608598291174498 -0.101420796185217 0 0.073111172643960082 -0.099610417542301155 0 0.083297568291202648 -0.10670285905343881 0 0.088608598291174498 -0.101420796185217 0 0.097441521812097198 -0.10878804364663471 0 0.093527805260815264 -0.13002146576964491 0 0.079322302472514483 -0.11895376470488229 0 0.097441521812097198 -0.10878804364663471 0 0.083297568291202648 -0.10670285905343881 0 0.079322302472514483 -0.11895376470488229 0 0.097441521812097198 -0.10878804364663471 0 0.093527805260815264 -0.13002146576964491 0 0.079322302472514483 -0.11895376470488229 0 0.079322302472514483 -0.11895376470488229 0 0.065116799684213397 -0.10788606364011991 0 0.083297568291202648 -0.10670285905343881 0 0.079322302472514483 -0.11895376470488229 0 0.065116799684213397 -0.10788606364011991 0 0.079322302472514483 -0.11895376470488229 0 0.066569319149528045 -0.1206454253796948 0 0.065116799684213397 -0.10788606364011991 0 0.069539210615093855 -0.1345869923500955 0 0.079322302472514483 -0.11895376470488229 0 0.066569319149528045 -0.1206454253796948 0 0.060017785521926562 -0.10391335212725129 0 0.065116799684213397 -0.10788606364011991 0 0.060017785521926562 -0.10391335212725129 0 0.073111172643960082 -0.099610417542301155 0 0.065116799684213397 -0.10788606364011991 0 0.073111172643960082 -0.099610417542301155 0 0.083297568291202648 -0.10670285905343881 0 0.065116799684213397 -0.10788606364011991 0 0.073111172643960082 -0.099610417542301155 0 0.060017785521926562 -0.10391335212725129 0 0.065116799684213397 -0.10788606364011991 0 0.073111172643960082 -0.099610417542301155 0 0.060818353003097771 -0.090653503469919336 0 0.060017785521926562 -0.10391335212725129 0 0.073111172643960082 -0.099610417542301155 0 0.060818353003097771 -0.090653503469919336 0 0.073111172643960082 -0.099610417542301155 0 0.074211161232423301 -0.082716200610011378 0 0.060228637404373828 -0.081759239016750626 0 0.060818353003097771 -0.090653503469919336 0 0.074211161232423301 -0.082716200610011378 0 0.058323301768317432 -0.063111133394663815 0 0.081939961595450139 -0.063935815506958552 0 0.058323301768317432 -0.063111133394663815 0 0.074211161232423301 -0.082716200610011378 0 0.081939961595450139 -0.063935815506958552 0 0.058323301768317432 -0.063111133394663815 0 0.060228637404373828 -0.081759239016750626 0 0.074211161232423301 -0.082716200610011378 0 0.074211161232423301 -0.082716200610011378 0 0.081939961595450139 -0.063935815506958552 0 0.089190063779311518 -0.082965808471458069 0 0.081939961595450139 -0.063935815506958552 0 0.089190063779311518 -0.082965808471458069 0 0.1052689549146623 -0.0663211994006144 0 0.073111172643960082 -0.099610417542301155 0 0.074211161232423301 -0.082716200610011378 0 0.089190063779311518 -0.082965808471458069 0 0.073111172643960082 -0.099610417542301155 0 0.089190063779311518 -0.082965808471458069 0 0.073111172643960082 -0.099610417542301155 0 0.089190063779311518 -0.082965808471458069 0 0.10058413041743761 -0.090581864498492995 0 0.089190063779311518 -0.082965808471458069 0 0.1017080788123951 -0.087804556385465471 0 0.1052689549146623 -0.0663211994006144 0 0.089190063779311518 -0.082965808471458069 0 0.10058413041743761 -0.090581864498492995 0 0.1017080788123951 -0.087804556385465471 0 0.1017080788123951 -0.087804556385465471 0 0.1084674426683357 -0.077888137089068013 0 0.1052689549146623 -0.0663211994006144 0 0.089190063779311518 -0.082965808471458069 0 0.1052689549146623 -0.0663211994006144 0 0.081939961595450139 -0.063935815506958552 0 0.1067368008806147 -0.064801708903802782 0 0.1052689549146623 -0.0663211994006144 0 0.081939961595450139 -0.063935815506958552 0 0.1067368008806147 -0.064801708903802782 0 0.1017080788123951 -0.087804556385465471 0 0.1052689549146623 -0.0663211994006144 0 0.1084674426683357 -0.077888137089068013 0 0.1067368008806147 -0.064801708903802782 0 0.1052689549146623 -0.0663211994006144 0 0.1067368008806147 -0.064801708903802782 0 0.1052689549146623 -0.0663211994006144 0 0.1067368008806147 -0.064801708903802782 0 0.13548767730717889 -0.06580567532731052 0 0.1084674426683357 -0.077888137089068013 0 0.1067368008806147 -0.064801708903802782 0 0.1232061248222129 -0.075206297362028066 0 0.1067368008806147 -0.064801708903802782 0 0.1232061248222129 -0.075206297362028066 0 0.13548767730717889 -0.06580567532731052 0 0.1017080788123951 -0.087804556385465471 0 0.1084674426683357 -0.077888137089068013 0 0.1272797878356694 -0.088593758706814907 0 0.1017080788123951 -0.087804556385465471 0 0.1272797878356694 -0.088593758706814907 0 0.1084674426683357 -0.077888137089068013 0 0.1232061248222129 -0.075206297362028066 0 0.1272797878356694 -0.088593758706814907 0 0.1017080788123951 -0.087804556385465471 0 0.11567178204704499 -0.10568275569041199 0 0.1272797878356694 -0.088593758706814907 0 0.1017080788123951 -0.087804556385465471 0 0.11567178204704499 -0.10568275569041199 0 0.097441521812097198 -0.10878804364663471 0 0.1017080788123951 -0.087804556385465471 0 0.097441521812097198 -0.10878804364663471 0 0.088608598291174498 -0.101420796185217 0 0.10058413041743761 -0.090581864498492995 0 0.097441521812097198 -0.10878804364663471 0 0.10058413041743761 -0.090581864498492995 0 0.1017080788123951 -0.087804556385465471 0 0.097441521812097198 -0.10878804364663471 0 0.093527805260815264 -0.13002146576964491 0 0.097441521812097198 -0.10878804364663471 0 0.104312872852085 -0.12243825994362539 0 0.093527805260815264 -0.13002146576964491 0 0.097441521812097198 -0.10878804364663471 0 0.11567178204704499 -0.10568275569041199 0 0.097441521812097198 -0.10878804364663471 0 0.104312872852085 -0.12243825994362539 0 0.11567178204704499 -0.10568275569041199 0 0.104312872852085 -0.12243825994362539 0 0.12800820934211829 -0.12401417466047961 0 0.12800820934211829 -0.12401417466047961 0 0.14712201392247631 -0.1132275548916801 0 0.13655559816636781 -0.1031347463460832 0 0.12800820934211829 -0.12401417466047961 0 0.14712201392247631 -0.1132275548916801 0 0.11567178204704499 -0.10568275569041199 0 0.12800820934211829 -0.12401417466047961 0 0.13655559816636781 -0.1031347463460832 0 0.12800820934211829 -0.12401417466047961 0 0.14712201392247631 -0.1132275548916801 0 0.1486045981545247 -0.12747252536747111 0 0.14712201392247631 -0.1132275548916801 0 0.16095359288685571 -0.1184472051676727 0 0.1486045981545247 -0.12747252536747111 0 0.15146120268426411 -0.099532086410862586 0 0.13655559816636781 -0.1031347463460832 0 0.1528514968589437 -0.089382961028164357 0 0.14712201392247631 -0.1132275548916801 0 0.15146120268426411 -0.099532086410862586 0 0.16623581850283431 -0.10244093512288061 0 0.14712201392247631 -0.1132275548916801 0 0.15146120268426411 -0.099532086410862586 0 0.13655559816636781 -0.1031347463460832 0 0.11567178204704499 -0.10568275569041199 0 0.13655559816636781 -0.1031347463460832 0 0.1272797878356694 -0.088593758706814907 0 0.1272797878356694 -0.088593758706814907 0 0.13805891541926751 -0.078942206783145619 0 0.1528514968589437 -0.089382961028164357 0 0.1272797878356694 -0.088593758706814907 0 0.1528514968589437 -0.089382961028164357 0 0.13655559816636781 -0.1031347463460832 0 0.1272797878356694 -0.088593758706814907 0 0.1528514968589437 -0.089382961028164357 0 0.1232061248222129 -0.075206297362028066 0 0.1272797878356694 -0.088593758706814907 0 0.13805891541926751 -0.078942206783145619 0 0.1232061248222129 -0.075206297362028066 0 0.13805891541926751 -0.078942206783145619 0 0.13548767730717889 -0.06580567532731052 0 0.13548767730717889 -0.06580567532731052 0 0.16423855373374319 -0.066809641750814969 0 0.13548767730717889 -0.06580567532731052 0 0.1516507619880918 -0.076739651506421189 0 0.16423855373374319 -0.066809641750814969 0 0.13548767730717889 -0.06580567532731052 0 0.16423855373374319 -0.066809641750814969 0 0.16004124225532049 -0.061841453839887157 0 0.13805891541926751 -0.078942206783145619 0 0.13548767730717889 -0.06580567532731052 0 0.1516507619880918 -0.076739651506421189 0 0.13805891541926751 -0.078942206783145619 0 0.1516507619880918 -0.076739651506421189 0 0.1528514968589437 -0.089382961028164357 0 0.15146120268426411 -0.099532086410862586 0 0.1528514968589437 -0.089382961028164357 0 0.15581646250916109 -0.090151240212135456 0 0.1528514968589437 -0.089382961028164357 0 0.15581646250916109 -0.090151240212135456 0 0.17842320588221819 -0.090172163349513806 0 0.1528514968589437 -0.089382961028164357 0 0.17842320588221819 -0.090172163349513806 0 0.15581646250916109 -0.090151240212135456 0 0.16859491992305889 -0.093070393687126218 0 0.17842320588221819 -0.090172163349513806 0 0.1528514968589437 -0.089382961028164357 0 0.1653897445003264 -0.079862578323319361 0 0.17842320588221819 -0.090172163349513806 0 0.1516507619880918 -0.076739651506421189 0 0.1528514968589437 -0.089382961028164357 0 0.1653897445003264 -0.079862578323319361 0 0.1516507619880918 -0.076739651506421189 0 0.1653897445003264 -0.079862578323319361 0 0.16423855373374319 -0.066809641750814969 0 0.1653897445003264 -0.079862578323319361 0 0.16423855373374319 -0.066809641750814969 0 0.17833356117891219 -0.077628002067558224 0 0.16423855373374319 -0.066809641750814969 0 0.1727598808088672 -0.056322389892066158 0 0.1929894301603077 -0.067813608174319001 0 0.16423855373374319 -0.066809641750814969 0 0.1929894301603077 -0.067813608174319001 0 0.16423855373374319 -0.066809641750814969 0 0.17833356117891219 -0.077628002067558224 0 0.1929894301603077 -0.067813608174319001 0 0.17833356117891219 -0.077628002067558224 0 0.19040307974074269 -0.080139672987034255 0 0.1929894301603077 -0.067813608174319001 0 0.16859491992305889 -0.093070393687126218 0 0.17842320588221819 -0.090172163349513806 0 0.17335524666804841 -0.094081054567607611 0 0.17842320588221819 -0.090172163349513806 0 0.17824607109877541 -0.095663109832525739 0 0.17335524666804841 -0.094081054567607611 0 0.1653897445003264 -0.079862578323319361 0 0.17833356117891219 -0.077628002067558224 0 0.17842320588221819 -0.090172163349513806 0 0.17833356117891219 -0.077628002067558224 0 0.1854866420256687 -0.084161575248007242 0 0.19040307974074269 -0.080139672987034255 0 0.17833356117891219 -0.077628002067558224 0 0.17842320588221819 -0.090172163349513806 0 0.1854866420256687 -0.084161575248007242 0 0.18404025852736719 -0.096743595743047278 0 0.18504385230606449 -0.10434071571553651 0 0.19243594079672521 -0.096163448387799222 0 0.17824607109877541 -0.095663109832525739 0 0.18504385230606449 -0.10434071571553651 0 0.16623581850283431 -0.10244093512288061 0 0.18504385230606449 -0.10434071571553651 0 0.18014950107347269 -0.1188522098678762 0 0.16623581850283431 -0.10244093512288061 0 0.18404025852736719 -0.096743595743047278 0 0.17824607109877541 -0.095663109832525739 0 0.18504385230606449 -0.10434071571553651 0 0.17842320588221819 -0.090172163349513806 0 0.18404025852736719 -0.096743595743047278 0 0.19243594079672521 -0.096163448387799222 0 0.17842320588221819 -0.090172163349513806 0 0.18404025852736719 -0.096743595743047278 0 0.17824607109877541 -0.095663109832525739 0 0.17824607109877541 -0.095663109832525739 0 0.17335524666804841 -0.094081054567607611 0 0.16623581850283431 -0.10244093512288061 0 0.17824607109877541 -0.095663109832525739 0 0.16623581850283431 -0.10244093512288061 0 0.18504385230606449 -0.10434071571553651 0 0.18014950107347269 -0.1188522098678762 0 0.1922879604253335 -0.1099500278873989 0 0.18014950107347269 -0.1188522098678762 0 0.16623581850283431 -0.10244093512288061 0 0.18014950107347269 -0.1188522098678762 0 0.16095359288685571 -0.1184472051676727 0 0.16623581850283431 -0.10244093512288061 0 0.14712201392247631 -0.1132275548916801 0 0.16095359288685571 -0.1184472051676727 0 0.16623581850283431 -0.10244093512288061 0 0.18014950107347269 -0.1188522098678762 0 0.16095359288685571 -0.1184472051676727 0 0.16265603278097029 -0.1302428005884553 0 0.14712201392247631 -0.1132275548916801 0 0.16623581850283431 -0.10244093512288061 0 0.15581646250916109 -0.090151240212135456 0 0.16859491992305889 -0.093070393687126218 0 0.16623581850283431 -0.10244093512288061 0 0.15146120268426411 -0.099532086410862586 0 0.15581646250916109 -0.090151240212135456 0 0.16623581850283431 -0.10244093512288061 0 0.15581646250916109 -0.090151240212135456 0 0.16623581850283431 -0.10244093512288061 0 0.16859491992305889 -0.093070393687126218 0 0.17335524666804841 -0.094081054567607611 0 0.16623581850283431 -0.10244093512288061 0 0.13735218555535891 0.001011181807127467 0 0.1449152044553462 -0.019939696741877431 0 0.14216046477152491 0.0049125148476896544 0 0.15727218843160701 -0.01758578836774349 0 0.15849764294065671 -0.0060544572746906826 0 0.14216046477152491 0.0049125148476896544 0 0.15727218843160701 -0.01758578836774349 0 0.14216046477152491 0.0049125148476896544 0 0.1449152044553462 -0.019939696741877431 0 0.15727218843160701 -0.01758578836774349 0 0.14216046477152491 0.0049125148476896544 0 0.13735218555535891 0.001011181807127467 0 0.1449152044553462 -0.019939696741877431 0 0.13735218555535891 0.001011181807127467 0 0.1175949646085984 -0.015019396993320021 0 0.13735218555535891 0.001011181807127467 0 0.1175949646085984 -0.015019396993320021 0 0.13165260102391191 -0.019660205177744808 0 0.13735218555535891 0.001011181807127467 0 0.13165260102391191 -0.019660205177744808 0 0.1449152044553462 -0.019939696741877431 0 0.13165260102391191 -0.019660205177744808 0 0.13984755105295521 -0.030525993742740402 0 0.1449152044553462 -0.019939696741877431 0 0.124582941869709 -0.030507807285028901 0 0.13165260102391191 -0.019660205177744808 0 0.13984755105295521 -0.030525993742740402 0 0.1449152044553462 -0.019939696741877431 0 0.15247822335533329 -0.040890575290882317 0 0.15727218843160701 -0.01758578836774349 0 0.13984755105295521 -0.030525993742740402 0 0.1449152044553462 -0.019939696741877431 0 0.15247822335533329 -0.040890575290882317 0 0.1449152044553462 -0.019939696741877431 0 0.15247822335533329 -0.040890575290882317 0 0.15247822335533329 -0.040890575290882317 0 0.1379109625223634 -0.045605004272587249 0 0.14629243763992239 -0.054068479542427092 0 0.13984755105295521 -0.030525993742740402 0 0.15247822335533329 -0.040890575290882317 0 0.1379109625223634 -0.045605004272587249 0 0.1232921759667842 -0.047663851323270827 0 0.13984755105295521 -0.030525993742740402 0 0.1379109625223634 -0.045605004272587249 0 0.1232921759667842 -0.047663851323270827 0 0.124582941869709 -0.030507807285028901 0 0.13984755105295521 -0.030525993742740402 0 0.1232921759667842 -0.047663851323270827 0 0.13984755105295521 -0.030525993742740402 0 0.1232921759667842 -0.047663851323270827 0 0.13548767730717889 -0.06580567532731052 0 0.1379109625223634 -0.045605004272587249 0 0.13548767730717889 -0.06580567532731052 0 0.1379109625223634 -0.045605004272587249 0 0.14629243763992239 -0.054068479542427092 0 0.13548767730717889 -0.06580567532731052 0 0.14629243763992239 -0.054068479542427092 0 0.16004124225532049 -0.061841453839887157 0 0.15247822335533329 -0.040890575290882317 0 0.14629243763992239 -0.054068479542427092 0 0.16004124225532049 -0.061841453839887157 0 0.15247822335533329 -0.040890575290882317 0 0.16004124225532049 -0.061841453839887157 0 0.1644158146278025 -0.049784627651503079 0 0.1644158146278025 -0.049784627651503079 0 0.1727598808088672 -0.056322389892066158 0 0.1723839120916891 -0.040084091583176683 0 0.15247822335533329 -0.040890575290882317 0 0.16004124225532049 -0.061841453839887157 0 0.16423855373374319 -0.066809641750814969 0 0.16004124225532049 -0.061841453839887157 0 0.1727598808088672 -0.056322389892066158 0 0.16004124225532049 -0.061841453839887157 0 0.1644158146278025 -0.049784627651503079 0 0.1727598808088672 -0.056322389892066158 0 0.1727598808088672 -0.056322389892066158 0 0.18434240851125541 -0.050289724698312777 0 0.1723839120916891 -0.040084091583176683 0 0.1727598808088672 -0.056322389892066158 0 0.18434240851125541 -0.050289724698312777 0 0.1929894301603077 -0.067813608174319001 0 0.1723839120916891 -0.040084091583176683 0 0.18077822909658589 -0.032018797610549231 0 0.17598651952492231 -0.0227560541305885 0 0.18434240851125541 -0.050289724698312777 0 0.1723839120916891 -0.040084091583176683 0 0.18674227588606429 -0.037749552466939278 0 0.1723839120916891 -0.040084091583176683 0 0.18674227588606429 -0.037749552466939278 0 0.18077822909658589 -0.032018797610549231 0 0.18674227588606429 -0.037749552466939278 0 0.18077822909658589 -0.032018797610549231 0 0.18610830639217099 -0.030062433202775862 0 0.15247822335533329 -0.040890575290882317 0 0.1723839120916891 -0.040084091583176683 0 0.15727218843160701 -0.01758578836774349 0 0.15247822335533329 -0.040890575290882317 0 0.1644158146278025 -0.049784627651503079 0 0.1723839120916891 -0.040084091583176683 0 0.1723839120916891 -0.040084091583176683 0 0.15727218843160701 -0.01758578836774349 0 0.1723839120916891 -0.040084091583176683 0 0.1668946229318731 -0.019675061199070819 0 0.17598651952492231 -0.0227560541305885 0 0.1723839120916891 -0.040084091583176683 0 0.15727218843160701 -0.01758578836774349 0 0.1668946229318731 -0.019675061199070819 0 0.1668946229318731 -0.019675061199070819 0 0.17598651952492231 -0.0227560541305885 0 0.16985348277487761 -0.0099868764823510571 0 0.18077822909658589 -0.032018797610549231 0 0.18438258456793261 -0.021379302004443181 0 0.17598651952492231 -0.0227560541305885 0 0.18077822909658589 -0.032018797610549231 0 0.18610830639217099 -0.030062433202775862 0 0.18438258456793261 -0.021379302004443181 0 0.18438258456793261 -0.021379302004443181 0 0.17598651952492231 -0.0227560541305885 0 0.17878486519392331 -0.011645355321630489 0 0.17598651952492231 -0.0227560541305885 0 0.17878486519392331 -0.011645355321630489 0 0.16985348277487761 -0.0099868764823510571 0 0.17878486519392331 -0.011645355321630489 0 0.17506184651935949 -0.0021247232161890161 0 0.16985348277487761 -0.0099868764823510571 0 0.18438258456793261 -0.021379302004443181 0 0.17878486519392331 -0.011645355321630489 0 0.18863989258252481 -0.001979820774580698 0 0.17878486519392331 -0.011645355321630489 0 0.17506184651935949 -0.0021247232161890161 0 0.18863989258252481 -0.001979820774580698 0 0.1628037813635097 0.0015330777282007481 0 0.17506184651935949 -0.0021247232161890161 0 0.16985348277487761 -0.0099868764823510571 0 0.1668946229318731 -0.019675061199070819 0 0.16985348277487761 -0.0099868764823510571 0 0.15849764294065671 -0.0060544572746906826 0 0.15727218843160701 -0.01758578836774349 0 0.1668946229318731 -0.019675061199070819 0 0.15849764294065671 -0.0060544572746906826 0 0.1628037813635097 0.0015330777282007481 0 0.16985348277487761 -0.0099868764823510571 0 0.15849764294065671 -0.0060544572746906826 0 0.1628037813635097 0.0015330777282007481 0 0.15453230216132671 0.0032055715019124438 0 0.15849764294065671 -0.0060544572746906826 0 0.21174544862736719 0.0096628206364345465 0 0.20589386385567829 -0.0063134785331596111 0 0.2185782736923042 -0.0038367730406402641 0 0.20589386385567829 -0.0063134785331596111 0 0.2185782736923042 -0.0038367730406402641 0 0.2199828155312514 -0.0225516893132638 0 0.20589386385567829 -0.0063134785331596111 0 0.18863989258252481 -0.001979820774580698 0 0.1936475112771239 -0.030998707124919651 0 0.20589386385567829 -0.0063134785331596111 0 0.1936475112771239 -0.030998707124919651 0 0.20001428446098229 -0.034334459813343092 0 0.18863989258252481 -0.001979820774580698 0 0.1936475112771239 -0.030998707124919651 0 0.20589386385567829 -0.0063134785331596111 0 0.20001428446098229 -0.034334459813343092 0 0.18438258456793261 -0.021379302004443181 0 0.18863989258252481 -0.001979820774580698 0 0.1936475112771239 -0.030998707124919651 0 0.18610830639217099 -0.030062433202775862 0 0.18438258456793261 -0.021379302004443181 0 0.1936475112771239 -0.030998707124919651 0 0.20589386385567829 -0.0063134785331596111 0 0.20001428446098229 -0.034334459813343092 0 0.2199828155312514 -0.0225516893132638 0 0.20001428446098229 -0.034334459813343092 0 0.22061008072662569 -0.045125245157715169 0 0.20001428446098229 -0.034334459813343092 0 0.22061008072662569 -0.045125245157715169 0 0.2199828155312514 -0.0225516893132638 0 0.20001428446098229 -0.034334459813343092 0 0.19683654360934791 -0.049478981375062181 0 0.22061008072662569 -0.045125245157715169 0 0.1936475112771239 -0.030998707124919651 0 0.19683654360934791 -0.049478981375062181 0 0.18674227588606429 -0.037749552466939278 0 0.1936475112771239 -0.030998707124919651 0 0.19683654360934791 -0.049478981375062181 0 0.1936475112771239 -0.030998707124919651 0 0.20001428446098229 -0.034334459813343092 0 0.19683654360934791 -0.049478981375062181 0 0.1936475112771239 -0.030998707124919651 0 0.20001428446098229 -0.034334459813343092 0 0.18674227588606429 -0.037749552466939278 0 0.18610830639217099 -0.030062433202775862 0 0.1936475112771239 -0.030998707124919651 0 0.18434240851125541 -0.050289724698312777 0 0.18674227588606429 -0.037749552466939278 0 0.19683654360934791 -0.049478981375062181 0 0.20001428446098229 -0.034334459813343092 0 0.19683654360934791 -0.049478981375062181 0 0.19683654360934791 -0.049478981375062181 0 0.1929894301603077 -0.067813608174319001 0 0.2000429458732931 -0.068059913463883598 0 0.19683654360934791 -0.049478981375062181 0 0.21158346953455981 -0.057932445704329483 0 0.2000429458732931 -0.068059913463883598 0 0.19683654360934791 -0.049478981375062181 0 0.2000429458732931 -0.068059913463883598 0 0.19683654360934791 -0.049478981375062181 0 0.1929894301603077 -0.067813608174319001 0 0.18434240851125541 -0.050289724698312777 0 0.19683654360934791 -0.049478981375062181 0 0.1929894301603077 -0.067813608174319001 0 0.19683654360934791 -0.049478981375062181 0 0.21158346953455981 -0.057932445704329483 0 0.22061008072662569 -0.045125245157715169 0 0.24120587699226881 -0.055916030502087773 0 0.22061008072662569 -0.045125245157715169 0 0.2288443079289719 -0.069065642820655804 0 0.21158346953455981 -0.057932445704329483 0 0.22061008072662569 -0.045125245157715169 0 0.2288443079289719 -0.069065642820655804 0 0.24120587699226881 -0.055916030502087773 0 0.22061008072662569 -0.045125245157715169 0 0.25030159180115191 -0.034143426788088307 0 0.24120587699226881 -0.055916030502087773 0 0.23430517811137791 -0.037629801295311363 0 0.25030159180115191 -0.034143426788088307 0 0.23430517811137791 -0.037629801295311363 0 0.23651070060392609 -0.023431292744830981 0 0.22061008072662569 -0.045125245157715169 0 0.23430517811137791 -0.037629801295311363 0 0.2199828155312514 -0.0225516893132638 0 0.24120587699226881 -0.055916030502087773 0 0.22061008072662569 -0.045125245157715169 0 0.23430517811137791 -0.037629801295311363 0 0.2199828155312514 -0.0225516893132638 0 0.23651070060392609 -0.023431292744830981 0 0.2300866381754704 -0.0072438550720441714 0 0.23430517811137791 -0.037629801295311363 0 0.2199828155312514 -0.0225516893132638 0 0.23651070060392609 -0.023431292744830981 0 0.25030159180115191 -0.034143426788088307 0 0.23651070060392609 -0.023431292744830981 0 0.2464198669495459 -0.012097030270161889 0 0.23790413247208811 0.0091049515404343275 0 0.2464198669495459 -0.012097030270161889 0 0.2300866381754704 -0.0072438550720441714 0 0.23651070060392609 -0.023431292744830981 0 0.2464198669495459 -0.012097030270161889 0 0.2300866381754704 -0.0072438550720441714 0 0.2185782736923042 -0.0038367730406402641 0 0.2199828155312514 -0.0225516893132638 0 0.2300866381754704 -0.0072438550720441714 0 0.22518260227175371 0.0072623370788317187 0 0.2185782736923042 -0.0038367730406402641 0 0.2300866381754704 -0.0072438550720441714 0 0.20666963866093291 -0.1113398018781358 0 0.20399491490549271 -0.090961365670864353 0 0.20666963866093291 -0.1113398018781358 0 0.23081911420975029 -0.091789222750733895 0 0.20666963866093291 -0.1113398018781358 0 0.20399491490549271 -0.090961365670864353 0 0.23081911420975029 -0.091789222750733895 0 0.2184940671700534 -0.12394732724419751 0 0.20666963866093291 -0.1113398018781358 0 0.22056261316880149 -0.1108234873110058 0 0.2184940671700534 -0.12394732724419751 0 0.20975191972323501 -0.12432290509972491 0 0.20666963866093291 -0.1113398018781358 0 0.2184940671700534 -0.12394732724419751 0 0.20666963866093291 -0.1113398018781358 0 0.20975191972323501 -0.12432290509972491 0 0.20666963866093291 -0.1113398018781358 0 0.1971408692894723 -0.1190539635876471 0 0.20975191972323501 -0.12432290509972491 0 0.20666963866093291 -0.1113398018781358 0 0.18014950107347269 -0.1188522098678762 0 0.1971408692894723 -0.1190539635876471 0 0.19406318364410949 -0.13526348461287321 0 0.20666963866093291 -0.1113398018781358 0 0.1971408692894723 -0.1190539635876471 0 0.18014950107347269 -0.1188522098678762 0 0.1971408692894723 -0.1190539635876471 0 0.1922879604253335 -0.1099500278873989 0 0.20666963866093291 -0.1113398018781358 0 0.1971408692894723 -0.1190539635876471 0 0.1922879604253335 -0.1099500278873989 0 0.20666963866093291 -0.1113398018781358 0 0.19243594079672521 -0.096163448387799222 0 0.20399491490549271 -0.090961365670864353 0 0.18504385230606449 -0.10434071571553651 0 0.1922879604253335 -0.1099500278873989 0 0.19243594079672521 -0.096163448387799222 0 0.20666963866093291 -0.1113398018781358 0 0.1922879604253335 -0.1099500278873989 0 0.19243594079672521 -0.096163448387799222 0 0.20666963866093291 -0.1113398018781358 0 0.19243594079672521 -0.096163448387799222 0 0.1854866420256687 -0.084161575248007242 0 0.19040307974074269 -0.080139672987034255 0 0.20399491490549271 -0.090961365670864353 0 0.17842320588221819 -0.090172163349513806 0 0.19243594079672521 -0.096163448387799222 0 0.20399491490549271 -0.090961365670864353 0 0.17842320588221819 -0.090172163349513806 0 0.20399491490549271 -0.090961365670864353 0 0.17842320588221819 -0.090172163349513806 0 0.1854866420256687 -0.084161575248007242 0 0.20399491490549271 -0.090961365670864353 0 0.2000429458732931 -0.068059913463883598 0 0.20399491490549271 -0.090961365670864353 0 0.19040307974074269 -0.080139672987034255 0 0.2000429458732931 -0.068059913463883598 0 0.20399491490549271 -0.090961365670864353 0 0.19040307974074269 -0.080139672987034255 0 0.1929894301603077 -0.067813608174319001 0 0.2000429458732931 -0.068059913463883598 0 0.19040307974074269 -0.080139672987034255 0 0.1929894301603077 -0.067813608174319001 0 0.1929894301603077 -0.067813608174319001 0 0.2000429458732931 -0.068059913463883598 0 0.2000429458732931 -0.068059913463883598 0 0.2288443079289719 -0.069065642820655804 0 0.2000429458732931 -0.068059913463883598 0 0.21771238563745279 -0.081480669998114597 0 0.2288443079289719 -0.069065642820655804 0 0.21158346953455981 -0.057932445704329483 0 0.2000429458732931 -0.068059913463883598 0 0.2288443079289719 -0.069065642820655804 0 0.2000429458732931 -0.068059913463883598 0 0.20399491490549271 -0.090961365670864353 0 0.21771238563745279 -0.081480669998114597 0 0.20399491490549271 -0.090961365670864353 0 0.21771238563745279 -0.081480669998114597 0 0.23081911420975029 -0.091789222750733895 0 0.20399491490549271 -0.090961365670864353 0 0.23081911420975029 -0.091789222750733895 0 0.21771238563745279 -0.081480669998114597 0 0.23081911420975029 -0.091789222750733895 0 0.2288443079289719 -0.069065642820655804 0 0.25764566998465072 -0.070071372177431313 0 0.24120587699226881 -0.055916030502087773 0 0.2288443079289719 -0.069065642820655804 0 0.25764566998465072 -0.070071372177431313 0 0.2288443079289719 -0.069065642820655804 0 0.25764566998465072 -0.070071372177431313 0 0.2288443079289719 -0.069065642820655804 0 0.24423239209720191 -0.080930297464084477 0 0.25666672159796139 -0.092586939936295867 0 0.23081911420975029 -0.091789222750733895 0 0.23081911420975029 -0.091789222750733895 0 0.2288443079289719 -0.069065642820655804 0 0.24423239209720191 -0.080930297464084477 0 0.25666672159796139 -0.092586939936295867 0 0.23081911420975029 -0.091789222750733895 0 0.24423239209720191 -0.080930297464084477 0 0.23081911420975029 -0.091789222750733895 0 0.24423239209720191 -0.080930297464084477 0 0.25666672159796139 -0.092586939936295867 0 0.23081911420975029 -0.091789222750733895 0 0.23839025179526999 -0.1151992729885977 0 0.20666963866093291 -0.1113398018781358 0 0.23081911420975029 -0.091789222750733895 0 0.22056261316880149 -0.1108234873110058 0 0.23081911420975029 -0.091789222750733895 0 0.22056261316880149 -0.1108234873110058 0 0.23839025179526999 -0.1151992729885977 0 0.2184940671700534 -0.12394732724419751 0 0.22056261316880149 -0.1108234873110058 0 0.23839025179526999 -0.1151992729885977 0 0.2184940671700534 -0.12394732724419751 0 0.23839025179526999 -0.1151992729885977 0 0.22928680998153819 -0.13545484142638689 0 0.25915390151091949 -0.11811210275817149 0 0.25133622254172122 -0.13557462765415079 0 0.23839025179526999 -0.1151992729885977 0 0.25133622254172122 -0.13557462765415079 0 0.25208407187516418 -0.1419613505697605 0 0.23274332603383319 -0.13914027229300069 0 0.25133622254172122 -0.13557462765415079 0 0.23839025179526999 -0.1151992729885977 0 0.22928680998153819 -0.13545484142638689 0 0.25133622254172122 -0.13557462765415079 0 0.22928680998153819 -0.13545484142638689 0 0.25133622254172122 -0.13557462765415079 0 0.23274332603383319 -0.13914027229300069 0 0.22928680998153819 -0.13545484142638689 0 0.25208407187516418 -0.1419613505697605 0 0.23274332603383319 -0.13914027229300069 0 0.2530488896403309 -0.16079061319898569 0 0.23274332603383319 -0.13914027229300069 0 0.2530488896403309 -0.16079061319898569 0 0.23274332603383319 -0.13914027229300069 0 0.2334622085995452 -0.15779257262933219 0 0.2530488896403309 -0.16079061319898569 0 0.25208407187516418 -0.1419613505697605 0 0.23274332603383319 -0.13914027229300069 0 0.22694604844669111 -0.15137512496012309 0 0.2202725953444182 -0.1456731206256075 0 0.22100128495381829 -0.16152072110389429 0 0.22694604844669111 -0.15137512496012309 0 0.23274332603383319 -0.13914027229300069 0 0.2334622085995452 -0.15779257262933219 0 0.22694604844669111 -0.15137512496012309 0 0.2202725953444182 -0.1456731206256075 0 0.23274332603383319 -0.13914027229300069 0 0.23274332603383319 -0.13914027229300069 0 0.20959101376118139 -0.13576323162740581 0 0.22928680998153819 -0.13545484142638689 0 0.2116749968128239 -0.1353591630196288 0 0.23274332603383319 -0.13914027229300069 0 0.22928680998153819 -0.13545484142638689 0 0.2116749968128239 -0.1353591630196288 0 0.2184940671700534 -0.12394732724419751 0 0.22928680998153819 -0.13545484142638689 0 0.2116749968128239 -0.1353591630196288 0 0.2202725953444182 -0.1456731206256075 0 0.23274332603383319 -0.13914027229300069 0 0.20959101376118139 -0.13576323162740581 0 0.23274332603383319 -0.13914027229300069 0 0.22928680998153819 -0.13545484142638689 0 0.2184940671700534 -0.12394732724419751 0 0.22928680998153819 -0.13545484142638689 0 0.23274332603383319 -0.13914027229300069 0 0.20959101376118139 -0.13576323162740581 0 0.2116749968128239 -0.1353591630196288 0 0.20975191972323501 -0.12432290509972491 0 0.2116749968128239 -0.1353591630196288 0 0.19406318364410949 -0.13526348461287321 0 0.2184940671700534 -0.12394732724419751 0 0.20975191972323501 -0.12432290509972491 0 0.2116749968128239 -0.1353591630196288 0 0.20959101376118139 -0.13576323162740581 0 0.2116749968128239 -0.1353591630196288 0 0.19406318364410949 -0.13526348461287321 0 0.2202725953444182 -0.1456731206256075 0 0.21077041390333781 -0.15496976615408631 0 0.22100128495381829 -0.16152072110389429 0 0.2202725953444182 -0.1456731206256075 0 0.20959101376118139 -0.13576323162740581 0 0.21077041390333781 -0.15496976615408631 0 0.20959101376118139 -0.13576323162740581 0 0.21077041390333781 -0.15496976615408631 0 0.19406318364410949 -0.13526348461287321 0 0.21077041390333781 -0.15496976615408631 0 0.19019323353294471 -0.15547991582157239 0 0.19406318364410949 -0.13526348461287321 0 0.21077041390333781 -0.15496976615408631 0 0.19406318364410949 -0.13526348461287321 0 0.20975191972323501 -0.12432290509972491 0 0.1971408692894723 -0.1190539635876471 0 0.19406318364410949 -0.13526348461287321 0 0.2116749968128239 -0.1353591630196288 0 0.19406318364410949 -0.13526348461287321 0 0.2064216300685435 -0.1763378775815001 0 0.19333004299069351 -0.19482382871724169 0 0.185888281266576 -0.1738959907954824 0 0.21077041390333781 -0.15496976615408631 0 0.19019323353294471 -0.15547991582157239 0 0.2064216300685435 -0.1763378775815001 0 0.19019323353294471 -0.15547991582157239 0 0.2064216300685435 -0.1763378775815001 0 0.185888281266576 -0.1738959907954824 0 0.21077041390333781 -0.15496976615408631 0 0.2064216300685435 -0.1763378775815001 0 0.22100128495381829 -0.16152072110389429 0 0.2064216300685435 -0.1763378775815001 0 0.22637928715471201 -0.1750627007060517 0 0.22100128495381829 -0.16152072110389429 0 0.2064216300685435 -0.1763378775815001 0 0.22637928715471201 -0.1750627007060517 0 0.2213864998634191 -0.19074186604973761 0 0.22637928715471201 -0.1750627007060517 0 0.2363010186387848 -0.18586727398715949 0 0.2213864998634191 -0.19074186604973761 0 0.22637928715471201 -0.1750627007060517 0 0.22100128495381829 -0.16152072110389429 0 0.2334622085995452 -0.15779257262933219 0 0.22637928715471201 -0.1750627007060517 0 0.2334622085995452 -0.15779257262933219 0 0.24133419147104179 -0.17110858194103351 0 0.22694604844669111 -0.15137512496012309 0 0.22100128495381829 -0.16152072110389429 0 0.2334622085995452 -0.15779257262933219 0 0.2530488896403309 -0.16079061319898569 0 0.2334622085995452 -0.15779257262933219 0 0.24133419147104179 -0.17110858194103351 0 0.2550208565069661 -0.17514012483034949 0 0.2530488896403309 -0.16079061319898569 0 0.24133419147104179 -0.17110858194103351 0 0.22637928715471201 -0.1750627007060517 0 0.24133419147104179 -0.17110858194103351 0 0.2363010186387848 -0.18586727398715949 0 0.25030889548151403 -0.1837077448593728 0 0.2550208565069661 -0.17514012483034949 0 0.24133419147104179 -0.17110858194103351 0 0.25030889548151403 -0.1837077448593728 0 0.24133419147104179 -0.17110858194103351 0 0.2363010186387848 -0.18586727398715949 0 0.25030889548151403 -0.1837077448593728 0 0.2363010186387848 -0.18586727398715949 0 0.24624710011957149 -0.19756578472926509 0 0.2363010186387848 -0.18586727398715949 0 0.24624710011957149 -0.19756578472926509 0 0.23232272155890341 -0.19906227567560569 0 0.24624710011957149 -0.19756578472926509 0 0.2390873575194972 -0.2119906927462733 0 0.23232272155890341 -0.19906227567560569 0 0.25806059678156651 -0.21160485628964759 0 0.24624710011957149 -0.19756578472926509 0 0.2390873575194972 -0.2119906927462733 0 0.25806059678156651 -0.21160485628964759 0 0.2390873575194972 -0.2119906927462733 0 0.2485278721491469 -0.22983386195931649 0 0.22156570902884701 -0.2081716276760221 0 0.2275965143199381 -0.22680811778712909 0 0.21130945108473639 -0.22000441216527869 0 0.2390873575194972 -0.2119906927462733 0 0.22156570902884701 -0.2081716276760221 0 0.23232272155890341 -0.19906227567560569 0 0.2390873575194972 -0.2119906927462733 0 0.22156570902884701 -0.2081716276760221 0 0.2275965143199381 -0.22680811778712909 0 0.22156570902884701 -0.2081716276760221 0 0.2213864998634191 -0.19074186604973761 0 0.23232272155890341 -0.19906227567560569 0 0.2363010186387848 -0.18586727398715949 0 0.2213864998634191 -0.19074186604973761 0 0.23232272155890341 -0.19906227567560569 0 0.2410490216361528 -0.25300372010805161 0 0.2485278721491469 -0.22983386195931649 0 0.2275965143199381 -0.22680811778712909 0 0.25787859859726192 -0.24372773219337371 0 0.2410490216361528 -0.25300372010805161 0 0.2485278721491469 -0.22983386195931649 0 0.2390873575194972 -0.2119906927462733 0 0.2485278721491469 -0.22983386195931649 0 0.2275965143199381 -0.22680811778712909 0 0.2410490216361528 -0.25300372010805161 0 0.2275965143199381 -0.22680811778712909 0 0.2136455624920251 -0.24586339942155419 0 0.2410490216361528 -0.25300372010805161 0 0.2136455624920251 -0.24586339942155419 0 0.2136455624920251 -0.24586339942155419 0 0.1995187067769538 -0.22648505830905971 0 0.1970165427207646 -0.2431475676051908 0 0.2275965143199381 -0.22680811778712909 0 0.2136455624920251 -0.24586339942155419 0 0.21130945108473639 -0.22000441216527869 0 0.2136455624920251 -0.24586339942155419 0 0.21130945108473639 -0.22000441216527869 0 0.1995187067769538 -0.22648505830905971 0 0.1995187067769538 -0.22648505830905971 0 0.1970165427207646 -0.2431475676051908 0 0.1843931124890181 -0.23269732176232691 0 0.21130945108473639 -0.22000441216527869 0 0.1995187067769538 -0.22648505830905971 0 0.19847161958806309 -0.21206345826637629 0 0.2064216300685435 -0.1763378775815001 0 0.2213864998634191 -0.19074186604973761 0 0.20705859430259141 -0.20063481153153051 0 0.22156570902884701 -0.2081716276760221 0 0.2213864998634191 -0.19074186604973761 0 0.20705859430259141 -0.20063481153153051 0 0.22156570902884701 -0.2081716276760221 0 0.21130945108473639 -0.22000441216527869 0 0.20705859430259141 -0.20063481153153051 0 0.21130945108473639 -0.22000441216527869 0 0.20705859430259141 -0.20063481153153051 0 0.19847161958806309 -0.21206345826637629 0 0.19847161958806309 -0.21206345826637629 0 0.19333004299069351 -0.19482382871724169 0 0.184507054165965 -0.21658659277756609 0 0.1995187067769538 -0.22648505830905971 0 0.19847161958806309 -0.21206345826637629 0 0.184507054165965 -0.21658659277756609 0 0.20705859430259141 -0.20063481153153051 0 0.19847161958806309 -0.21206345826637629 0 0.19333004299069351 -0.19482382871724169 0 0.2064216300685435 -0.1763378775815001 0 0.20705859430259141 -0.20063481153153051 0 0.19333004299069351 -0.19482382871724169 0 0.1776330785524223 -0.18942424135099509 0 0.184507054165965 -0.21658659277756609 0 0.16837846483810831 -0.20319749351435479 0 0.19333004299069351 -0.19482382871724169 0 0.1776330785524223 -0.18942424135099509 0 0.184507054165965 -0.21658659277756609 0 0.1776330785524223 -0.18942424135099509 0 0.184507054165965 -0.21658659277756609 0 0.184507054165965 -0.21658659277756609 0 0.1749867686249286 -0.21735889230250449 0 0.16837846483810831 -0.20319749351435479 0 0.1749867686249286 -0.21735889230250449 0 0.16837846483810831 -0.20319749351435479 0 0.15045483047290331 -0.2082327262959493 0 0.1749867686249286 -0.21735889230250449 0 0.15045483047290331 -0.2082327262959493 0 0.1749867686249286 -0.21735889230250449 0 0.16226861639455931 -0.22172210758959859 0 0.15045483047290331 -0.2082327262959493 0 0.16837846483810831 -0.20319749351435479 0 0.15045483047290331 -0.2082327262959493 0 0.15431059237432221 -0.18438501484475869 0 0.1776330785524223 -0.18942424135099509 0 0.16837846483810831 -0.20319749351435479 0 0.15431059237432221 -0.18438501484475869 0 0.1970165427207646 -0.2431475676051908 0 0.18013525364959199 -0.24590787480667409 0 0.1843931124890181 -0.23269732176232691 0 0.18013525364959199 -0.24590787480667409 0 0.1843931124890181 -0.23269732176232691 0 0.17030829067285161 -0.2305872157882054 0 0.1995187067769538 -0.22648505830905971 0 0.1749867686249286 -0.21735889230250449 0 0.1995187067769538 -0.22648505830905971 0 0.1749867686249286 -0.21735889230250449 0 0.1843931124890181 -0.23269732176232691 0 0.1995187067769538 -0.22648505830905971 0 0.184507054165965 -0.21658659277756609 0 0.1749867686249286 -0.21735889230250449 0 0.1749867686249286 -0.21735889230250449 0 0.1843931124890181 -0.23269732176232691 0 0.17030829067285161 -0.2305872157882054 0 0.16226861639455931 -0.22172210758959859 0 0.17030829067285161 -0.2305872157882054 0 0.15332457580755371 -0.23070959597173549 0 0.1749867686249286 -0.21735889230250449 0 0.16226861639455931 -0.22172210758959859 0 0.17030829067285161 -0.2305872157882054 0 0.16103468924722281 -0.25381861710109321 0 0.18013525364959199 -0.24590787480667409 0 0.17030829067285161 -0.2305872157882054 0 0.16103468924722281 -0.25381861710109321 0 0.17030829067285161 -0.2305872157882054 0 0.15332457580755371 -0.23070959597173549 0 0.16103468924722281 -0.25381861710109321 0 0.1412434604122122 -0.24631040783256791 0 0.15332457580755371 -0.23070959597173549 0 0.1412434604122122 -0.24631040783256791 0 0.15332457580755371 -0.23070959597173549 0 0.1284413173888232 -0.22347585252773641 0 0.15332457580755371 -0.23070959597173549 0 0.1284413173888232 -0.22347585252773641 0 0.15045483047290331 -0.2082327262959493 0 0.16226861639455931 -0.22172210758959859 0 0.15332457580755371 -0.23070959597173549 0 0.15045483047290331 -0.2082327262959493 0 0.1200034520355143 -0.24749468667538321 0 0.1412434604122122 -0.24631040783256791 0 0.1284413173888232 -0.22347585252773641 0 0.15045483047290331 -0.2082327262959493 0 0.12592289232087811 -0.19910656028939411 0 0.15431059237432221 -0.18438501484475869 0 0.15045483047290331 -0.2082327262959493 0 0.12592289232087811 -0.19910656028939411 0 0.1284413173888232 -0.22347585252773641 0 0.15045483047290331 -0.2082327262959493 0 0.12592289232087811 -0.19910656028939411 0 0.11404320040195411 -0.17785048998131209 0 0.12592289232087811 -0.19910656028939411 0 0.1362427207560932 -0.1734399905344442 0 0.12592289232087811 -0.19910656028939411 0 0.1362427207560932 -0.1734399905344442 0 0.15431059237432221 -0.18438501484475869 0 0.1362427207560932 -0.1734399905344442 0 0.15431059237432221 -0.18438501484475869 0 0.1498051255961938 -0.157092757972084 0 0.11404320040195411 -0.17785048998131209 0 0.1362427207560932 -0.1734399905344442 0 0.1305387904294309 -0.15561497697083931 0 0.1362427207560932 -0.1734399905344442 0 0.1498051255961938 -0.157092757972084 0 0.1305387904294309 -0.15561497697083931 0 0.1498051255961938 -0.157092757972084 0 0.1305387904294309 -0.15561497697083931 0 0.13638976604354719 -0.13495016646355951 0 0.1161887790728692 -0.1476769396888597 0 0.1305387904294309 -0.15561497697083931 0 0.13638976604354719 -0.13495016646355951 0 0.12800820934211829 -0.12401417466047961 0 0.13638976604354719 -0.13495016646355951 0 0.1486045981545247 -0.12747252536747111 0 0.13638976604354719 -0.13495016646355951 0 0.16388512732533739 -0.13509953849785281 0 0.13638976604354719 -0.13495016646355951 0 0.1486045981545247 -0.12747252536747111 0 0.16388512732533739 -0.13509953849785281 0 0.1498051255961938 -0.157092757972084 0 0.13638976604354719 -0.13495016646355951 0 0.16388512732533739 -0.13509953849785281 0 0.16388512732533739 -0.13509953849785281 0 0.17075910293887969 -0.16226188992442411 0 0.1498051255961938 -0.157092757972084 0 0.16388512732533739 -0.13509953849785281 0 0.17075910293887969 -0.16226188992442411 0 0.18014950107347269 -0.1188522098678762 0 0.16265603278097029 -0.1302428005884553 0 0.16388512732533739 -0.13509953849785281 0 0.16095359288685571 -0.1184472051676727 0 0.1486045981545247 -0.12747252536747111 0 0.16265603278097029 -0.1302428005884553 0 0.1486045981545247 -0.12747252536747111 0 0.16265603278097029 -0.1302428005884553 0 0.16388512732533739 -0.13509953849785281 0 0.16265603278097029 -0.1302428005884553 0 0.16388512732533739 -0.13509953849785281 0 0.19406318364410949 -0.13526348461287321 0 0.16388512732533739 -0.13509953849785281 0 0.18014950107347269 -0.1188522098678762 0 0.19406318364410949 -0.13526348461287321 0 0.18014950107347269 -0.1188522098678762 0 0.19406318364410949 -0.13526348461287321 0 0.16388512732533739 -0.13509953849785281 0 0.19019323353294471 -0.15547991582157239 0 0.16388512732533739 -0.13509953849785281 0 0.17075910293887969 -0.16226188992442411 0 0.19019323353294471 -0.15547991582157239 0 0.19406318364410949 -0.13526348461287321 0 0.16388512732533739 -0.13509953849785281 0 0.19019323353294471 -0.15547991582157239 0 0.185888281266576 -0.1738959907954824 0 0.17075910293887969 -0.16226188992442411 0 0.1776330785524223 -0.18942424135099509 0 0.185888281266576 -0.1738959907954824 0 0.17075910293887969 -0.16226188992442411 0 0.1776330785524223 -0.18942424135099509 0 0.17075910293887969 -0.16226188992442411 0 0.19333004299069351 -0.19482382871724169 0 0.1776330785524223 -0.18942424135099509 0 0.185888281266576 -0.1738959907954824 0 0.1776330785524223 -0.18942424135099509 0 0.15431059237432221 -0.18438501484475869 0 0.17075910293887969 -0.16226188992442411 0 0.15431059237432221 -0.18438501484475869 0 0.1498051255961938 -0.157092757972084 0 0.17075910293887969 -0.16226188992442411 0 
</DataArray>
</Points>
<Cells>
<DataArray type="UInt32" Name="connectivity" format="ascii">
0 1 2 3 4 5 6 7 8 9 10 11 12 13 14 15 16 17 18 19 20 21 22 23 24 25 26 27 28 29 30 31 32 33 34 35 36 37 38 39 40 41 42 43 44 45 46 47 48 49 50 51 52 53 54 55 56 57 58 59 60 61 62 63 64 65 66 67 68 69 70 71 72 73 74 75 76 77 78 79 80 81 82 83 84 85 86 87 88 89 90 91 92 93 94 95 96 97 98 99 100 101 102 103 104 105 106 107 108 109 110 111 112 113 114 115 116 117 118 119 120 121 122 123 124 125 126 127 128 129 130 131 132 133 134 135 136 137 138 139 140 141 142 143 144 145 146 147 148 149 150 151 152 153 154 155 156 157 158 159 160 161 162 163 164 165 166 167 168 169 170 171 172 173 174 175 176 177 178 179 180 181 182 183 184 185 186 187 188 189 190 191 192 193 194 195 196 197 198 199 200 201 202 203 204 205 206 207 208 209 210 211 212 213 214 215 216 217 218 219 220 221 222 223 224 225 226 227 228 229 230 231 232 233 234 235 236 237 238 239 240 241 242 243 244 245 246 247 248 249 250 251 252 253 254 255 256 257 258 259 260 261 262 263 264 265 266 267 268 269 270 271 272 273 274 275 276 277 278 279 280 281 282 283 284 285 286 287 288 289 290 291 292 293 294 295 296 297 298 299 300 301 302 303 304 305 306 307 308 309 310 311 312 313 314 315 316 317 318 319 320 321 322 323 324 325 326 327 328 329 330 331 332 333 334 335 336 337 338 339 340 341 342 343 344 345 346 347 348 349 350 351 352 353 354 355 356 357 358 359 360 361 362 363 364 365 366 367 368 369 370 371 372 373 374 375 376 377 378 379 380 381 382 383 384 385 386 387 388 389 390 391 392 393 394 395 396 397 398 399 400 401 402 403 404 405 406 407 408 409 410 411 412 413 414 415 416 417 418 419 420 421 422 423 424 425 426 427 428 429 430 431 432 433 434 435 436 437 438 439 440 441 442 443 444 445 446 447 448 449 450 451 452 453 454 455 456 457 458 459 460 461 462 463 464 465 466 467 468 469 470 471 472 473 474 475 476 477 478 479 480 481 482 483 484 485 486 487 488 489 490 491 492 493 494 495 496 497 498 499 500 501 502 503 504 505 506 507 508 509 510 511 512 513 514 515 516 517 518 519 520 521 522 523 524 525 526 527 528 529 530 531 532 533 534 535 536 537 538 539 540 541 542 543 544 545 546 547 548 549 550 551 552 553 554 555 556 557 558 559 560 561 562 563 564 565 566 567 568 569 570 571 572 573 574 575 576 577 578 579 580 581 582 583 584 585 586 587 588 589 590 591 592 593 594 595 596 597 598 599 600 601 602 603 604 605 606 607 608 609 610 611 612 613 614 615 616 617 618 619 620 621 622 623 624 625 626 627 628 629 630 631 632 633 634 635 636 637 638 639 640 641 642 643 644 645 646 647 648 649 650 651 652 653 654 655 656 657 658 659 660 661 662 663 664 665 666 667 668 669 670 671 672 673 674 675 676 677 678 679 680 681 682 683 684 685 686 687 688 689 690 691 692 693 694 695 696 697 698 699 700 701 702 703 704 705 706 707 708 709 710 711 712 713 714 715 716 717 718 719 720 721 722 723 724 725 726 727 728 729 730 731 732 733 734 735 736 737 738 739 740 741 742 743 744 745 746 747 748 749 750 751 752 753 754 755 756 757 758 759 760 761 762 763 764 765 766 767 768 769 770 771 772 773 774 775 776 777 778 779 780 781 782 783 784 785 786 787 788 789 790 791 792 793 794 795 796 797 798 799 800 801 802 803 804 805 806 807 808 809 810 811 812 813 814 815 816 817 818 819 820 821 822 823 824 825 826 827 828 829 830 831 832 833 834 835 836 837 838 839 840 841 842 843 844 845 846 847 848 849 850 851 852 853 854 855 856 857 858 859 860 861 862 863 864 865 866 867 868 869 870 871 872 873 874 875 876 877 878 879 880 881 882 883 884 885 886 887 888 889 890 891 892 893 894 895 896 897 898 899 900 901 902 903 904 905 906 907 908 909 910 911 912 913 914 915 916 917 918 919 920 921 922 923 924 925 926 927 928 929 930 931 932 933 934 935 936 937 938 939 940 941 942 943 944 945 946 947 948 949 950 951 952 953 954 955 956 957 958 959 960 961 962 963 964 965 966 967 968 969 970 971 972 973 974 975 976 977 978 979 980 981 982 983 984 985 986 987 988 989 990 991 992 993 994 995 996 997 998 999 1000 1001 1002 1003 1004 1005 1006 1007 1008 1009 1010 1011 1012 1013 1014 1015 1016 1017 1018 1019 1020 1021 1022 1023 1024 1025 1026 1027 1028 1029 1030 1031 1032 1033 1034 1035 1036 1037 1038 1039 1040 1041 1042 1043 1044 1045 1046 1047 1048 1049 1050 1051 1052 1053 1054 1055 1056 1057 1058 1059 1060 1061 1062 1063 1064 1065 1066 1067 1068 1069 1070 1071 1072 1073 1074 1075 1076 1077 1078 1079 1080 1081 1082 1083 1084 1085 1086 1087 1088 1089 1090 1091 1092 1093 1094 1095 1096 1097 1098 1099 1100 1101 1102 1103 1104 1105 1106 1107 1108 1109 1110 1111 1112 1113 1114 1115 1116 1117 1118 1119 1120 1121 1122 1123 1124 1125 1126 1127 1128 1129 1130 1131 1132 1133 1134 1135 1136 1137 1138 1139 1140 1141 1142 1143 1144 1145 1146 1147 1148 1149 1150 1151 1152 1153 1154 1155 1156 1157 1158 1159 1160 1161 1162 1163 1164 1165 1166 1167 1168 1169 1170 1171 1172 1173 1174 1175 1176 1177 1178 1179 1180 1181 1182 1183 1184 1185 1186 1187 1188 1189 1190 1191 1192 1193 1194 1195 1196 1197 1198 1199 1200 1201 1202 1203 1204 1205 1206 1207 1208 1209 1210 1211 1212 1213 1214 1215 1216 1217 1218 1219 1220 1221 1222 1223 1224 1225 1226 1227 1228 1229 1230 1231 1232 1233 1234 1235 1236 1237 1238 1239 1240 1241 1242 1243 1244 1245 1246 1247 1248 1249 1250 1251 1252 1253 1254 1255 1256 1257 1258 1259 1260 1261 1262 1263 1264 1265 1266 1267 1268 1269 1270 1271 1272 1273 1274 1275 1276 1277 1278 1279 1280 1281 1282 1283 1284 1285 1286 1287 1288 1289 1290 1291 1292 1293 1294 1295 1296 1297 1298 1299 1300 1301 1302 1303 1304 1305 1306 1307 1308 1309 1310 1311 1312 1313 1314 1315 1316 1317 1318 1319 1320 1321 1322 1323 1324 1325 1326 1327 1328 1329 1330 1331 1332 1333 1334 1335 1336 1337 1338 1339 1340 1341 1342 1343 1344 1345 1346 1347 1348 1349 1350 1351 1352 1353 1354 1355 1356 1357 1358 1359 1360 1361 1362 1363 1364 1365 1366 1367 1368 1369 1370 1371 1372 1373 1374 1375 1376 1377 1378 1379 1380 1381 1382 1383 1384 1385 1386 1387 1388 1389 1390 1391 1392 1393 1394 1395 1396 1397 1398 1399 1400 1401 1402 1403 1404 1405 1406 1407 1408 1409 1410 1411 1412 1413 1414 1415 1416 1417 1418 1419 1420 1421 1422 1423 1424 1425 1426 1427 1428 1429 1430 1431 1432 1433 1434 1435 1436 1437 1438 1439 1440 1441 1442 1443 1444 1445 1446 1447 1448 1449 1450 1451 1452 1453 1454 1455 1456 1457 1458 1459 1460 1461 1462 1463 1464 1465 1466 1467 1468 1469 1470 1471 1472 1473 1474 1475 1476 1477 1478 1479 1480 1481 1482 1483 1484 1485 1486 1487 1488 1489 1490 1491 1492 1493 1494 1495 1496 1497 1498 1499 1500 1501 1502 1503 1504 1505 1506 1507 1508 1509 1510 1511 1512 1513 1514 1515 1516 1517 1518 1519 1520 1521 1522 1523 1524 1525 1526 1527 1528 1529 1530 1531 1532 1533 1534 1535 1536 1537 1538 1539 1540 1541 1542 1543 1544 1545 1546 1547 1548 1549 1550 1551 1552 1553 1554 1555 1556 1557 1558 1559 1560 1561 1562 1563 1564 1565 1566 1567 1568 1569 1570 1571 1572 1573 1574 1575 1576 1577 1578 1579 1580 1581 1582 1583 1584 1585 1586 1587 1588 1589 1590 1591 1592 1593 1594 1595 1596 1597 1598 1599 1600 1601 1602 1603 1604 1605 1606 1607 1608 1609 1610 1611 1612 1613 1614 1615 1616 1617 1618 1619 1620 1621 1622 1623 1624 1625 1626 1627 1628 1629 1630 1631 1632 1633 1634 1635 1636 1637 1638 1639 1640 1641 1642 1643 1644 1645 1646 1647 1648 1649 1650 1651 1652 1653 1654 1655 1656 1657 1658 1659 1660 1661 1662 1663 1664 1665 1666 1667 1668 1669 1670 1671 1672 1673 1674 1675 1676 1677 1678 1679 1680 1681 1682 1683 1684 1685 1686 1687 1688 1689 1690 1691 1692 1693 1694 1695 1696 1697 1698 1699 1700 1701 1702 1703 1704 1705 1706 1707 1708 1709 1710 1711 1712 1713 1714 1715 1716 1717 1718 1719 1720 1721 1722 1723 1724 1725 1726 1727 1728 1729 1730 1731 1732 1733 1734 1735 1736 1737 1738 1739 1740 1741 1742 1743 1744 1745 1746 1747 1748 1749 1750 1751 1752 1753 1754 1755 1756 1757 1758 1759 1760 1761 1762 1763 1764 1765 1766 1767 1768 1769 1770 1771 1772 1773 1774 1775 1776 1777 1778 1779 1780 1781 1782 1783 1784 1785 1786 1787 1788 1789 1790 1791 1792 1793 1794 1795 1796 1797 1798 1799 1800 1801 1802 1803 1804 1805 1806 1807 1808 1809 1810 1811 1812 1813 1814 1815 1816 1817 1818 1819 1820 1821 1822 1823 1824 1825 1826 1827 1828 1829 1830 1831 1832 1833 1834 1835 1836 1837 1838 1839 1840 1841 1842 1843 1844 1845 1846 1847 1848 1849 1850 1851 1852 1853 1854 1855 1856 1857 1858 1859 1860 1861 1862 1863 1864 1865 1866 1867 1868 1869 1870 1871 1872 1873 1874 1875 1876 1877 1878 1879 1880 1881 1882 1883 1884 1885 1886 1887 1888 1889 1890 1891 1892 1893 1894 1895 1896 1897 1898 1899 1900 1901 1902 1903 1904 1905 1906 1907 1908 1909 1910 1911 1912 1913 1914 1915 1916 1917 1918 1919 1920 1921 1922 1923 1924 1925 1926 1927 1928 1929 1930 1931 1932 1933 1934 1935 1936 1937 1938 1939 1940 1941 1942 1943 1944 1945 1946 1947 1948 1949 1950 1951 1952 1953 1954 1955 1956 1957 1958 1959 1960 1961 1962 1963 1964 1965 1966 1967 1968 1969 1970 1971 1972 1973 1974 1975 1976 1977 1978 1979 1980 1981 1982 1983 1984 1985 1986 1987 1988 1989 1990 1991 1992 1993 1994 1995 1996 1997 1998 1999 2000 2001 2002 2003 2004 2005 2006 2007 2008 2009 2010 2011 2012 2013 2014 2015 2016 2017 2018 2019 2020 2021 2022 2023 2024 2025 2026 2027 2028 2029 2030 2031 2032 2033 2034 2035 2036 2037 2038 2039 2040 2041 2042 2043 2044 2045 2046 2047 2048 2049 2050 2051 2052 2053 2054 2055 2056 2057 2058 2059 2060 2061 2062 2063 2064 2065 2066 2067 2068 2069 2070 2071 2072 2073 2074 2075 2076 2077 2078 2079 2080 2081 2082 2083 2084 2085 2086 2087 2088 2089 2090 2091 2092 2093 2094 2095 2096 2097 2098 2099 2100 2101 2102 2103 2104 2105 2106 2107 2108 2109 2110 2111 2112 2113 2114 2115 2116 2117 2118 2119 2120 2121 2122 2123 2124 2125 2126 2127 2128 2129 2130 2131 2132 2133 2134 2135 2136 2137 2138 2139 2140 2141 2142 2143 2144 2145 2146 2147 2148 2149 2150 2151 2152 2153 2154 2155 2156 2157 2158 2159 2160 2161 2162 2163 2164 2165 2166 2167 2168 2169 2170 2171 2172 2173 2174 2175 2176 2177 2178 2179 2180 2181 2182 2183 2184 2185 2186 2187 2188 2189 2190 2191 2192 2193 2194 2195 2196 2197 2198 2199 2200 2201 2202 2203 2204 2205 2206 2207 2208 2209 2210 2211 2212 2213 2214 2215 2216 2217 2218 2219 2220 2221 2222 2223 2224 2225 2226 2227 2228 2229 2230 2231 2232 2233 2234 2235 2236 2237 2238 2239 2240 2241 2242 2243 2244 2245 2246 2247 2248 2249 2250 2251 2252 2253 2254 2255 2256 2257 2258 2259 2260 2261 2262 2263 2264 2265 2266 2267 2268 2269 2270 2271 2272 2273 2274 2275 2276 2277 2278 2279 2280 2281 2282 2283 2284 2285 2286 2287 2288 2289 2290 2291 2292 2293 2294 2295 2296 2297 2298 2299 2300 2301 2302 2303 2304 2305 2306 2307 2308 2309 2310 2311 2312 2313 2314 2315 2316 2317 2318 2319 2320 2321 2322 2323 2324 2325 2326 2327 2328 2329 2330 2331 2332 2333 2334 2335 2336 2337 2338 2339 2340 2341 2342 2343 2344 2345 2346 2347 2348 2349 2350 2351 2352 2353 2354 2355 2356 2357 2358 2359 2360 2361 2362 2363 2364 2365 2366 2367 2368 2369 2370 2371 2372 2373 2374 2375 2376 2377 2378 2379 2380 2381 2382 2383 2384 2385 2386 2387 2388 2389 2390 2391 2392 2393 2394 2395 2396 2397 2398 2399 2400 2401 2402 2403 2404 2405 2406 2407 2408 2409 2410 2411 2412 2413 2414 2415 2416 2417 2418 2419 2420 2421 2422 2423 2424 2425 2426 2427 2428 2429 2430 2431 2432 2433 2434 2435 2436 2437 2438 2439 2440 2441 2442 2443 2444 2445 2446 2447 2448 2449 2450 2451 2452 2453 2454 2455 2456 2457 2458 2459 2460 2461 2462 2463 2464 2465 2466 2467 2468 2469 2470 2471 2472 2473 2474 2475 2476 2477 2478 2479 2480 2481 2482 2483 2484 2485 2486 2487 2488 2489 2490 2491 2492 2493 2494 2495 2496 2497 2498 2499 2500 2501 2502 2503 2504 2505 2506 2507 2508 2509 2510 2511 2512 2513 2514 2515 2516 2517 2518 2519 2520 2521 2522 2523 2524 2525 2526 2527 2528 2529 2530 2531 2532 2533 2534 2535 2536 2537 2538 2539 2540 2541 2542 2543 2544 2545 2546 2547 2548 2549 2550 2551 2552 2553 2554 2555 2556 2557 2558 2559 2560 2561 2562 2563 2564 2565 2566 2567 2568 2569 2570 2571 2572 2573 2574 2575 2576 2577 2578 2579 2580 2581 2582 2583 2584 2585 2586 2587 2588 2589 2590 2591 2592 2593 2594 2595 2596 2597 2598 2599 2600 2601 2602 2603 2604 2605 2606 2607 2608 2609 2610 2611 2612 2613 2614 2615 2616 2617 2618 2619 2620 2621 2622 2623 2624 2625 2626 2627 2628 2629 2630 2631 2632 2633 2634 2635 2636 2637 2638 2639 2640 2641 2642 2643 2644 2645 2646 2647 2648 2649 2650 2651 2652 2653 2654 2655 2656 2657 2658 2659 2660 2661 2662 2663 2664 2665 2666 2667 2668 2669 2670 2671 2672 2673 2674 2675 2676 2677 2678 2679 2680 2681 2682 2683 2684 2685 2686 2687 2688 2689 2690 2691 2692 2693 2694 2695 2696 2697 2698 2699 2700 2701 2702 2703 2704 2705 2706 2707 2708 2709 2710 2711 2712 2713 2714 2715 2716 2717 2718 2719 2720 2721 2722 2723 2724 2725 2726 2727 2728 2729 2730 2731 2732 2733 2734 2735 2736 2737 2738 2739 2740 2741 2742 2743 2744 2745 2746 2747 2748 2749 2750 2751 2752 2753 2754 2755 2756 2757 2758 2759 2760 2761 2762 2763 2764 2765 2766 2767 2768 2769 2770 2771 2772 2773 2774 2775 2776 2777 2778 2779 2780 2781 2782 2783 2784 2785 2786 2787 2788 2789 2790 2791 2792 2793 2794 2795 2796 2797 2798 2799 2800 2801 2802 2803 2804 2805 2806 2807 2808 2809 2810 2811 2812 2813 2814 2815 2816 2817 2818 2819 2820 2821 2822 2823 2824 2825 2826 2827 2828 2829 2830 2831 2832 2833 2834 2835 2836 2837 2838 2839 2840 2841 2842 2843 2844 2845 2846 2847 2848 2849 2850 2851 2852 2853 2854 2855 2856 2857 2858 2859 2860 2861 2862 2863 2864 2865 2866 2867 2868 2869 2870 2871 2872 2873 2874 2875 2876 2877 2878 2879 2880 2881 2882 2883 2884 2885 2886 2887 2888 2889 2890 2891 2892 2893 2894 2895 2896 2897 2898 2899 2900 2901 2902 2903 2904 2905 2906 2907 2908 2909 2910 2911 2912 2913 2914 2915 2916 2917 2918 2919 2920 2921 2922 2923 2924 2925 2926 2927 2928 2929 2930 2931 2932 2933 2934 2935 2936 2937 2938 2939 2940 2941 2942 2943 2944 2945 2946 2947 2948 2949 2950 2951 2952 2953 2954 2955 2956 2957 2958 2959 2960 2961 2962 2963 2964 2965 2966 2967 2968 2969 2970 2971 2972 2973 2974 2975 2976 2977 2978 2979 2980 2981 2982 2983 2984 2985 2986 2987 2988 2989 2990 2991 2992 2993 2994 2995 2996 2997 2998 2999 3000 3001 3002 3003 3004 3005 3006 3007 3008 3009 3010 3011 3012 3013 3014 3015 3016 3017 3018 3019 3020 3021 3022 3023 3024 3025 3026 3027 3028 3029 3030 3031 3032 3033 3034 3035 3036 3037 3038 3039 3040 3041 3042 3043 3044 3045 3046 3047 3048 3049 3050 3051 3052 3053 3054 3055 3056 3057 3058 3059 3060 3061 3062 3063 3064 3065 3066 3067 3068 3069 3070 3071 3072 3073 3074 3075 3076 3077 3078 3079 3080 3081 3082 3083 3084 3085 3086 3087 3088 3089 3090 3091 3092 3093 3094 3095 3096 3097 3098 3099 3100 3101 3102 3103 3104 3105 3106 3107 3108 3109 3110 3111 3112 3113 3114 3115 3116 3117 3118 3119 3120 3121 3122 3123 3124 3125 3126 3127 3128 3129 3130 3131 3132 3133 3134 3135 3136 3137 3138 3139 3140 3141 3142 3143 3144 3145 3146 3147 3148 3149 3150 3151 3152 3153 3154 3155 3156 3157 3158 3159 3160 3161 3162 3163 3164 3165 3166 3167 3168 3169 3170 3171 3172 3173 3174 3175 3176 3177 3178 3179 3180 3181 3182 3183 3184 3185 3186 3187 3188 3189 3190 3191 3192 3193 3194 3195 3196 3197 3198 3199 3200 3201 3202 3203 3204 3205 3206 3207 3208 3209 3210 3211 3212 3213 3214 3215 3216 3217 3218 3219 3220 3221 3222 3223 3224 3225 3226 3227 3228 3229 3230 3231 3232 3233 3234 3235 3236 3237 3238 3239 3240 3241 3242 3243 3244 3245 3246 3247 3248 3249 3250 3251 3252 3253 3254 3255 3256 3257 3258 3259 3260 3261 3262 3263 3264 3265 3266 3267 3268 3269 3270 3271 3272 3273 3274 3275 3276 3277 3278 3279 3280 3281 3282 3283 3284 3285 3286 3287 3288 3289 3290 3291 3292 3293 3294 3295 3296 3297 3298 3299 3300 3301 3302 3303 3304 3305 3306 3307 3308 3309 3310 3311 3312 3313 3314 3315 3316 3317 3318 3319 3320 3321 3322 3323 3324 3325 3326 3327 3328 3329 3330 3331 3332 3333 3334 3335 3336 3337 3338 3339 3340 3341 3342 3343 3344 3345 3346 3347 3348 3349 3350 3351 3352 3353 3354 3355 3356 3357 3358 3359 3360 3361 3362 3363 3364 3365 3366 3367 3368 3369 3370 3371 3372 3373 3374 3375 3376 3377 3378 3379 3380 3381 3382 3383 3384 3385 3386 3387 3388 3389 3390 3391 3392 3393 3394 3395 3396 3397 3398 3399 3400 3401 3402 3403 3404 3405 3406 3407 3408 3409 3410 3411 3412 3413 3414 3415 3416 3417 3418 3419 3420 3421 3422 3423 3424 3425 3426 3427 3428 3429 3430 3431 3432 3433 3434 3435 3436 3437 3438 3439 3440 3441 3442 3443 3444 3445 3446 3447 3448 3449 3450 3451 3452 3453 3454 3455 3456 3457 3458 3459 3460 3461 3462 3463 3464 3465 3466 3467 3468 3469 3470 3471 3472 3473 3474 3475 3476 3477 3478 3479 3480 3481 3482 3483 3484 3485 3486 3487 3488 3489 3490 3491 3492 3493 3494 3495 3496 3497 3498 3499 3500 3501 3502 3503 3504 3505 3506 3507 3508 3509 3510 3511 3512 3513 3514 3515 3516 3517 3518 3519 3520 3521 3522 3523 3524 3525 3526 3527 3528 3529 3530 3531 3532 3533 3534 3535 3536 3537 3538 3539 3540 3541 3542 3543 3544 3545 3546 3547 3548 3549 3550 3551 3552 3553 3554 3555 3556 3557 3558 3559 3560 3561 3562 3563 3564 3565 3566 3567 3568 3569 3570 3571 3572 3573 3574 3575 3576 3577 3578 3579 3580 3581 3582 3583 3584 3585 3586 3587 3588 3589 3590 3591 3592 3593 3594 3595 3596 3597 3598 3599 3600 3601 3602 3603 3604 3605 3606 3607 3608 3609 3610 3611 3612 3613 3614 3615 3616 3617 3618 3619 3620 3621 3622 3623 3624 3625 3626 3627 3628 3629 3630 3631 3632 3633 3634 3635 3636 3637 3638 3639 3640 3641 3642 3643 3644 3645 3646 3647 3648 3649 3650 3651 3652 3653 3654 3655 3656 3657 3658 3659 3660 3661 3662 3663 3664 3665 3666 3667 3668 3669 3670 3671 3672 3673 3674 3675 3676 3677 3678 3679 3680 3681 3682 3683 3684 3685 3686 3687 3688 3689 3690 3691 3692 3693 3694 3695 3696 3697 3698 3699 3700 3701 3702 3703 3704 3705 3706 3707 3708 3709 3710 3711 3712 3713 3714 3715 3716 3717 3718 3719 3720 3721 3722 3723 3724 3725 3726 3727 3728 3729 3730 3731 3732 3733 3734 3735 3736 3737 3738 3739 3740 3741 3742 3743 3744 3745 3746 3747 3748 3749 3750 3751 3752 3753 3754 3755 3756 3757 3758 3759 3760 3761 3762 3763 3764 3765 3766 3767 3768 3769 3770 3771 3772 3773 3774 3775 3776 3777 3778 3779 3780 3781 3782 3783 3784 3785 3786 3787 3788 3789 3790 3791 3792 3793 3794 3795 3796 3797 3798 3799 3800 3801 3802 3803 3804 3805 3806 3807 3808 3809 3810 3811 3812 3813 3814 3815 3816 3817 3818 3819 3820 3821 3822 3823 3824 3825 3826 3827 3828 3829 3830 3831 3832 3833 3834 3835 3836 3837 3838 3839 3840 3841 3842 3843 3844 3845 3846 3847 3848 3849 3850 3851 3852 3853 3854 3855 3856 3857 3858 3859 3860 3861 3862 3863 3864 3865 3866 3867 3868 3869 3870 3871 3872 3873 3874 3875 3876 3877 3878 3879 3880 3881 3882 3883 3884 3885 3886 3887 3888 3889 3890 3891 3892 3893 3894 3895 3896 3897 3898 3899 3900 3901 3902 3903 3904 3905 3906 3907 3908 3909 3910 3911 3912 3913 3914 3915 3916 3917 3918 3919 3920 3921 3922 3923 3924 3925 3926 3927 3928 3929 3930 3931 3932 3933 3934 3935 3936 3937 3938 3939 3940 3941 3942 3943 3944 3945 3946 3947 3948 3949 3950 3951 3952 3953 3954 3955 3956 3957 3958 3959 3960 3961 3962 3963 3964 3965 3966 3967 3968 3969 3970 3971 3972 3973 3974 3975 3976 3977 3978 3979 3980 3981 3982 3983 3984 3985 3986 3987 3988 3989 3990 3991 3992 3993 3994 3995 3996 3997 3998 3999 4000 4001 4002 4003 4004 4005 4006 4007 4008 4009 4010 4011 4012 4013 4014 4015 4016 4017 4018 4019 4020 4021 4022 4023 4024 4025 4026 4027 4028 4029 4030 4031 4032 4033 4034 4035 4036 4037 4038 4039 4040 4041 4042 4043 4044 4045 4046 4047 4048 4049 4050 4051 4052 4053 4054 4055 4056 4057 4058 4059 4060 4061 4062 4063 4064 4065 4066 4067 4068 4069 4070 4071 4072 4073 4074 4075 4076 4077 4078 4079 4080 4081 4082 4083 4084 4085 4086 4087 4088 4089 4090 4091 4092 4093 4094 4095 4096 4097 4098 4099 4100 4101 4102 4103 4104 4105 4106 4107 4108 4109 4110 4111 4112 4113 4114 4115 4116 4117 4118 4119 4120 4121 4122 4123 4124 4125 4126 4127 4128 4129 4130 4131 4132 4133 4134 4135 4136 4137 4138 4139 4140 4141 4142 4143 4144 4145 4146 4147 4148 4149 4150 4151 4152 4153 4154 4155 4156 4157 4158 4159 4160 4161 4162 4163 4164 4165 4166 4167 4168 4169 4170 4171 4172 4173 4174 4175 4176 4177 4178 4179 4180 4181 4182 4183 4184 4185 4186 4187 4188 4189 4190 4191 4192 4193 4194 4195 4196 4197 4198 4199 4200 4201 4202 4203 4204 4205 4206 4207 4208 4209 4210 4211 4212 4213 4214 4215 4216 4217 4218 4219 4220 4221 4222 4223 4224 4225 4226 4227 4228 4229 4230 4231 4232 4233 4234 4235 4236 4237 4238 4239 4240 4241 4242 4243 4244 4245 4246 4247 4248 4249 4250 4251 4252 4253 4254 4255 4256 4257 4258 4259 4260 4261 4262 4263 4264 4265 4266 4267 4268 4269 4270 4271 4272 4273 4274 4275 4276 4277 4278 4279 4280 4281 4282 4283 4284 4285 4286 4287 4288 4289 4290 4291 4292 4293 4294 4295 4296 4297 4298 4299 4300 4301 4302 4303 4304 4305 4306 4307 4308 4309 4310 4311 4312 4313 4314 4315 4316 4317 4318 4319 4320 4321 4322 4323 4324 4325 4326 4327 4328 4329 4330 4331 4332 4333 4334 4335 4336 4337 4338 4339 4340 4341 4342 4343 4344 4345 4346 4347 4348 4349 4350 4351 4352 4353 4354 4355 4356 4357 4358 4359 4360 4361 4362 4363 4364 4365 4366 4367 4368 4369 4370 4371 4372 4373 4374 4375 4376 4377 4378 4379 4380 4381 4382 4383 4384 4385 4386 4387 4388 4389 4390 4391 4392 4393 4394 4395 4396 4397 4398 4399 4400 4401 4402 4403 4404 4405 4406 4407 4408 4409 4410 4411 4412 4413 4414 4415 4416 4417 4418 4419 4420 4421 4422 4423 4424 4425 4426 4427 4428 4429 4430 4431 4432 4433 4434 4435 4436 4437 4438 4439 4440 4441 4442 4443 4444 4445 4446 4447 4448 4449 4450 4451 4452 4453 4454 4455 4456 4457 4458 4459 4460 4461 4462 4463 4464 4465 4466 4467 4468 4469 4470 4471 4472 4473 4474 4475 4476 4477 4478 4479 4480 4481 4482 4483 4484 4485 4486 4487 4488 4489 4490 4491 4492 4493 4494 4495 4496 4497 4498 4499 4500 4501 4502 4503 4504 4505 4506 4507 4508 4509 4510 4511 4512 4513 4514 4515 4516 4517 4518 4519 4520 4521 4522 4523 4524 4525 4526 4527 4528 4529 4530 4531 4532 4533 4534 4535 4536 4537 4538 4539 4540 4541 4542 4543 4544 4545 4546 4547 4548 4549 4550 4551 4552 4553 4554 4555 4556 4557 4558 4559 4560 4561 4562 4563 4564 4565 4566 4567 4568 4569 4570 4571 4572 4573 4574 4575 4576 4577 4578 4579 4580 4581 4582 4583 4584 4585 4586 4587 4588 4589 4590 4591 4592 4593 4594 4595 4596 4597 4598 4599 4600 4601 4602 4603 4604 4605 4606 4607 4608 4609 4610 4611 4612 4613 4614 4615 4616 4617 4618 4619 4620 4621 4622 4623 4624 4625 4626 4627 4628 4629 4630 4631 4632 4633 4634 4635 4636 4637 4638 4639 4640 4641 4642 4643 4644 4645 4646 4647 4648 4649 4650 4651 4652 4653 4654 4655 4656 4657 4658 4659 4660 4661 4662 4663 4664 4665 4666 4667 4668 4669 4670 4671 4672 4673 4674 4675 4676 4677 4678 4679 4680 4681 4682 4683 4684 4685 4686 4687 4688 4689 4690 4691 4692 4693 4694 4695 4696 4697 4698 4699 4700 4701 4702 4703 4704 4705 4706 4707 4708 4709 4710 4711 4712 4713 4714 4715 4716 4717 4718 4719 4720 4721 4722 4723 4724 4725 4726 4727 4728 4729 4730 4731 4732 4733 4734 4735 4736 4737 4738 4739 4740 4741 4742 4743 4744 4745 4746 4747 4748 4749 4750 4751 4752 4753 4754 4755 4756 4757 4758 4759 4760 4761 4762 4763 4764 4765 4766 4767 4768 4769 4770 4771 4772 4773 4774 4775 4776 4777 4778 4779 4780 4781 4782 4783 4784 4785 4786 4787 4788 4789 4790 4791 4792 4793 4794 4795 4796 4797 4798 4799 4800 4801 4802 4803 4804 4805 4806 4807 4808 4809 4810 4811 4812 4813 4814 4815 4816 4817 4818 4819 4820 4821 4822 4823 4824 4825 4826 4827 4828 4829 4830 4831 4832 4833 4834 4835 4836 4837 4838 4839 4840 4841 4842 4843 4844 4845 4846 4847 4848 4849 4850 4851 4852 4853 4854 4855 4856 4857 4858 4859 4860 4861 4862 4863 4864 4865 4866 4867 4868 4869 4870 4871 4872 4873 4874 4875 4876 4877 4878 4879 4880 4881 4882 4883 4884 4885 4886 4887 4888 4889 4890 4891 4892 4893 4894 4895 4896 4897 4898 4899 4900 4901 4902 4903 4904 4905 4906 4907 4908 4909 4910 4911 4912 4913 4914 4915 4916 4917 4918 4919 4920 4921 4922 4923 4924 4925 4926 4927 4928 4929 4930 4931 4932 4933 4934 4935 4936 4937 4938 4939 4940 4941 4942 4943 4944 4945 4946 4947 4948 4949 4950 4951 4952 4953 4954 4955 4956 4957 4958 4959 4960 4961 4962 4963 4964 4965 4966 4967 4968 4969 4970 4971 4972 4973 4974 4975 4976 4977 4978 4979 4980 4981 4982 4983 4984 4985 4986 4987 4988 4989 4990 4991 4992 4993 4994 4995 4996 4997 4998 4999 5000 5001 5002 5003 5004 5005 5006 5007 5008 5009 5010 5011 5012 5013 5014 5015 5016 5017 5018 5019 5020 5021 5022 5023 5024 5025 5026 5027 5028 5029 5030 5031 5032 5033 5034 5035 5036 5037 5038 5039 5040 5041 5042 5043 5044 5045 5046 5047 5048 5049 5050 5051 5052 5053 5054 5055 5056 5057 5058 5059 5060 5061 5062 5063 5064 5065 5066 5067 5068 5069 5070 5071 5072 5073 5074 5075 5076 5077 5078 5079 5080 5081 5082 5083 5084 5085 5086 5087 5088 5089 5090 5091 5092 5093 5094 5095 5096 5097 5098 5099 5100 5101 5102 5103 5104 5105 5106 5107 5108 5109 5110 5111 5112 5113 5114 5115 5116 5117 5118 5119 5120 5121 5122 5123 5124 5125 5126 5127 5128 5129 5130 5131 5132 5133 5134 5135 5136 5137 5138 5139 5140 5141 5142 5143 5144 5145 5146 5147 5148 5149 5150 5151 5152 5153 5154 5155 5156 5157 5158 5159 5160 5161 5162 5163 5164 5165 5166 5167 5168 5169 5170 5171 5172 5173 5174 5175 5176 5177 5178 5179 5180 5181 5182 5183 5184 5185 5186 5187 5188 5189 5190 5191 5192 5193 5194 5195 5196 5197 5198 5199 5200 5201 5202 5203 5204 5205 5206 5207 5208 5209 5210 5211 5212 5213 5214 5215 5216 5217 5218 5219 5220 5221 5222 5223 5224 5225 5226 5227 5228 5229 5230 5231 5232 5233 5234 5235 5236 5237 5238 5239 5240 5241 5242 5243 5244 5245 5246 5247 5248 5249 5250 5251 5252 5253 5254 5255 5256 5257 5258 5259 5260 5261 5262 5263 5264 5265 5266 5267 5268 5269 5270 5271 5272 5273 5274 5275 5276 5277 5278 5279 5280 5281 5282 5283 5284 5285 5286 5287 5288 5289 5290 5291 5292 5293 5294 5295 5296 5297 5298 5299 5300 5301 5302 5303 5304 5305 5306 5307 5308 5309 5310 5311 5312 5313 5314 5315 5316 5317 5318 5319 5320 5321 5322 5323 5324 5325 5326 5327 5328 5329 5330 5331 5332 5333 5334 5335 5336 5337 5338 5339 5340 5341 5342 5343 5344 5345 5346 5347 5348 5349 5350 5351 5352 5353 5354 5355 5356 5357 5358 5359 5360 5361 5362 5363 5364 5365 5366 5367 5368 5369 5370 5371 5372 5373 5374 5375 5376 5377 5378 5379 5380 5381 5382 5383 5384 5385 5386 5387 5388 5389 5390 5391 5392 5393 5394 5395 5396 5397 5398 5399 5400 5401 5402 5403 5404 5405 5406 5407 5408 5409 5410 5411 5412 5413 5414 5415 5416 5417 5418 5419 5420 5421 5422 5423 5424 5425 5426 5427 5428 5429 5430 5431 5432 5433 5434 5435 5436 5437 5438 5439 5440 5441 5442 5443 5444 5445 5446 5447 5448 5449 5450 5451 5452 5453 5454 5455 5456 5457 5458 5459 5460 5461 5462 5463 5464 5465 5466 5467 5468 5469 5470 5471 5472 5473 5474 5475 5476 5477 5478 5479 5480 5481 5482 5483 5484 5485 5486 5487 5488 5489 5490 5491 5492 5493 5494 5495 5496 5497 5498 5499 5500 5501 5502 5503 5504 5505 5506 5507 5508 5509 5510 5511 5512 5513 5514 5515 5516 5517 5518 5519 5520 5521 5522 5523 5524 5525 5526 5527 5528 5529 5530 5531 5532 5533 5534 5535 5536 5537 5538 5539 5540 5541 5542 5543 5544 5545 5546 5547 5548 5549 5550 5551 5552 5553 5554 5555 5556 5557 5558 5559 5560 5561 5562 5563 5564 5565 5566 5567 5568 5569 5570 5571 5572 5573 5574 5575 5576 5577 5578 5579 5580 5581 5582 5583 5584 5585 5586 5587 5588 5589 5590 5591 5592 5593 5594 5595 5596 5597 5598 5599 5600 5601 5602 5603 5604 5605 5606 5607 5608 5609 5610 5611 5612 5613 5614 5615 5616 5617 5618 5619 5620 5621 5622 5623 5624 5625 5626 5627 5628 5629 5630 5631 5632 5633 5634 5635 5636 5637 5638 5639 5640 5641 5642 5643 5644 5645 5646 5647 5648 5649 5650 5651 5652 5653 5654 5655 5656 5657 5658 5659 5660 5661 5662 5663 5664 5665 5666 5667 5668 5669 5670 5671 5672 5673 5674 5675 5676 5677 5678 5679 5680 5681 5682 5683 5684 5685 5686 5687 5688 5689 5690 5691 5692 5693 5694 5695 5696 5697 5698 5699 5700 5701 5702 5703 5704 5705 5706 5707 5708 5709 5710 5711 5712 5713 5714 5715 5716 5717 5718 5719 5720 5721 5722 5723 5724 5725 5726 5727 5728 5729 5730 5731 5732 5733 5734 5735 5736 5737 5738 5739 5740 5741 5742 5743 5744 5745 5746 5747 5748 5749 5750 5751 5752 5753 5754 5755 5756 5757 5758 5759 5760 5761 5762 5763 5764 5765 5766 5767 5768 5769 5770 5771 5772 5773 5774 5775 5776 5777 5778 5779 5780 5781 5782 5783 5784 5785 5786 5787 5788 5789 5790 5791 5792 5793 5794 5795 5796 5797 5798 5799 5800 5801 5802 5803 5804 5805 5806 5807 5808 5809 5810 5811 5812 5813 5814 5815 5816 5817 5818 5819 5820 5821 5822 5823 5824 5825 5826 5827 5828 5829 5830 5831 5832 5833 5834 5835 5836 5837 5838 5839 5840 5841 5842 5843 5844 5845 5846 5847 5848 5849 5850 5851 5852 5853 5854 5855 5856 5857 5858 5859 5860 5861 5862 5863 5864 5865 5866 5867 5868 5869 5870 5871 5872 5873 5874 5875 5876 5877 5878 5879 5880 5881 5882 5883 5884 5885 5886 5887 5888 5889 5890 5891 5892 5893 5894 5895 5896 5897 5898 5899 5900 5901 5902 5903 5904 5905 5906 5907 5908 5909 5910 5911 5912 5913 5914 5915 5916 5917 5918 5919 5920 5921 5922 5923 5924 5925 5926 5927 5928 5929 5930 5931 5932 5933 5934 5935 5936 5937 5938 5939 5940 5941 5942 5943 5944 5945 5946 5947 5948 5949 5950 5951 5952 5953 5954 5955 5956 5957 5958 5959 5960 5961 5962 5963 5964 5965 5966 5967 5968 5969 5970 5971 5972 5973 5974 5975 5976 5977 5978 5979 5980 5981 5982 5983 5984 5985 5986 5987 5988 5989 5990 5991 5992 5993 5994 5995 5996 5997 5998 5999 6000 6001 6002 6003 6004 6005 6006 6007 6008 6009 6010 6011 6012 6013 6014 6015 6016 6017 6018 6019 6020 6021 6022 6023 6024 6025 6026 6027 6028 6029 6030 6031 6032 6033 6034 6035 6036 6037 6038 6039 6040 6041 6042 6043 6044 6045 6046 6047 6048 6049 6050 6051 6052 6053 6054 6055 6056 6057 6058 6059 6060 6061 6062 6063 6064 6065 6066 6067 6068 6069 6070 6071 6072 6073 6074 6075 6076 6077 6078 6079 6080 6081 6082 6083 6084 6085 6086 6087 6088 6089 6090 6091 6092 6093 6094 6095 6096 6097 6098 6099 6100 6101 6102 6103 6104 6105 6106 6107 6108 6109 6110 6111 6112 6113 6114 6115 6116 6117 6118 6119 6120 6121 6122 6123 6124 6125 6126 6127 6128 6129 6130 6131 6132 6133 6134 6135 6136 6137 6138 6139 6140 6141 6142 6143 6144 6145 6146 6147 6148 6149 6150 6151 6152 6153 6154 6155 6156 6157 6158 6159 6160 6161 6162 6163 6164 6165 6166 6167 6168 6169 6170 6171 6172 6173 6174 6175 6176 6177 6178 6179 6180 6181 6182 6183 6184 6185 6186 6187 6188 6189 6190 6191 6192 6193 6194 6195 6196 6197 6198 6199 6200 6201 6202 6203 6204 6205 6206 6207 6208 6209 6210 6211 6212 6213 6214 6215 6216 6217 6218 6219 6220 6221 6222 6223 6224 6225 6226 6227 6228 6229 6230 6231 6232 6233 6234 6235 6236 6237 6238 6239 6240 6241 6242 6243 6244 6245 6246 6247 6248 6249 6250 6251 6252 6253 6254 6255 6256 6257 6258 6259 6260 6261 6262 6263 6264 6265 6266 6267 6268 6269 6270 6271 6272 6273 6274 6275 6276 6277 6278 6279 6280 6281 6282 6283 6284 6285 6286 6287 6288 6289 6290 6291 6292 6293 6294 6295 6296 6297 6298 6299 6300 6301 6302 6303 6304 6305 6306 6307 6308 6309 6310 6311 6312 6313 6314 6315 6316 6317 6318 6319 6320 6321 6322 6323 6324 6325 6326 6327 6328 6329 6330 6331 6332 6333 6334 6335 6336 6337 6338 6339 6340 6341 6342 6343 6344 6345 6346 6347 6348 6349 6350 6351 6352 6353 6354 6355 6356 6357 6358 6359 6360 6361 6362 6363 6364 6365 6366 6367 6368 6369 6370 6371 6372 6373 6374 6375 6376 6377 6378 6379 6380 6381 6382 6383 6384 6385 6386 6387 6388 6389 6390 6391 6392 6393 6394 6395 6396 6397 6398 6399 6400 6401 6402 6403 6404 6405 6406 6407 6408 6409 6410 6411 6412 6413 6414 6415 6416 6417 6418 6419 6420 6421 6422 6423 6424 6425 6426 6427 6428 6429 6430 6431 6432 6433 6434 6435 6436 6437 6438 6439 6440 6441 6442 6443 6444 6445 6446 6447 6448 6449 6450 6451 6452 6453 6454 6455 6456 6457 6458 6459 6460 6461 6462 6463 6464 6465 6466 6467 6468 6469 6470 6471 6472 6473 6474 6475 6476 6477 6478 6479 6480 6481 6482 6483 6484 6485 6486 6487 6488 6489 6490 6491 6492 6493 6494 6495 6496 6497 6498 6499 6500 6501 6502 6503 6504 6505 6506 6507 6508 6509 6510 6511 6512 6513 6514 6515 6516 6517 6518 6519 6520 6521 6522 6523 6524 6525 6526 6527 6528 6529 6530 6531 6532 6533 6534 6535 6536 6537 6538 6539 6540 6541 6542 6543 6544 6545 6546 6547 6548 6549 6550 6551 6552 6553 6554 6555 6556 6557 6558 6559 6560 6561 6562 6563 6564 6565 6566 6567 6568 6569 6570 6571 6572 6573 6574 6575 6576 6577 6578 6579 6580 6581 6582 6583 6584 6585 6586 6587 6588 6589 6590 6591 6592 6593 6594 6595 6596 6597 6598 6599 6600 6601 6602 6603 6604 6605 6606 6607 6608 6609 6610 6611 6612 6613 6614 6615 6616 6617 6618 6619 6620 6621 6622 6623 6624 6625 6626 6627 6628 6629 6630 6631 6632 6633 6634 6635 6636 6637 6638 6639 6640 6641 6642 6643 6644 6645 6646 6647 6648 6649 6650 6651 6652 6653 6654 6655 6656 6657 6658 6659 6660 6661 6662 6663 6664 6665 6666 6667 6668 6669 6670 6671 6672 6673 6674 6675 6676 6677 6678 6679 6680 6681 6682 6683 6684 6685 6686 6687 6688 6689 6690 6691 6692 6693 6694 6695 6696 6697 6698 6699 6700 6701 6702 6703 6704 6705 6706 6707 6708 6709 6710 6711 6712 6713 6714 6715 6716 6717 6718 6719 6720 6721 6722 6723 6724 6725 6726 6727 6728 6729 6730 6731 6732 6733 6734 6735 6736 6737 6738 6739 6740 6741 6742 6743 6744 6745 6746 6747 6748 6749 6750 6751 6752 6753 6754 6755 6756 6757 6758 6759 6760 6761 6762 6763 6764 6765 6766 6767 6768 6769 6770 6771 6772 6773 6774 6775 6776 6777 6778 6779 6780 6781 6782 6783 6784 6785 6786 6787 6788 6789 6790 6791 6792 6793 6794 6795 6796 6797 6798 6799 6800 6801 6802 6803 6804 6805 6806 6807 6808 6809 6810 6811 6812 6813 6814 6815 6816 6817 6818 6819 6820 6821 6822 6823 6824 6825 6826 6827 6828 6829 6830 6831 6832 6833 6834 6835 6836 6837 6838 6839 6840 6841 6842 6843 6844 6845 6846 6847 6848 6849 6850 6851 6852 6853 6854 6855 6856 6857 6858 6859 6860 6861 6862 6863 6864 6865 6866 6867 6868 6869 6870 6871 6872 6873 6874 6875 6876 6877 6878 6879 6880 6881 6882 6883 6884 6885 6886 6887 6888 6889 6890 6891 6892 6893 6894 6895 6896 6897 6898 6899 6900 6901 6902 6903 6904 6905 6906 6907 6908 6909 6910 6911 6912 6913 6914 6915 6916 6917 6918 6919 6920 6921 6922 6923 6924 6925 6926 6927 6928 6929 6930 6931 6932 6933 6934 6935 6936 6937 6938 6939 6940 6941 6942 6943 6944 6945 6946 6947 6948 6949 6950 6951 6952 6953 6954 6955 6956 6957 6958 6959 6960 6961 6962 6963 6964 6965 6966 6967 6968 6969 6970 6971 6972 6973 6974 6975 6976 6977 6978 6979 6980 6981 6982 6983 6984 6985 6986 6987 6988 6989 6990 6991 6992 6993 6994 6995 6996 6997 6998 6999 7000 7001 7002 7003 7004 7005 7006 7007 7008 7009 7010 7011 7012 7013 7014 7015 7016 7017 7018 7019 7020 7021 7022 7023 7024 7025 7026 7027 7028 7029 7030 7031 7032 7033 7034 7035 7036 7037 7038 7039 7040 7041 7042 7043 7044 7045 7046 7047 7048 7049 7050 7051 7052 7053 7054 7055 7056 7057 7058 7059 7060 7061 7062 7063 7064 7065 7066 7067 7068 7069 7070 7071 7072 7073 7074 7075 7076 7077 7078 7079 7080 7081 7082 7083 7084 7085 7086 7087 7088 7089 7090 7091 7092 7093 7094 7095 7096 7097 7098 7099 7100 7101 7102 7103 7104 7105 7106 7107 7108 7109 7110 7111 7112 7113 7114 7115 7116 7117 7118 7119 7120 7121 7122 7123 7124 7125 7126 7127 7128 7129 7130 7131 7132 7133 7134 7135 7136 7137 7138 7139 7140 7141 7142 7143 7144 7145 7146 7147 7148 7149 7150 7151 7152 7153 7154 7155 7156 7157 7158 7159 7160 7161 7162 7163 7164 7165 7166 7167 7168 7169 7170 7171 7172 7173 7174 7175 7176 7177 7178 7179 7180 7181 7182 7183 7184 7185 7186 7187 7188 7189 7190 7191 7192 7193 7194 7195 7196 7197 7198 7199 7200 7201 7202 7203 7204 7205 7206 7207 7208 7209 7210 7211 7212 7213 7214 7215 7216 7217 7218 7219 7220 7221 7222 7223 7224 7225 7226 7227 7228 7229 7230 7231 7232 7233 7234 7235 7236 7237 7238 7239 7240 7241 7242 7243 7244 7245 7246 7247 7248 7249 7250 7251 7252 7253 7254 7255 7256 7257 7258 7259 7260 7261 7262 7263 7264 7265 7266 7267 7268 7269 7270 7271 7272 7273 7274 7275 7276 7277 7278 7279 7280 7281 7282 7283 7284 7285 7286 7287 7288 7289 7290 7291 7292 7293 7294 7295 7296 7297 7298 7299 7300 7301 7302 7303 7304 7305 7306 7307 7308 7309 7310 7311 7312 7313 7314 7315 7316 7317 7318 7319 7320 7321 7322 7323 7324 7325 7326 7327 7328 7329 7330 7331 7332 7333 7334 7335 7336 7337 7338 7339 7340 7341 7342 7343 7344 7345 7346 7347 7348 7349 7350 7351 7352 7353 7354 7355 7356 7357 7358 7359 7360 7361 7362 7363 7364 7365 7366 7367 7368 7369 7370 7371 7372 7373 7374 7375 7376 7377 7378 7379 7380 7381 7382 7383 7384 7385 7386 7387 7388 7389 7390 7391 7392 7393 7394 7395 7396 7397 7398 7399 7400 7401 7402 7403 7404 7405 7406 7407 7408 7409 7410 7411 7412 7413 7414 7415 7416 7417 7418 7419 7420 7421 7422 7423 7424 7425 7426 7427 7428 7429 7430 7431 7432 7433 7434 7435 7436 7437 7438 7439 7440 7441 7442 7443 7444 7445 7446 7447 7448 7449 7450 7451 7452 7453 7454 7455 7456 7457 7458 7459 7460 7461 7462 7463 7464 7465 7466 7467 7468 7469 7470 7471 7472 7473 7474 7475 7476 7477 7478 7479 7480 7481 7482 7483 7484 7485 7486 7487 7488 7489 7490 7491 7492 7493 7494 7495 7496 7497 7498 7499 7500 7501 7502 7503 7504 7505 7506 7507 7508 7509 7510 7511 7512 7513 7514 7515 7516 7517 7518 7519 7520 7521 7522 7523 7524 7525 7526 7527 7528 7529 7530 7531 7532 7533 7534 7535 7536 7537 7538 7539 7540 7541 7542 7543 7544 7545 7546 7547 7548 7549 7550 7551 7552 7553 7554 7555 7556 7557 7558 7559 7560 7561 7562 7563 7564 7565 7566 7567 7568 7569 7570 7571 7572 7573 7574 7575 7576 7577 7578 7579 7580 7581 7582 7583 7584 7585 7586 7587 7588 7589 7590 7591 7592 7593 7594 7595 7596 7597 7598 7599 7600 7601 7602 7603 7604 7605 7606 7607 7608 7609 7610 7611 7612 7613 7614 7615 7616 7617 7618 7619 7620 7621 7622 7623 7624 7625 7626 7627 7628 7629 7630 7631 7632 7633 7634 7635 7636 7637 7638 7639 7640 7641 7642 7643 7644 7645 7646 7647 7648 7649 7650 7651 7652 7653 7654 7655 7656 7657 7658 7659 7660 7661 7662 7663 7664 7665 7666 7667 7668 7669 7670 7671 7672 7673 7674 7675 7676 7677 7678 7679 7680 7681 7682 7683 7684 7685 7686 7687 7688 7689 7690 7691 7692 7693 7694 7695 7696 7697 7698 7699 7700 7701 7702 7703 7704 7705 7706 7707 7708 7709 7710 7711 7712 7713 7714 7715 7716 7717 7718 7719 7720 7721 7722 7723 7724 7725 7726 7727 7728 7729 7730 7731 7732 7733 7734 7735 7736 7737 7738 7739 7740 7741 7742 7743 7744 7745 7746 7747 7748 7749 7750 7751 7752 7753 7754 7755 7756 7757 7758 7759 7760 7761 7762 7763 7764 7765 7766 7767 7768 7769 7770 7771 7772 7773 7774 7775 7776 7777 7778 7779 7780 7781 7782 7783 7784 7785 7786 7787 7788 7789 7790 7791 7792 7793 7794 7795 7796 7797 7798 7799 7800 7801 7802 7803 7804 7805 7806 7807 7808 7809 7810 7811 7812 7813 7814 7815 7816 7817 7818 7819 7820 7821 7822 7823 7824 7825 7826 7827 7828 7829 7830 7831 7832 7833 7834 7835 7836 7837 7838 7839 7840 7841 7842 7843 7844 7845 7846 7847 7848 7849 7850 7851 7852 7853 7854 7855 7856 7857 7858 7859 7860 7861 7862 7863 7864 7865 7866 7867 7868 7869 7870 7871 7872 7873 7874 7875 7876 7877 7878 7879 7880 7881 7882 7883 7884 7885 7886 7887 7888 7889 7890 7891 7892 7893 7894 7895 7896 7897 7898 7899 7900 7901 7902 7903 7904 7905 7906 7907 7908 7909 7910 7911 7912 7913 7914 7915 7916 7917 7918 7919 7920 7921 7922 7923 7924 7925 7926 7927 7928 7929 7930 7931 7932 7933 7934 7935 7936 7937 7938 7939 7940 7941 7942 7943 7944 7945 7946 7947 7948 7949 7950 7951 7952 7953 7954 7955 7956 7957 7958 7959 7960 7961 7962 7963 7964 7965 7966 7967 7968 7969 7970 7971 7972 7973 7974 7975 7976 7977 7978 7979 7980 7981 7982 7983 7984 7985 7986 7987 7988 7989 7990 7991 7992 7993 7994 7995 7996 7997 7998 7999 8000 8001 8002 8003 8004 8005 8006 8007 8008 8009 8010 8011 8012 8013 8014 8015 8016 8017 8018 8019 8020 8021 8022 8023 8024 8025 8026 8027 8028 8029 8030 8031 8032 8033 8034 8035 8036 8037 8038 8039 8040 8041 8042 8043 8044 8045 8046 8047 8048 8049 8050 8051 8052 8053 8054 8055 8056 8057 8058 8059 8060 8061 8062 8063 8064 8065 8066 8067 8068 8069 8070 8071 8072 8073 8074 8075 8076 8077 8078 8079 8080 8081 8082 8083 8084 8085 8086 8087 8088 8089 8090 8091 8092 8093 8094 8095 8096 8097 8098 8099 8100 8101 8102 8103 8104 8105 8106 8107 8108 8109 8110 8111 8112 8113 8114 8115 8116 8117 8118 8119 8120 8121 8122 8123 8124 8125 8126 8127 8128 8129 8130 8131 8132 8133 8134 8135 8136 8137 8138 8139 8140 8141 8142 8143 8144 8145 8146 8147 8148 8149 8150 8151 8152 8153 8154 8155 8156 8157 8158 8159 8160 8161 8162 8163 8164 8165 8166 8167 8168 8169 8170 8171 8172 8173 8174 8175 8176 8177 8178 8179 8180 8181 8182 8183 8184 8185 8186 8187 8188 8189 8190 8191 8192 8193 8194 8195 8196 8197 8198 8199 8200 8201 8202 8203 8204 8205 8206 8207 8208 8209 8210 8211 8212 8213 8214 8215 8216 8217 8218 8219 8220 8221 8222 8223 8224 8225 8226 8227 8228 8229 8230 8231 8232 8233 8234 8235 8236 8237 8238 8239 8240 8241 8242 8243 8244 8245 8246 8247 8248 8249 8250 8251 8252 8253 8254 8255 8256 8257 8258 8259 8260 8261 8262 8263 8264 8265 8266 8267 8268 8269 8270 8271 8272 8273 8274 8275 8276 8277 8278 8279 8280 8281 8282 8283 8284 8285 8286 8287 8288 8289 8290 8291 8292 8293 8294 8295 8296 8297 8298 8299 8300 8301 8302 8303 8304 8305 8306 8307 8308 8309 8310 8311 8312 8313 8314 8315 8316 8317 8318 8319 8320 8321 8322 8323 8324 8325 8326 8327 8328 8329 8330 8331 8332 8333 8334 8335 8336 8337 8338 8339 8340 8341 8342 8343 8344 8345 8346 8347 8348 8349 8350 8351 8352 8353 8354 8355 8356 8357 8358 8359 8360 8361 8362 8363 8364 8365 8366 8367 8368 8369 8370 8371 8372 8373 8374 8375 8376 8377 8378 8379 8380 8381 8382 8383 8384 8385 8386 8387 8388 8389 8390 8391 8392 8393 8394 8395 8396 8397 8398 8399 8400 8401 8402 8403 8404 8405 8406 8407 8408 8409 8410 8411 8412 8413 8414 8415 8416 8417 8418 8419 8420 8421 8422 8423 8424 8425 8426 8427 8428 8429 8430 8431 8432 8433 8434 8435 8436 8437 8438 8439 8440 8441 8442 8443 8444 8445 8446 8447 8448 8449 8450 8451 8452 8453 8454 8455 8456 8457 8458 8459 8460 8461 8462 8463 8464 8465 8466 8467 8468 8469 8470 8471 8472 8473 8474 8475 8476 8477 8478 8479 8480 8481 8482 8483 8484 8485 8486 8487 8488 8489 8490 8491 8492 8493 8494 8495 8496 8497 8498 8499 8500 8501 8502 8503 8504 8505 8506 8507 8508 8509 8510 8511 8512 8513 8514 8515 8516 8517 8518 8519 8520 8521 8522 8523 8524 8525 8526 8527 8528 8529 8530 8531 8532 8533 8534 8535 8536 8537 8538 8539 8540 8541 8542 8543 8544 8545 8546 8547 8548 8549 8550 8551 8552 8553 8554 8555 8556 8557 8558 8559 8560 8561 8562 8563 8564 8565 8566 8567 8568 8569 8570 8571 8572 8573 8574 8575 8576 8577 8578 8579 8580 8581 8582 8583 8584 8585 8586 8587 8588 8589 8590 8591 8592 8593 8594 8595 8596 8597 8598 8599 8600 8601 8602 8603 8604 8605 8606 8607 8608 8609 8610 8611 8612 8613 8614 8615 8616 8617 8618 8619 8620 8621 8622 8623 8624 8625 8626 8627 8628 8629 8630 8631 8632 8633 8634 8635 8636 8637 8638 8639 8640 8641 8642 8643 8644 8645 8646 8647 8648 8649 8650 8651 8652 8653 8654 8655 8656 8657 8658 8659 8660 8661 8662 8663 8664 8665 8666 8667 8668 8669 8670 8671 8672 8673 8674 8675 8676 8677 8678 8679 8680 8681 8682 8683 8684 8685 8686 8687 8688 8689 8690 8691 8692 8693 8694 8695 8696 8697 8698 8699 8700 8701 8702 8703 8704 8705 8706 8707 8708 8709 8710 8711 8712 8713 8714 8715 8716 8717 8718 8719 8720 8721 8722 8723 8724 8725 8726 8727 8728 8729 8730 8731 8732 8733 8734 8735 8736 8737 8738 8739 8740 8741 8742 8743 8744 8745 8746 8747 8748 8749 8750 8751 8752 8753 8754 8755 8756 8757 8758 8759 8760 8761 8762 8763 8764 8765 8766 8767 8768 8769 8770 8771 8772 8773 8774 8775 8776 8777 8778 8779 8780 8781 8782 8783 8784 8785 8786 8787 8788 8789 8790 8791 8792 8793 8794 8795 8796 8797 8798 8799 8800 8801 8802 8803 8804 8805 8806 8807 8808 8809 8810 8811 8812 8813 8814 8815 8816 8817 8818 8819 8820 8821 8822 8823 8824 8825 8826 8827 8828 8829 8830 8831 8832 8833 8834 8835 8836 8837 8838 8839 8840 8841 8842 8843 8844 8845 8846 8847 8848 8849 8850 8851 8852 8853 8854 8855 8856 8857 8858 8859 8860 8861 8862 8863 8864 8865 8866 8867 8868 8869 8870 8871 8872 8873 8874 8875 8876 8877 8878 8879 8880 8881 8882 8883 8884 8885 8886 8887 8888 8889 8890 8891 8892 8893 8894 8895 8896 8897 8898 8899 8900 8901 8902 8903 8904 8905 8906 8907 8908 8909 8910 8911 8912 8913 8914 8915 8916 8917 8918 8919 8920 8921 8922 8923 8924 8925 8926 8927 8928 8929 8930 8931 8932 8933 8934 8935 8936 8937 8938 8939 8940 8941 8942 8943 8944 8945 8946 8947 8948 8949 8950 8951 8952 8953 8954 8955 8956 8957 8958 8959 8960 8961 8962 8963 8964 8965 8966 8967 8968 8969 8970 8971 8972 8973 8974 8975 8976 8977 8978 8979 8980 8981 8982 8983 8984 8985 8986 8987 8988 8989 8990 8991 8992 8993 8994 8995 8996 8997 8998 8999 9000 9001 9002 9003 9004 9005 9006 9007 9008 9009 9010 9011 9012 9013 9014 9015 9016 9017 9018 9019 9020 9021 9022 9023 9024 9025 9026 9027 9028 9029 9030 9031 9032 9033 9034 9035 9036 9037 9038 9039 9040 9041 9042 9043 9044 9045 9046 9047 9048 9049 9050 9051 9052 9053 9054 9055 9056 9057 9058 9059 9060 9061 9062 9063 9064 9065 9066 9067 9068 9069 9070 9071 9072 9073 9074 9075 9076 9077 9078 9079 9080 9081 9082 9083 9084 9085 9086 9087 9088 9089 9090 9091 9092 9093 9094 9095 9096 9097 9098 9099 9100 9101 9102 9103 9104 9105 9106 9107 9108 9109 9110 9111 9112 9113 9114 9115 9116 9117 9118 9119 9120 9121 9122 9123 9124 9125 9126 9127 9128 9129 9130 9131 9132 9133 9134 9135 9136 9137 9138 9139 9140 9141 9142 9143 9144 9145 9146 9147 9148 9149 9150 9151 9152 9153 9154 9155 9156 9157 9158 9159 9160 9161 9162 9163 9164 9165 9166 9167 9168 9169 9170 9171 9172 9173 9174 9175 9176 9177 9178 9179 9180 9181 9182 9183 9184 9185 9186 9187 9188 9189 9190 9191 9192 9193 9194 9195 9196 9197 9198 9199 9200 9201 9202 9203 9204 9205 9206 9207 9208 9209 9210 9211 9212 9213 9214 9215 9216 9217 9218 9219 9220 9221 9222 9223 9224 9225 9226 9227 9228 9229 9230 9231 9232 9233 9234 9235 9236 9237 9238 9239 9240 9241 9242 9243 9244 9245 9246 9247 9248 9249 9250 9251 9252 9253 9254 9255 9256 9257 9258 9259 9260 9261 9262 9263 9264 9265 9266 9267 9268 9269 9270 9271 9272 9273 9274 9275 9276 9277 9278 9279 9280 9281 9282 9283 9284 9285 9286 9287 9288 9289 9290 9291 9292 9293 9294 9295 9296 9297 9298 9299 9300 9301 9302 9303 9304 9305 9306 9307 9308 9309 9310 9311 9312 9313 9314 9315 9316 9317 9318 9319 9320 9321 9322 9323 9324 9325 9326 9327 9328 9329 9330 9331 9332 9333 9334 9335 9336 9337 9338 9339 9340 9341 9342 9343 9344 9345 9346 9347 9348 9349 9350 9351 9352 9353 9354 9355 9356 9357 9358 9359 9360 9361 9362 9363 9364 9365 9366 9367 9368 9369 9370 9371 9372 9373 9374 9375 9376 9377 9378 9379 9380 9381 9382 9383 9384 9385 9386 9387 9388 9389 9390 9391 9392 9393 9394 9395 9396 9397 9398 9399 9400 9401 9402 9403 9404 9405 9406 9407 9408 9409 9410 9411 9412 9413 9414 9415 9416 9417 9418 9419 9420 9421 9422 9423 9424 9425 9426 9427 9428 9429 9430 9431 9432 9433 9434 9435 9436 9437 9438 9439 9440 9441 9442 9443 9444 9445 9446 9447 9448 9449 9450 9451 9452 9453 9454 9455 9456 9457 9458 9459 9460 9461 9462 9463 9464 9465 9466 9467 9468 9469 9470 9471 9472 9473 9474 9475 9476 9477 9478 9479 9480 9481 9482 9483 9484 9485 9486 9487 9488 9489 9490 9491 9492 9493 9494 9495 9496 9497 9498 9499 9500 9501 9502 9503 9504 9505 9506 9507 9508 9509 9510 9511 9512 9513 9514 9515 9516 9517 9518 9519 9520 9521 9522 9523 9524 9525 9526 9527 9528 9529 9530 9531 9532 9533 9534 9535 9536 9537 9538 9539 9540 9541 9542 9543 9544 9545 9546 9547 9548 9549 9550 9551 9552 9553 9554 9555 9556 9557 9558 9559 9560 9561 9562 9563 9564 9565 9566 9567 9568 9569 9570 9571 9572 9573 9574 9575 9576 9577 9578 9579 9580 9581 9582 9583 9584 9585 9586 9587 9588 9589 9590 9591 9592 9593 9594 9595 9596 9597 9598 9599 9600 9601 9602 9603 9604 9605 9606 9607 9608 9609 9610 9611 9612 9613 9614 9615 9616 9617 9618 9619 9620 9621 9622 9623 9624 9625 9626 9627 9628 9629 9630 9631 9632 9633 9634 9635 9636 9637 9638 9639 9640 9641 9642 9643 9644 9645 9646 9647 9648 9649 9650 9651 9652 9653 9654 9655 9656 9657 9658 9659 9660 9661 9662 9663 9664 9665 9666 9667 9668 9669 9670 9671 9672 9673 9674 9675 9676 9677 9678 9679 9680 9681 9682 9683 9684 9685 9686 9687 9688 9689 9690 9691 9692 9693 9694 9695 9696 9697 9698 9699 9700 9701 9702 9703 9704 9705 9706 9707 9708 9709 9710 9711 9712 9713 9714 9715 9716 9717 9718 9719 9720 9721 9722 9723 9724 9725 9726 9727 9728 9729 9730 9731 9732 9733 9734 9735 9736 9737 9738 9739 9740 9741 9742 9743 9744 9745 9746 9747 9748 9749 9750 9751 9752 9753 9754 9755 9756 9757 9758 9759 9760 9761 9762 9763 9764 9765 9766 9767 9768 9769 9770 9771 9772 9773 9774 9775 9776 9777 9778 9779 9780 9781 9782 9783 9784 9785 9786 9787 9788 9789 9790 9791 9792 9793 9794 9795 9796 9797 9798 9799 9800 9801 9802 9803 9804 9805 9806 9807 9808 9809 9810 9811 9812 9813 9814 9815 9816 9817 9818 9819 9820 9821 9822 9823 9824 9825 9826 9827 9828 9829 9830 9831 9832 9833 9834 9835 9836 9837 9838 9839 9840 9841 9842 9843 9844 9845 9846 9847 9848 9849 9850 9851 9852 9853 9854 9855 9856 9857 9858 9859 9860 9861 9862 9863 9864 9865 9866 9867 9868 9869 9870 9871 9872 9873 9874 9875 9876 9877 9878 9879 9880 9881 9882 9883 9884 9885 9886 9887 9888 9889 9890 9891 9892 9893 9894 9895 9896 9897 9898 9899 9900 9901 9902 9903 9904 9905 9906 9907 9908 9909 9910 9911 9912 9913 9914 9915 9916 9917 9918 9919 9920 9921 9922 9923 9924 9925 9926 9927 9928 9929 9930 9931 9932 9933 9934 9935 9936 9937 9938 9939 9940 9941 9942 9943 9944 9945 9946 9947 9948 9949 9950 9951 9952 9953 9954 9955 9956 9957 9958 9959 9960 9961 9962 9963 9964 9965 9966 9967 9968 9969 9970 9971 9972 9973 9974 9975 9976 9977 9978 9979 9980 9981 9982 9983 9984 9985 9986 9987 9988 9989 9990 9991 9992 9993 9994 9995 9996 9997 9998 9999 10000 10001 10002 10003 10004 10005 10006 10007 10008 10009 10010 10011 10012 10013 10014 10015 10016 10017 10018 10019 10020 10021 10022 10023 10024 10025 10026 10027 10028 10029 10030 10031 10032 10033 10034 10035 10036 10037 10038 10039 10040 10041 10042 10043 10044 10045 10046 10047 10048 10049 10050 10051 10052 10053 10054 10055 10056 10057 10058 10059 10060 10061 10062 10063 10064 10065 10066 10067 10068 10069 10070 10071 10072 10073 10074 10075 10076 10077 10078 10079 10080 10081 10082 10083 10084 10085 10086 10087 10088 10089 10090 10091 10092 10093 10094 10095 10096 10097 10098 10099 10100 10101 10102 10103 10104 10105 10106 10107 10108 10109 10110 10111 10112 10113 10114 10115 10116 10117 10118 10119 10120 10121 10122 10123 10124 10125 10126 10127 10128 10129 10130 10131 10132 10133 10134 10135 10136 10137 10138 10139 10140 10141 10142 10143 10144 10145 10146 10147 10148 10149 10150 10151 10152 10153 10154 10155 10156 10157 10158 10159 10160 10161 10162 10163 10164 10165 10166 10167 10168 10169 10170 10171 10172 10173 10174 10175 10176 10177 10178 10179 10180 10181 10182 10183 10184 10185 10186 10187 10188 10189 10190 10191 10192 10193 10194 10195 10196 10197 10198 10199 10200 10201 10202 10203 10204 10205 10206 10207 10208 10209 10210 10211 10212 10213 10214 10215 10216 10217 10218 10219 10220 10221 10222 10223 10224 10225 10226 10227 10228 10229 10230 10231 10232 10233 10234 10235 10236 10237 10238 10239 10240 10241 10242 10243 10244 10245 10246 10247 10248 10249 10250 10251 10252 10253 10254 10255 10256 10257 10258 10259 10260 10261 10262 10263 10264 10265 10266 10267 10268 10269 10270 10271 10272 10273 10274 10275 10276 10277 10278 10279 10280 10281 10282 10283 10284 10285 10286 10287 10288 10289 10290 10291 10292 10293 10294 10295 10296 10297 10298 10299 10300 10301 10302 10303 10304 10305 10306 10307 10308 10309 10310 10311 10312 10313 10314 10315 10316 10317 10318 10319 10320 10321 10322 10323 10324 10325 10326 10327 10328 10329 10330 10331 10332 10333 10334 10335 10336 10337 10338 10339 10340 10341 10342 10343 10344 10345 10346 10347 10348 10349 10350 10351 10352 10353 10354 10355 10356 10357 10358 10359 10360 10361 10362 10363 10364 10365 10366 10367 10368 10369 10370 10371 10372 10373 10374 10375 10376 10377 10378 10379 10380 10381 10382 10383 10384 10385 10386 10387 10388 10389 10390 10391 10392 10393 10394 10395 10396 10397 10398 10399 10400 10401 10402 10403 10404 10405 10406 10407 10408 10409 10410 10411 10412 10413 10414 10415 10416 10417 10418 10419 10420 10421 10422 10423 10424 10425 10426 10427 10428 10429 10430 10431 10432 10433 10434 10435 10436 10437 10438 10439 10440 10441 10442 10443 10444 10445 10446 10447 10448 10449 10450 10451 10452 10453 10454 10455 10456 10457 10458 10459 10460 10461 10462 10463 10464 10465 10466 10467 10468 10469 10470 10471 10472 10473 10474 10475 10476 10477 10478 10479 10480 10481 10482 10483 10484 10485 10486 10487 10488 10489 10490 10491 10492 10493 10494 10495 10496 10497 10498 10499 10500 10501 10502 10503 10504 10505 10506 10507 10508 10509 10510 10511 10512 10513 10514 10515 10516 10517 10518 10519 10520 10521 10522 10523 10524 10525 10526 10527 10528 10529 10530 10531 10532 10533 10534 10535 10536 10537 10538 10539 10540 10541 10542 10543 10544 10545 10546 10547 10548 10549 10550 10551 10552 10553 10554 10555 10556 10557 10558 10559 10560 10561 10562 10563 10564 10565 10566 10567 10568 10569 10570 10571 10572 10573 10574 10575 10576 10577 10578 10579 10580 10581 10582 10583 10584 10585 10586 10587 10588 10589 10590 10591 10592 10593 10594 10595 10596 10597 10598 10599 10600 10601 10602 10603 10604 10605 10606 10607 10608 10609 10610 10611 10612 10613 10614 10615 10616 10617 10618 10619 10620 10621 10622 10623 10624 10625 10626 10627 10628 10629 10630 10631 10632 10633 10634 10635 10636 10637 10638 10639 10640 10641 10642 10643 10644 10645 10646 10647 10648 10649 10650 10651 10652 10653 10654 10655 10656 10657 10658 10659 10660 10661 10662 10663 10664 10665 10666 10667 10668 10669 10670 10671 10672 10673 10674 10675 10676 10677 10678 10679 10680 10681 10682 10683 10684 10685 10686 10687 10688 10689 10690 10691 10692 10693 10694 10695 10696 10697 10698 10699 10700 10701 10702 10703 10704 10705 10706 10707 10708 10709 10710 10711 10712 10713 10714 10715 10716 10717 10718 10719 10720 10721 10722 10723 10724 10725 10726 10727 10728 10729 10730 10731 10732 10733 10734 10735 10736 10737 10738 10739 10740 10741 10742 10743 10744 10745 10746 10747 10748 10749 10750 10751 10752 10753 10754 10755 10756 10757 10758 10759 10760 10761 10762 10763 10764 10765 10766 10767 10768 10769 10770 10771 10772 10773 10774 10775 10776 10777 10778 10779 10780 10781 10782 10783 10784 10785 10786 10787 10788 10789 10790 10791 10792 10793 10794 10795 10796 10797 10798 10799 10800 10801 10802 10803 10804 10805 10806 10807 10808 10809 10810 10811 10812 10813 10814 10815 10816 10817 10818 10819 10820 10821 10822 10823 10824 10825 10826 10827 10828 10829 10830 10831 10832 10833 10834 10835 10836 10837 10838 10839 10840 10841 10842 10843 10844 10845 10846 10847 10848 10849 10850 10851 10852 10853 10854 10855 10856 10857 10858 10859 10860 10861 10862 10863 10864 10865 10866 10867 10868 10869 10870 10871 10872 10873 10874 10875 10876 10877 10878 10879 10880 10881 10882 10883 10884 10885 10886 10887 10888 10889 10890 10891 10892 10893 10894 10895 10896 10897 10898 10899 10900 10901 10902 10903 10904 10905 10906 10907 10908 10909 10910 10911 10912 10913 10914 10915 10916 10917 10918 10919 10920 10921 10922 10923 10924 10925 10926 10927 10928 10929 10930 10931 10932 10933 10934 10935 10936 10937 10938 10939 10940 10941 10942 10943 10944 10945 10946 10947 10948 10949 10950 10951 10952 10953 10954 10955 10956 10957 10958 10959 10960 10961 10962 10963 10964 10965 10966 10967 10968 10969 10970 10971 10972 10973 10974 10975 10976 10977 10978 10979 10980 10981 10982 10983 10984 10985 10986 10987 10988 10989 10990 10991 10992 10993 10994 10995 10996 10997 10998 10999 11000 11001 11002 11003 11004 11005 11006 11007 11008 11009 11010 11011 11012 11013 11014 11015 11016 11017 11018 11019 11020 11021 11022 11023 11024 11025 11026 11027 11028 11029 11030 11031 11032 11033 11034 11035 11036 11037 11038 11039 11040 11041 11042 11043 11044 11045 11046 11047 11048 11049 11050 11051 11052 11053 11054 11055 11056 11057 11058 11059 11060 11061 11062 11063 11064 11065 11066 11067 11068 11069 11070 11071 11072 11073 11074 11075 11076 11077 11078 11079 11080 11081 11082 11083 11084 11085 11086 11087 11088 11089 11090 11091 11092 11093 11094 11095 11096 11097 11098 11099 11100 11101 11102 11103 11104 11105 11106 11107 11108 11109 11110 11111 11112 11113 11114 11115 11116 11117 11118 11119 11120 11121 11122 11123 11124 11125 11126 11127 11128 11129 11130 11131 11132 11133 11134 11135 11136 11137 11138 11139 11140 11141 11142 11143 11144 11145 11146 11147 11148 11149 11150 11151 11152 11153 11154 11155 11156 11157 11158 11159 11160 11161 11162 11163 11164 11165 11166 11167 11168 11169 11170 11171 11172 11173 11174 11175 11176 11177 11178 11179 11180 11181 11182 11183 11184 11185 11186 11187 11188 11189 11190 11191 11192 11193 11194 11195 11196 11197 11198 11199 11200 11201 11202 11203 11204 11205 11206 11207 11208 11209 11210 11211 11212 11213 11214 11215 11216 11217 11218 11219 11220 11221 11222 11223 11224 11225 11226 11227 11228 11229 11230 11231 11232 11233 11234 11235 11236 11237 11238 11239 11240 11241 11242 11243 11244 11245 11246 11247 11248 11249 11250 11251 11252 11253 11254 11255 11256 11257 11258 11259 11260 11261 11262 11263 11264 11265 11266 11267 11268 11269 11270 11271 11272 11273 11274 11275 11276 11277 11278 11279 11280 11281 11282 11283 11284 11285 11286 11287 11288 11289 11290 11291 11292 11293 11294 11295 11296 11297 11298 11299 11300 11301 11302 11303 11304 11305 11306 11307 11308 11309 11310 11311 11312 11313 11314 11315 11316 11317 11318 11319 11320 11321 11322 11323 11324 11325 11326 11327 11328 11329 11330 11331 11332 11333 11334 11335 11336 11337 11338 11339 11340 11341 11342 11343 11344 11345 11346 11347 11348 11349 11350 11351 11352 11353 11354 11355 11356 11357 11358 11359 11360 11361 11362 11363 11364 11365 11366 11367 11368 11369 11370 11371 11372 11373 11374 11375 11376 11377 11378 11379 11380 11381 11382 11383 11384 11385 11386 11387 11388 11389 11390 11391 11392 11393 11394 11395 11396 11397 11398 11399 11400 11401 11402 11403 11404 11405 11406 11407 11408 11409 11410 11411 11412 11413 11414 11415 11416 11417 11418 11419 11420 11421 11422 11423 11424 11425 11426 11427 11428 11429 11430 11431 11432 11433 11434 11435 11436 11437 11438 11439 11440 11441 11442 11443 11444 11445 11446 11447 11448 11449 11450 11451 11452 11453 11454 11455 11456 11457 11458 11459 11460 11461 11462 11463 11464 11465 11466 11467 11468 11469 11470 11471 11472 11473 11474 11475 11476 11477 11478 11479 11480 11481 11482 11483 11484 11485 11486 11487 11488 11489 11490 11491 11492 11493 11494 11495 11496 11497 11498 11499 11500 11501 11502 11503 11504 11505 11506 11507 11508 11509 11510 11511 11512 11513 11514 11515 11516 11517 11518 11519 11520 11521 11522 11523 11524 11525 11526 11527 11528 11529 11530 11531 11532 11533 11534 11535 11536 11537 11538 11539 11540 11541 11542 11543 11544 11545 11546 11547 11548 11549 11550 11551 11552 11553 11554 11555 11556 11557 11558 11559 11560 11561 11562 11563 11564 11565 11566 11567 11568 11569 11570 11571 11572 11573 11574 11575 11576 11577 11578 11579 11580 11581 11582 11583 11584 11585 11586 11587 11588 11589 11590 11591 11592 11593 11594 11595 11596 11597 11598 11599 11600 11601 11602 11603 11604 11605 11606 11607 11608 11609 11610 11611 11612 11613 11614 11615 11616 11617 11618 11619 11620 11621 11622 11623 11624 11625 11626 11627 11628 11629 11630 11631 11632 11633 11634 11635 11636 11637 11638 11639 11640 11641 11642 11643 11644 11645 11646 11647 11648 11649 11650 11651 11652 11653 11654 11655 11656 11657 11658 11659 11660 11661 11662 11663 11664 11665 11666 11667 11668 11669 11670 11671 11672 11673 11674 11675 11676 11677 11678 11679 11680 11681 11682 11683 11684 11685 11686 11687 11688 11689 11690 11691 11692 11693 11694 11695 11696 11697 11698 11699 11700 11701 11702 11703 11704 11705 11706 11707 11708 11709 11710 11711 11712 11713 11714 11715 11716 11717 11718 11719 11720 11721 11722 11723 11724 11725 11726 11727 11728 11729 11730 11731 11732 11733 11734 11735 11736 11737 11738 11739 11740 11741 11742 11743 11744 11745 11746 11747 11748 11749 11750 11751 11752 11753 11754 11755 11756 11757 11758 11759 11760 11761 11762 11763 11764 11765 11766 11767 11768 11769 11770 11771 11772 11773 11774 11775 11776 11777 11778 11779 11780 11781 11782 11783 11784 11785 11786 11787 11788 11789 11790 11791 11792 11793 11794 11795 11796 11797 11798 11799 11800 11801 11802 11803 11804 11805 11806 11807 11808 11809 11810 11811 11812 11813 11814 11815 11816 11817 11818 11819 11820 11821 11822 11823 11824 11825 11826 11827 11828 11829 11830 11831 11832 11833 11834 11835 11836 11837 11838 11839 11840 11841 11842 11843 11844 11845 11846 11847 11848 11849 11850 11851 11852 11853 11854 11855 11856 11857 11858 11859 11860 11861 11862 11863 11864 11865 11866 11867 11868 11869 11870 11871 11872 11873 11874 11875 11876 11877 11878 11879 11880 11881 11882 11883 11884 11885 11886 11887 11888 11889 11890 11891 11892 11893 11894 11895 11896 11897 11898 11899 11900 11901 11902 11903 11904 11905 11906 11907 11908 11909 11910 11911 11912 11913 11914 11915 11916 11917 11918 11919 11920 11921 11922 11923 11924 11925 11926 11927 11928 11929 11930 11931 11932 11933 11934 11935 11936 11937 11938 11939 11940 11941 11942 11943 11944 11945 11946 11947 11948 11949 11950 11951 11952 11953 11954 11955 11956 11957 11958 11959 11960 11961 11962 11963 11964 11965 11966 11967 11968 11969 11970 11971 11972 11973 11974 11975 11976 11977 11978 11979 11980 11981 11982 11983 11984 11985 11986 11987 11988 11989 11990 11991 11992 11993 11994 11995 11996 11997 11998 11999 12000 12001 12002 12003 12004 12005 12006 12007 12008 12009 12010 12011 12012 12013 12014 12015 12016 12017 12018 12019 12020 12021 12022 12023 12024 12025 12026 12027 12028 12029 12030 12031 12032 12033 12034 12035 12036 12037 12038 12039 12040 12041 12042 12043 12044 12045 12046 12047 12048 12049 12050 12051 12052 12053 12054 12055 12056 12057 12058 12059 12060 12061 12062 12063 12064 12065 12066 12067 12068 12069 12070 12071 12072 12073 12074 12075 12076 12077 12078 12079 12080 12081 12082 12083 12084 12085 12086 12087 12088 12089 12090 12091 12092 12093 12094 12095 12096 12097 12098 12099 12100 12101 12102 12103 12104 12105 12106 12107 12108 12109 12110 12111 12112 12113 12114 12115 12116 12117 12118 12119 12120 12121 12122 12123 12124 12125 12126 12127 12128 12129 12130 12131 12132 12133 12134 12135 12136 12137 12138 12139 12140 12141 12142 12143 12144 12145 12146 12147 12148 12149 12150 12151 12152 12153 12154 12155 12156 12157 12158 12159 12160 12161 12162 12163 12164 12165 12166 12167 12168 12169 12170 12171 12172 12173 12174 12175 12176 12177 12178 12179 12180 12181 12182 12183 12184 12185 12186 12187 12188 12189 12190 12191 12192 12193 12194 12195 12196 12197 12198 12199 12200 12201 12202 12203 12204 12205 12206 12207 12208 12209 12210 12211 12212 12213 12214 12215 12216 12217 12218 12219 12220 12221 12222 12223 12224 12225 12226 12227 12228 12229 12230 12231 12232 12233 12234 12235 12236 12237 12238 12239 12240 12241 12242 12243 12244 12245 12246 12247 12248 12249 12250 12251 12252 12253 12254 12255 12256 12257 12258 12259 12260 12261 12262 12263 12264 12265 12266 12267 12268 12269 12270 12271 12272 12273 12274 12275 12276 12277 12278 12279 12280 12281 12282 12283 12284 12285 12286 12287 12288 12289 12290 12291 12292 12293 12294 12295 12296 12297 12298 12299 12300 12301 12302 12303 12304 12305 12306 12307 12308 12309 12310 12311 12312 12313 12314 12315 12316 12317 12318 12319 12320 12321 12322 12323 12324 12325 12326 12327 12328 12329 12330 12331 12332 12333 12334 12335 12336 12337 12338 12339 12340 12341 12342 12343 12344 12345 12346 12347 12348 12349 12350 12351 12352 12353 12354 12355 12356 12357 12358 12359 12360 12361 12362 12363 12364 12365 12366 12367 12368 12369 12370 12371 12372 12373 12374 12375 12376 12377 12378 12379 12380 12381 12382 12383 12384 12385 12386 12387 12388 12389 12390 12391 12392 12393 12394 12395 12396 12397 12398 12399 12400 12401 12402 12403 12404 12405 12406 12407 12408 12409 12410 12411 12412 12413 12414 12415 12416 12417 12418 12419 12420 12421 12422 12423 12424 12425 12426 12427 12428 12429 12430 12431 12432 12433 12434 12435 12436 12437 12438 12439 12440 12441 12442 12443 12444 12445 12446 12447 12448 12449 12450 12451 12452 12453 12454 12455 12456 12457 12458 12459 12460 12461 12462 12463 12464 12465 12466 12467 12468 12469 12470 12471 12472 12473 12474 12475 12476 12477 12478 12479 12480 12481 12482 12483 12484 12485 12486 12487 12488 12489 12490 12491 12492 12493 12494 12495 12496 12497 12498 12499 12500 12501 12502 12503 12504 12505 12506 12507 12508 12509 12510 12511 12512 12513 12514 12515 12516 12517 12518 12519 12520 12521 12522 12523 12524 12525 12526 12527 12528 12529 12530 12531 12532 12533 12534 12535 12536 12537 12538 12539 12540 12541 12542 12543 12544 12545 12546 12547 12548 12549 12550 12551 12552 12553 12554 12555 12556 12557 12558 12559 12560 12561 12562 12563 12564 12565 12566 12567 12568 12569 12570 12571 12572 12573 12574 12575 12576 12577 12578 12579 12580 12581 12582 12583 12584 12585 12586 12587 12588 12589 12590 12591 12592 12593 12594 12595 12596 12597 12598 12599 12600 12601 12602 12603 12604 12605 12606 12607 12608 12609 12610 12611 12612 12613 12614 12615 12616 12617 12618 12619 12620 12621 12622 12623 12624 12625 12626 12627 12628 12629 12630 12631 12632 12633 12634 12635 12636 12637 12638 12639 12640 12641 12642 12643 12644 12645 12646 12647 12648 12649 12650 12651 12652 12653 12654 12655 12656 12657 12658 12659 12660 12661 12662 12663 12664 12665 12666 12667 12668 12669 12670 12671 12672 12673 12674 12675 12676 12677 12678 12679 12680 12681 12682 12683 12684 12685 12686 12687 12688 12689 12690 12691 12692 12693 12694 12695 12696 12697 12698 12699 12700 12701 12702 12703 12704 12705 12706 12707 12708 12709 12710 12711 12712 12713 12714 12715 12716 12717 12718 12719 12720 12721 12722 12723 12724 12725 12726 12727 12728 12729 12730 12731 12732 12733 12734 12735 12736 12737 12738 12739 12740 12741 12742 12743 12744 12745 12746 12747 12748 12749 12750 12751 12752 12753 12754 12755 12756 12757 12758 12759 12760 12761 12762 12763 12764 12765 12766 12767 12768 12769 12770 12771 12772 12773 12774 12775 12776 12777 12778 12779 12780 12781 12782 12783 12784 12785 12786 12787 12788 12789 12790 12791 12792 12793 12794 12795 12796 12797 12798 12799 12800 12801 12802 12803 12804 12805 12806 12807 12808 12809 12810 12811 12812 12813 12814 12815 12816 12817 12818 12819 12820 12821 12822 12823 12824 12825 12826 12827 12828 12829 12830 12831 12832 12833 12834 12835 12836 12837 12838 12839 12840 12841 12842 12843 12844 12845 12846 12847 12848 12849 12850 12851 12852 12853 12854 12855 12856 12857 12858 12859 12860 12861 12862 12863 12864 12865 12866 12867 12868 12869 12870 12871 12872 12873 12874 12875 12876 12877 12878 12879 12880 12881 12882 12883 12884 12885 12886 12887 12888 12889 12890 12891 12892 12893 12894 12895 12896 12897 12898 12899 12900 12901 12902 12903 12904 12905 12906 12907 12908 12909 12910 12911 12912 12913 12914 12915 12916 12917 12918 12919 12920 12921 12922 12923 12924 12925 12926 12927 12928 12929 12930 12931 12932 12933 12934 12935 12936 12937 12938 12939 12940 12941 12942 12943 12944 12945 12946 12947 12948 12949 12950 12951 12952 12953 12954 12955 12956 12957 12958 12959 12960 12961 12962 12963 12964 12965 12966 12967 12968 12969 12970 12971 12972 12973 12974 12975 12976 12977 12978 12979 12980 12981 12982 12983 12984 12985 12986 12987 12988 12989 12990 12991 12992 12993 12994 12995 12996 12997 12998 12999 13000 13001 13002 13003 13004 13005 13006 13007 13008 13009 13010 13011 13012 13013 13014 13015 13016 13017 13018 13019 13020 13021 13022 13023 13024 13025 13026 13027 13028 13029 13030 13031 13032 13033 13034 13035 13036 13037 13038 13039 13040 13041 13042 13043 13044 13045 13046 13047 13048 13049 13050 13051 13052 13053 13054 13055 13056 13057 13058 13059 13060 13061 13062 13063 13064 13065 13066 13067 13068 13069 13070 13071 13072 13073 13074 13075 13076 13077 13078 13079 13080 13081 13082 13083 13084 13085 13086 13087 13088 13089 13090 13091 13092 13093 13094 13095 13096 13097 13098 13099 13100 13101 13102 13103 13104 13105 13106 13107 13108 13109 13110 13111 13112 13113 13114 13115 13116 13117 13118 13119 13120 13121 13122 13123 13124 13125 13126 13127 13128 13129 13130 13131 13132 13133 13134 13135 13136 13137 13138 13139 13140 13141 13142 13143 13144 13145 13146 13147 13148 13149 13150 13151 13152 13153 13154 13155 13156 13157 13158 13159 13160 13161 13162 13163 13164 13165 13166 13167 13168 13169 13170 13171 13172 13173 13174 13175 13176 13177 13178 13179 13180 13181 13182 13183 13184 13185 13186 13187 13188 13189 13190 13191 13192 13193 13194 13195 13196 13197 13198 13199 13200 13201 13202 13203 13204 13205 13206 13207 13208 13209 13210 13211 13212 13213 13214 13215 13216 13217 13218 13219 13220 13221 13222 13223 13224 13225 13226 13227 13228 13229 13230 13231 13232 13233 13234 13235 13236 13237 13238 13239 13240 13241 13242 13243 13244 13245 13246 13247 13248 13249 13250 13251 13252 13253 13254 13255 13256 13257 13258 13259 13260 13261 13262 13263 13264 13265 13266 13267 13268 13269 13270 13271 13272 13273 13274 13275 13276 13277 13278 13279 13280 13281 13282 13283 13284 13285 13286 13287 13288 13289 13290 13291 13292 13293 13294 13295 13296 13297 13298 13299 13300 13301 13302 13303 13304 13305 13306 13307 13308 13309 13310 13311 13312 13313 13314 13315 13316 13317 13318 13319 13320 13321 13322 13323 13324 13325 13326 13327 13328 13329 13330 13331 13332 13333 13334 13335 13336 13337 13338 13339 13340 13341 13342 13343 13344 13345 13346 13347 13348 13349 13350 13351 13352 13353 13354 13355 13356 13357 13358 13359 13360 13361 13362 13363 13364 13365 13366 13367 13368 13369 13370 13371 13372 13373 13374 13375 13376 13377 13378 13379 13380 13381 13382 13383 13384 13385 13386 13387 13388 13389 13390 13391 13392 13393 13394 13395 13396 13397 13398 13399 13400 13401 13402 13403 13404 13405 13406 13407 13408 13409 13410 13411 13412 13413 13414 13415 13416 13417 13418 13419 13420 13421 13422 13423 13424 13425 13426 13427 13428 13429 13430 13431 13432 13433 13434 13435 13436 13437 13438 13439 13440 13441 13442 13443 13444 13445 13446 13447 13448 13449 13450 13451 13452 13453 13454 13455 13456 13457 13458 13459 13460 13461 13462 13463 13464 13465 13466 13467 13468 13469 13470 13471 13472 13473 13474 13475 13476 13477 13478 13479 13480 13481 13482 13483 13484 13485 13486 13487 13488 13489 13490 13491 13492 13493 13494 13495 13496 13497 13498 13499 13500 13501 13502 13503 13504 13505 13506 13507 13508 13509 13510 13511 13512 13513 13514 13515 13516 13517 13518 13519 13520 13521 13522 13523 13524 13525 13526 13527 13528 13529 13530 13531 13532 13533 13534 13535 13536 13537 13538 13539 13540 13541 13542 13543 13544 13545 13546 13547 13548 13549 13550 13551 13552 13553 13554 13555 13556 13557 13558 13559 13560 13561 13562 13563 13564 13565 13566 13567 13568 13569 13570 13571 13572 13573 13574 13575 13576 13577 13578 13579 13580 13581 13582 13583 13584 13585 13586 13587 13588 13589 13590 13591 13592 13593 13594 13595 13596 13597 13598 13599 13600 13601 13602 13603 13604 13605 13606 13607 13608 13609 13610 13611 13612 13613 13614 13615 13616 13617 13618 13619 13620 13621 13622 13623 13624 13625 13626 13627 13628 13629 13630 13631 13632 13633 13634 13635 13636 13637 13638 13639 13640 13641 13642 13643 13644 13645 13646 13647 13648 13649 13650 13651 13652 13653 13654 13655 13656 13657 13658 13659 13660 13661 13662 13663 13664 13665 13666 13667 13668 13669 13670 13671 13672 13673 13674 13675 13676 13677 13678 13679 13680 13681 13682 13683 13684 13685 13686 13687 13688 13689 13690 13691 13692 13693 13694 13695 13696 13697 13698 13699 13700 13701 13702 13703 13704 13705 13706 13707 13708 13709 13710 13711 13712 13713 13714 13715 13716 13717 13718 13719 13720 13721 13722 13723 13724 13725 13726 13727 13728 13729 13730 13731 13732 13733 13734 13735 13736 13737 13738 13739 13740 13741 13742 13743 13744 13745 13746 13747 13748 13749 13750 13751 13752 13753 13754 13755 13756 13757 13758 13759 13760 13761 13762 13763 13764 13765 13766 13767 13768 13769 13770 13771 13772 13773 13774 13775 13776 13777 13778 13779 13780 13781 13782 13783 13784 13785 13786 13787 13788 13789 13790 13791 13792 13793 13794 13795 13796 13797 13798 13799 13800 13801 13802 13803 13804 13805 13806 13807 13808 13809 13810 13811 13812 13813 13814 13815 13816 13817 13818 13819 13820 13821 13822 13823 13824 13825 13826 13827 13828 13829 13830 13831 13832 13833 13834 13835 13836 13837 13838 13839 13840 13841 13842 13843 13844 13845 13846 13847 13848 13849 13850 13851 13852 13853 13854 13855 13856 13857 13858 13859 13860 13861 13862 13863 13864 13865 13866 13867 13868 13869 13870 13871 13872 13873 13874 13875 13876 13877 13878 13879 13880 13881 13882 13883 13884 13885 13886 13887 13888 13889 13890 13891 13892 13893 13894 13895 13896 13897 13898 13899 13900 13901 13902 13903 13904 13905 13906 13907 13908 13909 13910 13911 13912 13913 13914 13915 13916 13917 13918 13919 13920 13921 13922 13923 13924 13925 13926 13927 13928 13929 13930 13931 13932 13933 13934 13935 13936 13937 13938 13939 13940 13941 13942 13943 13944 13945 13946 13947 13948 13949 13950 13951 13952 13953 13954 13955 13956 13957 13958 13959 13960 13961 13962 13963 13964 13965 13966 13967 13968 13969 13970 13971 13972 13973 13974 13975 13976 13977 13978 13979 13980 13981 13982 13983 13984 13985 13986 13987 13988 13989 13990 13991 13992 13993 13994 13995 13996 13997 13998 13999 14000 14001 14002 14003 14004 14005 14006 14007 14008 14009 14010 14011 14012 14013 14014 14015 14016 14017 14018 14019 14020 14021 14022 14023 14024 14025 14026 14027 14028 14029 14030 14031 14032 14033 14034 14035 14036 14037 14038 14039 14040 14041 14042 14043 14044 14045 14046 14047 14048 14049 14050 14051 14052 14053 14054 14055 14056 14057 14058 14059 14060 14061 14062 14063 14064 14065 14066 14067 14068 14069 14070 14071 14072 14073 14074 14075 14076 14077 14078 14079 14080 14081 14082 14083 14084 14085 14086 14087 14088 14089 14090 14091 14092 14093 14094 14095 14096 14097 14098 14099 14100 14101 14102 14103 14104 14105 14106 14107 14108 14109 14110 14111 14112 14113 14114 14115 14116 14117 14118 14119 14120 14121 14122 14123 14124 14125 14126 14127 14128 14129 14130 14131 14132 14133 14134 14135 14136 14137 14138 14139 14140 14141 14142 14143 14144 14145 14146 14147 14148 14149 14150 14151 14152 14153 14154 14155 14156 14157 14158 14159 14160 14161 14162 14163 14164 14165 14166 14167 14168 14169 14170 14171 14172 14173 14174 14175 14176 14177 14178 14179 14180 14181 14182 14183 14184 14185 14186 14187 14188 14189 14190 14191 14192 14193 14194 14195 14196 14197 14198 14199 14200 14201 14202 14203 14204 14205 14206 14207 14208 14209 14210 14211 14212 14213 14214 14215 14216 14217 14218 14219 14220 14221 14222 14223 14224 14225 14226 14227 14228 14229 14230 14231 14232 14233 14234 14235 14236 14237 14238 14239 14240 14241 14242 14243 14244 14245 14246 14247 14248 14249 14250 14251 14252 14253 14254 14255 14256 14257 14258 14259 14260 14261 14262 14263 14264 14265 14266 14267 14268 14269 14270 14271 14272 14273 14274 14275 14276 14277 14278 14279 14280 14281 14282 14283 14284 14285 14286 14287 14288 14289 14290 14291 14292 14293 14294 14295 14296 14297 14298 14299 14300 14301 14302 14303 14304 14305 14306 14307 14308 14309 14310 14311 14312 14313 14314 14315 14316 14317 14318 14319 14320 14321 14322 14323 14324 14325 14326 14327 14328 14329 14330 14331 14332 14333 14334 14335 14336 14337 14338 14339 14340 14341 14342 14343 14344 14345 14346 14347 14348 14349 14350 14351 14352 14353 14354 14355 14356 14357 14358 14359 14360 14361 14362 14363 14364 14365 14366 14367 14368 14369 14370 14371 14372 14373 14374 14375 14376 14377 14378 14379 14380 14381 14382 14383 14384 14385 14386 14387 14388 14389 14390 14391 14392 14393 14394 14395 14396 14397 14398 14399 14400 14401 14402 14403 14404 14405 14406 14407 14408 14409 14410 14411 14412 14413 14414 14415 14416 14417 14418 14419 14420 14421 14422 14423 14424 14425 14426 14427 14428 14429 14430 14431 14432 14433 14434 14435 14436 14437 14438 14439 14440 14441 14442 14443 14444 14445 14446 14447 14448 14449 14450 14451 14452 14453 14454 14455 14456 14457 14458 14459 14460 14461 14462 14463 14464 14465 14466 14467 14468 14469 14470 14471 14472 14473 14474 14475 14476 14477 14478 14479 14480 14481 14482 14483 14484 14485 14486 14487 14488 14489 14490 14491 14492 14493 14494 14495 14496 14497 14498 14499 14500 14501 14502 14503 14504 14505 14506 14507 14508 14509 14510 14511 14512 14513 14514 14515 14516 14517 14518 14519 14520 14521 14522 14523 14524 14525 14526 14527 14528 14529 14530 14531 14532 14533 14534 14535 14536 14537 14538 14539 14540 14541 14542 14543 14544 14545 14546 14547 14548 14549 14550 14551 14552 14553 14554 14555 14556 14557 14558 14559 14560 14561 14562 14563 14564 14565 14566 14567 14568 14569 14570 14571 14572 14573 14574 14575 14576 14577 14578 14579 14580 14581 14582 14583 14584 14585 14586 14587 14588 14589 14590 14591 14592 14593 14594 14595 14596 14597 14598 14599 14600 14601 14602 14603 14604 14605 14606 14607 14608 14609 14610 14611 14612 14613 14614 14615 14616 14617 14618 14619 14620 14621 14622 14623 14624 14625 14626 14627 14628 14629 14630 14631 14632 14633 14634 14635 14636 14637 14638 14639 14640 14641 14642 14643 14644 14645 14646 14647 14648 14649 14650 14651 14652 14653 14654 14655 14656 14657 14658 14659 14660 14661 14662 14663 14664 14665 14666 14667 14668 14669 14670 14671 14672 14673 14674 14675 14676 14677 14678 14679 14680 14681 14682 14683 14684 14685 14686 14687 14688 14689 14690 14691 14692 14693 14694 14695 14696 14697 14698 14699 14700 14701 14702 14703 14704 14705 14706 14707 14708 14709 14710 14711 14712 14713 14714 14715 14716 14717 14718 14719 14720 14721 14722 14723 14724 14725 14726 14727 14728 14729 14730 14731 14732 14733 14734 14735 14736 14737 14738 14739 14740 14741 14742 14743 14744 14745 14746 14747 14748 14749 14750 14751 14752 14753 14754 14755 14756 14757 14758 14759 14760 14761 14762 14763 14764 14765 14766 14767 14768 14769 14770 14771 14772 14773 14774 14775 14776 14777 14778 14779 14780 14781 14782 14783 14784 14785 14786 14787 14788 14789 14790 14791 14792 14793 14794 14795 14796 14797 14798 14799 14800 14801 14802 14803 14804 14805 14806 14807 14808 14809 14810 14811 14812 14813 14814 14815 14816 14817 14818 14819 14820 14821 14822 14823 14824 14825 14826 14827 14828 14829 14830 14831 14832 14833 14834 14835 14836 14837 14838 14839 14840 14841 14842 14843 14844 14845 14846 14847 14848 14849 14850 14851 14852 14853 14854 14855 14856 14857 14858 14859 14860 14861 14862 14863 14864 14865 14866 14867 14868 14869 14870 14871 14872 14873 14874 14875 14876 14877 14878 14879 14880 14881 14882 14883 14884 14885 14886 14887 14888 14889 14890 14891 14892 14893 14894 14895 14896 14897 14898 14899 14900 14901 14902 14903 14904 14905 14906 14907 14908 14909 14910 14911 14912 14913 14914 14915 14916 14917 14918 14919 14920 14921 14922 14923 14924 14925 14926 14927 14928 14929 14930 14931 14932 14933 14934 14935 14936 14937 14938 14939 14940 14941 14942 14943 14944 14945 14946 14947 14948 14949 14950 14951 14952 14953 14954 14955 14956 14957 14958 14959 14960 14961 14962 14963 14964 14965 14966 14967 14968 14969 14970 14971 14972 14973 14974 14975 14976 14977 14978 14979 14980 14981 14982 14983 14984 14985 14986 14987 14988 14989 14990 14991 14992 14993 14994 14995 14996 14997 14998 14999 15000 15001 15002 15003 15004 15005 15006 15007 15008 15009 15010 15011 15012 15013 15014 15015 15016 15017 15018 15019 15020 15021 15022 15023 15024 15025 15026 15027 15028 15029 15030 15031 15032 15033 15034 15035 15036 15037 15038 15039 15040 15041 15042 15043 15044 15045 15046 15047 15048 15049 15050 15051 15052 15053 15054 15055 15056 15057 15058 15059 15060 15061 15062 15063 15064 15065 15066 15067 15068 15069 15070 15071 15072 15073 15074 15075 15076 15077 15078 15079 15080 15081 15082 15083 15084 15085 15086 15087 15088 15089 15090 15091 15092 15093 15094 15095 15096 15097 15098 15099 15100 15101 15102 15103 15104 15105 15106 15107 15108 15109 15110 15111 15112 15113 15114 15115 15116 15117 15118 15119 15120 15121 15122 15123 15124 15125 15126 15127 15128 15129 15130 15131 15132 15133 15134 15135 15136 15137 15138 15139 15140 15141 15142 15143 15144 15145 15146 15147 15148 15149 15150 15151 15152 15153 15154 15155 15156 15157 15158 15159 15160 15161 15162 15163 15164 15165 15166 15167 15168 15169 15170 15171 15172 15173 15174 15175 15176 15177 15178 15179 15180 15181 15182 15183 15184 15185 15186 15187 15188 15189 15190 15191 15192 15193 15194 15195 15196 15197 15198 15199 15200 15201 15202 15203 15204 15205 15206 15207 15208 15209 15210 15211 15212 15213 15214 15215 15216 15217 15218 15219 15220 15221 15222 15223 15224 15225 15226 15227 15228 15229 15230 15231 15232 15233 15234 15235 15236 15237 15238 15239 15240 15241 15242 15243 15244 15245 15246 15247 15248 15249 15250 15251 15252 15253 15254 15255 15256 15257 15258 15259 15260 15261 15262 15263 15264 15265 15266 15267 15268 15269 15270 15271 15272 15273 15274 15275 15276 15277 15278 15279 15280 15281 15282 15283 15284 15285 15286 15287 15288 15289 15290 15291 15292 15293 15294 15295 15296 15297 15298 15299 15300 15301 15302 15303 15304 15305 15306 15307 15308 15309 15310 15311 15312 15313 15314 15315 15316 15317 15318 15319 15320 15321 15322 15323 15324 15325 15326 15327 15328 15329 15330 15331 15332 15333 15334 15335 15336 15337 15338 15339 15340 15341 15342 15343 15344 15345 15346 15347 15348 15349 15350 15351 15352 15353 15354 15355 15356 15357 15358 15359 15360 15361 15362 15363 15364 15365 15366 15367 15368 15369 15370 15371 15372 15373 15374 15375 15376 15377 15378 15379 15380 15381 15382 15383 15384 15385 15386 15387 15388 15389 15390 15391 15392 15393 15394 15395 15396 15397 15398 15399 15400 15401 15402 15403 15404 15405 15406 15407 15408 15409 15410 15411 15412 15413 15414 15415 15416 15417 15418 15419 15420 15421 15422 15423 15424 15425 15426 15427 15428 15429 15430 15431 15432 15433 15434 15435 15436 15437 15438 15439 15440 15441 15442 15443 15444 15445 15446 15447 15448 15449 15450 15451 15452 15453 15454 15455 15456 15457 15458 15459 15460 15461 15462 15463 15464 15465 15466 15467 15468 15469 15470 15471 15472 15473 15474 15475 15476 15477 15478 15479 15480 15481 15482 15483 15484 15485 15486 15487 15488 15489 15490 15491 15492 15493 15494 15495 15496 15497 15498 15499 15500 15501 15502 15503 15504 15505 15506 15507 15508 15509 15510 15511 15512 15513 15514 15515 15516 15517 15518 15519 15520 15521 15522 15523 15524 15525 15526 15527 15528 15529 15530 15531 15532 15533 15534 15535 15536 15537 15538 15539 15540 15541 15542 15543 15544 15545 15546 15547 15548 15549 15550 15551 15552 15553 15554 15555 15556 15557 15558 15559 15560 15561 15562 15563 15564 15565 15566 15567 15568 15569 15570 15571 15572 15573 15574 15575 15576 15577 15578 15579 15580 15581 15582 15583 15584 15585 15586 15587 15588 15589 15590 15591 15592 15593 15594 15595 15596 15597 15598 15599 15600 15601 15602 15603 15604 15605 15606 15607 15608 15609 15610 15611 15612 15613 15614 15615 15616 15617 15618 15619 15620 15621 15622 15623 15624 15625 15626 15627 15628 15629 15630 15631 15632 15633 15634 15635 15636 15637 15638 15639 15640 15641 15642 15643 15644 15645 15646 15647 15648 15649 15650 15651 15652 15653 15654 15655 15656 15657 15658 15659 15660 15661 15662 15663 15664 15665 15666 15667 15668 15669 15670 15671 15672 15673 15674 15675 15676 15677 15678 15679 15680 15681 15682 15683 15684 15685 15686 15687 15688 15689 15690 15691 15692 15693 15694 15695 15696 15697 15698 15699 15700 15701 15702 15703 15704 15705 15706 15707 15708 15709 15710 15711 15712 15713 15714 15715 15716 15717 15718 15719 15720 15721 15722 15723 15724 15725 15726 15727 15728 15729 15730 15731 15732 15733 15734 15735 15736 15737 15738 15739 15740 15741 15742 15743 15744 15745 15746 15747 15748 15749 15750 15751 15752 15753 15754 15755 15756 15757 15758 15759 15760 15761 15762 15763 15764 15765 15766 15767 15768 15769 15770 15771 15772 15773 15774 15775 15776 15777 15778 15779 15780 15781 15782 15783 15784 15785 15786 15787 15788 15789 15790 15791 15792 15793 15794 15795 15796 15797 15798 15799 15800 15801 15802 15803 15804 15805 15806 15807 15808 15809 15810 15811 15812 15813 15814 15815 15816 15817 15818 15819 15820 15821 15822 15823 15824 15825 15826 15827 15828 15829 15830 15831 15832 15833 15834 15835 15836 15837 15838 15839 15840 15841 15842 15843 15844 15845 15846 15847 15848 15849 15850 15851 15852 15853 15854 15855 15856 15857 15858 15859 15860 15861 15862 15863 15864 15865 15866 15867 15868 15869 15870 15871 15872 15873 15874 15875 15876 15877 15878 15879 15880 15881 15882 15883 15884 15885 15886 15887 15888 15889 15890 15891 15892 15893 15894 15895 15896 15897 15898 15899 15900 15901 15902 15903 15904 15905 15906 15907 15908 15909 15910 15911 15912 15913 15914 15915 15916 15917 15918 15919 15920 15921 15922 15923 15924 15925 15926 15927 15928 15929 15930 15931 15932 15933 15934 15935 15936 15937 15938 15939 15940 15941 15942 15943 15944 15945 15946 15947 15948 15949 15950 15951 15952 15953 15954 15955 15956 15957 15958 15959 15960 15961 15962 15963 15964 15965 15966 15967 15968 15969 15970 15971 15972 15973 15974 15975 15976 15977 15978 15979 15980 15981 15982 15983 15984 15985 15986 15987 15988 15989 15990 15991 15992 15993 15994 15995 15996 15997 15998 15999 16000 16001 16002 16003 16004 16005 16006 16007 16008 16009 16010 16011 16012 16013 16014 16015 16016 16017 16018 16019 16020 16021 16022 16023 16024 16025 16026 16027 16028 16029 16030 16031 16032 16033 16034 16035 16036 16037 16038 16039 16040 16041 16042 16043 16044 16045 16046 16047 16048 16049 16050 16051 16052 16053 16054 16055 16056 16057 16058 16059 16060 16061 16062 16063 16064 16065 16066 16067 16068 16069 16070 16071 16072 16073 16074 16075 16076 16077 16078 16079 16080 16081 16082 16083 16084 16085 16086 16087 16088 16089 16090 16091 16092 16093 16094 16095 16096 16097 16098 16099 16100 16101 16102 16103 16104 16105 16106 16107 16108 16109 16110 16111 16112 16113 16114 16115 16116 16117 16118 16119 16120 16121 16122 16123 16124 16125 16126 16127 16128 16129 16130 16131 16132 16133 16134 16135 16136 16137 16138 16139 16140 16141 16142 16143 16144 16145 16146 16147 16148 16149 16150 16151 16152 16153 16154 16155 16156 16157 16158 16159 16160 16161 16162 16163 16164 16165 16166 16167 16168 16169 16170 16171 16172 16173 16174 16175 16176 16177 16178 16179 16180 16181 16182 16183 16184 16185 16186 16187 16188 16189 16190 16191 16192 16193 16194 16195 16196 16197 16198 16199 16200 16201 16202 16203 16204 16205 16206 16207 16208 16209 16210 16211 16212 16213 16214 16215 16216 16217 16218 16219 16220 16221 16222 16223 16224 16225 16226 16227 16228 16229 16230 16231 16232 16233 16234 16235 16236 16237 16238 16239 16240 16241 16242 16243 16244 16245 16246 16247 16248 16249 16250 16251 16252 16253 16254 16255 16256 16257 16258 16259 16260 16261 16262 16263 16264 16265 16266 16267 16268 16269 16270 16271 16272 16273 16274 16275 16276 16277 16278 16279 16280 16281 16282 16283 16284 16285 16286 16287 16288 16289 16290 16291 16292 16293 16294 16295 16296 16297 16298 16299 16300 16301 16302 16303 16304 16305 16306 16307 16308 16309 16310 16311 16312 16313 16314 16315 16316 16317 16318 16319 16320 16321 16322 16323 16324 16325 16326 16327 16328 16329 16330 16331 16332 16333 16334 16335 16336 16337 16338 16339 16340 16341 16342 16343 16344 16345 16346 16347 16348 16349 16350 16351 16352 16353 16354 16355 16356 16357 16358 16359 16360 16361 16362 16363 16364 16365 16366 16367 16368 16369 16370 16371 16372 16373 16374 16375 16376 16377 16378 16379 16380 16381 16382 16383 16384 16385 16386 16387 16388 16389 16390 16391 16392 16393 16394 16395 16396 16397 16398 16399 16400 16401 16402 16403 16404 16405 16406 16407 16408 16409 16410 16411 16412 16413 16414 16415 16416 16417 16418 16419 16420 16421 16422 16423 16424 16425 16426 16427 16428 16429 16430 16431 16432 16433 16434 16435 16436 16437 16438 16439 16440 16441 16442 16443 16444 16445 16446 16447 16448 16449 16450 16451 16452 16453 16454 16455 16456 16457 16458 16459 16460 16461 16462 16463 16464 16465 16466 16467 16468 16469 16470 16471 16472 16473 16474 16475 16476 16477 16478 16479 16480 16481 16482 16483 16484 16485 16486 16487 16488 16489 16490 16491 16492 16493 16494 16495 16496 16497 16498 16499 16500 16501 16502 16503 16504 16505 16506 16507 16508 16509 16510 16511 16512 16513 16514 16515 16516 16517 16518 16519 16520 16521 16522 16523 16524 16525 16526 16527 16528 16529 16530 16531 16532 16533 16534 16535 16536 16537 16538 16539 16540 16541 16542 16543 16544 16545 16546 16547 16548 16549 16550 16551 16552 16553 16554 16555 16556 16557 16558 16559 16560 16561 16562 16563 16564 16565 16566 16567 16568 16569 16570 16571 16572 16573 16574 16575 16576 16577 16578 16579 16580 16581 16582 16583 16584 16585 16586 16587 16588 16589 16590 16591 16592 16593 16594 16595 16596 16597 16598 16599 16600 16601 16602 16603 16604 16605 16606 16607 16608 16609 16610 16611 16612 16613 16614 16615 16616 16617 16618 16619 16620 16621 16622 16623 16624 16625 16626 16627 16628 16629 16630 16631 16632 16633 16634 16635 16636 16637 16638 16639 16640 16641 16642 16643 16644 16645 16646 16647 16648 16649 16650 16651 16652 16653 16654 16655 16656 16657 16658 16659 16660 16661 16662 16663 16664 16665 16666 16667 16668 16669 16670 16671 16672 16673 16674 16675 16676 16677 16678 16679 16680 16681 16682 16683 16684 16685 16686 16687 16688 16689 16690 16691 16692 16693 16694 16695 16696 16697 16698 16699 16700 16701 16702 16703 16704 16705 16706 16707 16708 16709 16710 16711 16712 16713 16714 16715 16716 16717 16718 16719 16720 16721 16722 16723 16724 16725 16726 16727 16728 16729 16730 16731 16732 16733 16734 16735 16736 16737 16738 16739 16740 16741 16742 16743 16744 16745 16746 16747 16748 16749 16750 16751 16752 16753 16754 16755 16756 16757 16758 16759 16760 16761 16762 16763 16764 16765 16766 16767 16768 16769 16770 16771 16772 16773 16774 16775 16776 16777 16778 16779 16780 16781 16782 16783 16784 16785 16786 16787 16788 16789 16790 16791 16792 16793 16794 16795 16796 16797 16798 16799 16800 16801 16802 16803 16804 16805 16806 16807 16808 16809 16810 16811 16812 16813 16814 16815 16816 16817 16818 16819 16820 16821 16822 16823 16824 16825 16826 16827 16828 16829 16830 16831 16832 16833 16834 16835 16836 16837 16838 16839 16840 16841 16842 16843 16844 16845 16846 16847 16848 16849 16850 16851 16852 16853 16854 16855 16856 16857 16858 16859 16860 16861 16862 16863 16864 16865 16866 16867 16868 16869 16870 16871 16872 16873 16874 16875 16876 16877 16878 16879 16880 16881 16882 16883 16884 16885 16886 16887 16888 16889 16890 16891 16892 16893 16894 16895 16896 16897 16898 16899 16900 16901 16902 16903 16904 16905 16906 16907 16908 16909 16910 16911 16912 16913 16914 16915 16916 16917 16918 16919 16920 16921 16922 16923 16924 16925 16926 16927 16928 16929 16930 16931 16932 16933 16934 16935 16936 16937 16938 16939 16940 16941 16942 16943 16944 16945 16946 16947 16948 16949 16950 16951 16952 16953 16954 16955 16956 16957 16958 16959 16960 16961 16962 16963 16964 16965 16966 16967 16968 16969 16970 16971 16972 16973 16974 16975 16976 16977 16978 16979 16980 16981 16982 16983 16984 16985 16986 16987 16988 16989 16990 16991 16992 16993 16994 16995 16996 16997 16998 16999 17000 17001 17002 17003 17004 17005 17006 17007 17008 17009 17010 17011 17012 17013 17014 17015 17016 17017 17018 17019 17020 17021 17022 17023 17024 17025 17026 17027 17028 17029 17030 17031 17032 17033 17034 17035 17036 17037 17038 17039 17040 17041 17042 17043 17044 17045 17046 17047 17048 17049 17050 17051 17052 17053 17054 17055 17056 17057 17058 17059 17060 17061 17062 17063 17064 17065 17066 17067 17068 17069 17070 17071 17072 17073 17074 17075 17076 17077 17078 17079 17080 17081 17082 17083 17084 17085 17086 17087 17088 17089 17090 17091 17092 17093 17094 17095 17096 17097 17098 17099 17100 17101 17102 17103 17104 17105 17106 17107 17108 17109 17110 17111 17112 17113 17114 17115 17116 17117 17118 17119 17120 17121 17122 17123 17124 17125 17126 17127 17128 17129 17130 17131 17132 17133 17134 17135 17136 17137 17138 17139 17140 17141 17142 17143 17144 17145 17146 17147 17148 17149 17150 17151 17152 17153 17154 17155 17156 17157 17158 17159 17160 17161 17162 17163 17164 17165 17166 17167 17168 17169 17170 17171 17172 17173 17174 17175 17176 17177 17178 17179 17180 17181 17182 17183 17184 17185 17186 17187 17188 17189 17190 17191 17192 17193 17194 17195 17196 17197 17198 17199 17200 17201 17202 17203 17204 17205 17206 17207 17208 17209 17210 17211 17212 17213 17214 17215 17216 17217 17218 17219 17220 17221 17222 17223 17224 17225 17226 17227 17228 17229 17230 17231 17232 17233 17234 17235 17236 17237 17238 17239 17240 17241 17242 17243 17244 17245 17246 17247 17248 17249 17250 17251 17252 17253 17254 17255 17256 17257 17258 17259 17260 17261 17262 17263 17264 17265 17266 17267 17268 17269 17270 17271 17272 17273 17274 17275 17276 17277 17278 17279 17280 17281 17282 17283 17284 17285 17286 17287 17288 17289 17290 17291 17292 17293 17294 17295 17296 17297 17298 17299 17300 17301 17302 17303 17304 17305 17306 17307 17308 17309 17310 17311 17312 17313 17314 17315 17316 17317 17318 17319 17320 17321 17322 17323 17324 17325 17326 17327 17328 17329 17330 17331 17332 17333 17334 17335 17336 17337 17338 17339 17340 17341 17342 17343 17344 17345 17346 17347 17348 17349 17350 17351 17352 17353 17354 17355 17356 17357 17358 17359 17360 17361 17362 17363 17364 17365 17366 17367 17368 17369 17370 17371 17372 17373 17374 17375 17376 17377 17378 17379 17380 17381 17382 17383 17384 17385 17386 17387 17388 17389 17390 17391 17392 17393 17394 17395 17396 17397 17398 17399 17400 17401 17402 17403 17404 17405 17406 17407 17408 17409 17410 17411 17412 17413 17414 17415 17416 17417 17418 17419 17420 17421 17422 17423 17424 17425 17426 17427 17428 17429 17430 17431 17432 17433 17434 17435 17436 17437 17438 17439 17440 17441 17442 17443 17444 17445 17446 17447 17448 17449 17450 17451 17452 17453 17454 17455 17456 17457 17458 17459 17460 17461 17462 17463 17464 17465 17466 17467 17468 17469 17470 17471 17472 17473 17474 17475 17476 17477 17478 17479 17480 17481 17482 17483 17484 17485 17486 17487 17488 17489 17490 17491 17492 17493 17494 17495 17496 17497 17498 17499 17500 17501 17502 17503 17504 17505 17506 17507 17508 17509 17510 17511 17512 17513 17514 17515 17516 17517 17518 17519 17520 17521 17522 17523 17524 17525 17526 17527 17528 17529 17530 17531 17532 17533 17534 17535 17536 17537 17538 17539 17540 17541 17542 17543 17544 17545 17546 17547 17548 17549 17550 17551 17552 17553 17554 17555 17556 17557 17558 17559 17560 17561 17562 17563 17564 17565 17566 17567 17568 17569 17570 17571 17572 17573 17574 17575 17576 17577 17578 17579 17580 17581 17582 17583 17584 17585 17586 17587 17588 17589 17590 17591 17592 17593 17594 17595 17596 17597 17598 17599 17600 17601 17602 17603 17604 17605 17606 17607 17608 17609 17610 17611 17612 17613 17614 17615 17616 17617 17618 17619 17620 17621 17622 17623 17624 17625 17626 17627 17628 17629 17630 17631 17632 17633 17634 17635 17636 17637 17638 17639 17640 17641 17642 17643 17644 17645 17646 17647 17648 17649 17650 17651 17652 17653 17654 17655 17656 17657 17658 17659 17660 17661 17662 17663 17664 17665 17666 17667 17668 17669 17670 17671 17672 17673 17674 17675 17676 17677 17678 17679 17680 17681 17682 17683 17684 17685 17686 17687 17688 17689 17690 17691 17692 17693 17694 17695 17696 17697 17698 17699 17700 17701 17702 17703 17704 17705 17706 17707 17708 17709 17710 17711 17712 17713 17714 17715 17716 17717 17718 17719 17720 17721 17722 17723 17724 17725 17726 17727 17728 17729 17730 17731 17732 17733 17734 17735 17736 17737 17738 17739 17740 17741 17742 17743 17744 17745 17746 17747 17748 17749 17750 17751 17752 17753 17754 17755 17756 17757 17758 17759 17760 17761 17762 17763 17764 17765 17766 17767 17768 17769 17770 17771 17772 17773 17774 17775 17776 17777 17778 17779 17780 17781 17782 17783 17784 17785 17786 17787 17788 17789 17790 17791 17792 17793 17794 17795 17796 17797 17798 17799 17800 17801 17802 17803 17804 17805 17806 17807 17808 17809 17810 17811 17812 17813 17814 17815 17816 17817 17818 17819 17820 17821 17822 17823 17824 17825 17826 17827 17828 17829 17830 17831 17832 17833 17834 17835 17836 17837 17838 17839 17840 17841 17842 17843 17844 17845 17846 17847 17848 17849 17850 17851 17852 17853 17854 17855 17856 17857 17858 17859 17860 17861 17862 17863 17864 17865 17866 17867 17868 17869 17870 17871 17872 17873 17874 17875 17876 17877 17878 17879 17880 17881 17882 17883 17884 17885 17886 17887 17888 17889 17890 17891 17892 17893 17894 17895 17896 17897 17898 17899 17900 17901 17902 17903 17904 17905 17906 17907 17908 17909 17910 17911 17912 17913 17914 17915 17916 17917 17918 17919 17920 17921 17922 17923 17924 17925 17926 17927 17928 17929 17930 17931 17932 17933 17934 17935 17936 17937 17938 17939 17940 17941 17942 17943 17944 17945 17946 17947 17948 17949 17950 17951 17952 17953 17954 17955 17956 17957 17958 17959 17960 17961 17962 17963 17964 17965 17966 17967 17968 17969 17970 17971 17972 17973 17974 17975 17976 17977 17978 17979 17980 17981 17982 17983 17984 17985 17986 17987 17988 17989 17990 17991 17992 17993 17994 17995 17996 17997 17998 17999 18000 18001 18002 18003 18004 18005 18006 18007 18008 18009 18010 18011 18012 18013 18014 18015 18016 18017 18018 18019 18020 18021 18022 18023 18024 18025 18026 18027 18028 18029 18030 18031 18032 18033 18034 18035 18036 18037 18038 18039 18040 18041 18042 18043 18044 18045 18046 18047 18048 18049 18050 18051 18052 18053 18054 18055 18056 18057 18058 18059 18060 18061 18062 18063 18064 18065 18066 18067 18068 18069 18070 18071 18072 18073 18074 18075 18076 18077 18078 18079 18080 18081 18082 18083 18084 18085 18086 18087 18088 18089 18090 18091 18092 18093 18094 18095 18096 18097 18098 18099 18100 18101 18102 18103 18104 18105 18106 18107 18108 18109 18110 18111 18112 18113 18114 18115 18116 18117 18118 18119 18120 18121 18122 18123 18124 18125 18126 18127 18128 18129 18130 18131 18132 18133 18134 18135 18136 18137 18138 18139 18140 18141 18142 18143 18144 18145 18146 18147 18148 18149 18150 18151 18152 18153 18154 18155 18156 18157 18158 18159 18160 18161 18162 18163 18164 18165 18166 18167 18168 18169 18170 18171 18172 18173 18174 18175 18176 18177 18178 18179 18180 18181 18182 18183 18184 18185 18186 18187 18188 18189 18190 18191 18192 18193 18194 18195 18196 18197 18198 18199 18200 18201 18202 18203 18204 18205 18206 18207 18208 18209 18210 18211 18212 18213 18214 18215 18216 18217 18218 18219 18220 18221 18222 18223 18224 18225 18226 18227 18228 18229 18230 18231 18232 18233 18234 18235 18236 18237 18238 18239 18240 18241 18242 18243 18244 18245 18246 18247 18248 18249 18250 18251 18252 18253 18254 18255 18256 18257 18258 18259 18260 18261 18262 18263 18264 18265 18266 18267 18268 18269 18270 18271 18272 18273 18274 18275 18276 18277 18278 18279 18280 18281 18282 18283 18284 18285 18286 18287 18288 18289 18290 18291 18292 18293 18294 18295 18296 18297 18298 18299 18300 18301 18302 18303 18304 18305 18306 18307 18308 18309 18310 18311 18312 18313 18314 18315 18316 18317 18318 18319 18320 18321 18322 18323 18324 18325 18326 18327 18328 18329 18330 18331 18332 18333 18334 18335 18336 18337 18338 18339 18340 18341 18342 18343 18344 18345 18346 18347 18348 18349 18350 18351 18352 18353 18354 18355 18356 18357 18358 18359 18360 18361 18362 18363 18364 18365 18366 18367 18368 18369 18370 18371 18372 18373 18374 18375 18376 18377 18378 18379 18380 18381 18382 18383 18384 18385 18386 18387 18388 18389 18390 18391 18392 18393 18394 18395 18396 18397 18398 18399 18400 18401 18402 18403 18404 18405 18406 18407 18408 18409 18410 18411 18412 18413 18414 18415 18416 18417 18418 18419 18420 18421 18422 18423 18424 18425 18426 18427 18428 18429 18430 18431 18432 18433 18434 18435 18436 18437 18438 18439 18440 18441 18442 18443 18444 18445 18446 18447 18448 18449 18450 18451 18452 18453 18454 18455 18456 18457 18458 18459 18460 18461 18462 18463 18464 18465 18466 18467 18468 18469 18470 18471 18472 18473 18474 18475 18476 18477 18478 18479 18480 18481 18482 18483 18484 18485 18486 18487 18488 18489 18490 18491 18492 18493 18494 18495 18496 18497 18498 18499 18500 18501 18502 18503 18504 18505 18506 18507 18508 18509 18510 18511 18512 18513 18514 18515 18516 18517 18518 18519 18520 18521 18522 18523 18524 18525 18526 18527 18528 18529 18530 18531 18532 18533 18534 18535 18536 18537 18538 18539 18540 18541 18542 18543 18544 18545 18546 18547 18548 18549 18550 18551 18552 18553 18554 18555 18556 18557 18558 18559 18560 18561 18562 18563 18564 18565 18566 18567 18568 18569 18570 18571 18572 18573 18574 18575 18576 18577 18578 18579 18580 18581 18582 18583 18584 18585 18586 18587 18588 18589 18590 18591 18592 18593 18594 18595 18596 18597 18598 18599 18600 18601 18602 18603 18604 18605 18606 18607 18608 18609 18610 18611 18612 18613 18614 18615 18616 18617 18618 18619 18620 18621 18622 18623 18624 18625 18626 18627 18628 18629 18630 18631 18632 18633 18634 18635 18636 18637 18638 18639 18640 18641 18642 18643 18644 18645 18646 18647 18648 18649 18650 18651 18652 18653 18654 18655 18656 18657 18658 18659 18660 18661 18662 18663 18664 18665 18666 18667 18668 18669 18670 18671 18672 18673 18674 18675 18676 18677 18678 18679 18680 18681 18682 18683 18684 18685 18686 18687 18688 18689 18690 18691 18692 18693 18694 18695 18696 18697 18698 18699 18700 18701 18702 18703 18704 18705 18706 18707 18708 18709 18710 18711 18712 18713 18714 18715 18716 18717 18718 18719 18720 18721 18722 18723 18724 18725 18726 18727 18728 18729 18730 18731 18732 18733 18734 18735 18736 18737 18738 18739 18740 18741 18742 18743 18744 18745 18746 18747 18748 18749 18750 18751 18752 18753 18754 18755 18756 18757 18758 18759 18760 18761 18762 18763 18764 18765 18766 18767 18768 18769 18770 18771 18772 18773 18774 18775 18776 18777 18778 18779 18780 18781 18782 18783 18784 18785 18786 18787 18788 18789 18790 18791 18792 18793 18794 18795 18796 18797 18798 18799 18800 18801 18802 18803 18804 18805 18806 18807 18808 18809 18810 18811 18812 18813 18814 18815 18816 18817 18818 18819 18820 18821 18822 18823 18824 18825 18826 18827 18828 18829 18830 18831 18832 18833 18834 18835 18836 18837 18838 18839 18840 18841 18842 18843 18844 18845 18846 18847 18848 18849 18850 18851 18852 18853 18854 18855 18856 18857 18858 18859 18860 18861 18862 18863 18864 18865 18866 18867 18868 18869 18870 18871 18872 18873 18874 18875 18876 18877 18878 18879 18880 18881 18882 18883 18884 18885 18886 18887 18888 18889 18890 18891 18892 18893 18894 18895 18896 18897 18898 18899 18900 18901 18902 18903 18904 18905 18906 18907 18908 18909 18910 18911 18912 18913 18914 18915 18916 18917 18918 18919 18920 18921 18922 18923 18924 18925 18926 18927 18928 18929 18930 18931 18932 18933 18934 18935 18936 18937 18938 18939 18940 18941 18942 18943 18944 18945 18946 18947 18948 18949 18950 18951 18952 18953 18954 18955 18956 18957 18958 18959 18960 18961 18962 18963 18964 18965 18966 18967 18968 18969 18970 18971 18972 18973 18974 18975 18976 18977 18978 18979 18980 18981 18982 18983 18984 18985 18986 18987 18988 18989 18990 18991 18992 18993 18994 18995 18996 18997 18998 18999 19000 19001 19002 19003 19004 19005 19006 19007 19008 19009 19010 19011 19012 19013 19014 19015 19016 19017 19018 19019 19020 19021 19022 19023 19024 19025 19026 19027 19028 19029 19030 19031 19032 19033 19034 19035 19036 19037 19038 19039 19040 19041 19042 19043 19044 19045 19046 19047 19048 19049 19050 19051 19052 19053 19054 19055 19056 19057 19058 19059 19060 19061 19062 19063 19064 19065 19066 19067 19068 19069 19070 19071 19072 19073 19074 19075 19076 19077 19078 19079 19080 19081 19082 19083 19084 19085 19086 19087 19088 19089 19090 19091 19092 19093 19094 19095 19096 19097 19098 19099 19100 19101 19102 19103 19104 19105 19106 19107 19108 19109 19110 19111 19112 19113 19114 19115 19116 19117 19118 19119 19120 19121 19122 19123 19124 19125 19126 19127 19128 19129 19130 19131 19132 19133 19134 19135 19136 19137 19138 19139 19140 19141 19142 19143 19144 19145 19146 19147 19148 19149 19150 19151 19152 19153 19154 19155 19156 19157 19158 19159 19160 19161 19162 19163 19164 19165 19166 19167 19168 19169 19170 19171 19172 19173 19174 19175 19176 19177 19178 19179 19180 19181 19182 19183 19184 19185 19186 19187 19188 19189 19190 19191 19192 19193 19194 19195 19196 19197 19198 19199 19200 19201 19202 19203 19204 19205 19206 19207 19208 19209 19210 19211 19212 19213 19214 19215 19216 19217 19218 19219 19220 19221 19222 19223 19224 19225 19226 19227 19228 19229 19230 19231 19232 19233 19234 19235 19236 19237 19238 19239 19240 19241 19242 19243 19244 19245 19246 19247 19248 19249 19250 19251 19252 19253 19254 19255 19256 19257 19258 19259 19260 19261 19262 19263 19264 19265 19266 19267 19268 19269 19270 19271 19272 19273 19274 19275 19276 19277 19278 19279 19280 19281 19282 19283 19284 19285 19286 19287 19288 19289 19290 19291 19292 19293 19294 19295 19296 19297 19298 19299 19300 19301 19302 19303 19304 19305 19306 19307 19308 19309 19310 19311 19312 19313 19314 19315 19316 19317 19318 19319 19320 19321 19322 19323 19324 19325 19326 19327 19328 19329 19330 19331 19332 19333 19334 19335 19336 19337 19338 19339 19340 19341 19342 19343 19344 19345 19346 19347 19348 19349 19350 19351 19352 19353 19354 19355 19356 19357 19358 19359 19360 19361 19362 19363 19364 19365 19366 19367 19368 19369 19370 19371 19372 19373 19374 19375 19376 19377 19378 19379 19380 19381 19382 19383 19384 19385 19386 19387 19388 19389 19390 19391 19392 19393 19394 19395 19396 19397 19398 19399 19400 19401 19402 19403 19404 19405 19406 19407 19408 19409 19410 19411 19412 19413 19414 19415 19416 19417 19418 19419 19420 19421 19422 19423 19424 19425 19426 19427 19428 19429 19430 19431 19432 19433 19434 19435 19436 19437 19438 19439 19440 19441 19442 19443 19444 19445 19446 19447 19448 19449 19450 19451 19452 19453 19454 19455 19456 19457 19458 19459 19460 19461 19462 19463 19464 19465 19466 19467 19468 19469 19470 19471 19472 19473 19474 19475 19476 19477 19478 19479 19480 19481 19482 19483 19484 19485 19486 19487 19488 19489 19490 19491 19492 19493 19494 19495 19496 19497 19498 19499 19500 19501 19502 19503 19504 19505 19506 19507 19508 19509 19510 19511 19512 19513 19514 19515 19516 19517 19518 19519 19520 19521 19522 19523 19524 19525 19526 19527 19528 19529 19530 19531 19532 19533 19534 19535 19536 19537 19538 19539 19540 19541 19542 19543 19544 19545 19546 19547 19548 19549 19550 19551 19552 19553 19554 19555 19556 19557 19558 19559 19560 19561 19562 19563 19564 19565 19566 19567 19568 19569 19570 19571 19572 19573 19574 19575 19576 19577 19578 19579 19580 19581 19582 19583 19584 19585 19586 19587 19588 19589 19590 19591 19592 19593 19594 19595 19596 19597 19598 19599 19600 19601 19602 19603 19604 19605 19606 19607 19608 19609 19610 19611 19612 19613 19614 19615 19616 19617 19618 19619 19620 19621 19622 19623 19624 19625 19626 19627 19628 19629 19630 19631 19632 19633 19634 19635 19636 19637 19638 19639 19640 19641 19642 19643 19644 19645 19646 19647 19648 19649 19650 19651 19652 19653 19654 19655 19656 19657 19658 19659 19660 19661 19662 19663 19664 19665 19666 19667 19668 19669 19670 19671 19672 19673 19674 19675 19676 19677 19678 19679 19680 19681 19682 19683 19684 19685 19686 19687 19688 19689 19690 19691 19692 19693 19694 19695 19696 19697 19698 19699 19700 19701 19702 19703 19704 19705 19706 19707 19708 19709 19710 19711 19712 19713 19714 19715 19716 19717 19718 19719 19720 19721 19722 19723 19724 19725 19726 19727 19728 19729 19730 19731 19732 19733 19734 19735 19736 19737 19738 19739 19740 19741 19742 19743 19744 19745 19746 19747 19748 19749 19750 19751 19752 19753 19754 19755 19756 19757 19758 19759 19760 19761 19762 19763 19764 19765 19766 19767 19768 19769 19770 19771 19772 19773 19774 19775 19776 19777 19778 19779 19780 19781 19782 19783 19784 19785 19786 19787 19788 19789 19790 19791 19792 19793 19794 19795 19796 19797 19798 19799 19800 19801 19802 19803 19804 19805 19806 19807 19808 19809 19810 19811 19812 19813 19814 19815 19816 19817 19818 19819 19820 19821 19822 19823 19824 19825 19826 19827 19828 19829 19830 19831 19832 19833 19834 19835 19836 19837 19838 19839 19840 19841 19842 19843 19844 19845 19846 19847 19848 19849 19850 19851 19852 19853 19854 19855 19856 19857 19858 19859 19860 19861 19862 19863 19864 19865 19866 19867 19868 19869 19870 19871 19872 19873 19874 19875 19876 19877 19878 19879 19880 19881 19882 19883 19884 19885 19886 19887 19888 19889 19890 19891 19892 19893 19894 19895 19896 19897 19898 19899 19900 19901 19902 19903 19904 19905 19906 19907 19908 19909 19910 19911 19912 19913 19914 19915 19916 19917 19918 19919 19920 19921 19922 19923 19924 19925 19926 19927 19928 19929 19930 19931 19932 19933 19934 19935 19936 19937 19938 19939 19940 19941 19942 19943 19944 19945 19946 19947 19948 19949 19950 19951 19952 19953 19954 19955 19956 19957 19958 19959 19960 19961 19962 19963 19964 19965 19966 19967 19968 19969 19970 19971 19972 19973 19974 19975 19976 19977 19978 19979 19980 19981 19982 19983 19984 19985 19986 19987 19988 19989 19990 19991 19992 19993 19994 19995 19996 19997 19998 19999 20000 20001 20002 20003 20004 20005 20006 20007 20008 20009 20010 20011 20012 20013 20014 20015 20016 20017 20018 20019 20020 20021 20022 20023 20024 20025 20026 20027 20028 20029 20030 20031 20032 20033 20034 20035 20036 20037 20038 20039 20040 20041 20042 20043 20044 20045 20046 20047 20048 20049 20050 20051 20052 20053 20054 20055 20056 20057 20058 20059 20060 20061 20062 20063 20064 20065 20066 20067 20068 20069 20070 20071 20072 20073 20074 20075 20076 20077 20078 20079 20080 20081 20082 20083 20084 20085 20086 20087 20088 20089 20090 20091 20092 20093 20094 20095 20096 20097 20098 20099 20100 20101 20102 20103 20104 20105 20106 20107 20108 20109 20110 20111 20112 20113 20114 20115 20116 20117 20118 20119 20120 20121 20122 20123 20124 20125 20126 20127 20128 20129 20130 20131 20132 20133 20134 20135 20136 20137 20138 20139 20140 20141 20142 20143 20144 20145 20146 20147 20148 20149 20150 20151 20152 20153 20154 20155 20156 20157 20158 20159 20160 20161 20162 20163 20164 20165 20166 20167 20168 20169 20170 20171 20172 20173 20174 20175 20176 20177 20178 20179 20180 20181 20182 20183 20184 20185 20186 20187 20188 20189 20190 20191 20192 20193 20194 20195 20196 20197 20198 20199 20200 20201 20202 20203 20204 20205 20206 20207 20208 20209 20210 20211 20212 20213 20214 20215 20216 20217 20218 20219 20220 20221 20222 20223 20224 20225 20226 20227 20228 20229 20230 20231 20232 20233 20234 20235 20236 20237 20238 20239 20240 20241 20242 20243 20244 20245 20246 20247 20248 20249 20250 20251 20252 20253 20254 20255 20256 20257 20258 20259 20260 20261 20262 20263 20264 20265 20266 20267 20268 20269 20270 20271 20272 20273 20274 20275 20276 20277 20278 20279 20280 20281 20282 20283 20284 20285 20286 20287 20288 20289 20290 20291 20292 20293 20294 20295 20296 20297 20298 20299 20300 20301 20302 20303 20304 20305 20306 20307 20308 20309 20310 20311 20312 20313 20314 20315 20316 20317 20318 20319 20320 20321 20322 20323 20324 20325 20326 20327 20328 20329 20330 20331 20332 20333 20334 20335 20336 20337 20338 20339 20340 20341 20342 20343 20344 20345 20346 20347 20348 20349 20350 20351 20352 20353 20354 20355 20356 20357 20358 20359 20360 20361 20362 20363 20364 20365 20366 20367 20368 20369 20370 20371 20372 20373 20374 20375 20376 20377 20378 20379 20380 20381 20382 20383 20384 20385 20386 20387 20388 20389 20390 20391 20392 20393 20394 20395 20396 20397 20398 20399 20400 20401 20402 20403 20404 20405 20406 20407 20408 20409 20410 20411 20412 20413 20414 20415 20416 20417 20418 20419 20420 20421 20422 20423 20424 20425 20426 20427 20428 20429 20430 20431 20432 20433 20434 20435 20436 20437 20438 20439 20440 20441 20442 20443 20444 20445 20446 20447 20448 20449 20450 20451 20452 20453 20454 20455 20456 20457 20458 20459 20460 20461 20462 20463 20464 20465 20466 20467 20468 20469 20470 20471 20472 20473 20474 20475 20476 20477 20478 20479 20480 20481 20482 20483 20484 20485 20486 20487 20488 20489 20490 20491 20492 20493 20494 20495 20496 20497 20498 20499 20500 20501 20502 20503 20504 20505 20506 20507 20508 20509 20510 20511 20512 20513 20514 20515 20516 20517 20518 20519 20520 20521 20522 20523 20524 20525 20526 20527 20528 20529 20530 20531 20532 20533 20534 20535 20536 20537 20538 20539 20540 20541 20542 20543 20544 20545 20546 20547 20548 20549 20550 20551 20552 20553 20554 20555 20556 20557 20558 20559 20560 20561 20562 20563 20564 20565 20566 20567 20568 20569 20570 20571 20572 20573 20574 20575 20576 20577 20578 20579 20580 20581 20582 20583 20584 20585 20586 20587 20588 20589 20590 20591 20592 20593 20594 20595 20596 20597 20598 20599 20600 20601 20602 20603 20604 20605 20606 20607 20608 20609 20610 20611 20612 20613 20614 20615 20616 20617 20618 20619 20620 20621 20622 20623 20624 20625 20626 20627 20628 20629 20630 20631 20632 20633 20634 20635 20636 20637 20638 20639 20640 20641 20642 20643 20644 20645 20646 20647 20648 20649 20650 20651 20652 20653 20654 20655 20656 20657 20658 20659 20660 20661 20662 20663 20664 20665 20666 20667 20668 20669 20670 20671 20672 20673 20674 20675 20676 20677 20678 20679 20680 20681 20682 20683 20684 20685 20686 20687 20688 20689 20690 20691 20692 20693 20694 20695 20696 20697 20698 20699 20700 20701 20702 20703 20704 20705 20706 20707 20708 20709 20710 20711 20712 20713 20714 20715 20716 20717 20718 20719 20720 20721 20722 20723 20724 20725 20726 20727 20728 20729 20730 20731 20732 20733 20734 20735 20736 20737 20738 20739 20740 20741 20742 20743 20744 20745 20746 20747 20748 20749 20750 20751 20752 20753 20754 20755 20756 20757 20758 20759 20760 20761 20762 20763 20764 20765 20766 20767 20768 20769 20770 20771 20772 20773 20774 20775 20776 20777 20778 20779 20780 20781 20782 20783 20784 20785 20786 20787 20788 20789 20790 20791 20792 20793 20794 20795 20796 20797 20798 20799 20800 20801 20802 20803 20804 20805 20806 20807 20808 20809 20810 20811 20812 20813 20814 20815 20816 20817 20818 20819 20820 20821 20822 20823 20824 20825 20826 20827 20828 20829 20830 20831 20832 20833 20834 20835 20836 20837 20838 20839 20840 20841 20842 20843 20844 20845 20846 20847 20848 20849 20850 20851 20852 20853 20854 20855 20856 20857 20858 20859 20860 20861 20862 20863 20864 20865 20866 20867 20868 20869 20870 20871 20872 20873 20874 20875 20876 20877 20878 20879 20880 20881 20882 20883 20884 20885 20886 20887 20888 20889 20890 20891 20892 20893 20894 20895 20896 20897 20898 20899 20900 20901 20902 20903 20904 20905 20906 20907 20908 20909 20910 20911 20912 20913 20914 20915 20916 20917 20918 20919 20920 20921 20922 20923 20924 20925 20926 20927 20928 20929 20930 20931 20932 20933 20934 20935 20936 20937 20938 20939 20940 20941 20942 20943 20944 20945 20946 20947 20948 20949 20950 20951 20952 20953 20954 20955 20956 20957 20958 20959 20960 20961 20962 20963 20964 20965 20966 20967 20968 20969 20970 20971 20972 20973 20974 20975 20976 20977 20978 20979 20980 20981 20982 20983 20984 20985 20986 20987 20988 20989 20990 20991 20992 20993 20994 20995 20996 20997 20998 20999 21000 21001 21002 21003 21004 21005 21006 21007 21008 21009 21010 21011 21012 21013 21014 21015 21016 21017 21018 21019 21020 21021 21022 21023 21024 21025 21026 21027 21028 21029 21030 21031 21032 21033 21034 21035 21036 21037 21038 21039 21040 21041 21042 21043 21044 21045 21046 21047 21048 21049 21050 21051 21052 21053 21054 21055 21056 21057 21058 21059 21060 21061 21062 21063 21064 21065 21066 21067 21068 21069 21070 21071 21072 21073 21074 21075 21076 21077 21078 21079 21080 21081 21082 21083 21084 21085 21086 21087 21088 21089 21090 21091 21092 21093 21094 21095 21096 21097 21098 21099 21100 21101 21102 21103 21104 21105 21106 21107 21108 21109 21110 21111 21112 21113 21114 21115 21116 21117 21118 21119 21120 21121 21122 21123 21124 21125 21126 21127 21128 21129 21130 21131 21132 21133 21134 21135 21136 21137 21138 21139 21140 21141 21142 21143 21144 21145 21146 21147 21148 21149 21150 21151 21152 21153 21154 21155 21156 21157 21158 21159 21160 21161 21162 21163 21164 21165 21166 21167 21168 21169 21170 21171 21172 21173 21174 21175 21176 21177 21178 21179 21180 21181 21182 21183 21184 21185 21186 21187 21188 21189 21190 21191 21192 21193 21194 21195 21196 21197 21198 21199 21200 21201 21202 21203 21204 21205 21206 21207 21208 21209 21210 21211 21212 21213 21214 21215 21216 21217 21218 21219 21220 21221 21222 21223 21224 21225 21226 21227 21228 21229 21230 21231 21232 21233 21234 21235 21236 21237 21238 21239 21240 21241 21242 21243 21244 21245 21246 21247 21248 21249 21250 21251 21252 21253 21254 21255 21256 21257 21258 21259 21260 21261 21262 21263 21264 21265 21266 21267 21268 21269 21270 21271 21272 21273 21274 21275 21276 21277 21278 21279 21280 21281 21282 21283 21284 21285 21286 21287 21288 21289 21290 21291 21292 21293 21294 21295 21296 21297 21298 21299 21300 21301 21302 21303 21304 21305 21306 21307 21308 21309 21310 21311 21312 21313 21314 21315 21316 21317 21318 21319 21320 21321 21322 21323 21324 21325 21326 21327 21328 21329 21330 21331 21332 21333 21334 21335 21336 21337 21338 21339 21340 21341 21342 21343 21344 21345 21346 21347 21348 21349 21350 21351 21352 21353 21354 21355 21356 21357 21358 21359 21360 21361 21362 21363 21364 21365 21366 21367 21368 21369 21370 21371 21372 21373 21374 21375 21376 21377 21378 21379 21380 21381 21382 21383 21384 21385 21386 21387 21388 21389 21390 21391 21392 21393 21394 21395 21396 21397 21398 21399 21400 21401 21402 21403 21404 21405 21406 21407 21408 21409 21410 21411 21412 21413 21414 21415 21416 21417 21418 21419 21420 21421 21422 21423 21424 21425 21426 21427 21428 21429 21430 21431 21432 21433 21434 21435 21436 21437 21438 21439 21440 21441 21442 21443 21444 21445 21446 21447 21448 21449 21450 21451 21452 21453 21454 21455 21456 21457 21458 21459 21460 21461 21462 21463 21464 21465 21466 21467 21468 21469 21470 21471 21472 21473 21474 21475 21476 21477 21478 21479 21480 21481 21482 21483 21484 21485 21486 21487 21488 21489 21490 21491 21492 21493 21494 21495 21496 21497 21498 21499 21500 21501 21502 21503 21504 21505 21506 21507 21508 21509 21510 21511 21512 21513 21514 21515 21516 21517 21518 21519 21520 21521 21522 21523 21524 21525 21526 21527 21528 21529 21530 21531 21532 21533 21534 21535 21536 21537 21538 21539 21540 21541 21542 21543 21544 21545 21546 21547 21548 21549 21550 21551 21552 21553 21554 21555 21556 21557 21558 21559 21560 21561 21562 21563 21564 21565 21566 21567 21568 21569 21570 21571 21572 21573 21574 21575 21576 21577 21578 21579 21580 21581 21582 21583 21584 21585 21586 21587 21588 21589 21590 21591 21592 21593 21594 21595 21596 21597 21598 21599 21600 21601 21602 21603 21604 21605 21606 21607 21608 21609 21610 21611 21612 21613 21614 21615 21616 21617 21618 21619 21620 21621 21622 21623 21624 21625 21626 21627 21628 21629 21630 21631 21632 21633 21634 21635 21636 21637 21638 21639 21640 21641 21642 21643 21644 21645 21646 21647 21648 21649 21650 21651 21652 21653 21654 21655 21656 21657 21658 21659 21660 21661 21662 21663 21664 21665 21666 21667 21668 21669 21670 21671 21672 21673 21674 21675 21676 21677 21678 21679 21680 21681 21682 21683 21684 21685 21686 21687 21688 21689 21690 21691 21692 21693 21694 21695 21696 21697 21698 21699 21700 21701 21702 21703 21704 21705 21706 21707 21708 21709 21710 21711 21712 21713 21714 21715 21716 21717 21718 21719 21720 21721 21722 21723 21724 21725 21726 21727 21728 21729 21730 21731 21732 21733 21734 21735 21736 21737 21738 21739 21740 21741 21742 21743 21744 21745 21746 21747 21748 21749 21750 21751 21752 21753 21754 21755 21756 21757 21758 21759 21760 21761 21762 21763 21764 21765 21766 21767 21768 21769 21770 21771 21772 21773 21774 21775 21776 21777 21778 21779 21780 21781 21782 21783 21784 21785 21786 21787 21788 21789 21790 21791 21792 21793 21794 21795 21796 21797 21798 21799 21800 21801 21802 21803 21804 21805 21806 21807 21808 21809 21810 21811 21812 21813 21814 21815 21816 21817 21818 21819 21820 21821 21822 21823 21824 21825 21826 21827 21828 21829 21830 21831 21832 21833 21834 21835 21836 21837 21838 21839 21840 21841 21842 21843 21844 21845 21846 21847 21848 21849 21850 21851 21852 21853 21854 21855 21856 21857 21858 21859 21860 21861 21862 21863 21864 21865 21866 21867 21868 21869 21870 21871 21872 21873 21874 21875 21876 21877 21878 21879 21880 21881 21882 21883 21884 21885 21886 21887 21888 21889 21890 21891 21892 21893 21894 21895 21896 21897 21898 21899 21900 21901 21902 21903 21904 21905 21906 21907 21908 21909 21910 21911 21912 21913 21914 21915 21916 21917 21918 21919 21920 21921 21922 21923 21924 21925 21926 21927 21928 21929 21930 21931 21932 21933 21934 21935 21936 21937 21938 21939 21940 21941 21942 21943 21944 21945 21946 21947 21948 21949 21950 21951 21952 21953 21954 21955 21956 21957 21958 21959 21960 21961 21962 21963 21964 21965 21966 21967 21968 21969 21970 21971 21972 21973 21974 21975 21976 21977 21978 21979 21980 21981 21982 21983 21984 21985 21986 21987 21988 21989 21990 21991 21992 21993 21994 21995 21996 21997 21998 21999 22000 22001 22002 22003 22004 22005 22006 22007 22008 22009 22010 22011 22012 22013 22014 22015 22016 22017 22018 22019 22020 22021 22022 22023 22024 22025 22026 22027 22028 22029 22030 22031 22032 22033 22034 22035 22036 22037 22038 22039 22040 22041 22042 22043 22044 22045 22046 22047 22048 22049 22050 22051 22052 22053 22054 22055 22056 22057 22058 22059 22060 22061 22062 22063 22064 22065 22066 22067 22068 22069 22070 22071 22072 22073 22074 22075 22076 22077 22078 22079 22080 22081 22082 22083 22084 22085 22086 22087 22088 22089 22090 22091 22092 22093 22094 22095 22096 22097 22098 22099 22100 22101 22102 22103 22104 22105 22106 22107 22108 22109 22110 22111 22112 22113 22114 22115 22116 22117 22118 22119 22120 22121 22122 22123 22124 22125 22126 22127 22128 22129 22130 22131 22132 22133 22134 22135 22136 22137 22138 22139 22140 22141 22142 22143 22144 22145 22146 22147 22148 22149 22150 22151 22152 22153 22154 22155 22156 22157 22158 22159 22160 22161 22162 22163 22164 22165 22166 22167 22168 22169 22170 22171 22172 22173 22174 22175 22176 22177 22178 22179 22180 22181 22182 22183 22184 22185 22186 22187 22188 22189 22190 22191 22192 22193 22194 22195 22196 22197 22198 22199 22200 22201 22202 22203 22204 22205 22206 22207 22208 22209 22210 22211 22212 22213 22214 22215 22216 22217 22218 22219 22220 22221 22222 22223 22224 22225 22226 22227 22228 22229 22230 22231 22232 22233 22234 22235 22236 22237 22238 22239 22240 22241 22242 22243 22244 22245 22246 22247 22248 22249 22250 22251 22252 22253 22254 22255 22256 22257 22258 22259 22260 22261 22262 22263 22264 22265 22266 22267 22268 22269 22270 22271 22272 22273 22274 22275 22276 22277 22278 22279 22280 22281 22282 22283 22284 22285 22286 22287 22288 22289 22290 22291 22292 22293 22294 22295 22296 22297 22298 22299 22300 22301 22302 22303 22304 22305 22306 22307 22308 22309 22310 22311 22312 22313 22314 22315 22316 22317 22318 22319 22320 22321 22322 22323 22324 22325 22326 22327 22328 22329 22330 22331 22332 22333 22334 22335 22336 22337 22338 22339 22340 22341 22342 22343 22344 22345 22346 22347 22348 22349 22350 22351 22352 22353 22354 22355 22356 22357 22358 22359 22360 22361 22362 22363 22364 22365 22366 22367 22368 22369 22370 22371 22372 22373 22374 22375 22376 22377 22378 22379 22380 22381 22382 22383 22384 22385 22386 22387 22388 22389 22390 22391 22392 22393 22394 22395 22396 22397 22398 22399 22400 22401 22402 22403 22404 22405 22406 22407 22408 22409 22410 22411 22412 22413 22414 22415 22416 22417 22418 22419 22420 22421 22422 22423 22424 22425 22426 22427 22428 22429 22430 22431 22432 22433 22434 22435 22436 22437 22438 22439 22440 22441 22442 22443 22444 22445 22446 22447 22448 22449 22450 22451 22452 22453 22454 22455 22456 22457 22458 22459 22460 22461 22462 22463 22464 22465 22466 22467 22468 22469 22470 22471 22472 22473 22474 22475 22476 22477 22478 22479 22480 22481 22482 22483 22484 22485 22486 22487 22488 22489 22490 22491 22492 22493 22494 22495 22496 22497 22498 22499 22500 22501 22502 22503 22504 22505 22506 22507 22508 22509 22510 22511 22512 22513 22514 22515 22516 22517 22518 22519 22520 22521 22522 22523 22524 22525 22526 22527 22528 22529 22530 22531 22532 22533 22534 22535 22536 22537 22538 22539 22540 22541 22542 22543 22544 22545 22546 22547 22548 22549 22550 22551 22552 22553 22554 22555 22556 22557 22558 22559 22560 22561 22562 22563 22564 22565 22566 22567 22568 22569 22570 22571 22572 22573 22574 22575 22576 22577 22578 22579 22580 22581 22582 22583 22584 22585 22586 22587 22588 22589 22590 22591 22592 22593 22594 22595 22596 22597 22598 22599 22600 22601 22602 22603 22604 22605 22606 22607 22608 22609 22610 22611 22612 22613 22614 22615 22616 22617 22618 22619 22620 22621 22622 22623 22624 22625 22626 22627 22628 22629 22630 22631 22632 22633 22634 22635 22636 22637 22638 22639 22640 22641 22642 22643 22644 22645 22646 22647 22648 22649 22650 22651 22652 22653 22654 22655 22656 22657 22658 22659 22660 22661 22662 22663 22664 22665 22666 22667 22668 22669 22670 22671 22672 22673 22674 22675 22676 22677 22678 22679 22680 22681 22682 22683 22684 22685 22686 22687 22688 22689 22690 22691 22692 22693 22694 22695 22696 22697 22698 22699 22700 22701 22702 22703 22704 22705 22706 22707 22708 22709 22710 22711 22712 22713 22714 22715 22716 22717 22718 22719 22720 22721 22722 22723 22724 22725 22726 22727 22728 22729 22730 22731 22732 22733 22734 22735 22736 22737 22738 22739 22740 22741 22742 22743 22744 22745 22746 22747 22748 22749 22750 22751 22752 22753 22754 22755 22756 22757 22758 22759 22760 22761 22762 22763 22764 22765 22766 22767 22768 22769 22770 22771 22772 22773 22774 22775 22776 22777 22778 22779 22780 22781 22782 22783 22784 22785 22786 22787 22788 22789 22790 22791 22792 22793 22794 22795 22796 22797 22798 22799 22800 22801 22802 22803 22804 22805 22806 22807 22808 22809 22810 22811 22812 22813 22814 22815 22816 22817 22818 22819 22820 22821 22822 22823 22824 22825 22826 22827 22828 22829 22830 22831 22832 22833 22834 22835 22836 22837 22838 22839 22840 22841 22842 22843 22844 22845 22846 22847 22848 22849 22850 22851 22852 22853 22854 22855 22856 22857 22858 22859 22860 22861 22862 22863 22864 22865 22866 22867 22868 22869 22870 22871 22872 22873 22874 22875 22876 22877 22878 22879 22880 22881 22882 22883 22884 22885 22886 22887 22888 22889 22890 22891 22892 22893 22894 22895 22896 22897 22898 22899 22900 22901 22902 22903 22904 22905 22906 22907 22908 22909 22910 22911 22912 22913 22914 22915 22916 22917 22918 22919 22920 22921 22922 22923 22924 22925 22926 22927 22928 22929 22930 22931 22932 22933 22934 22935 22936 22937 22938 22939 22940 22941 22942 22943 22944 22945 22946 22947 22948 22949 22950 22951 22952 22953 22954 22955 22956 22957 22958 22959 22960 22961 22962 22963 22964 22965 22966 22967 22968 22969 22970 22971 22972 22973 22974 22975 22976 22977 22978 22979 22980 22981 22982 22983 22984 22985 22986 22987 22988 22989 22990 22991 22992 22993 22994 22995 22996 22997 22998 22999 23000 23001 23002 23003 23004 23005 23006 23007 23008 23009 23010 23011 23012 23013 23014 23015 23016 23017 23018 23019 23020 23021 23022 23023 23024 23025 23026 23027 23028 23029 23030 23031 23032 23033 23034 23035 23036 23037 23038 23039 23040 23041 23042 23043 23044 23045 23046 23047 23048 23049 23050 23051 23052 23053 23054 23055 23056 23057 23058 23059 23060 23061 23062 23063 23064 23065 23066 23067 23068 23069 23070 23071 23072 23073 23074 23075 23076 23077 23078 23079 23080 23081 23082 23083 23084 23085 23086 23087 23088 23089 23090 23091 23092 23093 23094 23095 23096 23097 23098 23099 23100 23101 23102 23103 23104 23105 23106 23107 23108 23109 23110 23111 23112 23113 23114 23115 23116 23117 23118 23119 23120 23121 23122 23123 23124 23125 23126 23127 23128 23129 23130 23131 23132 23133 23134 23135 23136 23137 23138 23139 23140 23141 23142 23143 23144 23145 23146 23147 23148 23149 23150 23151 23152 23153 23154 23155 23156 23157 23158 23159 23160 23161 23162 23163 23164 23165 23166 23167 23168 23169 23170 23171 23172 23173 23174 23175 23176 23177 23178 23179 23180 23181 23182 23183 23184 23185 23186 23187 23188 23189 23190 23191 23192 23193 23194 23195 23196 23197 23198 23199 23200 23201 23202 23203 23204 23205 23206 23207 23208 23209 23210 23211 23212 23213 23214 23215 23216 23217 23218 23219 23220 23221 23222 23223 23224 23225 23226 23227 23228 23229 23230 23231 23232 23233 23234 23235 23236 23237 23238 23239 23240 23241 23242 23243 23244 23245 23246 23247 23248 23249 23250 23251 23252 23253 23254 23255 23256 23257 23258 23259 23260 23261 23262 23263 23264 23265 23266 23267 23268 23269 23270 23271 23272 23273 23274 23275 23276 23277 23278 23279 23280 23281 23282 23283 23284 23285 23286 23287 23288 23289 23290 23291 23292 23293 23294 23295 23296 23297 23298 23299 23300 23301 23302 23303 23304 23305 23306 23307 23308 23309 23310 23311 23312 23313 23314 23315 23316 23317 23318 23319 23320 23321 23322 23323 23324 23325 23326 23327 23328 23329 23330 23331 23332 23333 23334 23335 23336 23337 23338 23339 23340 23341 23342 23343 23344 23345 23346 23347 23348 23349 23350 23351 23352 23353 23354 23355 23356 23357 23358 23359 23360 23361 23362 23363 23364 23365 23366 23367 23368 23369 23370 23371 23372 23373 23374 23375 23376 23377 23378 23379 23380 23381 23382 23383 23384 23385 23386 23387 23388 23389 23390 23391 23392 23393 23394 23395 23396 23397 23398 23399 23400 23401 23402 23403 23404 23405 23406 23407 23408 23409 23410 23411 23412 23413 23414 23415 23416 23417 23418 23419 23420 23421 23422 23423 23424 23425 23426 23427 23428 23429 23430 23431 23432 23433 23434 23435 23436 23437 23438 23439 23440 23441 23442 23443 23444 23445 23446 23447 23448 23449 23450 23451 23452 23453 23454 23455 23456 23457 23458 23459 23460 23461 23462 23463 23464 23465 23466 23467 23468 23469 23470 23471 23472 23473 23474 23475 23476 23477 23478 23479 23480 23481 23482 23483 23484 23485 23486 23487 23488 23489 23490 23491 23492 23493 23494 23495 23496 23497 23498 23499 23500 23501 23502 23503 23504 23505 23506 23507 23508 23509 23510 23511 23512 23513 23514 23515 23516 23517 23518 23519 23520 23521 23522 23523 23524 23525 23526 23527 23528 23529 23530 23531 23532 23533 23534 23535 23536 23537 23538 23539 23540 23541 23542 23543 23544 23545 23546 23547 23548 23549 23550 23551 23552 23553 23554 23555 23556 23557 23558 23559 23560 23561 23562 23563 23564 23565 23566 23567 23568 23569 23570 23571 23572 23573 23574 23575 23576 23577 23578 23579 23580 23581 23582 23583 23584 23585 23586 23587 23588 23589 23590 23591 23592 23593 23594 23595 23596 23597 23598 23599 23600 23601 23602 23603 23604 23605 23606 23607 23608 23609 23610 23611 23612 23613 23614 23615 23616 23617 23618 23619 23620 23621 23622 23623 23624 23625 23626 23627 23628 23629 23630 23631 23632 23633 23634 23635 23636 23637 23638 23639 23640 23641 23642 23643 23644 23645 23646 23647 23648 23649 23650 23651 23652 23653 23654 23655 23656 23657 23658 23659 23660 23661 23662 23663 23664 23665 23666 23667 23668 23669 23670 23671 23672 23673 23674 23675 23676 23677 23678 23679 23680 23681 23682 23683 23684 23685 23686 23687 23688 23689 23690 23691 23692 23693 23694 23695 23696 23697 23698 23699 23700 23701 23702 23703 23704 23705 23706 23707 23708 23709 23710 23711 23712 23713 23714 23715 23716 23717 23718 23719 23720 23721 23722 23723 23724 23725 23726 23727 23728 23729 23730 23731 23732 23733 23734 23735 23736 23737 23738 23739 23740 23741 23742 23743 23744 23745 23746 23747 23748 23749 23750 23751 23752 23753 23754 23755 23756 23757 23758 23759 23760 23761 23762 23763 23764 23765 23766 23767 23768 23769 23770 23771 23772 23773 23774 23775 23776 23777 23778 23779 23780 23781 23782 23783 23784 23785 23786 23787 23788 23789 23790 23791 23792 23793 23794 23795 23796 23797 23798 23799 23800 23801 23802 23803 23804 23805 23806 23807 23808 23809 23810 23811 23812 23813 23814 23815 23816 23817 23818 23819 23820 23821 23822 23823 23824 23825 23826 23827 23828 23829 23830 23831 23832 23833 23834 23835 23836 23837 23838 23839 23840 23841 23842 23843 23844 23845 23846 23847 23848 23849 23850 23851 23852 23853 23854 23855 23856 23857 23858 23859 23860 23861 23862 23863 23864 23865 23866 23867 23868 23869 23870 23871 23872 23873 23874 23875 23876 23877 23878 23879 23880 23881 23882 23883 23884 23885 23886 23887 23888 23889 23890 23891 23892 23893 23894 23895 23896 23897 23898 23899 23900 23901 23902 23903 23904 23905 23906 23907 23908 23909 23910 23911 23912 23913 23914 23915 23916 23917 23918 23919 23920 23921 23922 23923 23924 23925 23926 23927 23928 23929 23930 23931 23932 23933 23934 23935 23936 23937 23938 23939 23940 23941 23942 23943 23944 23945 23946 23947 23948 23949 23950 23951 23952 23953 23954 23955 23956 23957 23958 23959 23960 23961 23962 23963 23964 23965 23966 23967 23968 23969 23970 23971 23972 23973 23974 23975 23976 23977 23978 23979 23980 23981 23982 23983 23984 23985 23986 23987 23988 23989 23990 23991 23992 23993 23994 23995 23996 23997 23998 23999 24000 24001 24002 24003 24004 24005 24006 24007 24008 24009 24010 24011 24012 24013 24014 24015 24016 24017 24018 24019 24020 24021 24022 24023 24024 24025 24026 24027 24028 24029 24030 24031 24032 24033 24034 24035 24036 24037 24038 24039 24040 24041 24042 24043 24044 24045 24046 24047 24048 24049 24050 24051 24052 24053 24054 24055 24056 24057 24058 24059 24060 24061 24062 24063 24064 24065 24066 24067 24068 24069 24070 24071 24072 24073 24074 24075 24076 24077 24078 24079 24080 24081 24082 24083 24084 24085 24086 24087 24088 24089 24090 24091 24092 24093 24094 24095 24096 24097 24098 24099 24100 24101 24102 24103 24104 24105 24106 24107 24108 24109 24110 24111 24112 24113 24114 24115 24116 24117 24118 24119 24120 24121 24122 24123 24124 24125 24126 24127 24128 24129 24130 24131 24132 24133 24134 24135 24136 24137 24138 24139 24140 24141 24142 24143 24144 24145 24146 24147 24148 24149 24150 24151 24152 24153 24154 24155 24156 24157 24158 24159 24160 24161 24162 24163 24164 24165 24166 24167 24168 24169 24170 24171 24172 24173 24174 24175 24176 24177 24178 24179 24180 24181 24182 24183 24184 24185 24186 24187 24188 24189 24190 24191 24192 24193 24194 24195 24196 24197 24198 24199 24200 24201 24202 24203 24204 24205 24206 24207 24208 24209 24210 24211 24212 24213 24214 24215 24216 24217 24218 24219 24220 24221 24222 24223 24224 24225 24226 24227 24228 24229 24230 24231 24232 24233 24234 24235 24236 24237 24238 24239 24240 24241 24242 24243 24244 24245 24246 24247 24248 24249 24250 24251 24252 24253 24254 24255 24256 24257 24258 24259 24260 24261 24262 24263 24264 24265 24266 24267 24268 24269 24270 24271 24272 24273 24274 24275 24276 24277 24278 24279 24280 24281 24282 24283 24284 24285 24286 24287 24288 24289 24290 24291 24292 24293 24294 24295 24296 24297 24298 24299 24300 24301 24302 24303 24304 24305 24306 24307 24308 24309 24310 24311 24312 24313 24314 24315 24316 24317 24318 24319 24320 24321 24322 24323 24324 24325 24326 24327 24328 24329 24330 24331 24332 24333 24334 24335 24336 24337 24338 24339 24340 24341 24342 24343 24344 24345 24346 24347 24348 24349 24350 24351 24352 24353 24354 24355 24356 24357 24358 24359 24360 24361 24362 24363 24364 24365 24366 24367 24368 24369 24370 24371 24372 24373 24374 24375 24376 24377 24378 24379 24380 24381 24382 24383 24384 24385 24386 24387 24388 24389 24390 24391 24392 24393 24394 24395 24396 24397 24398 24399 24400 24401 24402 24403 24404 24405 24406 24407 24408 24409 24410 24411 24412 24413 24414 24415 24416 24417 24418 24419 24420 24421 24422 24423 24424 24425 24426 24427 24428 24429 24430 24431 24432 24433 24434 24435 24436 24437 24438 24439 24440 24441 24442 24443 24444 24445 24446 24447 24448 24449 24450 24451 24452 24453 24454 24455 24456 24457 24458 24459 24460 24461 24462 24463 24464 24465 24466 24467 24468 24469 24470 24471 24472 24473 24474 24475 24476 24477 24478 24479 24480 24481 24482 24483 24484 24485 24486 24487 24488 24489 24490 24491 24492 24493 24494 24495 24496 24497 24498 24499 24500 24501 24502 24503 24504 24505 24506 24507 24508 24509 24510 24511 24512 24513 24514 24515 24516 24517 24518 24519 24520 24521 24522 24523 24524 24525 24526 24527 24528 24529 24530 24531 24532 24533 24534 24535 24536 24537 24538 24539 24540 24541 24542 24543 24544 24545 24546 24547 24548 24549 24550 24551 24552 24553 24554 24555 24556 24557 24558 24559 24560 24561 24562 24563 24564 24565 24566 24567 24568 24569 24570 24571 24572 24573 24574 24575 24576 24577 24578 24579 24580 24581 24582 24583 24584 24585 24586 24587 24588 24589 24590 24591 24592 24593 24594 24595 24596 24597 24598 24599 24600 24601 24602 24603 24604 24605 24606 24607 24608 24609 24610 24611 24612 24613 24614 24615 24616 24617 24618 24619 24620 24621 24622 24623 24624 24625 24626 24627 24628 24629 24630 24631 24632 24633 24634 24635 24636 24637 24638 24639 24640 24641 24642 24643 24644 24645 24646 24647 24648 24649 24650 24651 24652 24653 24654 24655 24656 24657 24658 24659 24660 24661 24662 24663 24664 24665 24666 24667 24668 24669 24670 24671 24672 24673 24674 24675 24676 24677 24678 24679 24680 24681 24682 24683 24684 24685 24686 24687 24688 24689 24690 24691 24692 24693 24694 24695 24696 24697 24698 24699 24700 24701 24702 24703 24704 24705 24706 24707 24708 24709 24710 24711 24712 24713 24714 24715 24716 24717 24718 24719 24720 24721 24722 24723 24724 24725 24726 24727 24728 24729 24730 24731 24732 24733 24734 24735 24736 24737 24738 24739 24740 24741 24742 24743 24744 24745 24746 24747 24748 24749 24750 24751 24752 24753 24754 24755 24756 24757 24758 24759 24760 24761 24762 24763 24764 24765 24766 24767 24768 24769 24770 24771 24772 24773 24774 24775 24776 24777 24778 24779 24780 24781 24782 24783 24784 24785 24786 24787 24788 24789 24790 24791 24792 24793 24794 24795 24796 24797 24798 24799 24800 24801 24802 24803 24804 24805 24806 24807 24808 24809 24810 24811 24812 24813 24814 24815 24816 24817 24818 24819 24820 24821 24822 24823 24824 24825 24826 24827 24828 24829 24830 24831 24832 24833 24834 24835 24836 24837 24838 24839 24840 24841 24842 24843 24844 24845 24846 24847 24848 24849 24850 24851 24852 24853 24854 24855 24856 24857 24858 24859 24860 24861 24862 24863 24864 24865 24866 24867 24868 24869 24870 24871 24872 24873 24874 24875 24876 24877 24878 24879 24880 24881 24882 24883 24884 24885 24886 24887 24888 24889 24890 24891 24892 24893 24894 24895 24896 24897 24898 24899 24900 24901 24902 24903 24904 24905 24906 24907 24908 24909 24910 24911 24912 24913 24914 24915 24916 24917 24918 24919 24920 24921 24922 24923 24924 24925 24926 24927 24928 24929 24930 24931 24932 24933 24934 24935 24936 24937 24938 24939 24940 24941 24942 24943 24944 24945 24946 24947 24948 24949 24950 24951 24952 24953 24954 24955 24956 24957 24958 24959 24960 24961 24962 24963 24964 24965 24966 24967 24968 24969 24970 24971 24972 24973 24974 24975 24976 24977 24978 24979 24980 24981 24982 24983 24984 24985 24986 24987 24988 24989 24990 24991 24992 24993 24994 24995 24996 24997 24998 24999 25000 25001 25002 25003 25004 25005 25006 25007 25008 25009 25010 25011 25012 25013 25014 25015 25016 25017 25018 25019 25020 25021 25022 25023 25024 25025 25026 25027 25028 25029 25030 25031 25032 25033 25034 25035 25036 25037 25038 25039 25040 25041 25042 25043 25044 25045 25046 25047 25048 25049 25050 25051 25052 25053 25054 25055 25056 25057 25058 25059 25060 25061 25062 25063 25064 25065 25066 25067 25068 25069 25070 25071 25072 25073 25074 25075 25076 25077 25078 25079 25080 25081 25082 25083 25084 25085 25086 25087 25088 25089 25090 25091 25092 25093 25094 25095 25096 25097 25098 25099 25100 25101 25102 25103 25104 25105 25106 25107 25108 25109 25110 25111 25112 25113 25114 25115 25116 25117 25118 25119 25120 25121 25122 25123 25124 25125 25126 25127 25128 25129 25130 25131 25132 25133 25134 25135 25136 25137 25138 25139 25140 25141 25142 25143 25144 25145 25146 25147 25148 25149 25150 25151 25152 25153 25154 25155 25156 25157 25158 25159 25160 25161 25162 25163 25164 25165 25166 25167 25168 25169 25170 25171 25172 25173 25174 25175 25176 25177 25178 25179 25180 25181 25182 25183 25184 25185 25186 25187 25188 25189 25190 25191 25192 25193 25194 25195 25196 25197 25198 25199 25200 25201 25202 25203 25204 25205 25206 25207 25208 25209 25210 25211 25212 25213 25214 25215 25216 25217 25218 25219 25220 25221 25222 25223 25224 25225 25226 25227 25228 25229 25230 25231 25232 25233 25234 25235 25236 25237 25238 25239 25240 25241 25242 25243 25244 25245 25246 25247 25248 25249 25250 25251 25252 25253 25254 25255 25256 25257 25258 25259 25260 25261 25262 25263 25264 25265 25266 25267 25268 25269 25270 25271 25272 25273 25274 25275 25276 25277 25278 25279 25280 25281 25282 25283 25284 25285 25286 25287 25288 25289 25290 25291 25292 25293 25294 25295 25296 25297 25298 25299 25300 25301 25302 25303 25304 25305 25306 25307 25308 25309 25310 25311 25312 25313 25314 25315 25316 25317 25318 25319 25320 25321 25322 25323 25324 25325 25326 25327 25328 25329 25330 25331 25332 25333 25334 25335 25336 25337 25338 25339 25340 25341 25342 25343 25344 25345 25346 25347 25348 25349 25350 25351 25352 25353 25354 25355 25356 25357 25358 25359 25360 25361 25362 25363 25364 25365 25366 25367 25368 25369 25370 25371 25372 25373 25374 25375 25376 25377 25378 25379 25380 25381 25382 25383 25384 25385 25386 25387 25388 25389 25390 25391 25392 25393 25394 25395 25396 25397 25398 25399 25400 25401 25402 25403 25404 25405 25406 25407 25408 25409 25410 25411 25412 25413 25414 25415 25416 25417 25418 25419 25420 25421 25422 25423 25424 25425 25426 25427 25428 25429 25430 25431 25432 25433 25434 25435 25436 25437 25438 25439 25440 25441 25442 25443 25444 25445 25446 25447 25448 25449 25450 25451 25452 25453 25454 25455 25456 25457 25458 25459 25460 25461 25462 25463 25464 25465 25466 25467 25468 25469 25470 25471 25472 25473 25474 25475 25476 25477 25478 25479 25480 25481 25482 25483 25484 25485 25486 25487 25488 25489 25490 25491 25492 25493 25494 25495 25496 25497 25498 25499 25500 25501 25502 25503 25504 25505 25506 25507 25508 25509 25510 25511 25512 25513 25514 25515 25516 25517 25518 25519 25520 25521 25522 25523 25524 25525 25526 25527 25528 25529 25530 25531 25532 25533 25534 25535 25536 25537 25538 25539 25540 25541 25542 25543 25544 25545 25546 25547 25548 25549 25550 25551 25552 25553 25554 25555 25556 25557 25558 25559 25560 25561 25562 25563 25564 25565 25566 25567 25568 25569 25570 25571 25572 25573 25574 25575 25576 25577 25578 25579 25580 25581 25582 25583 25584 25585 25586 25587 25588 25589 25590 25591 25592 25593 25594 25595 25596 25597 25598 25599 25600 25601 25602 25603 25604 25605 25606 25607 25608 25609 25610 25611 25612 25613 25614 25615 25616 25617 25618 25619 25620 25621 25622 25623 25624 25625 25626 25627 25628 25629 25630 25631 25632 25633 25634 25635 25636 25637 25638 25639 25640 25641 25642 25643 25644 25645 25646 25647 25648 25649 25650 25651 25652 25653 25654 25655 25656 25657 25658 25659 25660 25661 25662 25663 25664 25665 25666 25667 25668 25669 25670 25671 25672 25673 25674 25675 25676 25677 25678 25679 25680 25681 25682 25683 25684 25685 25686 25687 25688 25689 25690 25691 25692 25693 25694 25695 25696 25697 25698 25699 25700 25701 25702 25703 25704 25705 25706 25707 25708 25709 25710 25711 25712 25713 25714 25715 25716 25717 25718 25719 25720 25721 25722 25723 25724 25725 25726 25727 25728 25729 25730 25731 25732 25733 25734 25735 25736 25737 25738 25739 25740 25741 25742 25743 25744 25745 25746 25747 25748 25749 25750 25751 25752 25753 25754 25755 25756 25757 25758 25759 25760 25761 25762 25763 25764 25765 25766 25767 25768 25769 25770 25771 25772 25773 25774 25775 25776 25777 25778 25779 25780 25781 25782 25783 25784 25785 25786 25787 25788 25789 25790 25791 25792 25793 25794 25795 25796 25797 25798 25799 25800 25801 25802 25803 25804 25805 25806 25807 25808 25809 25810 25811 25812 25813 25814 25815 25816 25817 25818 25819 25820 25821 25822 25823 25824 25825 25826 25827 25828 25829 25830 25831 25832 25833 25834 25835 25836 25837 25838 25839 25840 25841 25842 25843 25844 25845 25846 25847 25848 25849 25850 25851 25852 25853 25854 25855 25856 25857 25858 25859 25860 25861 25862 25863 25864 25865 25866 25867 25868 25869 25870 25871 25872 25873 25874 25875 25876 25877 25878 25879 25880 25881 25882 25883 25884 25885 25886 25887 25888 25889 25890 25891 25892 25893 25894 25895 25896 25897 25898 25899 25900 25901 25902 25903 25904 25905 25906 25907 25908 25909 25910 25911 25912 25913 25914 25915 25916 25917 25918 25919 25920 25921 25922 25923 25924 25925 25926 25927 25928 25929 25930 25931 25932 25933 25934 25935 25936 25937 25938 25939 25940 25941 25942 25943 25944 25945 25946 25947 25948 25949 25950 25951 25952 25953 25954 25955 25956 25957 25958 25959 25960 25961 25962 25963 25964 25965 25966 25967 25968 25969 25970 25971 25972 25973 25974 25975 25976 25977 25978 25979 25980 25981 25982 25983 25984 25985 25986 25987 25988 25989 25990 25991 25992 25993 25994 25995 25996 25997 25998 25999 26000 26001 26002 26003 26004 26005 26006 26007 26008 26009 26010 26011 26012 26013 26014 26015 26016 26017 26018 26019 26020 26021 26022 26023 26024 26025 26026 26027 26028 26029 26030 26031 26032 26033 26034 26035 26036 26037 26038 26039 26040 26041 26042 26043 26044 26045 26046 26047 26048 26049 26050 26051 26052 26053 26054 26055 26056 26057 26058 26059 26060 26061 26062 26063 26064 26065 26066 26067 26068 26069 26070 26071 26072 26073 26074 26075 26076 26077 26078 26079 26080 26081 26082 26083 26084 26085 26086 26087 26088 26089 26090 26091 26092 26093 26094 26095 26096 26097 26098 26099 26100 26101 26102 26103 26104 26105 26106 26107 26108 26109 26110 26111 26112 26113 26114 26115 26116 26117 26118 26119 26120 26121 26122 26123 26124 26125 26126 26127 26128 26129 26130 26131 26132 26133 26134 26135 26136 26137 26138 26139 26140 26141 26142 26143 26144 26145 26146 26147 26148 26149 26150 26151 26152 26153 26154 26155 26156 26157 26158 26159 26160 26161 26162 26163 26164 26165 26166 26167 26168 26169 26170 26171 26172 26173 26174 26175 26176 26177 26178 26179 26180 26181 26182 26183 26184 26185 26186 26187 26188 26189 26190 26191 26192 26193 26194 26195 26196 26197 26198 26199 26200 26201 26202 26203 26204 26205 26206 26207 26208 26209 26210 26211 26212 26213 26214 26215 26216 26217 26218 26219 26220 26221 26222 26223 26224 26225 26226 26227 26228 26229 26230 26231 26232 26233 26234 26235 26236 26237 26238 26239 26240 26241 26242 26243 26244 26245 26246 26247 26248 26249 26250 26251 26252 26253 26254 26255 26256 26257 26258 26259 26260 26261 26262 26263 26264 26265 26266 26267 26268 26269 26270 26271 26272 26273 26274 26275 26276 26277 26278 26279 26280 26281 26282 26283 26284 26285 26286 26287 26288 26289 26290 26291 26292 26293 26294 26295 26296 26297 26298 26299 26300 26301 26302 26303 26304 26305 26306 26307 26308 26309 26310 26311 26312 26313 26314 26315 26316 26317 26318 26319 26320 26321 26322 26323 26324 26325 26326 26327 26328 26329 26330 26331 26332 26333 26334 26335 26336 26337 26338 26339 26340 26341 26342 26343 26344 26345 26346 26347 26348 26349 26350 26351 26352 26353 26354 26355 26356 26357 26358 26359 26360 26361 26362 26363 26364 26365 26366 26367 26368 26369 26370 26371 26372 26373 26374 26375 26376 26377 26378 26379 26380 26381 26382 26383 26384 26385 26386 26387 26388 26389 26390 26391 26392 26393 26394 26395 26396 26397 26398 26399 26400 26401 26402 26403 26404 26405 26406 26407 26408 26409 26410 26411 26412 26413 26414 26415 26416 26417 26418 26419 26420 26421 26422 26423 26424 26425 26426 26427 26428 26429 26430 26431 26432 26433 26434 26435 26436 26437 26438 26439 26440 26441 26442 26443 26444 26445 26446 26447 26448 26449 26450 26451 26452 26453 26454 26455 26456 26457 26458 26459 26460 26461 26462 26463 26464 26465 26466 26467 26468 26469 26470 26471 26472 26473 26474 26475 26476 26477 26478 26479 26480 26481 26482 26483 26484 26485 26486 26487 26488 26489 26490 26491 26492 26493 26494 26495 26496 26497 26498 26499 26500 26501 26502 26503 26504 26505 26506 26507 26508 26509 26510 26511 26512 26513 26514 26515 26516 26517 26518 26519 26520 26521 26522 26523 26524 26525 26526 26527 26528 26529 26530 26531 26532 26533 26534 26535 26536 26537 26538 26539 26540 26541 26542 26543 26544 26545 26546 26547 26548 26549 26550 26551 26552 26553 26554 26555 26556 26557 26558 26559 26560 26561 26562 26563 26564 26565 26566 26567 26568 26569 26570 26571 26572 26573 26574 26575 26576 26577 26578 26579 26580 26581 26582 26583 26584 26585 26586 26587 26588 26589 26590 26591 26592 26593 26594 26595 26596 26597 26598 26599 26600 26601 26602 26603 26604 26605 26606 26607 26608 26609 26610 26611 26612 26613 26614 26615 26616 26617 26618 26619 26620 26621 26622 26623 26624 26625 26626 26627 26628 26629 26630 26631 26632 26633 26634 26635 26636 26637 26638 26639 26640 26641 26642 26643 26644 26645 26646 26647 26648 26649 26650 26651 26652 26653 26654 26655 26656 26657 26658 26659 26660 26661 26662 26663 26664 26665 26666 26667 26668 26669 26670 26671 26672 26673 26674 26675 26676 26677 26678 26679 26680 26681 26682 26683 26684 26685 26686 26687 26688 26689 26690 26691 26692 26693 26694 26695 26696 26697 26698 26699 26700 26701 26702 26703 26704 26705 26706 26707 26708 26709 26710 26711 26712 26713 26714 26715 26716 26717 26718 26719 26720 26721 26722 26723 26724 26725 26726 26727 26728 26729 26730 26731 26732 26733 26734 26735 26736 26737 26738 26739 26740 26741 26742 26743 26744 26745 26746 26747 26748 26749 26750 26751 26752 26753 26754 26755 26756 26757 26758 26759 26760 26761 26762 26763 26764 26765 26766 26767 26768 26769 26770 26771 26772 26773 26774 26775 26776 26777 26778 26779 26780 26781 26782 26783 26784 26785 26786 26787 26788 26789 26790 26791 26792 26793 26794 26795 26796 26797 26798 26799 26800 26801 26802 26803 26804 26805 26806 26807 26808 26809 26810 26811 26812 26813 26814 26815 26816 26817 26818 26819 26820 26821 26822 26823 26824 26825 26826 26827 26828 26829 26830 26831 26832 26833 26834 26835 26836 26837 26838 26839 26840 26841 26842 26843 26844 26845 26846 26847 26848 26849 26850 26851 26852 26853 26854 26855 26856 26857 26858 26859 26860 26861 26862 26863 26864 26865 26866 26867 26868 26869 26870 26871 26872 26873 26874 26875 26876 26877 26878 26879 26880 26881 26882 26883 26884 26885 26886 26887 26888 26889 26890 26891 26892 26893 26894 26895 26896 26897 26898 26899 26900 26901 26902 26903 26904 26905 26906 26907 26908 26909 26910 26911 26912 26913 26914 26915 26916 26917 26918 26919 26920 26921 26922 26923 26924 26925 26926 26927 26928 26929 26930 26931 26932 26933 26934 26935 26936 26937 26938 26939 26940 26941 26942 26943 26944 26945 26946 26947 26948 26949 26950 26951 26952 26953 26954 26955 26956 26957 26958 26959 26960 26961 26962 26963 26964 26965 26966 26967 26968 26969 26970 26971 26972 26973 26974 26975 26976 26977 26978 26979 26980 26981 26982 26983 26984 26985 26986 26987 26988 26989 26990 26991 26992 26993 26994 26995 26996 26997 26998 26999 27000 27001 27002 27003 27004 27005 27006 27007 27008 27009 27010 27011 27012 27013 27014 27015 27016 27017 27018 27019 27020 27021 27022 27023 27024 27025 27026 27027 27028 27029 27030 27031 27032 27033 27034 27035 27036 27037 27038 27039 27040 27041 27042 27043 27044 27045 27046 27047 27048 27049 27050 27051 27052 27053 27054 27055 27056 27057 27058 27059 27060 27061 27062 27063 27064 27065 27066 27067 27068 27069 27070 27071 27072 27073 27074 27075 27076 27077 27078 27079 27080 27081 27082 27083 27084 27085 27086 27087 27088 27089 27090 27091 27092 27093 27094 27095 27096 27097 27098 27099 27100 27101 27102 27103 27104 27105 27106 27107 27108 27109 27110 27111 27112 27113 27114 27115 27116 27117 27118 27119 27120 27121 27122 27123 27124 27125 27126 27127 27128 27129 27130 27131 27132 27133 27134 27135 27136 27137 27138 27139 27140 27141 27142 27143 27144 27145 27146 27147 27148 27149 27150 27151 27152 27153 27154 27155 27156 27157 27158 27159 27160 27161 27162 27163 27164 27165 27166 27167 27168 27169 27170 27171 27172 27173 27174 27175 27176 27177 27178 27179 27180 27181 27182 27183 27184 27185 27186 27187 27188 27189 27190 27191 27192 27193 27194 27195 27196 27197 27198 27199 27200 27201 27202 27203 27204 27205 27206 27207 27208 27209 27210 27211 27212 27213 27214 27215 27216 27217 27218 27219 27220 27221 27222 27223 27224 27225 27226 27227 27228 27229 27230 27231 27232 27233 27234 27235 27236 27237 27238 27239 27240 27241 27242 27243 27244 27245 27246 27247 27248 27249 27250 27251 27252 27253 27254 27255 27256 27257 27258 27259 27260 27261 27262 27263 27264 27265 27266 27267 27268 27269 27270 27271 27272 27273 27274 27275 27276 27277 27278 27279 27280 27281 27282 27283 27284 27285 27286 27287 27288 27289 27290 27291 27292 27293 27294 27295 27296 27297 27298 27299 27300 27301 27302 27303 27304 27305 27306 27307 27308 27309 27310 27311 27312 27313 27314 27315 27316 27317 27318 27319 27320 27321 27322 27323 27324 27325 27326 27327 27328 27329 27330 27331 27332 27333 27334 27335 27336 27337 27338 27339 27340 27341 27342 27343 27344 27345 27346 27347 27348 27349 27350 27351 27352 27353 27354 27355 27356 27357 27358 27359 27360 27361 27362 27363 27364 27365 27366 27367 27368 27369 27370 27371 27372 27373 27374 27375 27376 27377 27378 27379 27380 27381 27382 27383 27384 27385 27386 27387 27388 27389 27390 27391 27392 27393 27394 27395 27396 27397 27398 27399 27400 27401 27402 27403 27404 27405 27406 27407 27408 27409 27410 27411 27412 27413 27414 27415 27416 27417 27418 27419 27420 27421 27422 27423 27424 27425 27426 27427 27428 27429 27430 27431 27432 27433 27434 27435 27436 27437 27438 27439 27440 27441 27442 27443 27444 27445 27446 27447 27448 27449 27450 27451 27452 27453 27454 27455 27456 27457 27458 27459 27460 27461 27462 27463 27464 27465 27466 27467 27468 27469 27470 27471 27472 27473 27474 27475 27476 27477 27478 27479 27480 27481 27482 27483 27484 27485 27486 27487 27488 27489 27490 27491 27492 27493 27494 27495 27496 27497 27498 27499 27500 27501 27502 27503 27504 27505 27506 27507 27508 27509 27510 27511 27512 27513 27514 27515 27516 27517 27518 27519 27520 27521 27522 27523 27524 27525 27526 27527 27528 27529 27530 27531 27532 27533 27534 27535 27536 27537 27538 27539 27540 27541 27542 27543 27544 27545 27546 27547 27548 27549 27550 27551 27552 27553 27554 27555 27556 27557 27558 27559 27560 27561 27562 27563 27564 27565 27566 27567 27568 27569 27570 27571 27572 27573 27574 27575 27576 27577 27578 27579 27580 27581 27582 27583 27584 27585 27586 27587 27588 27589 27590 27591 27592 27593 27594 27595 27596 27597 27598 27599 27600 27601 27602 27603 27604 27605 27606 27607 27608 27609 27610 27611 27612 27613 27614 27615 27616 27617 27618 27619 27620 27621 27622 27623 27624 27625 27626 27627 27628 27629 27630 27631 27632 27633 27634 27635 27636 27637 27638 27639 27640 27641 27642 27643 27644 27645 27646 27647 27648 27649 27650 27651 27652 27653 27654 27655 27656 27657 27658 27659 27660 27661 27662 27663 27664 27665 27666 27667 27668 27669 27670 27671 27672 27673 27674 27675 27676 27677 27678 27679 27680 27681 27682 27683 27684 27685 27686 27687 27688 27689 27690 27691 27692 27693 27694 27695 27696 27697 27698 27699 27700 27701 27702 27703 27704 27705 27706 27707 27708 27709 27710 27711 27712 27713 27714 27715 27716 27717 27718 27719 27720 27721 27722 27723 27724 27725 27726 27727 27728 27729 27730 27731 27732 27733 27734 27735 27736 27737 27738 27739 27740 27741 27742 27743 27744 27745 27746 27747 27748 27749 27750 27751 27752 27753 27754 27755 27756 27757 27758 27759 27760 27761 27762 27763 27764 27765 27766 27767 27768 27769 27770 27771 27772 27773 27774 27775 27776 27777 27778 27779 27780 27781 27782 27783 27784 27785 27786 27787 27788 27789 27790 27791 27792 27793 27794 27795 27796 27797 27798 27799 27800 27801 27802 27803 27804 27805 27806 27807 27808 27809 27810 27811 27812 27813 27814 27815 27816 27817 27818 27819 27820 27821 27822 27823 27824 27825 27826 27827 27828 27829 27830 27831 27832 27833 27834 27835 27836 27837 27838 27839 27840 27841 27842 27843 27844 27845 27846 27847 27848 27849 27850 27851 27852 27853 27854 27855 27856 27857 27858 27859 27860 27861 27862 27863 27864 27865 27866 27867 27868 27869 27870 27871 27872 27873 27874 27875 27876 27877 27878 27879 27880 27881 27882 27883 27884 27885 27886 27887 27888 27889 27890 27891 27892 27893 27894 27895 27896 27897 27898 27899 27900 27901 27902 27903 27904 27905 27906 27907 27908 27909 27910 27911 27912 27913 27914 27915 27916 27917 27918 27919 27920 27921 27922 27923 27924 27925 27926 27927 27928 27929 27930 27931 27932 27933 27934 27935 27936 27937 27938 27939 27940 27941 27942 27943 27944 27945 27946 27947 27948 27949 27950 27951 27952 27953 27954 27955 27956 27957 27958 27959 27960 27961 27962 27963 27964 27965 27966 27967 27968 27969 27970 27971 27972 27973 27974 27975 27976 27977 27978 27979 27980 27981 27982 27983 27984 27985 27986 27987 27988 27989 27990 27991 27992 27993 27994 27995 27996 27997 27998 27999 28000 28001 28002 28003 28004 28005 28006 28007 28008 28009 28010 28011 28012 28013 28014 28015 28016 28017 28018 28019 28020 28021 28022 28023 28024 28025 28026 28027 28028 28029 28030 28031 28032 28033 28034 28035 28036 28037 28038 28039 28040 28041 28042 28043 28044 28045 28046 28047 28048 28049 28050 28051 28052 28053 28054 28055 28056 28057 28058 28059 28060 28061 28062 28063 28064 28065 28066 28067 28068 28069 28070 28071 28072 28073 28074 28075 28076 28077 28078 28079 28080 28081 28082 28083 28084 28085 28086 28087 28088 28089 28090 28091 28092 28093 28094 28095 28096 28097 28098 28099 28100 28101 28102 28103 28104 28105 28106 28107 28108 28109 28110 28111 28112 28113 28114 28115 28116 28117 28118 28119 28120 28121 28122 28123 28124 28125 28126 28127 28128 28129 28130 28131 28132 28133 28134 28135 28136 28137 28138 28139 28140 28141 28142 28143 28144 28145 28146 28147 28148 28149 28150 28151 28152 28153 28154 28155 28156 28157 28158 28159 28160 28161 28162 28163 28164 28165 28166 28167 28168 28169 28170 28171 28172 28173 28174 28175 28176 28177 28178 28179 28180 28181 28182 28183 28184 28185 28186 28187 28188 28189 28190 28191 28192 28193 28194 28195 28196 28197 28198 28199 28200 28201 28202 28203 28204 28205 28206 28207 28208 28209 28210 28211 28212 28213 28214 28215 28216 28217 28218 28219 28220 28221 28222 28223 28224 28225 28226 28227 28228 28229 28230 28231 28232 28233 28234 28235 28236 28237 28238 28239 28240 28241 28242 28243 28244 28245 28246 28247 28248 28249 28250 28251 28252 28253 28254 28255 28256 28257 28258 28259 28260 28261 28262 28263 28264 28265 28266 28267 28268 28269 28270 28271 28272 28273 28274 28275 28276 28277 28278 28279 28280 28281 28282 28283 28284 28285 28286 28287 28288 28289 28290 28291 28292 28293 28294 28295 28296 28297 28298 28299 28300 28301 28302 28303 28304 28305 28306 28307 28308 28309 28310 28311 28312 28313 28314 28315 28316 28317 28318 28319 28320 28321 28322 28323 28324 28325 28326 28327 28328 28329 28330 28331 28332 28333 28334 28335 28336 28337 28338 28339 28340 28341 28342 28343 28344 28345 28346 28347 28348 28349 28350 28351 28352 28353 28354 28355 28356 28357 28358 28359 28360 28361 28362 28363 28364 28365 28366 28367 28368 28369 28370 28371 28372 28373 28374 28375 28376 28377 28378 28379 28380 28381 28382 28383 28384 28385 28386 28387 28388 28389 28390 28391 28392 28393 28394 28395 28396 28397 28398 28399 28400 28401 28402 28403 28404 28405 28406 28407 28408 28409 28410 28411 28412 28413 28414 28415 28416 28417 28418 28419 28420 28421 28422 28423 28424 28425 28426 28427 28428 28429 28430 28431 28432 28433 28434 28435 28436 28437 28438 28439 28440 28441 28442 28443 28444 28445 28446 28447 28448 28449 28450 28451 28452 28453 28454 28455 28456 28457 28458 28459 28460 28461 28462 28463 28464 28465 28466 28467 28468 28469 28470 28471 28472 28473 28474 28475 28476 28477 28478 28479 28480 28481 28482 28483 28484 28485 28486 28487 28488 28489 28490 28491 28492 28493 28494 28495 28496 28497 28498 28499 28500 28501 28502 28503 28504 28505 28506 28507 28508 28509 28510 28511 28512 28513 28514 28515 28516 28517 28518 28519 28520 28521 28522 28523 28524 28525 28526 28527 28528 28529 28530 28531 28532 28533 28534 28535 28536 28537 28538 28539 28540 28541 28542 28543 28544 28545 28546 28547 28548 28549 28550 28551 28552 28553 28554 28555 28556 28557 28558 28559 28560 28561 28562 28563 28564 28565 28566 28567 28568 28569 28570 28571 28572 28573 28574 28575 28576 28577 28578 28579 28580 28581 28582 28583 28584 28585 28586 28587 28588 28589 28590 28591 28592 28593 28594 28595 28596 28597 28598 28599 28600 28601 28602 28603 28604 28605 28606 28607 28608 28609 28610 28611 28612 28613 28614 28615 28616 28617 28618 28619 28620 28621 28622 28623 28624 28625 28626 28627 28628 28629 28630 28631 28632 28633 28634 28635 28636 28637 28638 28639 28640 28641 28642 28643 28644 28645 28646 28647 28648 28649 28650 28651 28652 28653 28654 28655 28656 28657 28658 28659 28660 28661 28662 28663 28664 28665 28666 28667 28668 28669 28670 28671 28672 28673 28674 28675 28676 28677 28678 28679 28680 28681 28682 28683 28684 28685 28686 28687 28688 28689 28690 28691 28692 28693 28694 28695 28696 28697 28698 28699 28700 28701 28702 28703 28704 28705 28706 28707 28708 28709 28710 28711 28712 28713 28714 28715 28716 28717 28718 28719 28720 28721 28722 28723 28724 28725 28726 28727 28728 28729 28730 28731 28732 28733 28734 28735 28736 28737 28738 28739 28740 28741 28742 28743 28744 28745 28746 28747 28748 28749 28750 28751 28752 28753 28754 28755 28756 28757 28758 28759 28760 28761 28762 28763 28764 28765 28766 28767 28768 28769 28770 28771 28772 28773 28774 28775 28776 28777 28778 28779 28780 28781 28782 28783 28784 28785 28786 28787 28788 28789 28790 28791 28792 28793 28794 28795 28796 28797 28798 28799 28800 28801 28802 28803 28804 28805 28806 28807 28808 28809 28810 28811 28812 28813 28814 28815 28816 28817 28818 28819 28820 28821 28822 28823 28824 28825 28826 28827 28828 28829 28830 28831 28832 28833 28834 28835 28836 28837 28838 28839 28840 28841 28842 28843 28844 28845 28846 28847 28848 28849 28850 28851 28852 28853 28854 28855 28856 28857 28858 28859 28860 28861 28862 28863 28864 28865 28866 28867 28868 28869 28870 28871 28872 28873 28874 28875 28876 28877 28878 28879 28880 28881 28882 28883 28884 28885 28886 28887 28888 28889 28890 28891 28892 28893 28894 28895 28896 28897 28898 28899 28900 28901 28902 28903 28904 28905 28906 28907 28908 28909 28910 28911 28912 28913 28914 28915 28916 28917 28918 28919 28920 28921 28922 28923 28924 28925 28926 28927 28928 28929 28930 28931 28932 28933 28934 28935 28936 28937 28938 28939 28940 28941 28942 28943 28944 28945 28946 28947 28948 28949 28950 28951 28952 28953 28954 28955 28956 28957 28958 28959 28960 28961 28962 28963 28964 28965 28966 28967 28968 28969 28970 28971 28972 28973 28974 28975 28976 28977 28978 28979 28980 28981 28982 28983 28984 28985 28986 28987 28988 28989 28990 28991 28992 28993 28994 28995 28996 28997 28998 28999 29000 29001 29002 29003 29004 29005 29006 29007 29008 29009 29010 29011 29012 29013 29014 29015 29016 29017 29018 29019 29020 29021 29022 29023 29024 29025 29026 29027 29028 29029 29030 29031 29032 29033 29034 29035 29036 29037 29038 29039 29040 29041 29042 29043 29044 29045 29046 29047 29048 29049 29050 29051 29052 29053 29054 29055 29056 29057 29058 29059 29060 29061 29062 29063 29064 29065 29066 29067 29068 29069 29070 29071 29072 29073 29074 29075 29076 29077 29078 29079 29080 29081 29082 29083 29084 29085 29086 29087 29088 29089 29090 29091 29092 29093 29094 29095 29096 29097 29098 29099 29100 29101 29102 29103 29104 29105 29106 29107 29108 29109 29110 29111 29112 29113 29114 29115 29116 29117 29118 29119 29120 29121 29122 29123 29124 29125 29126 29127 29128 29129 29130 29131 29132 29133 29134 29135 29136 29137 29138 29139 29140 29141 29142 29143 29144 29145 29146 29147 29148 29149 29150 29151 29152 29153 29154 29155 29156 29157 29158 29159 29160 29161 29162 29163 29164 29165 29166 29167 29168 29169 29170 29171 29172 29173 29174 29175 29176 29177 29178 29179 29180 29181 29182 29183 29184 29185 29186 29187 29188 29189 29190 29191 29192 29193 29194 29195 29196 29197 29198 29199 29200 29201 29202 29203 29204 29205 29206 29207 29208 29209 29210 29211 29212 29213 29214 29215 29216 29217 29218 29219 29220 29221 29222 29223 29224 29225 29226 29227 29228 29229 29230 29231 29232 29233 29234 29235 29236 29237 29238 29239 29240 29241 29242 29243 29244 29245 29246 29247 29248 29249 29250 29251 29252 29253 29254 29255 29256 29257 29258 29259 29260 29261 29262 29263 29264 29265 29266 29267 29268 29269 29270 29271 29272 29273 29274 29275 29276 29277 29278 29279 29280 29281 29282 29283 29284 29285 29286 29287 29288 29289 29290 29291 29292 29293 29294 29295 29296 29297 29298 29299 29300 29301 29302 29303 29304 29305 29306 29307 29308 29309 29310 29311 29312 29313 29314 29315 29316 29317 29318 29319 29320 29321 29322 29323 29324 29325 29326 29327 29328 29329 29330 29331 29332 29333 29334 29335 29336 29337 29338 29339 29340 29341 29342 29343 29344 29345 29346 29347 29348 29349 29350 29351 29352 29353 29354 29355 29356 29357 29358 29359 29360 29361 29362 29363 29364 29365 29366 29367 29368 29369 29370 29371 29372 29373 29374 29375 29376 29377 29378 29379 29380 29381 29382 29383 29384 29385 29386 29387 29388 29389 29390 29391 29392 29393 29394 29395 29396 29397 29398 29399 29400 29401 29402 29403 29404 29405 29406 29407 29408 29409 29410 29411 29412 29413 29414 29415 29416 29417 29418 29419 29420 29421 29422 29423 29424 29425 29426 29427 29428 29429 29430 29431 29432 29433 29434 29435 29436 29437 29438 29439 29440 29441 29442 29443 29444 29445 29446 29447 29448 29449 29450 29451 29452 29453 29454 29455 29456 29457 29458 29459 29460 29461 29462 29463 29464 29465 29466 29467 29468 29469 29470 29471 29472 29473 29474 29475 29476 29477 29478 29479 29480 29481 29482 29483 29484 29485 29486 29487 29488 29489 29490 29491 29492 29493 29494 29495 29496 29497 29498 29499 29500 29501 29502 29503 29504 29505 29506 29507 29508 29509 29510 29511 29512 29513 29514 29515 29516 29517 29518 29519 29520 29521 29522 29523 29524 29525 29526 29527 29528 29529 29530 29531 29532 29533 29534 29535 29536 29537 29538 29539 29540 29541 29542 29543 29544 29545 29546 29547 29548 29549 29550 29551 29552 29553 29554 29555 29556 29557 29558 29559 29560 29561 29562 29563 29564 29565 29566 29567 29568 29569 29570 29571 29572 29573 29574 29575 29576 29577 29578 29579 29580 29581 29582 29583 29584 29585 29586 29587 29588 29589 29590 29591 29592 29593 29594 29595 29596 29597 29598 29599 29600 29601 29602 29603 29604 29605 29606 29607 29608 29609 29610 29611 29612 29613 29614 29615 29616 29617 29618 29619 29620 29621 29622 29623 29624 29625 29626 29627 29628 29629 29630 29631 29632 29633 29634 29635 29636 29637 29638 29639 29640 29641 29642 29643 29644 29645 29646 29647 29648 29649 29650 29651 29652 29653 29654 29655 29656 29657 29658 29659 29660 29661 29662 29663 29664 29665 29666 29667 29668 29669 29670 29671 29672 29673 29674 29675 29676 29677 29678 29679 29680 29681 29682 29683 29684 29685 29686 29687 29688 29689 29690 29691 29692 29693 29694 29695 29696 29697 29698 29699 29700 29701 29702 29703 29704 29705 29706 29707 29708 29709 29710 29711 29712 29713 29714 29715 29716 29717 29718 29719 29720 29721 29722 29723 29724 29725 29726 29727 29728 29729 29730 29731 29732 29733 29734 29735 29736 29737 29738 29739 29740 29741 29742 29743 29744 29745 29746 29747 29748 29749 29750 29751 29752 29753 29754 29755 29756 29757 29758 29759 29760 29761 29762 29763 29764 29765 29766 29767 29768 29769 29770 29771 29772 29773 29774 29775 29776 29777 29778 29779 29780 29781 29782 29783 29784 29785 29786 29787 29788 29789 29790 29791 29792 29793 29794 29795 29796 29797 29798 29799 29800 29801 29802 29803 29804 29805 29806 29807 29808 29809 29810 29811 29812 29813 29814 29815 29816 29817 29818 29819 29820 29821 29822 29823 29824 29825 29826 29827 29828 29829 29830 29831 29832 29833 29834 29835 29836 29837 29838 29839 29840 29841 29842 29843 29844 29845 29846 29847 29848 29849 29850 29851 29852 29853 29854 29855 29856 29857 29858 29859 29860 29861 29862 29863 29864 29865 29866 29867 29868 29869 29870 29871 29872 29873 29874 29875 29876 29877 29878 29879 29880 29881 29882 29883 29884 29885 29886 29887 29888 29889 29890 29891 29892 29893 29894 29895 29896 29897 29898 29899 29900 29901 29902 29903 29904 29905 29906 29907 29908 29909 29910 29911 29912 29913 29914 29915 29916 29917 29918 29919 29920 29921 29922 29923 29924 29925 29926 29927 29928 29929 29930 29931 29932 29933 29934 29935 29936 29937 29938 29939 29940 29941 29942 29943 29944 29945 29946 29947 29948 29949 29950 29951 29952 29953 29954 29955 29956 29957 29958 29959 29960 29961 29962 29963 29964 29965 29966 29967 29968 29969 29970 29971 29972 29973 29974 29975 29976 29977 29978 29979 29980 29981 29982 29983 29984 29985 29986 29987 29988 29989 29990 29991 29992 29993 29994 29995 29996 29997 29998 29999 30000 30001 30002 30003 30004 30005 30006 30007 30008 30009 30010 30011 30012 30013 30014 30015 30016 30017 30018 30019 30020 30021 30022 30023 30024 30025 30026 30027 30028 30029 30030 30031 30032 30033 30034 30035 30036 30037 30038 30039 30040 30041 30042 30043 30044 30045 30046 30047 30048 30049 30050 30051 30052 30053 30054 30055 30056 30057 30058 30059 30060 30061 30062 30063 30064 30065 30066 30067 30068 30069 30070 30071 30072 30073 30074 30075 30076 30077 30078 30079 30080 30081 30082 30083 30084 30085 30086 30087 30088 30089 30090 30091 30092 30093 30094 30095 30096 30097 30098 30099 30100 30101 30102 30103 30104 30105 30106 30107 30108 30109 30110 30111 30112 30113 30114 30115 30116 30117 30118 30119 30120 30121 30122 30123 30124 30125 30126 30127 30128 30129 30130 30131 30132 30133 30134 30135 30136 30137 30138 30139 30140 30141 30142 30143 30144 30145 30146 30147 30148 30149 30150 30151 30152 30153 30154 30155 30156 30157 30158 30159 30160 30161 30162 30163 30164 30165 30166 30167 30168 30169 30170 30171 30172 30173 30174 30175 30176 30177 30178 30179 30180 30181 30182 30183 30184 30185 30186 30187 30188 30189 30190 30191 30192 30193 30194 30195 30196 30197 30198 30199 30200 30201 30202 30203 30204 30205 30206 30207 30208 30209 30210 30211 30212 30213 30214 30215 30216 30217 30218 30219 30220 30221 30222 30223 30224 30225 30226 30227 30228 30229 30230 30231 30232 30233 30234 30235 30236 30237 30238 30239 30240 30241 30242 30243 30244 30245 30246 30247 30248 30249 30250 30251 30252 30253 30254 30255 30256 30257 30258 30259 30260 30261 30262 30263 30264 30265 30266 30267 30268 30269 30270 30271 30272 30273 30274 30275 30276 30277 30278 30279 30280 30281 30282 30283 30284 30285 30286 30287 30288 30289 30290 30291 30292 30293 30294 30295 30296 30297 30298 30299 30300 30301 30302 30303 30304 30305 30306 30307 30308 30309 30310 30311 30312 30313 30314 30315 30316 30317 30318 30319 30320 30321 30322 30323 30324 30325 30326 30327 30328 30329 30330 30331 30332 30333 30334 30335 30336 30337 30338 30339 30340 30341 30342 30343 30344 30345 30346 30347 30348 30349 30350 30351 30352 30353 30354 30355 30356 30357 30358 30359 30360 30361 30362 30363 30364 30365 30366 30367 30368 30369 30370 30371 30372 30373 30374 30375 30376 30377 30378 30379 30380 30381 30382 30383 30384 30385 30386 30387 30388 30389 30390 30391 30392 30393 30394 30395 30396 30397 30398 30399 30400 30401 30402 30403 30404 30405 30406 30407 30408 30409 30410 30411 30412 30413 30414 30415 30416 30417 30418 30419 30420 30421 30422 30423 30424 30425 30426 30427 30428 30429 30430 30431 30432 30433 30434 30435 30436 30437 30438 30439 30440 30441 30442 30443 30444 30445 30446 30447 30448 30449 30450 30451 30452 30453 30454 30455 30456 30457 30458 30459 30460 30461 30462 30463 30464 30465 30466 30467 30468 30469 30470 30471 30472 30473 30474 30475 30476 30477 30478 30479 30480 30481 30482 30483 30484 30485 30486 30487 30488 30489 30490 30491 30492 30493 30494 30495 30496 30497 30498 30499 30500 30501 30502 30503 30504 30505 30506 30507 30508 30509 30510 30511 30512 30513 30514 30515 30516 30517 30518 30519 30520 30521 30522 30523 30524 30525 30526 30527 30528 30529 30530 30531 30532 30533 30534 30535 30536 30537 30538 30539 30540 30541 30542 30543 30544 30545 30546 30547 30548 30549 30550 30551 30552 30553 30554 30555 30556 30557 30558 30559 30560 30561 30562 30563 30564 30565 30566 30567 30568 30569 30570 30571 30572 30573 30574 30575 30576 30577 30578 30579 30580 30581 30582 30583 30584 30585 30586 30587 30588 30589 30590 30591 30592 30593 30594 30595 30596 30597 30598 30599 30600 30601 30602 30603 30604 30605 30606 30607 30608 30609 30610 30611 30612 30613 30614 30615 30616 30617 30618 30619 30620 30621 30622 30623 30624 30625 30626 30627 30628 30629 30630 30631 30632 30633 30634 30635 30636 30637 30638 30639 30640 30641 30642 30643 30644 30645 30646 30647 30648 30649 30650 30651 30652 30653 30654 30655 30656 30657 30658 30659 30660 30661 30662 30663 30664 30665 30666 30667 30668 30669 30670 30671 30672 30673 30674 30675 30676 30677 30678 30679 30680 30681 30682 30683 30684 30685 30686 30687 30688 30689 30690 30691 30692 30693 30694 30695 30696 30697 30698 30699 30700 30701 30702 30703 30704 30705 30706 30707 30708 30709 30710 30711 30712 30713 30714 30715 30716 30717 30718 30719 30720 30721 30722 30723 30724 30725 30726 30727 30728 30729 30730 30731 30732 30733 30734 30735 30736 30737 30738 30739 30740 30741 30742 30743 30744 30745 30746 30747 30748 30749 30750 30751 30752 30753 30754 30755 30756 30757 30758 30759 30760 30761 30762 30763 30764 30765 30766 30767 30768 30769 30770 30771 30772 30773 30774 30775 30776 30777 30778 30779 30780 30781 30782 30783 30784 30785 30786 30787 30788 30789 30790 30791 30792 30793 30794 30795 30796 30797 30798 30799 30800 30801 30802 30803 30804 30805 30806 30807 30808 30809 30810 30811 30812 30813 30814 30815 30816 30817 30818 30819 30820 30821 30822 30823 30824 30825 30826 30827 30828 30829 30830 30831 30832 30833 30834 30835 30836 30837 30838 30839 30840 30841 30842 30843 30844 30845 30846 30847 30848 30849 30850 30851 30852 30853 30854 30855 30856 30857 30858 30859 30860 30861 30862 30863 30864 30865 30866 30867 30868 30869 30870 30871 30872 30873 30874 30875 30876 30877 30878 30879 30880 
</DataArray>
<DataArray type="UInt32" Name="offsets" format="ascii">
3 6 8 11 14 17 20 22 25 28 31 34 37 40 43 46 49 52 55 58 60 63 66 69 72 74 77 80 83 86 89 92 95 97 100 103 106 109 112 115 118 121 123 126 129 132 135 138 141 144 147 150 153 156 158 160 163 166 169 172 175 178 181 184 186 189 192 195 198 201 204 207 210 213 216 219 222 225 228 231 234 237 240 243 246 249 252 254 257 260 263 266 269 272 275 278 281 284 287 289 292 295 298 300 303 306 309 312 315 318 321 324 327 330 333 336 339 342 345 348 351 354 357 360 363 366 369 372 375 378 381 384 387 390 393 396 399 402 405 408 411 414 417 420 423 426 429 432 435 437 440 442 445 448 451 454 457 460 463 466 469 472 475 478 481 484 487 490 493 496 499 502 505 508 511 514 517 520 522 525 528 530 533 535 538 541 544 547 550 553 556 559 562 565 568 571 574 577 579 582 584 587 590 593 596 599 602 605 607 610 612 615 618 621 624 627 630 632 635 638 640 643 646 649 652 655 658 660 662 665 668 670 673 675 678 680 682 685 688 691 693 696 699 702 705 708 711 714 717 720 723 726 729 732 734 737 740 743 746 749 752 755 757 760 763 766 769 772 775 778 780 783 786 789 792 794 797 800 803 806 809 812 814 817 820 823 825 828 831 834 837 840 843 846 848 851 854 857 860 863 866 868 871 874 877 880 883 886 888 891 894 897 900 903 906 909 911 914 917 920 923 926 929 932 935 938 941 944 947 950 953 956 959 962 965 968 971 974 976 978 981 984 987 990 993 995 998 1001 1004 1007 1010 1013 1016 1018 1021 1023 1026 1029 1032 1034 1037 1040 1043 1045 1048 1050 1053 1056 1059 1062 1065 1068 1071 1073 1076 1079 1082 1085 1088 1091 1094 1096 1099 1102 1105 1107 1110 1113 1116 1119 1122 1125 1128 1131 1134 1137 1140 1143 1146 1149 1152 1155 1158 1161 1164 1167 1170 1173 1176 1179 1182 1185 1188 1191 1194 1197 1200 1203 1205 1208 1211 1214 1217 1220 1223 1226 1229 1232 1235 1238 1241 1244 1247 1250 1253 1256 1259 1262 1265 1268 1271 1274 1277 1280 1283 1286 1289 1292 1295 1298 1301 1303 1306 1309 1312 1315 1318 1321 1324 1327 1330 1333 1336 1339 1342 1345 1348 1351 1354 1357 1360 1363 1365 1368 1371 1374 1377 1380 1383 1386 1388 1391 1394 1397 1400 1403 1405 1408 1411 1413 1416 1418 1421 1424 1427 1430 1432 1435 1438 1440 1443 1446 1449 1452 1455 1458 1460 1463 1466 1469 1472 1475 1478 1481 1484 1487 1490 1493 1496 1499 1502 1505 1508 1511 1514 1517 1519 1522 1525 1528 1531 1534 1537 1540 1543 1546 1549 1552 1554 1556 1559 1562 1565 1568 1571 1574 1577 1580 1583 1586 1589 1592 1595 1598 1601 1604 1607 1610 1613 1616 1619 1621 1624 1626 1628 1631 1634 1636 1639 1642 1645 1648 1651 1654 1657 1660 1663 1666 1669 1672 1675 1677 1680 1683 1686 1689 1692 1695 1698 1700 1702 1705 1708 1711 1714 1717 1720 1723 1726 1728 1730 1733 1736 1739 1741 1744 1747 1750 1753 1756 1759 1762 1765 1768 1771 1774 1777 1780 1783 1786 1789 1792 1795 1798 1801 1804 1807 1810 1813 1816 1819 1822 1825 1828 1831 1834 1837 1840 1843 1846 1848 1851 1854 1856 1859 1862 1865 1868 1870 1873 1876 1879 1881 1884 1887 1890 1892 1895 1898 1900 1903 1906 1909 1912 1915 1918 1921 1924 1927 1930 1933 1936 1939 1942 1945 1948 1951 1954 1957 1960 1963 1965 1968 1971 1974 1976 1979 1982 1985 1988 1991 1993 1996 1999 2002 2005 2008 2011 2013 2016 2019 2022 2025 2028 2031 2034 2037 2040 2043 2046 2049 2052 2055 2058 2061 2064 2067 2069 2072 2075 2078 2081 2084 2087 2090 2093 2096 2099 2102 2105 2108 2111 2114 2117 2120 2123 2126 2129 2132 2134 2137 2140 2143 2146 2149 2152 2155 2158 2161 2164 2167 2170 2173 2176 2179 2181 2184 2187 2190 2193 2196 2199 2202 2205 2208 2211 2214 2217 2220 2223 2226 2229 2232 2235 2237 2240 2243 2246 2249 2252 2255 2258 2260 2263 2266 2269 2272 2275 2278 2281 2284 2287 2290 2293 2296 2299 2302 2305 2308 2311 2314 2317 2320 2323 2325 2328 2331 2334 2337 2340 2343 2346 2349 2352 2354 2357 2360 2363 2366 2369 2372 2375 2378 2380 2383 2386 2389 2392 2395 2398 2401 2404 2407 2410 2413 2416 2419 2422 2425 2428 2431 2434 2437 2439 2442 2445 2448 2451 2454 2456 2459 2462 2465 2467 2470 2473 2476 2479 2482 2485 2487 2490 2493 2496 2499 2502 2505 2508 2511 2514 2517 2519 2522 2525 2528 2531 2534 2537 2540 2543 2546 2549 2552 2555 2557 2560 2562 2565 2568 2571 2574 2577 2580 2583 2585 2588 2590 2593 2596 2599 2602 2605 2608 2611 2614 2617 2620 2623 2626 2629 2632 2635 2638 2641 2644 2647 2650 2653 2656 2659 2662 2665 2668 2671 2674 2677 2680 2683 2686 2689 2692 2695 2698 2701 2704 2707 2710 2713 2716 2719 2722 2725 2727 2729 2732 2735 2737 2740 2743 2746 2749 2752 2755 2758 2761 2764 2767 2770 2773 2776 2779 2782 2785 2787 2790 2793 2796 2799 2801 2804 2807 2809 2812 2815 2818 2821 2824 2827 2829 2832 2834 2837 2840 2842 2845 2848 2851 2854 2857 2860 2863 2866 2869 2872 2874 2877 2880 2883 2886 2889 2891 2893 2896 2899 2902 2905 2907 2910 2913 2915 2918 2920 2923 2926 2929 2932 2935 2937 2940 2943 2945 2948 2951 2954 2957 2960 2963 2966 2969 2972 2975 2978 2981 2983 2986 2989 2992 2995 2998 3001 3004 3007 3010 3013 3016 3019 3022 3025 3028 3030 3033 3035 3038 3040 3042 3045 3047 3050 3053 3055 3058 3061 3064 3067 3070 3073 3075 3078 3080 3083 3086 3088 3091 3094 3097 3099 3102 3105 3107 3110 3113 3116 3119 3122 3124 3127 3130 3132 3135 3138 3141 3144 3147 3149 3152 3154 3157 3160 3162 3165 3168 3170 3173 3176 3179 3182 3185 3188 3191 3194 3196 3199 3202 3205 3208 3211 3214 3217 3220 3223 3226 3228 3231 3234 3237 3240 3242 3245 3248 3250 3253 3256 3259 3262 3265 3267 3270 3273 3276 3279 3282 3284 3287 3289 3292 3295 3298 3301 3304 3307 3309 3312 3315 3318 3321 3324 3327 3330 3333 3335 3337 3339 3342 3345 3348 3351 3353 3356 3358 3361 3364 3367 3369 3371 3374 3377 3380 3382 3385 3388 3391 3393 3396 3398 3401 3403 3405 3408 3410 3413 3416 3419 3422 3424 3427 3430 3433 3435 3438 3440 3443 3445 3448 3451 3454 3457 3460 3463 3466 3468 3471 3474 3477 3480 3482 3485 3488 3491 3494 3497 3500 3503 3506 3508 3511 3513 3515 3518 3521 3524 3526 3529 3532 3535 3538 3540 3542 3545 3548 3550 3552 3555 3558 3561 3564 3567 3569 3572 3575 3578 3581 3584 3587 3590 3593 3595 3598 3600 3603 3606 3609 3612 3615 3618 3621 3624 3627 3630 3633 3636 3639 3642 3645 3648 3651 3653 3656 3659 3662 3665 3668 3671 3674 3677 3680 3683 3686 3689 3692 3695 3698 3701 3704 3707 3710 3713 3716 3719 3722 3725 3728 3730 3733 3735 3738 3741 3744 3747 3750 3752 3754 3757 3760 3763 3766 3768 3770 3773 3775 3778 3781 3783 3786 3789 3791 3794 3797 3800 3803 3805 3807 3810 3813 3816 3819 3822 3825 3828 3831 3833 3836 3839 3841 3844 3847 3850 3852 3855 3858 3860 3863 3866 3869 3872 3875 3878 3880 3883 3886 3889 3892 3895 3898 3900 3903 3906 3909 3912 3915 3917 3920 3923 3925 3927 3930 3933 3935 3938 3941 3943 3946 3949 3952 3955 3958 3961 3964 3967 3970 3973 3976 3979 3981 3984 3986 3989 3992 3994 3997 4000 4003 4006 4009 4012 4014 4017 4020 4023 4025 4027 4029 4032 4035 4038 4040 4042 4045 4047 4049 4052 4055 4057 4060 4063 4065 4068 4070 4073 4075 4078 4081 4084 4086 4088 4091 4094 4096 4098 4100 4102 4105 4108 4111 4113 4115 4118 4121 4123 4125 4127 4130 4132 4134 4137 4140 4142 4145 4147 4149 4152 4154 4157 4160 4162 4165 4167 4169 4172 4175 4178 4181 4183 4185 4188 4191 4193 4196 4199 4202 4204 4207 4210 4213 4216 4219 4222 4225 4228 4231 4234 4237 4240 4243 4246 4249 4252 4255 4258 4261 4264 4267 4270 4273 4276 4279 4282 4285 4288 4291 4294 4297 4300 4303 4306 4309 4312 4315 4318 4321 4324 4327 4330 4333 4336 4339 4342 4345 4348 4351 4354 4357 4360 4363 4366 4369 4372 4375 4378 4380 4383 4385 4388 4391 4394 4397 4400 4403 4406 4409 4412 4415 4418 4421 4424 4427 4429 4432 4435 4438 4441 4444 4447 4450 4453 4456 4459 4461 4464 4467 4470 4473 4476 4479 4482 4485 4488 4491 4494 4497 4500 4503 4506 4509 4512 4515 4518 4521 4524 4527 4530 4533 4536 4539 4542 4545 4548 4551 4554 4557 4560 4563 4566 4569 4572 4575 4578 4581 4584 4587 4590 4593 4596 4599 4601 4604 4607 4610 4612 4615 4617 4620 4623 4626 4629 4632 4634 4637 4639 4642 4645 4648 4651 4654 4657 4660 4663 4666 4669 4672 4675 4678 4681 4684 4687 4690 4693 4696 4699 4702 4705 4708 4711 4714 4716 4719 4722 4725 4728 4731 4734 4736 4739 4741 4744 4747 4750 4752 4755 4758 4760 4763 4766 4769 4772 4775 4778 4781 4784 4787 4790 4793 4796 4799 4802 4805 4808 4811 4814 4817 4820 4823 4826 4829 4832 4835 4838 4841 4844 4847 4850 4853 4856 4859 4862 4865 4868 4871 4873 4876 4878 4881 4884 4887 4890 4893 4896 4899 4902 4905 4908 4910 4913 4916 4919 4922 4925 4928 4931 4934 4937 4940 4943 4946 4949 4952 4955 4958 4961 4963 4966 4969 4972 4974 4976 4979 4981 4984 4987 4990 4993 4996 4999 5002 5005 5007 5010 5013 5016 5019 5021 5024 5027 5030 5033 5036 5039 5042 5044 5047 5050 5052 5055 5057 5060 5063 5065 5068 5071 5073 5075 5078 5081 5084 5087 5090 5093 5096 5099 5102 5105 5108 5111 5114 5117 5120 5122 5125 5127 5130 5133 5136 5138 5141 5143 5146 5149 5152 5155 5158 5161 5164 5167 5170 5173 5176 5179 5181 5184 5186 5189 5192 5195 5198 5201 5204 5207 5210 5212 5215 5218 5220 5223 5226 5229 5231 5233 5236 5239 5242 5245 5248 5251 5254 5257 5260 5263 5266 5269 5272 5275 5278 5281 5284 5287 5290 5293 5296 5298 5301 5304 5307 5310 5313 5315 5318 5320 5323 5326 5329 5332 5334 5337 5340 5342 5345 5348 5351 5354 5357 5359 5362 5365 5368 5371 5373 5376 5379 5382 5385 5388 5391 5394 5396 5399 5402 5405 5407 5410 5413 5416 5419 5422 5425 5428 5431 5434 5437 5440 5442 5445 5448 5451 5454 5457 5460 5463 5466 5468 5471 5474 5477 5480 5483 5486 5488 5491 5494 5497 5500 5503 5506 5508 5511 5514 5517 5520 5523 5526 5529 5532 5535 5538 5541 5543 5546 5549 5552 5554 5557 5560 5563 5565 5568 5570 5573 5576 5579 5582 5585 5588 5590 5593 5596 5599 5602 5605 5608 5611 5614 5617 5620 5623 5626 5629 5632 5635 5637 5640 5643 5646 5649 5652 5654 5657 5660 5663 5666 5669 5672 5675 5678 5680 5683 5686 5689 5692 5695 5698 5701 5704 5707 5710 5713 5716 5719 5722 5725 5728 5730 5733 5736 5739 5742 5744 5747 5750 5753 5756 5759 5762 5765 5768 5771 5774 5777 5780 5783 5786 5789 5792 5795 5798 5801 5804 5807 5810 5813 5816 5819 5822 5824 5827 5830 5833 5835 5838 5840 5843 5846 5849 5852 5854 5857 5859 5862 5865 5868 5871 5874 5876 5879 5882 5885 5888 5891 5894 5897 5900 5903 5905 5908 5911 5914 5917 5920 5923 5926 5929 5932 5935 5938 5941 5944 5947 5950 5953 5956 5959 5962 5965 5968 5971 5974 5977 5979 5981 5984 5987 5990 5993 5996 5998 6001 6004 6007 6009 6012 6015 6018 6020 6023 6026 6028 6031 6033 6036 6039 6042 6045 6047 6050 6053 6056 6059 6061 6063 6066 6069 6072 6075 6078 6081 6084 6087 6090 6093 6096 6099 6101 6104 6107 6110 6113 6115 6118 6121 6124 6127 6130 6132 6135 6138 6140 6143 6146 6149 6152 6155 6158 6161 6164 6167 6170 6173 6176 6179 6182 6185 6188 6190 6193 6196 6198 6201 6204 6207 6209 6212 6215 6218 6221 6224 6227 6230 6233 6236 6239 6242 6244 6247 6250 6253 6256 6259 6262 6265 6268 6271 6274 6277 6280 6283 6286 6289 6292 6294 6297 6300 6302 6305 6307 6310 6313 6315 6318 6320 6323 6325 6328 6331 6334 6337 6340 6343 6346 6349 6352 6355 6358 6361 6364 6366 6369 6371 6373 6376 6379 6381 6383 6386 6389 6391 6393 6396 6399 6402 6404 6407 6409 6412 6415 6417 6420 6423 6426 6429 6431 6433 6436 6438 6441 6444 6446 6448 6451 6454 6456 6459 6462 6465 6467 6470 6473 6476 6478 6480 6482 6485 6488 6490 6493 6495 6497 6500 6503 6506 6509 6512 6515 6518 6521 6524 6527 6530 6532 6534 6537 6539 6542 6544 6547 6549 6552 6555 6558 6560 6563 6566 6569 6572 6575 6577 6580 6583 6586 6589 6592 6595 6598 6601 6604 6607 6610 6613 6616 6619 6622 6625 6628 6631 6634 6637 6640 6643 6646 6649 6651 6654 6657 6660 6663 6666 6669 6672 6675 6678 6681 6684 6687 6690 6693 6696 6699 6702 6705 6707 6710 6713 6716 6719 6722 6725 6728 6731 6734 6737 6740 6742 6745 6748 6751 6754 6757 6759 6762 6765 6768 6771 6774 6777 6780 6783 6786 6789 6792 6795 6798 6801 6803 6806 6809 6812 6815 6818 6821 6824 6827 6830 6833 6836 6839 6842 6845 6847 6850 6852 6855 6858 6861 6864 6866 6869 6872 6875 6878 6881 6884 6887 6890 6893 6896 6899 6902 6904 6907 6909 6912 6915 6918 6921 6923 6926 6929 6932 6935 6938 6941 6944 6946 6949 6952 6955 6958 6961 6964 6967 6969 6972 6975 6978 6980 6983 6985 6988 6991 6994 6997 7000 7003 7006 7009 7012 7014 7017 7020 7023 7026 7029 7032 7035 7038 7041 7044 7047 7050 7053 7056 7059 7062 7065 7068 7071 7074 7077 7080 7083 7086 7089 7092 7095 7098 7101 7104 7107 7110 7113 7116 7119 7122 7125 7128 7131 7134 7137 7140 7143 7145 7148 7151 7153 7156 7159 7162 7165 7168 7171 7174 7177 7180 7183 7185 7188 7191 7194 7197 7200 7202 7205 7208 7210 7213 7216 7219 7222 7225 7228 7230 7233 7236 7239 7242 7244 7247 7250 7252 7255 7257 7260 7263 7266 7269 7272 7275 7278 7281 7284 7287 7290 7292 7295 7297 7300 7303 7306 7309 7311 7314 7317 7320 7323 7326 7329 7332 7335 7338 7341 7344 7347 7350 7353 7356 7359 7362 7365 7368 7371 7374 7376 7379 7382 7385 7388 7390 7393 7396 7399 7402 7405 7408 7411 7413 7416 7419 7422 7425 7428 7430 7433 7436 7439 7441 7444 7447 7450 7452 7455 7458 7460 7463 7466 7469 7471 7474 7477 7479 7482 7485 7488 7491 7494 7497 7500 7503 7506 7509 7512 7515 7518 7521 7524 7527 7530 7533 7536 7539 7542 7545 7548 7551 7554 7557 7560 7563 7566 7569 7572 7574 7577 7580 7583 7586 7589 7592 7595 7598 7601 7604 7607 7609 7612 7615 7618 7621 7624 7627 7630 7633 7636 7639 7642 7645 7648 7651 7654 7656 7658 7661 7664 7667 7669 7672 7675 7678 7681 7683 7686 7689 7691 7694 7697 7700 7703 7706 7709 7712 7715 7718 7721 7724 7727 7730 7732 7734 7737 7740 7743 7746 7749 7752 7755 7758 7761 7764 7767 7769 7772 7775 7777 7780 7783 7786 7789 7792 7795 7798 7801 7804 7807 7810 7813 7816 7819 7822 7825 7828 7831 7834 7836 7839 7842 7845 7847 7850 7853 7856 7859 7862 7864 7867 7870 7873 7876 7879 7882 7885 7888 7891 7894 7897 7900 7903 7906 7909 7912 7915 7918 7921 7924 7926 7929 7932 7934 7937 7940 7943 7946 7949 7952 7955 7958 7961 7964 7967 7970 7973 7976 7979 7982 7985 7988 7991 7993 7996 7999 8002 8005 8008 8011 8014 8017 8020 8023 8026 8029 8032 8035 8038 8041 8044 8047 8050 8053 8056 8059 8062 8065 8068 8071 8074 8077 8080 8083 8086 8089 8091 8094 8097 8100 8103 8106 8109 8111 8114 8117 8120 8123 8126 8128 8131 8134 8137 8140 8142 8145 8148 8151 8154 8157 8160 8163 8166 8169 8172 8175 8178 8181 8184 8187 8190 8193 8196 8199 8202 8205 8208 8210 8213 8216 8219 8222 8225 8228 8231 8233 8236 8239 8241 8244 8247 8249 8252 8255 8258 8261 8264 8267 8269 8272 8275 8278 8281 8284 8287 8290 8293 8296 8299 8301 8304 8306 8309 8312 8315 8318 8321 8324 8327 8330 8332 8335 8338 8340 8343 8346 8349 8351 8354 8357 8360 8362 8365 8368 8371 8373 8375 8378 8381 8383 8386 8389 8391 8394 8397 8399 8402 8405 8408 8411 8414 8417 8420 8423 8426 8428 8431 8434 8437 8439 8442 8445 8448 8450 8453 8456 8459 8461 8464 8466 8469 8472 8474 8477 8480 8483 8486 8489 8492 8495 8498 8500 8503 8506 8508 8511 8514 8517 8520 8523 8526 8529 8532 8535 8538 8541 8544 8547 8549 8552 8554 8557 8560 8563 8565 8567 8570 8572 8575 8578 8581 8584 8586 8589 8591 8594 8597 8600 8603 8606 8609 8612 8615 8618 8620 8623 8626 8629 8632 8635 8638 8641 8644 8647 8650 8653 8656 8659 8662 8665 8668 8671 8674 8677 8680 8683 8686 8689 8692 8695 8698 8701 8704 8706 8709 8712 8715 8718 8721 8724 8726 8729 8732 8735 8738 8741 8744 8746 8749 8752 8755 8758 8761 8764 8766 8769 8772 8775 8777 8780 8783 8786 8788 8791 8794 8796 8799 8802 8805 8808 8811 8814 8816 8819 8822 8825 8827 8829 8832 8835 8838 8841 8844 8847 8850 8853 8856 8859 8862 8865 8868 8871 8874 8877 8880 8882 8885 8888 8891 8894 8897 8900 8903 8905 8908 8911 8914 8917 8920 8922 8925 8928 8931 8934 8937 8939 8942 8945 8947 8950 8953 8956 8959 8961 8964 8967 8970 8973 8976 8979 8981 8984 8986 8989 8991 8993 8996 8998 9001 9004 9007 9009 9012 9015 9018 9021 9024 9026 9029 9032 9035 9037 9040 9043 9046 9049 9051 9053 9055 9058 9061 9064 9067 9069 9071 9074 9076 9079 9082 9085 9088 9091 9094 9096 9099 9101 9104 9107 9109 9112 9115 9118 9120 9123 9126 9128 9131 9134 9137 9140 9143 9146 9149 9152 9155 9158 9161 9164 9166 9169 9172 9175 9178 9180 9183 9186 9189 9192 9194 9197 9200 9203 9206 9209 9212 9215 9218 9221 9223 9225 9227 9230 9233 9236 9238 9240 9243 9246 9248 9251 9253 9256 9259 9262 9265 9268 9271 9274 9276 9279 9282 9285 9288 9291 9294 9297 9300 9303 9306 9309 9312 9315 9318 9321 9324 9326 9329 9332 9335 9338 9341 9344 9347 9350 9353 9355 9358 9361 9363 9366 9368 9371 9373 9376 9379 9381 9384 9387 9390 9392 9394 9397 9400 9402 9405 9408 9411 9413 9416 9419 9422 9425 9427 9430 9433 9436 9439 9442 9445 9448 9451 9454 9457 9460 9462 9464 9467 9470 9473 9476 9479 9482 9485 9488 9491 9494 9497 9500 9503 9506 9509 9512 9515 9518 9521 9524 9527 9530 9533 9536 9539 9542 9545 9548 9551 9554 9557 9560 9562 9565 9568 9571 9574 9577 9580 9583 9586 9589 9592 9595 9598 9601 9604 9607 9610 9613 9616 9619 9621 9624 9627 9630 9633 9636 9639 9641 9643 9646 9649 9651 9653 9656 9659 9662 9664 9667 9670 9673 9676 9679 9682 9685 9688 9691 9694 9697 9700 9703 9706 9709 9712 9715 9718 9721 9724 9727 9730 9733 9735 9738 9740 9743 9745 9748 9751 9754 9757 9760 9763 9765 9768 9770 9772 9775 9778 9780 9783 9786 9789 9792 9795 9798 9800 9802 9805 9808 9810 9812 9815 9818 9820 9822 9825 9828 9831 9834 9837 9840 9843 9846 9848 9851 9854 9857 9860 9863 9865 9868 9871 9873 9876 9879 9882 9884 9887 9890 9893 9896 9899 9902 9905 9908 9911 9914 9917 9920 9923 9926 9929 9932 9935 9938 9941 9944 9947 9950 9953 9956 9959 9962 9965 9968 9971 9974 9977 9980 9983 9986 9988 9991 9994 9996 9999 10001 10003 10006 10009 10012 10015 10018 10021 10024 10027 10030 10032 10035 10038 10041 10044 10047 10049 10052 10055 10058 10061 10064 10067 10070 10072 10075 10078 10081 10084 10087 10090 10093 10096 10098 10101 10104 10107 10110 10113 10115 10118 10121 10124 10127 10130 10133 10136 10139 10142 10145 10148 10151 10154 10157 10160 10163 10166 10169 10172 10175 10178 10181 10184 10187 10190 10193 10196 10199 10202 10205 10207 10209 10212 10215 10218 10221 10224 10227 10230 10232 10235 10238 10241 10243 10246 10248 10251 10254 10257 10260 10263 10266 10269 10272 10275 10278 10281 10284 10287 10290 10293 10296 10299 10302 10305 10308 10311 10313 10316 10319 10322 10325 10328 10331 10333 10336 10339 10342 10345 10348 10351 10354 10356 10359 10362 10364 10367 10370 10373 10376 10379 10382 10384 10387 10390 10393 10395 10398 10401 10403 10405 10408 10411 10414 10417 10420 10423 10426 10429 10432 10435 10438 10441 10444 10447 10450 10453 10456 10459 10462 10465 10468 10471 10474 10477 10480 10483 10486 10489 10491 10494 10497 10500 10503 10506 10509 10512 10515 10518 10521 10524 10527 10530 10533 10536 10539 10542 10545 10548 10550 10553 10556 10559 10561 10563 10566 10569 10572 10575 10578 10580 10583 10586 10589 10591 10594 10597 10600 10603 10606 10608 10611 10614 10617 10620 10623 10626 10629 10632 10635 10638 10641 10644 10647 10650 10653 10656 10659 10662 10665 10668 10671 10673 10676 10679 10682 10685 10688 10691 10693 10696 10699 10702 10705 10708 10711 10714 10717 10720 10723 10726 10729 10731 10734 10737 10740 10743 10745 10748 10750 10753 10756 10759 10762 10765 10768 10771 10774 10777 10780 10783 10786 10789 10791 10794 10797 10800 10803 10806 10808 10811 10814 10817 10820 10823 10826 10828 10831 10834 10837 10840 10843 10846 10849 10852 10855 10858 10861 10864 10866 10869 10872 10874 10877 10880 10882 10885 10888 10890 10893 10896 10899 10902 10905 10908 10911 10914 10917 10920 10922 10925 10928 10931 10934 10937 10940 10943 10946 10948 10951 10954 10957 10959 10962 10965 10968 10970 10973 10976 10978 10981 10984 10987 10989 10992 10995 10998 11001 11004 11006 11009 11011 11014 11017 11020 11023 11025 11027 11030 11033 11036 11038 11041 11044 11047 11050 11052 11055 11058 11061 11064 11067 11070 11073 11076 11079 11082 11085 11088 11091 11094 11097 11099 11102 11105 11107 11109 11112 11115 11118 11121 11123 11126 11129 11132 11135 11138 11141 11143 11146 11149 11152 11155 11158 11161 11163 11166 11169 11172 11175 11178 11181 11184 11187 11189 11192 11195 11198 11201 11204 11207 11210 11213 11216 11219 11221 11224 11227 11229 11232 11235 11237 11240 11243 11246 11249 11252 11254 11256 11259 11262 11264 11266 11269 11271 11274 11276 11279 11281 11283 11286 11289 11291 11294 11296 11299 11301 11304 11306 11309 11311 11314 11317 11319 11322 11324 11327 11329 11332 11335 11338 11341 11344 11347 11349 11352 11355 11358 11360 11363 11366 11369 11372 11375 11378 11381 11384 11387 11389 11392 11395 11397 11400 11402 11405 11407 11410 11413 11416 11418 11420 11423 11426 11429 11432 11435 11438 11441 11444 11447 11450 11453 11455 11458 11461 11464 11467 11470 11472 11475 11478 11481 11484 11487 11490 11493 11496 11499 11502 11505 11508 11511 11514 11517 11520 11523 11525 11528 11531 11534 11537 11540 11543 11545 11548 11551 11554 11556 11559 11562 11564 11567 11570 11573 11575 11578 11580 11582 11585 11588 11591 11594 11597 11600 11603 11606 11609 11611 11614 11617 11620 11623 11626 11629 11632 11634 11637 11639 11642 11644 11647 11650 11653 11656 11659 11662 11665 11668 11671 11674 11677 11680 11683 11686 11689 11692 11695 11698 11701 11704 11707 11710 11713 11716 11719 11722 11725 11728 11731 11734 11737 11740 11743 11746 11749 11752 11755 11757 11760 11763 11765 11767 11770 11773 11776 11779 11781 11784 11787 11790 11793 11796 11798 11801 11804 11806 11808 11811 11814 11817 11820 11823 11826 11828 11831 11833 11836 11839 11841 11843 11846 11848 11851 11854 11857 11859 11862 11865 11868 11871 11873 11876 11879 11882 11884 11887 11890 11892 11894 11897 11900 11903 11905 11908 11911 11914 11917 11919 11922 11925 11927 11930 11933 11936 11938 11941 11944 11946 11949 11952 11955 11957 11960 11962 11965 11968 11970 11973 11976 11978 11980 11983 11986 11988 11991 11993 11995 11998 12001 12004 12007 12009 12012 12015 12018 12021 12023 12026 12029 12032 12035 12038 12041 12044 12047 12050 12053 12056 12059 12061 12064 12067 12070 12073 12075 12078 12080 12083 12086 12089 12092 12095 12097 12099 12101 12104 12107 12110 12113 12116 12119 12122 12125 12127 12130 12133 12136 12139 12142 12145 12147 12150 12153 12156 12159 12161 12164 12167 12170 12173 12176 12179 12182 12185 12188 12191 12194 12197 12200 12203 12206 12209 12212 12215 12217 12220 12222 12225 12228 12230 12232 12235 12237 12240 12243 12245 12248 12250 12253 12255 12258 12260 12263 12266 12269 12272 12274 12277 12280 12283 12285 12288 12291 12294 12297 12300 12303 12306 12309 12312 12315 12318 12321 12324 12327 12330 12333 12336 12339 12342 12345 12348 12351 12354 12357 12360 12362 12365 12368 12371 12374 12377 12379 12382 12385 12388 12391 12394 12397 12400 12403 12406 12409 12412 12414 12417 12420 12423 12426 12429 12431 12434 12437 12439 12441 12444 12447 12450 12452 12455 12458 12460 12462 12465 12467 12470 12473 12476 12479 12482 12485 12488 12491 12494 12497 12500 12503 12506 12509 12512 12515 12517 12520 12523 12526 12529 12531 12534 12537 12540 12543 12546 12549 12552 12555 12557 12559 12562 12565 12567 12570 12573 12576 12579 12582 12585 12588 12591 12594 12596 12598 12601 12604 12606 12609 12612 12615 12617 12620 12623 12626 12629 12632 12635 12638 12641 12644 12647 12650 12653 12656 12659 12662 12665 12668 12671 12674 12677 12680 12683 12686 12689 12692 12695 12697 12700 12703 12706 12709 12712 12715 12718 12721 12724 12727 12730 12733 12736 12739 12742 12745 12748 12751 12754 12757 12759 12762 12765 12768 12770 12772 12775 12778 12781 12783 12786 12789 12791 12794 12797 12800 12803 12806 12808 12811 12813 12816 12819 12822 12825 12828 12831 12834 12837 12839 12842 12845 12848 12850 12853 12856 12858 12861 12863 12866 12869 12872 12874 12877 12880 12883 12885 12888 12891 12894 12897 12900 12903 12906 12909 12912 12915 12918 12921 12924 12927 12930 12933 12936 12938 12941 12944 12947 12950 12953 12956 12959 12962 12965 12967 12970 12973 12976 12979 12982 12985 12988 12991 12993 12996 12999 13002 13005 13008 13011 13014 13017 13020 13023 13026 13029 13032 13034 13037 13040 13043 13045 13048 13051 13054 13057 13060 13063 13066 13069 13072 13075 13078 13081 13084 13087 13090 13093 13096 13099 13102 13104 13107 13110 13113 13115 13118 13120 13123 13126 13129 13131 13134 13137 13140 13142 13144 13147 13150 13153 13156 13159 13162 13165 13168 13171 13174 13177 13180 13183 13186 13189 13192 13195 13198 13201 13204 13207 13210 13212 13215 13218 13221 13224 13226 13229 13232 13235 13238 13240 13243 13246 13249 13252 13255 13258 13261 13263 13266 13269 13272 13275 13277 13280 13283 13286 13289 13292 13295 13297 13300 13303 13306 13309 13312 13315 13317 13320 13323 13326 13328 13331 13334 13337 13340 13343 13346 13349 13352 13355 13357 13360 13363 13366 13369 13372 13375 13377 13380 13383 13386 13389 13392 13395 13398 13401 13404 13407 13410 13412 13415 13418 13420 13423 13426 13429 13432 13435 13437 13440 13443 13445 13448 13451 13454 13457 13460 13463 13466 13468 13470 13473 13476 13479 13482 13484 13487 13490 13493 13496 13499 13502 13504 13507 13510 13513 13516 13519 13522 13525 13528 13531 13534 13536 13539 13542 13545 13548 13551 13554 13557 13560 13563 13566 13569 13572 13574 13577 13579 13582 13585 13588 13590 13593 13596 13598 13601 13604 13607 13610 13612 13615 13618 13621 13624 13627 13629 13632 13635 13638 13641 13644 13647 13650 13653 13655 13658 13661 13664 13667 13669 13672 13675 13678 13681 13684 13687 13690 13692 13695 13698 13701 13704 13707 13710 13713 13716 13719 13722 13724 13727 13730 13733 13735 13738 13740 13743 13746 13749 13752 13755 13758 13760 13763 13765 13768 13770 13773 13776 13779 13782 13784 13787 13790 13793 13796 13799 13802 13805 13808 13811 13814 13817 13820 13823 13826 13828 13831 13833 13836 13839 13842 13845 13848 13851 13854 13856 13859 13862 13865 13868 13871 13874 13877 13880 13883 13886 13889 13892 13895 13897 13900 13903 13906 13909 13911 13914 13917 13920 13923 13926 13929 13932 13935 13938 13941 13944 13947 13950 13953 13956 13959 13962 13965 13968 13971 13974 13977 13980 13983 13985 13988 13991 13994 13997 13999 14002 14005 14008 14010 14013 14016 14018 14021 14024 14026 14029 14032 14035 14038 14041 14044 14047 14050 14053 14056 14059 14062 14065 14068 14071 14073 14076 14079 14081 14084 14087 14090 14093 14096 14099 14102 14104 14107 14110 14113 14116 14119 14121 14124 14127 14130 14132 14135 14138 14141 14143 14146 14149 14152 14155 14158 14161 14164 14166 14169 14172 14175 14177 14180 14182 14184 14187 14190 14193 14196 14199 14201 14204 14207 14210 14213 14216 14219 14222 14225 14228 14231 14233 14236 14239 14242 14245 14248 14251 14254 14257 14260 14263 14266 14269 14272 14275 14278 14281 14284 14287 14290 14293 14296 14299 14302 14305 14308 14311 14314 14317 14320 14323 14326 14329 14332 14335 14338 14341 14344 14346 14349 14352 14355 14358 14361 14364 14367 14370 14373 14376 14379 14382 14385 14388 14391 14394 14396 14399 14402 14405 14408 14411 14414 14417 14420 14423 14425 14428 14431 14434 14437 14440 14443 14446 14448 14451 14454 14457 14460 14463 14466 14469 14472 14475 14478 14481 14484 14487 14490 14493 14496 14499 14502 14505 14508 14511 14513 14516 14519 14522 14525 14528 14531 14534 14537 14540 14543 14546 14549 14552 14555 14558 14561 14564 14566 14569 14572 14575 14578 14581 14584 14587 14590 14593 14596 14599 14602 14605 14608 14611 14614 14617 14620 14623 14626 14629 14632 14635 14638 14641 14644 14647 14650 14653 14656 14659 14662 14665 14668 14671 14674 14677 14680 14683 14686 14689 14692 14695 14698 14701 14704 14706 14709 14712 14715 14718 14721 14724 14727 14730 14733 14736 14739 14742 14745 14747 14750 14752 14755 14758 14761 14764 14767 14769 14772 14775 14778 14781 14784 14786 14788 14791 14794 14797 14800 14803 14806 14809 14812 14815 14818 14821 14824 14827 14830 14833 14836 14839 14841 14843 14846 14849 14852 14855 14858 14861 14863 14866 14868 14871 14874 14877 14880 14883 14886 14889 14892 14895 14897 14900 14903 14906 14909 14912 14915 14918 14921 14924 14927 14930 14933 14936 14939 14942 14945 14948 14951 14954 14956 14959 14962 14965 14968 14971 14973 14976 14978 14981 14984 14987 14990 14993 14996 14999 15001 15004 15007 15010 15012 15015 15018 15021 15023 15026 15029 15031 15034 15037 15040 15042 15045 15048 15050 15053 15055 15058 15060 15063 15066 15068 15071 15074 15077 15080 15083 15086 15089 15092 15095 15098 15101 15104 15107 15110 15113 15116 15119 15122 15125 15128 15131 15133 15136 15138 15141 15144 15147 15150 15153 15156 15159 15161 15164 15167 15170 15173 15176 15179 15182 15185 15188 15191 15194 15197 15200 15203 15206 15209 15212 15215 15218 15220 15223 15226 15229 15231 15234 15237 15240 15243 15246 15249 15252 15255 15258 15261 15263 15266 15269 15272 15275 15277 15280 15283 15285 15288 15291 15294 15297 15300 15302 15305 15308 15311 15314 15316 15319 15321 15324 15327 15329 15332 15335 15338 15341 15344 15347 15350 15352 15355 15358 15360 15363 15365 15368 15371 15374 15377 15380 15383 15386 15389 15392 15395 15398 15401 15404 15407 15410 15413 15416 15419 15421 15424 15427 15430 15433 15436 15439 15442 15444 15447 15450 15453 15456 15458 15461 15464 15467 15470 15473 15476 15479 15482 15485 15487 15490 15493 15496 15499 15501 15504 15507 15510 15513 15516 15519 15522 15525 15528 15531 15534 15537 15539 15542 15545 15548 15551 15554 15557 15560 15563 15566 15568 15571 15574 15577 15580 15583 15586 15589 15592 15595 15598 15601 15604 15606 15609 15612 15614 15617 15620 15623 15626 15629 15632 15635 15638 15641 15643 15645 15647 15650 15653 15656 15658 15661 15664 15667 15670 15673 15676 15678 15681 15684 15687 15689 15691 15694 15697 15700 15703 15706 15709 15712 15715 15718 15721 15724 15727 15729 15732 15735 15738 15740 15742 15745 15748 15751 15754 15757 15759 15762 15765 15768 15771 15773 15776 15779 15782 15785 15787 15790 15793 15796 15799 15802 15804 15806 15808 15811 15814 15817 15819 15821 15824 15827 15830 15833 15836 15839 15842 15845 15848 15850 15852 15855 15858 15861 15863 15865 15868 15871 15874 15877 15880 15883 15886 15889 15892 15895 15898 15901 15904 15907 15910 15913 15916 15918 15921 15923 15926 15929 15932 15935 15937 15940 15943 15946 15949 15952 15955 15958 15960 15963 15966 15969 15972 15975 15978 15981 15983 15986 15989 15991 15994 15996 15998 16001 16004 16007 16009 16011 16014 16017 16020 16022 16024 16027 16030 16033 16036 16039 16042 16045 16048 16051 16054 16056 16059 16062 16065 16068 16071 16074 16077 16079 16082 16085 16088 16091 16093 16096 16099 16102 16105 16108 16111 16113 16116 16119 16122 16125 16127 16130 16132 16135 16138 16141 16144 16147 16150 16153 16156 16159 16162 16165 16168 16171 16174 16176 16179 16182 16185 16188 16191 16194 16197 16199 16202 16205 16208 16211 16213 16216 16219 16222 16224 16227 16230 16233 16236 16239 16242 16245 16248 16251 16254 16257 16260 16263 16266 16269 16272 16275 16278 16281 16284 16287 16290 16292 16295 16297 16300 16303 16305 16308 16311 16314 16316 16319 16322 16324 16327 16330 16333 16336 16339 16342 16345 16348 16351 16354 16357 16360 16363 16366 16369 16372 16375 16378 16381 16384 16386 16388 16390 16393 16396 16399 16402 16405 16408 16411 16414 16417 16420 16423 16426 16429 16431 16434 16437 16440 16442 16445 16448 16450 16453 16456 16459 16462 16464 16467 16470 16472 16474 16477 16480 16483 16486 16488 16491 16494 16496 16499 16501 16504 16507 16510 16513 16516 16519 16522 16525 16528 16531 16534 16537 16539 16542 16545 16548 16551 16554 16557 16560 16562 16565 16567 16570 16573 16576 16579 16581 16584 16587 16590 16593 16596 16599 16602 16605 16608 16611 16614 16617 16620 16623 16626 16629 16632 16635 16638 16641 16644 16647 16650 16652 16655 16658 16661 16663 16666 16668 16671 16674 16677 16679 16682 16685 16688 16691 16694 16696 16699 16702 16704 16707 16710 16713 16716 16719 16722 16725 16728 16730 16733 16736 16739 16742 16745 16747 16750 16753 16756 16759 16762 16765 16768 16771 16774 16777 16780 16783 16786 16789 16791 16794 16797 16800 16803 16805 16808 16811 16814 16817 16820 16823 16826 16829 16832 16835 16838 16841 16843 16846 16849 16852 16855 16857 16860 16863 16866 16869 16872 16875 16878 16881 16884 16887 16890 16893 16896 16898 16901 16904 16906 16909 16912 16915 16917 16920 16923 16926 16929 16932 16935 16938 16941 16944 16947 16950 16953 16956 16958 16960 16963 16965 16967 16970 16973 16976 16978 16980 16983 16985 16988 16990 16993 16995 16998 17001 17004 17006 17009 17011 17014 17017 17020 17023 17025 17028 17031 17034 17037 17040 17043 17045 17048 17051 17054 17057 17060 17062 17065 17068 17070 17073 17076 17078 17081 17084 17086 17089 17092 17095 17098 17101 17103 17106 17108 17111 17114 17117 17120 17123 17126 17129 17132 17135 17138 17141 17144 17147 17149 17152 17155 17157 17160 17163 17166 17169 17172 17175 17178 17181 17184 17186 17189 17192 17195 17198 17201 17204 17207 17210 17213 17215 17218 17221 17223 17226 17228 17231 17234 17237 17240 17243 17246 17249 17251 17254 17257 17260 17263 17266 17269 17272 17274 17277 17279 17282 17285 17287 17290 17293 17296 17298 17301 17304 17307 17310 17312 17315 17318 17321 17324 17327 17329 17332 17335 17338 17341 17344 17347 17350 17353 17356 17359 17362 17365 17368 17371 17374 17377 17380 17383 17386 17389 17392 17394 17397 17400 17402 17405 17408 17411 17413 17416 17419 17422 17425 17427 17430 17433 17436 17439 17442 17445 17448 17451 17454 17457 17460 17463 17466 17469 17472 17475 17478 17481 17484 17487 17490 17493 17496 17498 17501 17504 17507 17510 17513 17516 17518 17521 17524 17527 17530 17533 17536 17539 17542 17545 17548 17551 17554 17557 17559 17562 17564 17567 17570 17572 17575 17578 17581 17584 17586 17588 17591 17593 17596 17598 17601 17604 17607 17610 17613 17615 17618 17621 17623 17625 17628 17631 17634 17637 17640 17642 17645 17648 17650 17653 17656 17659 17662 17665 17668 17671 17674 17676 17678 17681 17684 17687 17689 17692 17694 17697 17700 17703 17706 17709 17711 17714 17716 17719 17722 17725 17728 17731 17733 17735 17738 17741 17744 17747 17749 17752 17755 17758 17761 17763 17766 17769 17772 17775 17778 17781 17784 17787 17790 17793 17796 17799 17802 17805 17808 17811 17814 17816 17819 17822 17824 17827 17830 17833 17835 17838 17841 17844 17847 17850 17853 17856 17859 17862 17865 17868 17871 17874 17877 17880 17883 17886 17889 17892 17894 17897 17900 17903 17906 17909 17912 17915 17918 17921 17924 17927 17930 17933 17936 17938 17940 17943 17946 17949 17951 17954 17957 17960 17963 17966 17968 17971 17974 17977 17980 17983 17986 17989 17992 17995 17998 18001 18003 18006 18009 18011 18014 18017 18020 18023 18026 18029 18032 18035 18038 18041 18043 18046 18049 18052 18054 18057 18059 18062 18064 18067 18070 18073 18075 18077 18080 18082 18085 18088 18090 18093 18096 18098 18100 18103 18106 18109 18111 18114 18117 18119 18122 18124 18127 18130 18133 18135 18138 18141 18143 18145 18148 18150 18153 18156 18158 18161 18163 18166 18169 18172 18175 18178 18181 18184 18187 18190 18192 18195 18198 18201 18204 18207 18209 18212 18215 18218 18221 18224 18227 18230 18233 18236 18239 18241 18244 18247 18250 18253 18255 18257 18260 18263 18265 18268 18270 18273 18276 18279 18282 18285 18287 18290 18293 18295 18298 18300 18303 18306 18309 18312 18315 18318 18321 18323 18326 18329 18332 18335 18338 18341 18344 18347 18350 18352 18355 18357 18360 18362 18365 18367 18370 18373 18376 18379 18381 18384 18387 18390 18393 18396 18398 18400 18403 18406 18409 18412 18415 18418 18420 18423 18426 18429 18432 18435 18437 18440 18443 18446 18449 18451 18454 18457 18459 18462 18464 18467 18470 18473 18475 18478 18480 18483 18486 18488 18490 18492 18495 18498 18501 18504 18507 18510 18512 18514 18516 18519 18522 18525 18528 18530 18533 18535 18538 18540 18543 18546 18549 18552 18555 18558 18560 18563 18566 18569 18572 18575 18578 18581 18584 18587 18590 18593 18596 18599 18602 18605 18608 18611 18614 18617 18620 18623 18626 18629 18632 18635 18638 18641 18644 18647 18650 18653 18656 18659 18662 18665 18668 18671 18674 18677 18680 18683 18686 18689 18692 18695 18698 18701 18704 18707 18709 18712 18715 18718 18720 18722 18725 18728 18731 18734 18737 18740 18743 18746 18749 18752 18755 18758 18761 18764 18767 18770 18773 18776 18779 18781 18784 18787 18790 18793 18796 18799 18802 18804 18807 18810 18812 18815 18818 18820 18823 18826 18828 18831 18833 18836 18839 18841 18844 18847 18850 18852 18855 18857 18860 18862 18864 18867 18870 18873 18875 18877 18880 18883 18885 18888 18891 18893 18896 18899 18902 18905 18908 18911 18914 18917 18920 18923 18926 18929 18931 18934 18937 18940 18943 18945 18948 18951 18954 18957 18959 18962 18965 18968 18971 18974 18977 18980 18983 18986 18988 18991 18993 18996 18999 19002 19005 19007 19010 19013 19016 19018 19021 19024 19027 19030 19033 19036 19038 19041 19044 19046 19049 19052 19055 19057 19060 19063 19066 19069 19072 19075 19078 19080 19083 19086 19089 19092 19095 19097 19100 19103 19106 19109 19112 19115 19118 19121 19124 19127 19130 19133 19136 19139 19142 19144 19147 19150 19153 19156 19159 19161 19164 19167 19169 19172 19174 19177 19180 19183 19186 19188 19190 19193 19196 19198 19201 19204 19207 19210 19213 19216 19219 19222 19225 19228 19231 19233 19236 19238 19241 19244 19247 19250 19253 19255 19258 19261 19264 19266 19269 19272 19275 19277 19280 19283 19286 19289 19292 19295 19298 19301 19304 19307 19310 19313 19316 19318 19321 19324 19327 19330 19333 19336 19339 19341 19344 19346 19349 19352 19355 19358 19361 19364 19367 19369 19371 19374 19377 19380 19383 19386 19389 19392 19395 19398 19400 19403 19406 19409 19412 19415 19418 19420 19422 19424 19427 19429 19432 19435 19438 19441 19444 19447 19449 19452 19454 19457 19459 19462 19464 19467 19470 19473 19476 19479 19482 19484 19487 19490 19492 19495 19498 19501 19504 19506 19509 19512 19515 19518 19521 19524 19527 19530 19533 19536 19539 19542 19545 19548 19551 19554 19557 19560 19563 19566 19569 19571 19574 19576 19579 19582 19585 19588 19591 19594 19597 19600 19603 19606 19609 19612 19615 19618 19621 19624 19627 19630 19633 19636 19639 19642 19645 19648 19651 19654 19657 19660 19663 19666 19669 19672 19675 19678 19681 19684 19687 19690 19693 19696 19699 19702 19705 19708 19711 19714 19717 19720 19723 19726 19729 19732 19735 19738 19741 19744 19747 19750 19752 19755 19758 19761 19764 19767 19770 19773 19776 19779 19782 19785 19788 19791 19794 19797 19800 19803 19806 19809 19812 19815 19818 19821 19823 19826 19829 19832 19834 19837 19839 19842 19845 19848 19851 19854 19857 19860 19863 19866 19869 19872 19875 19878 19881 19884 19887 19890 19893 19896 19899 19902 19905 19908 19911 19914 19917 19920 19923 19926 19929 19932 19935 19938 19941 19944 19947 19950 19953 19956 19958 19961 19963 19966 19969 19972 19975 19978 19981 19984 19987 19990 19993 19996 19999 20002 20005 20008 20011 20014 20017 20020 20023 20026 20029 20032 20035 20038 20040 20043 20046 20049 20052 20055 20058 20061 20064 20067 20070 20073 20076 20079 20082 20085 20088 20091 20094 20097 20100 20103 20106 20109 20112 20115 20118 20121 20124 20127 20130 20133 20136 20139 20142 20145 20148 20151 20154 20157 20160 20163 20166 20169 20172 20175 20178 20181 20184 20187 20190 20193 20196 20199 20202 20205 20208 20211 20214 20217 20220 20223 20226 20229 20232 20235 20238 20241 20244 20247 20249 20252 20255 20258 20261 20264 20267 20270 20272 20275 20278 20280 20283 20286 20289 20292 20295 20298 20301 20304 20307 20310 20313 20316 20319 20322 20325 20328 20331 20334 20337 20340 20342 20345 20348 20351 20354 20357 20360 20363 20366 20369 20372 20375 20378 20381 20384 20387 20390 20393 20396 20399 20402 20405 20408 20411 20414 20417 20420 20423 20426 20429 20432 20435 20438 20440 20443 20446 20449 20452 20454 20457 20459 20462 20465 20468 20471 20474 20477 20479 20482 20485 20487 20490 20493 20495 20497 20500 20502 20505 20508 20511 20513 20516 20519 20522 20525 20528 20531 20534 20537 20540 20543 20546 20549 20552 20555 20558 20560 20563 20566 20569 20572 20575 20578 20581 20584 20586 20589 20592 20595 20598 20601 20604 20607 20610 20613 20616 20619 20622 20625 20628 20631 20634 20637 20640 20643 20646 20649 20652 20655 20658 20661 20664 20667 20670 20673 20676 20679 20682 20685 20688 20691 20694 20696 20699 20702 20705 20708 20711 20714 20717 20719 20722 20725 20727 20730 20732 20735 20738 20741 20744 20747 20750 20753 20756 20759 20762 20765 20767 20769 20772 20775 20777 20780 20783 20785 20787 20790 20793 20796 20799 20801 20804 20806 20809 20812 20814 20817 20819 20821 20824 20826 20829 20831 20834 20837 20840 20843 20846 20849 20852 20854 20857 20859 20862 20865 20868 20871 20874 20876 20879 20882 20885 20887 20890 20893 20895 20898 20900 20903 20905 20907 20910 20913 20915 20918 20921 20924 20927 20930 20933 20935 20938 20941 20944 20947 20950 20953 20956 20959 20961 20963 20966 20969 20972 20974 20977 20980 20983 20986 20988 20990 20993 20995 20998 21001 21004 21006 21009 21012 21015 21018 21021 21024 21027 21030 21033 21036 21039 21042 21045 21048 21051 21054 21056 21059 21062 21065 21068 21071 21074 21076 21079 21081 21084 21087 21090 21092 21094 21097 21100 21102 21105 21107 21110 21113 21116 21119 21122 21125 21128 21131 21134 21137 21140 21143 21145 21147 21150 21153 21156 21159 21162 21164 21167 21170 21173 21176 21179 21182 21185 21187 21190 21193 21196 21198 21201 21203 21206 21209 21211 21214 21217 21220 21223 21226 21229 21232 21235 21238 21240 21243 21246 21248 21251 21254 21257 21260 21263 21266 21269 21272 21275 21278 21281 21283 21286 21289 21292 21295 21298 21301 21304 21307 21310 21313 21316 21319 21322 21325 21328 21331 21334 21337 21340 21343 21346 21349 21351 21354 21357 21360 21363 21366 21369 21372 21375 21378 21381 21384 21386 21389 21392 21395 21398 21400 21403 21406 21409 21412 21415 21418 21421 21424 21427 21430 21433 21435 21438 21441 21444 21447 21450 21452 21455 21457 21460 21463 21466 21469 21472 21475 21478 21481 21484 21486 21489 21492 21494 21497 21500 21502 21505 21508 21511 21514 21516 21519 21522 21525 21528 21531 21534 21537 21540 21543 21546 21549 21552 21555 21558 21561 21564 21567 21570 21573 21576 21579 21581 21584 21587 21589 21592 21594 21597 21600 21603 21606 21609 21612 21615 21618 21621 21623 21626 21629 21631 21633 21635 21638 21641 21644 21646 21649 21652 21655 21658 21661 21664 21666 21668 21671 21673 21676 21679 21681 21684 21687 21689 21692 21695 21698 21701 21703 21706 21709 21712 21715 21717 21720 21723 21726 21729 21732 21735 21738 21741 21744 21747 21750 21752 21755 21758 21760 21763 21765 21767 21770 21773 21775 21777 21779 21782 21785 21788 21791 21794 21797 21800 21803 21806 21809 21811 21814 21817 21820 21823 21826 21829 21832 21835 21838 21840 21843 21846 21849 21852 21855 21857 21860 21863 21866 21869 21872 21875 21878 21881 21884 21887 21889 21892 21895 21898 21901 21904 21907 21910 21913 21916 21919 21922 21925 21928 21931 21934 21937 21940 21943 21946 21949 21952 21955 21958 21961 21963 21965 21968 21971 21974 21977 21980 21983 21986 21989 21991 21994 21997 22000 22003 22006 22009 22012 22015 22018 22021 22024 22027 22030 22033 22036 22039 22041 22044 22047 22050 22053 22055 22058 22061 22064 22066 22068 22071 22074 22077 22080 22083 22086 22088 22091 22093 22096 22099 22102 22104 22107 22110 22113 22116 22119 22122 22125 22128 22130 22133 22135 22137 22140 22143 22146 22149 22152 22155 22158 22161 22164 22167 22170 22173 22175 22178 22181 22183 22186 22188 22191 22194 22197 22200 22203 22206 22209 22212 22215 22218 22221 22224 22227 22230 22233 22236 22239 22242 22245 22248 22251 22254 22257 22259 22262 22265 22268 22271 22274 22276 22279 22282 22285 22288 22291 22294 22297 22300 22303 22306 22308 22311 22314 22317 22319 22322 22325 22328 22331 22334 22337 22340 22343 22346 22349 22352 22354 22356 22359 22362 22365 22368 22371 22373 22376 22379 22382 22384 22387 22390 22393 22396 22399 22402 22405 22408 22411 22414 22416 22419 22422 22425 22428 22431 22434 22437 22439 22441 22444 22446 22449 22452 22455 22458 22460 22463 22466 22469 22472 22475 22477 22480 22483 22486 22489 22492 22495 22498 22501 22504 22507 22509 22512 22515 22518 22521 22524 22527 22530 22533 22536 22539 22541 22544 22547 22550 22553 22556 22559 22562 22564 22567 22570 22573 22576 22579 22582 22585 22588 22591 22594 22597 22600 22603 22606 22609 22612 22615 22618 22621 22624 22626 22629 22632 22635 22637 22640 22643 22646 22649 22652 22655 22658 22661 22664 22667 22670 22673 22676 22678 22681 22683 22685 22688 22690 22692 22695 22698 22701 22704 22707 22709 22712 22715 22718 22721 22724 22727 22730 22732 22735 22738 22740 22743 22746 22748 22751 22754 22756 22759 22762 22764 22766 22768 22770 22773 22776 22778 22780 22783 22786 22788 22791 22794 22796 22799 22802 22805 22808 22810 22812 22814 22816 22819 22822 22825 22827 22830 22832 22835 22837 22840 22842 22844 22847 22850 22853 22856 22859 22862 22865 22867 22870 22873 22875 22878 22880 22883 22886 22888 22890 22893 22896 22899 22902 22905 22908 22911 22914 22917 22920 22923 22926 22929 22932 22935 22938 22941 22943 22946 22949 22952 22955 22958 22961 22964 22967 22970 22973 22976 22979 22982 22985 22988 22991 22994 22996 22999 23002 23005 23008 23011 23014 23017 23020 23023 23026 23029 23032 23035 23038 23040 23042 23045 23048 23051 23054 23056 23059 23061 23064 23067 23070 23072 23074 23077 23079 23082 23085 23088 23091 23094 23097 23100 23103 23106 23109 23112 23115 23118 23121 23124 23127 23130 23133 23136 23138 23141 23143 23146 23149 23152 23155 23157 23160 23163 23166 23169 23172 23175 23178 23181 23184 23187 23190 23193 23196 23199 23202 23205 23208 23211 23214 23217 23219 23222 23225 23228 23231 23234 23237 23240 23243 23246 23249 23252 23255 23258 23261 23263 23266 23269 23272 23275 23278 23281 23284 23287 23290 23293 23296 23299 23302 23305 23308 23311 23314 23317 23320 23323 23326 23329 23332 23335 23338 23341 23344 23347 23350 23353 23356 23359 23362 23365 23368 23371 23374 23377 23380 23383 23386 23389 23392 23395 23398 23401 23404 23407 23410 23413 23416 23419 23422 23425 23428 23431 23434 23437 23440 23443 23446 23449 23451 23454 23457 23460 23462 23465 23468 23470 23473 23476 23479 23482 23485 23488 23491 23494 23497 23500 23503 23505 23508 23511 23514 23517 23519 23522 23525 23528 23531 23534 23537 23540 23543 23546 23549 23552 23555 23558 23561 23564 23567 23570 23573 23576 23579 23582 23585 23588 23591 23594 23597 23600 23603 23606 23608 23611 23614 23617 23620 23622 23625 23628 23631 23634 23637 23640 23643 23646 23649 23652 23654 23657 23660 23662 23665 23668 23671 23674 23677 23680 23683 23686 23689 23692 23695 23698 23700 23703 23706 23709 23712 23715 23718 23721 23724 23726 23729 23732 23735 23738 23741 23744 23747 23750 23753 23756 23758 23761 23763 23766 23769 23772 23774 23777 23780 23783 23785 23788 23790 23793 23795 23797 23800 23803 23806 23809 23812 23814 23817 23820 23823 23826 23829 23832 23835 23838 23841 23844 23847 23850 23853 23856 23859 23862 23865 23868 23871 23874 23877 23880 23883 23885 23888 23891 23893 23896 23899 23902 23904 23907 23909 23912 23915 23918 23921 23924 23927 23930 23933 23936 23939 23942 23945 23947 23950 23953 23956 23959 23962 23965 23968 23971 23974 23977 23980 23983 23986 23989 23992 23995 23998 24001 24004 24006 24009 24012 24015 24018 24021 24024 24027 24030 24033 24036 24039 24042 24045 24048 24051 24054 24057 24060 24063 24066 24069 24072 24075 24078 24081 24084 24087 24089 24092 24095 24098 24101 24104 24107 24110 24113 24116 24119 24122 24125 24128 24131 24134 24137 24140 24143 24145 24148 24151 24154 24156 24159 24162 24165 24167 24169 24172 24175 24178 24181 24184 24186 24189 24192 24195 24198 24201 24204 24207 24209 24211 24214 24217 24220 24222 24225 24227 24230 24233 24236 24239 24242 24245 24247 24249 24252 24255 24257 24259 24262 24265 24268 24271 24274 24277 24280 24283 24286 24289 24291 24294 24297 24300 24303 24306 24309 24311 24314 24317 24320 24323 24326 24329 24332 24335 24338 24341 24344 24347 24350 24353 24356 24359 24362 24364 24367 24370 24373 24376 24378 24381 24384 24386 24389 24392 24395 24398 24401 24404 24407 24410 24413 24416 24419 24421 24424 24426 24429 24431 24434 24437 24440 24443 24446 24449 24452 24455 24458 24461 24464 24467 24470 24473 24476 24479 24482 24485 24488 24490 24493 24496 24498 24501 24504 24507 24509 24512 24515 24517 24520 24523 24526 24529 24531 24534 24537 24540 24543 24546 24549 24552 24554 24557 24560 24563 24566 24569 24572 24575 24578 24581 24584 24587 24590 24593 24596 24599 24602 24605 24608 24611 24614 24617 24620 24623 24626 24629 24632 24635 24638 24641 24643 24646 24649 24652 24655 24658 24661 24664 24667 24670 24673 24676 24679 24682 24685 24688 24691 24694 24697 24700 24703 24706 24709 24712 24715 24718 24721 24724 24727 24730 24733 24736 24739 24742 24745 24748 24751 24754 24756 24758 24760 24763 24766 24768 24771 24774 24777 24779 24782 24784 24787 24790 24793 24796 24799 24801 24804 24807 24810 24813 24816 24819 24822 24824 24827 24830 24833 24836 24839 24842 24845 24848 24851 24854 24857 24860 24863 24866 24868 24871 24874 24877 24879 24882 24884 24887 24890 24893 24896 24899 24902 24905 24908 24910 24913 24916 24919 24922 24925 24928 24931 24933 24936 24938 24941 24943 24946 24949 24952 24955 24958 24961 24964 24967 24969 24972 24975 24977 24979 24981 24984 24986 24989 24991 24994 24997 25000 25003 25006 25009 25012 25015 25018 25021 25024 25027 25030 25033 25036 25039 25042 25045 25048 25051 25054 25056 25059 25062 25064 25066 25069 25072 25075 25077 25080 25083 25086 25089 25092 25095 25098 25100 25103 25105 25108 25111 25114 25117 25119 25122 25125 25127 25130 25133 25136 25139 25142 25145 25148 25150 25153 25156 25158 25161 25164 25167 25169 25172 25175 25178 25181 25184 25187 25190 25193 25196 25198 25201 25204 25207 25210 25213 25216 25218 25221 25224 25226 25229 25232 25235 25238 25240 25243 25246 25249 25252 25255 25258 25260 25262 25264 25267 25270 25273 25275 25278 25280 25283 25285 25288 25291 25294 25297 25300 25303 25305 25308 25311 25314 25316 25319 25322 25325 25327 25330 25333 25336 25339 25342 25345 25348 25351 25354 25357 25360 25363 25365 25368 25371 25374 25376 25379 25382 25385 25388 25391 25393 25395 25398 25401 25403 25406 25408 25410 25412 25415 25418 25421 25423 25426 25429 25432 25435 25438 25440 25443 25446 25449 25452 25455 25458 25461 25464 25467 25470 25473 25476 25478 25481 25484 25487 25490 25493 25496 25498 25501 25504 25506 25509 25512 25514 25517 25520 25523 25526 25529 25531 25534 25537 25539 25542 25544 25547 25549 25552 25555 25558 25561 25564 25567 25569 25572 25575 25578 25581 25583 25586 25589 25592 25595 25598 25601 25604 25607 25610 25613 25615 25618 25621 25624 25627 25630 25632 25635 25638 25641 25644 25647 25650 25653 25656 25659 25662 25665 25668 25671 25674 25677 25679 25682 25685 25688 25691 25694 25696 25699 25701 25704 25707 25710 25713 25716 25718 25721 25724 25727 25730 25733 25735 25738 25741 25744 25747 25750 25752 25755 25758 25761 25764 25767 25770 25773 25776 25779 25782 25784 25787 25789 25792 25794 25797 25800 25802 25805 25808 25811 25814 25817 25820 25823 25826 25828 25831 25833 25836 25839 25842 25845 25848 25851 25854 25857 25860 25863 25865 25868 25871 25874 25877 25880 25883 25886 25889 25892 25895 25897 25900 25903 25906 25908 25911 25913 25915 25918 25921 25924 25926 25929 25932 25935 25937 25939 25942 25945 25948 25951 25954 25957 25960 25963 25966 25969 25971 25973 25976 25979 25982 25985 25988 25990 25993 25996 25999 26002 26005 26008 26011 26014 26017 26020 26022 26025 26027 26029 26031 26034 26037 26040 26043 26046 26049 26052 26055 26057 26060 26063 26066 26069 26072 26075 26078 26081 26084 26087 26090 26093 26096 26099 26102 26105 26108 26111 26114 26117 26120 26123 26126 26129 26132 26135 26138 26141 26144 26146 26149 26152 26155 26158 26160 26163 26166 26169 26172 26175 26178 26181 26184 26186 26189 26192 26195 26198 26201 26204 26207 26210 26212 26215 26218 26221 26224 26227 26230 26233 26236 26239 26242 26245 26248 26251 26254 26257 26260 26263 26266 26269 26272 26275 26278 26281 26284 26287 26290 26292 26295 26298 26301 26304 26307 26310 26312 26315 26317 26320 26323 26325 26328 26331 26334 26336 26339 26341 26344 26347 26350 26352 26355 26358 26361 26363 26366 26369 26372 26375 26378 26381 26383 26386 26389 26392 26395 26398 26401 26404 26407 26410 26413 26416 26419 26422 26425 26428 26431 26434 26437 26440 26443 26446 26449 26452 26455 26458 26461 26464 26466 26469 26471 26474 26477 26480 26483 26485 26488 26491 26494 26497 26500 26503 26506 26509 26512 26515 26518 26521 26524 26526 26529 26532 26534 26537 26540 26542 26545 26548 26551 26554 26557 26559 26562 26565 26568 26571 26574 26577 26580 26583 26585 26588 26590 26593 26596 26599 26602 26605 26607 26609 26612 26615 26617 26620 26623 26626 26628 26631 26634 26637 26640 26643 26646 26649 26651 26654 26657 26660 26663 26666 26669 26672 26675 26678 26681 26684 26687 26690 26693 26696 26699 26701 26704 26707 26710 26713 26716 26718 26721 26723 26726 26729 26732 26735 26738 26741 26744 26747 26750 26753 26756 26759 26761 26764 26766 26769 26772 26775 26778 26781 26784 26786 26788 26791 26794 26797 26800 26803 26806 26809 26812 26815 26818 26821 26824 26827 26830 26833 26836 26839 26842 26845 26848 26851 26853 26856 26859 26861 26864 26867 26870 26873 26876 26878 26881 26884 26887 26890 26893 26896 26898 26901 26904 26907 26910 26913 26916 26919 26922 26925 26928 26931 26934 26937 26940 26943 26946 26948 26951 26954 26956 26959 26962 26965 26968 26970 26973 26976 26979 26982 26985 26988 26991 26994 26997 27000 27003 27005 27008 27011 27014 27017 27020 27023 27026 27029 27032 27035 27038 27041 27044 27047 27050 27053 27056 27059 27062 27064 27067 27070 27073 27076 27079 27082 27085 27088 27091 27094 27097 27100 27102 27105 27108 27111 27114 27117 27120 27123 27126 27129 27132 27135 27138 27141 27143 27145 27148 27151 27154 27157 27160 27163 27165 27168 27171 27174 27177 27180 27183 27186 27189 27192 27195 27198 27201 27204 27207 27210 27213 27216 27219 27222 27225 27228 27231 27234 27237 27240 27243 27246 27249 27252 27255 27258 27261 27264 27267 27270 27272 27275 27278 27281 27284 27287 27290 27293 27296 27298 27301 27304 27307 27310 27313 27316 27319 27322 27325 27328 27331 27334 27336 27339 27342 27345 27348 27350 27353 27355 27358 27361 27364 27367 27370 27373 27376 27379 27381 27384 27387 27390 27393 27396 27399 27402 27405 27408 27411 27413 27416 27419 27422 27424 27427 27430 27432 27435 27438 27441 27444 27446 27449 27452 27454 27457 27460 27463 27466 27469 27472 27475 27478 27480 27483 27486 27489 27491 27494 27497 27500 27503 27506 27509 27512 27514 27517 27519 27522 27524 27527 27529 27531 27534 27537 27540 27542 27544 27546 27549 27552 27554 27557 27560 27563 27565 27568 27571 27574 27577 27579 27582 27585 27588 27591 27594 27597 27600 27603 27606 27609 27612 27615 27618 27621 27624 27627 27630 27633 27636 27639 27642 27645 27648 27651 27654 27657 27660 27663 27666 27669 27672 27675 27678 27681 27684 27687 27690 27693 27695 27698 27701 27704 27707 27710 27713 27716 27719 27721 27724 27727 27730 27733 27735 27738 27741 27743 27746 27749 27751 27754 27757 27760 27763 27765 27768 27771 27774 27777 27780 27782 27785 27788 27791 27794 27797 27800 27803 27806 27809 27812 27815 27818 27821 27823 27825 27828 27831 27834 27836 27839 27842 27845 27848 27851 27854 27857 27860 27863 27866 27869 27872 27875 27878 27880 27883 27886 27889 27892 27895 27898 27900 27903 27906 27908 27911 27914 27917 27920 27923 27926 27929 27932 27935 27938 27940 27943 27946 27949 27952 27955 27957 27960 27963 27966 27969 27972 27975 27978 27981 27984 27987 27989 27992 27995 27998 28001 28004 28007 28010 28013 28016 28019 28022 28025 28028 28031 28034 28036 28039 28042 28045 28048 28051 28054 28057 28060 28063 28066 28069 28072 28075 28078 28081 28084 28087 28090 28093 28096 28099 28102 28105 28107 28110 28112 28115 28118 28121 28123 28126 28129 28132 28135 28138 28141 28144 28147 28150 28152 28155 28158 28161 28163 28166 28169 28172 28175 28178 28181 28184 28187 28190 28193 28196 28199 28202 28205 28208 28211 28213 28216 28219 28222 28225 28228 28230 28233 28236 28239 28241 28244 28246 28249 28252 28255 28258 28261 28264 28266 28269 28272 28275 28278 28281 28284 28287 28290 28293 28296 28299 28302 28305 28308 28311 28314 28317 28320 28323 28326 28329 28332 28335 28338 28341 28344 28347 28349 28352 28355 28357 28360 28363 28366 28369 28372 28375 28378 28380 28383 28386 28389 28392 28394 28397 28400 28402 28405 28408 28411 28414 28417 28420 28422 28425 28428 28431 28433 28436 28439 28442 28444 28447 28450 28453 28456 28459 28461 28464 28467 28470 28473 28476 28478 28481 28484 28487 28490 28493 28496 28499 28502 28504 28507 28510 28512 28515 28518 28521 28524 28526 28529 28532 28535 28538 28540 28543 28546 28549 28552 28554 28557 28560 28563 28565 28568 28570 28573 28576 28579 28582 28585 28588 28591 28594 28597 28600 28602 28605 28608 28611 28614 28617 28620 28623 28625 28627 28630 28633 28636 28639 28642 28644 28647 28650 28653 28656 28659 28661 28664 28667 28670 28672 28675 28678 28680 28683 28686 28688 28691 28694 28697 28699 28702 28705 28708 28711 28714 28717 28719 28722 28725 28728 28731 28734 28736 28739 28742 28745 28748 28751 28753 28756 28759 28762 28765 28768 28771 28773 28776 28779 28782 28785 28787 28790 28793 28796 28799 28802 28804 28807 28810 28813 28816 28819 28822 28825 28828 28831 28834 28836 28839 28842 28845 28848 28851 28854 28857 28859 28862 28865 28868 28871 28873 28875 28878 28881 28883 28886 28889 28892 28895 28898 28901 28904 28906 28909 28912 28915 28918 28921 28924 28927 28929 28932 28934 28937 28940 28942 28945 28948 28951 28954 28956 28959 28961 28964 28967 28970 28973 28976 28979 28982 28985 28988 28991 28993 28996 28999 29002 29005 29008 29010 29013 29016 29019 29021 29024 29027 29030 29033 29035 29038 29041 29043 29046 29049 29052 29055 29058 29060 29063 29065 29068 29070 29072 29075 29078 29081 29084 29086 29088 29091 29094 29097 29100 29103 29106 29109 29112 29115 29118 29121 29124 29127 29129 29132 29135 29138 29141 29144 29147 29149 29151 29154 29157 29160 29163 29166 29169 29172 29175 29178 29181 29184 29187 29190 29192 29195 29198 29201 29204 29207 29210 29213 29216 29219 29222 29225 29228 29231 29234 29237 29240 29243 29246 29249 29252 29255 29258 29261 29264 29267 29270 29273 29276 29279 29282 29285 29288 29291 29293 29296 29299 29301 29304 29307 29310 29313 29316 29319 29322 29324 29327 29330 29333 29335 29338 29341 29343 29346 29349 29352 29354 29356 29359 29362 29365 29368 29370 29372 29375 29378 29381 29384 29387 29390 29393 29396 29399 29402 29405 29408 29411 29414 29416 29419 29422 29424 29427 29430 29433 29435 29438 29441 29444 29447 29449 29452 29455 29457 29460 29463 29466 29469 29472 29475 29478 29481 29484 29487 29490 29492 29495 29498 29501 29504 29507 29510 29513 29515 29518 29521 29524 29527 29530 29533 29536 29539 29542 29545 29548 29551 29554 29557 29560 29563 29566 29569 29571 29574 29577 29580 29583 29586 29589 29591 29594 29596 29599 29602 29605 29608 29611 29613 29616 29619 29621 29624 29627 29630 29632 29635 29638 29641 29643 29646 29649 29652 29655 29658 29661 29664 29667 29670 29673 29676 29679 29682 29685 29687 29690 29693 29696 29699 29701 29703 29706 29709 29712 29715 29718 29721 29724 29727 29730 29733 29736 29739 29742 29745 29748 29751 29754 29757 29760 29762 29765 29768 29771 29774 29777 29780 29783 29786 29788 29791 29793 29796 29799 29802 29805 29808 29811 29814 29816 29819 29821 29824 29827 29830 29833 29836 29838 29841 29844 29847 29850 29853 29856 29858 29861 29864 29867 29870 29873 29875 29877 29880 29883 29886 29888 29890 29892 29895 29898 29901 29904 29907 29909 29912 29915 29918 29921 29924 29926 29929 29932 29935 29938 29940 29943 29945 29947 29950 29952 29954 29957 29960 29963 29965 29968 29971 29974 29976 29979 29982 29985 29987 29990 29993 29996 29998 30001 30004 30007 30010 30013 30016 30019 30022 30024 30027 30030 30033 30035 30038 30041 30044 30047 30050 30053 30055 30058 30061 30064 30067 30070 30073 30075 30078 30081 30084 30087 30090 30093 30096 30099 30102 30105 30108 30111 30114 30117 30119 30122 30124 30127 30130 30133 30135 30138 30141 30143 30146 30148 30151 30153 30156 30159 30161 30164 30167 30170 30173 30176 30179 30181 30184 30187 30190 30193 30195 30198 30201 30204 30207 30210 30213 30215 30218 30221 30224 30227 30230 30233 30236 30239 30242 30245 30247 30250 30253 30256 30259 30262 30265 30268 30271 30274 30277 30280 30283 30286 30289 30292 30295 30298 30301 30304 30306 30308 30311 30314 30317 30319 30322 30325 30327 30330 30333 30335 30338 30341 30343 30346 30349 30351 30353 30356 30359 30362 30365 30367 30370 30373 30376 30379 30382 30385 30388 30391 30394 30397 30400 30402 30404 30407 30410 30413 30415 30418 30420 30423 30425 30428 30431 30434 30437 30440 30442 30445 30448 30450 30453 30455 30458 30461 30463 30465 30467 30470 30473 30476 30479 30481 30484 30487 30489 30492 30494 30497 30500 30502 30505 30508 30511 30514 30517 30520 30523 30526 30528 30531 30533 30535 30538 30541 30544 30547 30550 30552 30554 30557 30560 30563 30565 30567 30570 30573 30576 30579 30582 30585 30588 30591 30593 30596 30598 30601 30604 30607 30610 30613 30616 30619 30622 30625 30628 30631 30634 30637 30640 30643 30646 30649 30652 30655 30658 30661 30664 30667 30670 30673 30676 30679 30682 30685 30687 30690 30693 30696 30699 30702 30705 30708 30711 30714 30717 30720 30723 30726 30729 30732 30734 30737 30740 30742 30745 30748 30751 30754 30757 30759 30762 30765 30768 30771 30774 30777 30780 30783 30786 30789 30792 30795 30798 30800 30803 30806 30809 30812 30815 30818 30821 30824 30827 30829 30832 30835 30837 30840 30843 30846 30849 30851 30853 30855 30858 30861 30864 30867 30870 30872 30875 30878 30881 
</DataArray>
<DataArray type="UInt32" Name="types" format="ascii">
5 5 3 5 5 5 5 3 5 5 5 5 5 5 5 5 5 5 5 5 3 5 5 5 5 3 5 5 5 5 5 5 5 3 5 5 5 5 5 5 5 5 3 5 5 5 5 5 5 5 5 5 5 5 3 3 5 5 5 5 5 5 5 5 3 5 5 5 5 5 5 5 5 5 5 5 5 5 5 5 5 5 5 5 5 5 5 3 5 5 5 5 5 5 5 5 5 5 5 3 5 5 5 3 5 5 5 5 5 5 5 5 5 5 5 5 5 5 5 5 5 5 5 5 5 5 5 5 5 5 5 5 5 5 5 5 5 5 5 5 5 5 5 5 5 5 5 5 5 3 5 3 5 5 5 5 5 5 5 5 5 5 5 5 5 5 5 5 5 5 5 5 5 5 5 5 5 5 3 5 5 3 5 3 5 5 5 5 5 5 5 5 5 5 5 5 5 5 3 5 3 5 5 5 5 5 5 5 3 5 3 5 5 5 5 5 5 3 5 5 3 5 5 5 5 5 5 3 3 5 5 3 5 3 5 3 3 5 5 5 3 5 5 5 5 5 5 5 5 5 5 5 5 5 3 5 5 5 5 5 5 5 3 5 5 5 5 5 5 5 3 5 5 5 5 3 5 5 5 5 5 5 3 5 5 5 3 5 5 5 5 5 5 5 3 5 5 5 5 5 5 3 5 5 5 5 5 5 3 5 5 5 5 5 5 5 3 5 5 5 5 5 5 5 5 5 5 5 5 5 5 5 5 5 5 5 5 5 3 3 5 5 5 5 5 3 5 5 5 5 5 5 5 3 5 3 5 5 5 3 5 5 5 3 5 3 5 5 5 5 5 5 5 3 5 5 5 5 5 5 5 3 5 5 5 3 5 5 5 5 5 5 5 5 5 5 5 5 5 5 5 5 5 5 5 5 5 5 5 5 5 5 5 5 5 5 5 5 3 5 5 5 5 5 5 5 5 5 5 5 5 5 5 5 5 5 5 5 5 5 5 5 5 5 5 5 5 5 5 5 5 3 5 5 5 5 5 5 5 5 5 5 5 5 5 5 5 5 5 5 5 5 3 5 5 5 5 5 5 5 3 5 5 5 5 5 3 5 5 3 5 3 5 5 5 5 3 5 5 3 5 5 5 5 5 5 3 5 5 5 5 5 5 5 5 5 5 5 5 5 5 5 5 5 5 5 3 5 5 5 5 5 5 5 5 5 5 5 3 3 5 5 5 5 5 5 5 5 5 5 5 5 5 5 5 5 5 5 5 5 5 3 5 3 3 5 5 3 5 5 5 5 5 5 5 5 5 5 5 5 5 3 5 5 5 5 5 5 5 3 3 5 5 5 5 5 5 5 5 3 3 5 5 5 3 5 5 5 5 5 5 5 5 5 5 5 5 5 5 5 5 5 5 5 5 5 5 5 5 5 5 5 5 5 5 5 5 5 5 5 3 5 5 3 5 5 5 5 3 5 5 5 3 5 5 5 3 5 5 3 5 5 5 5 5 5 5 5 5 5 5 5 5 5 5 5 5 5 5 5 5 3 5 5 5 3 5 5 5 5 5 3 5 5 5 5 5 5 3 5 5 5 5 5 5 5 5 5 5 5 5 5 5 5 5 5 5 3 5 5 5 5 5 5 5 5 5 5 5 5 5 5 5 5 5 5 5 5 5 3 5 5 5 5 5 5 5 5 5 5 5 5 5 5 5 3 5 5 5 5 5 5 5 5 5 5 5 5 5 5 5 5 5 5 3 5 5 5 5 5 5 5 3 5 5 5 5 5 5 5 5 5 5 5 5 5 5 5 5 5 5 5 5 5 3 5 5 5 5 5 5 5 5 5 3 5 5 5 5 5 5 5 5 3 5 5 5 5 5 5 5 5 5 5 5 5 5 5 5 5 5 5 5 3 5 5 5 5 5 3 5 5 5 3 5 5 5 5 5 5 3 5 5 5 5 5 5 5 5 5 5 3 5 5 5 5 5 5 5 5 5 5 5 5 3 5 3 5 5 5 5 5 5 5 3 5 3 5 5 5 5 5 5 5 5 5 5 5 5 5 5 5 5 5 5 5 5 5 5 5 5 5 5 5 5 5 5 5 5 5 5 5 5 5 5 5 5 5 5 5 5 5 3 3 5 5 3 5 5 5 5 5 5 5 5 5 5 5 5 5 5 5 5 3 5 5 5 5 3 5 5 3 5 5 5 5 5 5 3 5 3 5 5 3 5 5 5 5 5 5 5 5 5 5 3 5 5 5 5 5 3 3 5 5 5 5 3 5 5 3 5 3 5 5 5 5 5 3 5 5 3 5 5 5 5 5 5 5 5 5 5 5 5 3 5 5 5 5 5 5 5 5 5 5 5 5 5 5 5 3 5 3 5 3 3 5 3 5 5 3 5 5 5 5 5 5 3 5 3 5 5 3 5 5 5 3 5 5 3 5 5 5 5 5 3 5 5 3 5 5 5 5 5 3 5 3 5 5 3 5 5 3 5 5 5 5 5 5 5 5 3 5 5 5 5 5 5 5 5 5 5 3 5 5 5 5 3 5 5 3 5 5 5 5 5 3 5 5 5 5 5 3 5 3 5 5 5 5 5 5 3 5 5 5 5 5 5 5 5 3 3 3 5 5 5 5 3 5 3 5 5 5 3 3 5 5 5 3 5 5 5 3 5 3 5 3 3 5 3 5 5 5 5 3 5 5 5 3 5 3 5 3 5 5 5 5 5 5 5 3 5 5 5 5 3 5 5 5 5 5 5 5 5 3 5 3 3 5 5 5 3 5 5 5 5 3 3 5 5 3 3 5 5 5 5 5 3 5 5 5 5 5 5 5 5 3 5 3 5 5 5 5 5 5 5 5 5 5 5 5 5 5 5 5 5 3 5 5 5 5 5 5 5 5 5 5 5 5 5 5 5 5 5 5 5 5 5 5 5 5 5 3 5 3 5 5 5 5 5 3 3 5 5 5 5 3 3 5 3 5 5 3 5 5 3 5 5 5 5 3 3 5 5 5 5 5 5 5 5 3 5 5 3 5 5 5 3 5 5 3 5 5 5 5 5 5 3 5 5 5 5 5 5 3 5 5 5 5 5 3 5 5 3 3 5 5 3 5 5 3 5 5 5 5 5 5 5 5 5 5 5 5 3 5 3 5 5 3 5 5 5 5 5 5 3 5 5 5 3 3 3 5 5 5 3 3 5 3 3 5 5 3 5 5 3 5 3 5 3 5 5 5 3 3 5 5 3 3 3 3 5 5 5 3 3 5 5 3 3 3 5 3 3 5 5 3 5 3 3 5 3 5 5 3 5 3 3 5 5 5 5 3 3 5 5 3 5 5 5 3 5 5 5 5 5 5 5 5 5 5 5 5 5 5 5 5 5 5 5 5 5 5 5 5 5 5 5 5 5 5 5 5 5 5 5 5 5 5 5 5 5 5 5 5 5 5 5 5 5 5 5 5 5 5 5 5 5 5 3 5 3 5 5 5 5 5 5 5 5 5 5 5 5 5 5 3 5 5 5 5 5 5 5 5 5 5 3 5 5 5 5 5 5 5 5 5 5 5 5 5 5 5 5 5 5 5 5 5 5 5 5 5 5 5 5 5 5 5 5 5 5 5 5 5 5 5 5 5 5 5 5 5 5 3 5 5 5 3 5 3 5 5 5 5 5 3 5 3 5 5 5 5 5 5 5 5 5 5 5 5 5 5 5 5 5 5 5 5 5 5 5 5 5 3 5 5 5 5 5 5 3 5 3 5 5 5 3 5 5 3 5 5 5 5 5 5 5 5 5 5 5 5 5 5 5 5 5 5 5 5 5 5 5 5 5 5 5 5 5 5 5 5 5 5 5 5 5 3 5 3 5 5 5 5 5 5 5 5 5 5 3 5 5 5 5 5 5 5 5 5 5 5 5 5 5 5 5 5 3 5 5 5 3 3 5 3 5 5 5 5 5 5 5 5 3 5 5 5 5 3 5 5 5 5 5 5 5 3 5 5 3 5 3 5 5 3 5 5 3 3 5 5 5 5 5 5 5 5 5 5 5 5 5 5 5 3 5 3 5 5 5 3 5 3 5 5 5 5 5 5 5 5 5 5 5 5 3 5 3 5 5 5 5 5 5 5 5 3 5 5 3 5 5 5 3 3 5 5 5 5 5 5 5 5 5 5 5 5 5 5 5 5 5 5 5 5 5 3 5 5 5 5 5 3 5 3 5 5 5 5 3 5 5 3 5 5 5 5 5 3 5 5 5 5 3 5 5 5 5 5 5 5 3 5 5 5 3 5 5 5 5 5 5 5 5 5 5 5 3 5 5 5 5 5 5 5 5 3 5 5 5 5 5 5 3 5 5 5 5 5 5 3 5 5 5 5 5 5 5 5 5 5 5 3 5 5 5 3 5 5 5 3 5 3 5 5 5 5 5 5 3 5 5 5 5 5 5 5 5 5 5 5 5 5 5 5 3 5 5 5 5 5 3 5 5 5 5 5 5 5 5 3 5 5 5 5 5 5 5 5 5 5 5 5 5 5 5 5 3 5 5 5 5 3 5 5 5 5 5 5 5 5 5 5 5 5 5 5 5 5 5 5 5 5 5 5 5 5 5 5 3 5 5 5 3 5 3 5 5 5 5 3 5 3 5 5 5 5 5 3 5 5 5 5 5 5 5 5 5 3 5 5 5 5 5 5 5 5 5 5 5 5 5 5 5 5 5 5 5 5 5 5 5 5 3 3 5 5 5 5 5 3 5 5 5 3 5 5 5 3 5 5 3 5 3 5 5 5 5 3 5 5 5 5 3 3 5 5 5 5 5 5 5 5 5 5 5 5 3 5 5 5 5 3 5 5 5 5 5 3 5 5 3 5 5 5 5 5 5 5 5 5 5 5 5 5 5 5 5 3 5 5 3 5 5 5 3 5 5 5 5 5 5 5 5 5 5 5 3 5 5 5 5 5 5 5 5 5 5 5 5 5 5 5 5 3 5 5 3 5 3 5 5 3 5 3 5 3 5 5 5 5 5 5 5 5 5 5 5 5 5 3 5 3 3 5 5 3 3 5 5 3 3 5 5 5 3 5 3 5 5 3 5 5 5 5 3 3 5 3 5 5 3 3 5 5 3 5 5 5 3 5 5 5 3 3 3 5 5 3 5 3 3 5 5 5 5 5 5 5 5 5 5 5 3 3 5 3 5 3 5 3 5 5 5 3 5 5 5 5 5 3 5 5 5 5 5 5 5 5 5 5 5 5 5 5 5 5 5 5 5 5 5 5 5 5 3 5 5 5 5 5 5 5 5 5 5 5 5 5 5 5 5 5 5 3 5 5 5 5 5 5 5 5 5 5 5 3 5 5 5 5 5 3 5 5 5 5 5 5 5 5 5 5 5 5 5 5 3 5 5 5 5 5 5 5 5 5 5 5 5 5 5 3 5 3 5 5 5 5 3 5 5 5 5 5 5 5 5 5 5 5 5 3 5 3 5 5 5 5 3 5 5 5 5 5 5 5 3 5 5 5 5 5 5 5 3 5 5 5 3 5 3 5 5 5 5 5 5 5 5 5 3 5 5 5 5 5 5 5 5 5 5 5 5 5 5 5 5 5 5 5 5 5 5 5 5 5 5 5 5 5 5 5 5 5 5 5 5 5 5 5 5 5 5 5 3 5 5 3 5 5 5 5 5 5 5 5 5 5 3 5 5 5 5 5 3 5 5 3 5 5 5 5 5 5 3 5 5 5 5 3 5 5 3 5 3 5 5 5 5 5 5 5 5 5 5 5 3 5 3 5 5 5 5 3 5 5 5 5 5 5 5 5 5 5 5 5 5 5 5 5 5 5 5 5 5 3 5 5 5 5 3 5 5 5 5 5 5 5 3 5 5 5 5 5 3 5 5 5 3 5 5 5 3 5 5 3 5 5 5 3 5 5 3 5 5 5 5 5 5 5 5 5 5 5 5 5 5 5 5 5 5 5 5 5 5 5 5 5 5 5 5 5 5 5 3 5 5 5 5 5 5 5 5 5 5 5 3 5 5 5 5 5 5 5 5 5 5 5 5 5 5 5 3 3 5 5 5 3 5 5 5 5 3 5 5 3 5 5 5 5 5 5 5 5 5 5 5 5 5 3 3 5 5 5 5 5 5 5 5 5 5 5 3 5 5 3 5 5 5 5 5 5 5 5 5 5 5 5 5 5 5 5 5 5 5 3 5 5 5 3 5 5 5 5 5 3 5 5 5 5 5 5 5 5 5 5 5 5 5 5 5 5 5 5 5 5 3 5 5 3 5 5 5 5 5 5 5 5 5 5 5 5 5 5 5 5 5 5 5 3 5 5 5 5 5 5 5 5 5 5 5 5 5 5 5 5 5 5 5 5 5 5 5 5 5 5 5 5 5 5 5 5 3 5 5 5 5 5 5 3 5 5 5 5 5 3 5 5 5 5 3 5 5 5 5 5 5 5 5 5 5 5 5 5 5 5 5 5 5 5 5 5 5 3 5 5 5 5 5 5 5 3 5 5 3 5 5 3 5 5 5 5 5 5 3 5 5 5 5 5 5 5 5 5 5 3 5 3 5 5 5 5 5 5 5 5 3 5 5 3 5 5 5 3 5 5 5 3 5 5 5 3 3 5 5 3 5 5 3 5 5 3 5 5 5 5 5 5 5 5 5 3 5 5 5 3 5 5 5 3 5 5 5 3 5 3 5 5 3 5 5 5 5 5 5 5 5 3 5 5 3 5 5 5 5 5 5 5 5 5 5 5 5 5 3 5 3 5 5 5 3 3 5 3 5 5 5 5 3 5 3 5 5 5 5 5 5 5 5 5 3 5 5 5 5 5 5 5 5 5 5 5 5 5 5 5 5 5 5 5 5 5 5 5 5 5 5 5 5 3 5 5 5 5 5 5 3 5 5 5 5 5 5 3 5 5 5 5 5 5 3 5 5 5 3 5 5 5 3 5 5 3 5 5 5 5 5 5 3 5 5 5 3 3 5 5 5 5 5 5 5 5 5 5 5 5 5 5 5 5 5 3 5 5 5 5 5 5 5 3 5 5 5 5 5 3 5 5 5 5 5 3 5 5 3 5 5 5 5 3 5 5 5 5 5 5 3 5 3 5 3 3 5 3 5 5 5 3 5 5 5 5 5 3 5 5 5 3 5 5 5 5 3 3 3 5 5 5 5 3 3 5 3 5 5 5 5 5 5 3 5 3 5 5 3 5 5 5 3 5 5 3 5 5 5 5 5 5 5 5 5 5 5 5 3 5 5 5 5 3 5 5 5 5 3 5 5 5 5 5 5 5 5 5 3 3 3 5 5 5 3 3 5 5 3 5 3 5 5 5 5 5 5 5 3 5 5 5 5 5 5 5 5 5 5 5 5 5 5 5 5 3 5 5 5 5 5 5 5 5 5 3 5 5 3 5 3 5 3 5 5 3 5 5 5 3 3 5 5 3 5 5 5 3 5 5 5 5 3 5 5 5 5 5 5 5 5 5 5 5 3 3 5 5 5 5 5 5 5 5 5 5 5 5 5 5 5 5 5 5 5 5 5 5 5 5 5 5 5 5 5 5 5 5 3 5 5 5 5 5 5 5 5 5 5 5 5 5 5 5 5 5 5 5 3 5 5 5 5 5 5 3 3 5 5 3 3 5 5 5 3 5 5 5 5 5 5 5 5 5 5 5 5 5 5 5 5 5 5 5 5 5 5 5 3 5 3 5 3 5 5 5 5 5 5 3 5 3 3 5 5 3 5 5 5 5 5 5 3 3 5 5 3 3 5 5 3 3 5 5 5 5 5 5 5 5 3 5 5 5 5 5 3 5 5 3 5 5 5 3 5 5 5 5 5 5 5 5 5 5 5 5 5 5 5 5 5 5 5 5 5 5 5 5 5 5 5 5 5 5 5 5 5 5 3 5 5 3 5 3 3 5 5 5 5 5 5 5 5 5 3 5 5 5 5 5 3 5 5 5 5 5 5 5 3 5 5 5 5 5 5 5 5 3 5 5 5 5 5 3 5 5 5 5 5 5 5 5 5 5 5 5 5 5 5 5 5 5 5 5 5 5 5 5 5 5 5 5 5 5 3 3 5 5 5 5 5 5 5 3 5 5 5 3 5 3 5 5 5 5 5 5 5 5 5 5 5 5 5 5 5 5 5 5 5 5 5 3 5 5 5 5 5 5 3 5 5 5 5 5 5 5 3 5 5 3 5 5 5 5 5 5 3 5 5 5 3 5 5 3 3 5 5 5 5 5 5 5 5 5 5 5 5 5 5 5 5 5 5 5 5 5 5 5 5 5 5 5 5 3 5 5 5 5 5 5 5 5 5 5 5 5 5 5 5 5 5 5 5 3 5 5 5 3 3 5 5 5 5 5 3 5 5 5 3 5 5 5 5 5 3 5 5 5 5 5 5 5 5 5 5 5 5 5 5 5 5 5 5 5 5 5 3 5 5 5 5 5 5 3 5 5 5 5 5 5 5 5 5 5 5 5 3 5 5 5 5 3 5 3 5 5 5 5 5 5 5 5 5 5 5 5 5 3 5 5 5 5 5 3 5 5 5 5 5 5 3 5 5 5 5 5 5 5 5 5 5 5 5 3 5 5 3 5 5 3 5 5 3 5 5 5 5 5 5 5 5 5 5 3 5 5 5 5 5 5 5 5 3 5 5 5 3 5 5 5 3 5 5 3 5 5 5 3 5 5 5 5 5 3 5 3 5 5 5 5 3 3 5 5 5 3 5 5 5 5 3 5 5 5 5 5 5 5 5 5 5 5 5 5 5 5 3 5 5 3 3 5 5 5 5 3 5 5 5 5 5 5 3 5 5 5 5 5 5 3 5 5 5 5 5 5 5 5 3 5 5 5 5 5 5 5 5 5 5 3 5 5 3 5 5 3 5 5 5 5 5 3 3 5 5 3 3 5 3 5 3 5 3 3 5 5 3 5 3 5 3 5 3 5 3 5 5 3 5 3 5 3 5 5 5 5 5 5 3 5 5 5 3 5 5 5 5 5 5 5 5 5 3 5 5 3 5 3 5 3 5 5 5 3 3 5 5 5 5 5 5 5 5 5 5 5 3 5 5 5 5 5 3 5 5 5 5 5 5 5 5 5 5 5 5 5 5 5 5 5 3 5 5 5 5 5 5 3 5 5 5 3 5 5 3 5 5 5 3 5 3 3 5 5 5 5 5 5 5 5 5 3 5 5 5 5 5 5 5 3 5 3 5 3 5 5 5 5 5 5 5 5 5 5 5 5 5 5 5 5 5 5 5 5 5 5 5 5 5 5 5 5 5 5 5 5 5 5 5 5 5 3 5 5 3 3 5 5 5 5 3 5 5 5 5 5 3 5 5 3 3 5 5 5 5 5 5 3 5 3 5 5 3 3 5 3 5 5 5 3 5 5 5 5 3 5 5 5 3 5 5 3 3 5 5 5 3 5 5 5 5 3 5 5 3 5 5 5 3 5 5 3 5 5 5 3 5 3 5 5 3 5 5 3 3 5 5 3 5 3 3 5 5 5 5 3 5 5 5 5 3 5 5 5 5 5 5 5 5 5 5 5 5 3 5 5 5 5 3 5 3 5 5 5 5 5 3 3 3 5 5 5 5 5 5 5 5 3 5 5 5 5 5 5 3 5 5 5 5 3 5 5 5 5 5 5 5 5 5 5 5 5 5 5 5 5 5 5 3 5 3 5 5 3 3 5 3 5 5 3 5 3 5 3 5 3 5 5 5 5 3 5 5 5 3 5 5 5 5 5 5 5 5 5 5 5 5 5 5 5 5 5 5 5 5 5 5 5 5 5 3 5 5 5 5 5 3 5 5 5 5 5 5 5 5 5 5 5 3 5 5 5 5 5 3 5 5 3 3 5 5 5 3 5 5 3 3 5 3 5 5 5 5 5 5 5 5 5 5 5 5 5 5 5 5 3 5 5 5 5 3 5 5 5 5 5 5 5 5 3 3 5 5 3 5 5 5 5 5 5 5 5 5 3 3 5 5 3 5 5 5 3 5 5 5 5 5 5 5 5 5 5 5 5 5 5 5 5 5 5 5 5 5 5 5 5 5 5 3 5 5 5 5 5 5 5 5 5 5 5 5 5 5 5 5 5 5 5 5 3 5 5 5 3 3 5 5 5 3 5 5 3 5 5 5 5 5 3 5 3 5 5 5 5 5 5 5 5 3 5 5 5 3 5 5 3 5 3 5 5 5 3 5 5 5 3 5 5 5 5 5 5 5 5 5 5 5 5 5 5 5 5 5 3 5 5 5 5 5 5 5 5 5 3 5 5 5 5 5 5 5 5 3 5 5 5 5 5 5 5 5 5 5 5 5 5 3 5 5 5 3 5 5 5 5 5 5 5 5 5 5 5 5 5 5 5 5 5 5 5 3 5 5 5 3 5 3 5 5 5 3 5 5 5 3 3 5 5 5 5 5 5 5 5 5 5 5 5 5 5 5 5 5 5 5 5 5 5 3 5 5 5 5 3 5 5 5 5 3 5 5 5 5 5 5 5 3 5 5 5 5 3 5 5 5 5 5 5 3 5 5 5 5 5 5 3 5 5 5 3 5 5 5 5 5 5 5 5 5 3 5 5 5 5 5 5 3 5 5 5 5 5 5 5 5 5 5 5 3 5 5 3 5 5 5 5 5 3 5 5 3 5 5 5 5 5 5 5 3 3 5 5 5 5 3 5 5 5 5 5 5 3 5 5 5 5 5 5 5 5 5 5 3 5 5 5 5 5 5 5 5 5 5 5 5 3 5 3 5 5 5 3 5 5 3 5 5 5 5 3 5 5 5 5 5 3 5 5 5 5 5 5 5 5 3 5 5 5 5 3 5 5 5 5 5 5 5 3 5 5 5 5 5 5 5 5 5 5 3 5 5 5 3 5 3 5 5 5 5 5 5 3 5 3 5 3 5 5 5 5 3 5 5 5 5 5 5 5 5 5 5 5 5 5 5 3 5 3 5 5 5 5 5 5 5 3 5 5 5 5 5 5 5 5 5 5 5 5 5 3 5 5 5 5 3 5 5 5 5 5 5 5 5 5 5 5 5 5 5 5 5 5 5 5 5 5 5 5 5 3 5 5 5 5 3 5 5 5 3 5 5 3 5 5 3 5 5 5 5 5 5 5 5 5 5 5 5 5 5 5 3 5 5 3 5 5 5 5 5 5 5 3 5 5 5 5 5 3 5 5 5 3 5 5 5 3 5 5 5 5 5 5 5 3 5 5 5 3 5 3 3 5 5 5 5 5 3 5 5 5 5 5 5 5 5 5 5 3 5 5 5 5 5 5 5 5 5 5 5 5 5 5 5 5 5 5 5 5 5 5 5 5 5 5 5 5 5 5 5 5 5 5 5 5 5 3 5 5 5 5 5 5 5 5 5 5 5 5 5 5 5 5 3 5 5 5 5 5 5 5 5 5 3 5 5 5 5 5 5 5 3 5 5 5 5 5 5 5 5 5 5 5 5 5 5 5 5 5 5 5 5 5 3 5 5 5 5 5 5 5 5 5 5 5 5 5 5 5 5 5 3 5 5 5 5 5 5 5 5 5 5 5 5 5 5 5 5 5 5 5 5 5 5 5 5 5 5 5 5 5 5 5 5 5 5 5 5 5 5 5 5 5 5 5 5 5 5 3 5 5 5 5 5 5 5 5 5 5 5 5 5 3 5 3 5 5 5 5 5 3 5 5 5 5 5 3 3 5 5 5 5 5 5 5 5 5 5 5 5 5 5 5 5 5 3 3 5 5 5 5 5 5 3 5 3 5 5 5 5 5 5 5 5 5 3 5 5 5 5 5 5 5 5 5 5 5 5 5 5 5 5 5 5 5 3 5 5 5 5 5 3 5 3 5 5 5 5 5 5 5 3 5 5 5 3 5 5 5 3 5 5 3 5 5 5 3 5 5 3 5 3 5 3 5 5 3 5 5 5 5 5 5 5 5 5 5 5 5 5 5 5 5 5 5 5 5 5 3 5 3 5 5 5 5 5 5 5 3 5 5 5 5 5 5 5 5 5 5 5 5 5 5 5 5 5 5 5 3 5 5 5 3 5 5 5 5 5 5 5 5 5 5 3 5 5 5 5 3 5 5 3 5 5 5 5 5 3 5 5 5 5 3 5 3 5 5 3 5 5 5 5 5 5 5 3 5 5 3 5 3 5 5 5 5 5 5 5 5 5 5 5 5 5 5 5 5 5 5 3 5 5 5 5 5 5 5 3 5 5 5 5 3 5 5 5 5 5 5 5 5 5 3 5 5 5 5 3 5 5 5 5 5 5 5 5 5 5 5 5 3 5 5 5 5 5 5 5 5 5 3 5 5 5 5 5 5 5 5 5 5 5 5 3 5 5 3 5 5 5 5 5 5 5 5 5 3 3 3 5 5 5 3 5 5 5 5 5 5 3 5 5 5 3 3 5 5 5 5 5 5 5 5 5 5 5 5 3 5 5 5 3 3 5 5 5 5 5 3 5 5 5 5 3 5 5 5 5 3 5 5 5 5 5 3 3 3 5 5 5 3 3 5 5 5 5 5 5 5 5 5 3 3 5 5 5 3 3 5 5 5 5 5 5 5 5 5 5 5 5 5 5 5 5 5 3 5 3 5 5 5 5 3 5 5 5 5 5 5 5 3 5 5 5 5 5 5 5 3 5 5 3 5 3 3 5 5 5 3 3 5 5 5 3 3 5 5 5 5 5 5 5 5 5 5 3 5 5 5 5 5 5 5 3 5 5 5 5 3 5 5 5 5 5 5 3 5 5 5 5 3 5 3 5 5 5 5 5 5 5 5 5 5 5 5 5 5 3 5 5 5 5 5 5 5 3 5 5 5 5 3 5 5 5 3 5 5 5 5 5 5 5 5 5 5 5 5 5 5 5 5 5 5 5 5 5 5 3 5 3 5 5 3 5 5 5 3 5 5 3 5 5 5 5 5 5 5 5 5 5 5 5 5 5 5 5 5 5 5 5 3 3 3 5 5 5 5 5 5 5 5 5 5 5 5 5 3 5 5 5 3 5 5 3 5 5 5 5 3 5 5 3 3 5 5 5 5 3 5 5 3 5 3 5 5 5 5 5 5 5 5 5 5 5 5 3 5 5 5 5 5 5 5 3 5 3 5 5 5 5 3 5 5 5 5 5 5 5 5 5 5 5 5 5 5 5 5 5 5 5 5 5 5 5 3 5 5 5 3 5 3 5 5 5 3 5 5 5 5 5 3 5 5 3 5 5 5 5 5 5 5 5 3 5 5 5 5 5 3 5 5 5 5 5 5 5 5 5 5 5 5 5 5 3 5 5 5 5 3 5 5 5 5 5 5 5 5 5 5 5 5 3 5 5 5 5 3 5 5 5 5 5 5 5 5 5 5 5 5 5 3 5 5 3 5 5 5 3 5 5 5 5 5 5 5 5 5 5 5 5 5 3 3 5 3 3 5 5 5 3 3 5 3 5 3 5 3 5 5 5 3 5 3 5 5 5 5 3 5 5 5 5 5 5 3 5 5 5 5 5 3 5 5 3 5 5 3 5 5 3 5 5 5 5 5 3 5 3 5 5 5 5 5 5 5 5 5 5 5 5 5 3 5 5 3 5 5 5 5 5 5 5 5 5 3 5 5 5 5 5 5 5 5 5 3 5 5 3 5 3 5 5 5 5 5 5 5 3 5 5 5 5 5 5 5 3 5 3 5 5 3 5 5 5 3 5 5 5 5 3 5 5 5 5 5 3 5 5 5 5 5 5 5 5 5 5 5 5 5 5 5 5 5 5 5 5 5 3 5 5 3 5 5 5 3 5 5 5 5 3 5 5 5 5 5 5 5 5 5 5 5 5 5 5 5 5 5 5 5 5 5 5 5 3 5 5 5 5 5 5 3 5 5 5 5 5 5 5 5 5 5 5 5 5 3 5 3 5 5 3 5 5 5 5 3 3 5 3 5 3 5 5 5 5 5 3 5 5 3 3 5 5 5 5 5 3 5 5 3 5 5 5 5 5 5 5 5 3 3 5 5 5 3 5 3 5 5 5 5 5 3 5 3 5 5 5 5 5 3 3 5 5 5 5 3 5 5 5 5 3 5 5 5 5 5 5 5 5 5 5 5 5 5 5 5 5 5 3 5 5 3 5 5 5 3 5 5 5 5 5 5 5 5 5 5 5 5 5 5 5 5 5 5 5 3 5 5 5 5 5 5 5 5 5 5 5 5 5 5 3 3 5 5 5 3 5 5 5 5 5 3 5 5 5 5 5 5 5 5 5 5 5 3 5 5 3 5 5 5 5 5 5 5 5 5 5 3 5 5 5 3 5 3 5 3 5 5 5 3 3 5 3 5 5 3 5 5 3 3 5 5 5 3 5 5 3 5 3 5 5 5 3 5 5 3 3 5 3 5 5 3 5 3 5 5 5 5 5 5 5 5 5 3 5 5 5 5 5 3 5 5 5 5 5 5 5 5 5 5 3 5 5 5 5 3 3 5 5 3 5 3 5 5 5 5 5 3 5 5 3 5 3 5 5 5 5 5 5 5 3 5 5 5 5 5 5 5 5 5 3 5 3 5 3 5 3 5 5 5 5 3 5 5 5 5 5 3 3 5 5 5 5 5 5 3 5 5 5 5 5 3 5 5 5 5 3 5 5 3 5 3 5 5 5 3 5 3 5 5 3 3 3 5 5 5 5 5 5 3 3 3 5 5 5 5 3 5 3 5 3 5 5 5 5 5 5 3 5 5 5 5 5 5 5 5 5 5 5 5 5 5 5 5 5 5 5 5 5 5 5 5 5 5 5 5 5 5 5 5 5 5 5 5 5 5 5 5 5 5 5 5 5 5 5 5 5 3 5 5 5 3 3 5 5 5 5 5 5 5 5 5 5 5 5 5 5 5 5 5 5 5 3 5 5 5 5 5 5 5 3 5 5 3 5 5 3 5 5 3 5 3 5 5 3 5 5 5 3 5 3 5 3 3 5 5 5 3 3 5 5 3 5 5 3 5 5 5 5 5 5 5 5 5 5 5 5 3 5 5 5 5 3 5 5 5 5 3 5 5 5 5 5 5 5 5 5 3 5 3 5 5 5 5 3 5 5 5 3 5 5 5 5 5 5 3 5 5 3 5 5 5 3 5 5 5 5 5 5 5 3 5 5 5 5 5 3 5 5 5 5 5 5 5 5 5 5 5 5 5 5 5 3 5 5 5 5 5 3 5 5 3 5 3 5 5 5 5 3 3 5 5 3 5 5 5 5 5 5 5 5 5 5 5 3 5 3 5 5 5 5 5 3 5 5 5 3 5 5 5 3 5 5 5 5 5 5 5 5 5 5 5 5 5 3 5 5 5 5 5 5 5 3 5 3 5 5 5 5 5 5 5 3 3 5 5 5 5 5 5 5 5 5 3 5 5 5 5 5 5 3 3 3 5 3 5 5 5 5 5 5 3 5 3 5 3 5 3 5 5 5 5 5 5 3 5 5 3 5 5 5 5 3 5 5 5 5 5 5 5 5 5 5 5 5 5 5 5 5 5 5 5 5 5 3 5 3 5 5 5 5 5 5 5 5 5 5 5 5 5 5 5 5 5 5 5 5 5 5 5 5 5 5 5 5 5 5 5 5 5 5 5 5 5 5 5 5 5 5 5 5 5 5 5 5 5 5 5 5 5 5 5 5 5 5 3 5 5 5 5 5 5 5 5 5 5 5 5 5 5 5 5 5 5 5 5 5 5 5 3 5 5 5 3 5 3 5 5 5 5 5 5 5 5 5 5 5 5 5 5 5 5 5 5 5 5 5 5 5 5 5 5 5 5 5 5 5 5 5 5 5 5 5 5 5 3 5 3 5 5 5 5 5 5 5 5 5 5 5 5 5 5 5 5 5 5 5 5 5 5 5 5 5 3 5 5 5 5 5 5 5 5 5 5 5 5 5 5 5 5 5 5 5 5 5 5 5 5 5 5 5 5 5 5 5 5 5 5 5 5 5 5 5 5 5 5 5 5 5 5 5 5 5 5 5 5 5 5 5 5 5 5 5 5 5 5 5 5 5 5 5 5 5 3 5 5 5 5 5 5 5 3 5 5 3 5 5 5 5 5 5 5 5 5 5 5 5 5 5 5 5 5 5 5 5 3 5 5 5 5 5 5 5 5 5 5 5 5 5 5 5 5 5 5 5 5 5 5 5 5 5 5 5 5 5 5 5 5 3 5 5 5 5 3 5 3 5 5 5 5 5 5 3 5 5 3 5 5 3 3 5 3 5 5 5 3 5 5 5 5 5 5 5 5 5 5 5 5 5 5 5 3 5 5 5 5 5 5 5 5 3 5 5 5 5 5 5 5 5 5 5 5 5 5 5 5 5 5 5 5 5 5 5 5 5 5 5 5 5 5 5 5 5 5 5 5 5 3 5 5 5 5 5 5 5 3 5 5 3 5 3 5 5 5 5 5 5 5 5 5 5 5 3 3 5 5 3 5 5 3 3 5 5 5 5 3 5 3 5 5 3 5 3 3 5 3 5 3 5 5 5 5 5 5 5 3 5 3 5 5 5 5 5 3 5 5 5 3 5 5 3 5 3 5 3 3 5 5 3 5 5 5 5 5 5 3 5 5 5 5 5 5 5 5 3 3 5 5 5 3 5 5 5 5 3 3 5 3 5 5 5 3 5 5 5 5 5 5 5 5 5 5 5 5 5 5 5 5 3 5 5 5 5 5 5 3 5 3 5 5 5 3 3 5 5 3 5 3 5 5 5 5 5 5 5 5 5 5 5 5 3 3 5 5 5 5 5 3 5 5 5 5 5 5 5 3 5 5 5 3 5 3 5 5 3 5 5 5 5 5 5 5 5 5 3 5 5 3 5 5 5 5 5 5 5 5 5 5 5 3 5 5 5 5 5 5 5 5 5 5 5 5 5 5 5 5 5 5 5 5 5 5 3 5 5 5 5 5 5 5 5 5 5 5 3 5 5 5 5 3 5 5 5 5 5 5 5 5 5 5 5 3 5 5 5 5 5 3 5 3 5 5 5 5 5 5 5 5 5 3 5 5 3 5 5 3 5 5 5 5 3 5 5 5 5 5 5 5 5 5 5 5 5 5 5 5 5 5 5 5 5 5 3 5 5 3 5 3 5 5 5 5 5 5 5 5 5 3 5 5 3 3 3 5 5 5 3 5 5 5 5 5 5 3 3 5 3 5 5 3 5 5 3 5 5 5 5 3 5 5 5 5 3 5 5 5 5 5 5 5 5 5 5 5 3 5 5 3 5 3 3 5 5 3 3 3 5 5 5 5 5 5 5 5 5 5 3 5 5 5 5 5 5 5 5 5 3 5 5 5 5 5 3 5 5 5 5 5 5 5 5 5 5 3 5 5 5 5 5 5 5 5 5 5 5 5 5 5 5 5 5 5 5 5 5 5 5 5 3 3 5 5 5 5 5 5 5 5 3 5 5 5 5 5 5 5 5 5 5 5 5 5 5 5 5 3 5 5 5 5 3 5 5 5 3 3 5 5 5 5 5 5 3 5 3 5 5 5 3 5 5 5 5 5 5 5 5 3 5 3 3 5 5 5 5 5 5 5 5 5 5 5 5 3 5 5 3 5 3 5 5 5 5 5 5 5 5 5 5 5 5 5 5 5 5 5 5 5 5 5 5 5 3 5 5 5 5 5 3 5 5 5 5 5 5 5 5 5 5 3 5 5 5 3 5 5 5 5 5 5 5 5 5 5 5 3 3 5 5 5 5 5 3 5 5 5 3 5 5 5 5 5 5 5 5 5 5 3 5 5 5 5 5 5 5 3 3 5 3 5 5 5 5 3 5 5 5 5 5 3 5 5 5 5 5 5 5 5 5 5 3 5 5 5 5 5 5 5 5 5 5 3 5 5 5 5 5 5 5 3 5 5 5 5 5 5 5 5 5 5 5 5 5 5 5 5 5 5 5 5 3 5 5 5 3 5 5 5 5 5 5 5 5 5 5 5 5 5 3 5 3 3 5 3 3 5 5 5 5 5 3 5 5 5 5 5 5 5 3 5 5 3 5 5 3 5 5 3 5 5 3 3 3 3 5 5 3 3 5 5 3 5 5 3 5 5 5 5 3 3 3 3 5 5 5 3 5 3 5 3 5 3 3 5 5 5 5 5 5 5 3 5 5 3 5 3 5 5 3 3 5 5 5 5 5 5 5 5 5 5 5 5 5 5 5 5 5 3 5 5 5 5 5 5 5 5 5 5 5 5 5 5 5 5 5 3 5 5 5 5 5 5 5 5 5 5 5 5 5 5 3 3 5 5 5 5 3 5 3 5 5 5 3 3 5 3 5 5 5 5 5 5 5 5 5 5 5 5 5 5 5 5 5 5 5 3 5 3 5 5 5 5 3 5 5 5 5 5 5 5 5 5 5 5 5 5 5 5 5 5 5 5 5 3 5 5 5 5 5 5 5 5 5 5 5 5 5 5 3 5 5 5 5 5 5 5 5 5 5 5 5 5 5 5 5 5 5 5 5 5 5 5 5 5 5 5 5 5 5 5 5 5 5 5 5 5 5 5 5 5 5 5 5 5 5 5 5 5 5 5 5 5 5 5 5 5 5 5 5 5 5 3 5 5 5 3 5 5 3 5 5 5 5 5 5 5 5 5 5 5 3 5 5 5 5 3 5 5 5 5 5 5 5 5 5 5 5 5 5 5 5 5 5 5 5 5 5 5 5 5 5 5 5 5 5 3 5 5 5 5 3 5 5 5 5 5 5 5 5 5 5 3 5 5 3 5 5 5 5 5 5 5 5 5 5 5 5 3 5 5 5 5 5 5 5 5 3 5 5 5 5 5 5 5 5 5 5 3 5 3 5 5 5 3 5 5 5 3 5 3 5 3 3 5 5 5 5 5 3 5 5 5 5 5 5 5 5 5 5 5 5 5 5 5 5 5 5 5 5 5 5 5 3 5 5 3 5 5 5 3 5 3 5 5 5 5 5 5 5 5 5 5 5 5 3 5 5 5 5 5 5 5 5 5 5 5 5 5 5 5 5 5 5 5 3 5 5 5 5 5 5 5 5 5 5 5 5 5 5 5 5 5 5 5 5 5 5 5 5 5 5 5 3 5 5 5 5 5 5 5 5 5 5 5 5 5 5 5 5 5 5 3 5 5 5 3 5 5 5 3 3 5 5 5 5 5 3 5 5 5 5 5 5 5 3 3 5 5 5 3 5 3 5 5 5 5 5 5 3 3 5 5 3 3 5 5 5 5 5 5 5 5 5 5 3 5 5 5 5 5 5 3 5 5 5 5 5 5 5 5 5 5 5 5 5 5 5 5 5 3 5 5 5 5 3 5 5 3 5 5 5 5 5 5 5 5 5 5 5 3 5 3 5 3 5 5 5 5 5 5 5 5 5 5 5 5 5 5 5 5 5 5 5 3 5 5 3 5 5 5 3 5 5 3 5 5 5 5 3 5 5 5 5 5 5 5 3 5 5 5 5 5 5 5 5 5 5 5 5 5 5 5 5 5 5 5 5 5 5 5 5 5 5 5 5 5 3 5 5 5 5 5 5 5 5 5 5 5 5 5 5 5 5 5 5 5 5 5 5 5 5 5 5 5 5 5 5 5 5 5 5 5 5 5 3 3 3 5 5 3 5 5 5 3 5 3 5 5 5 5 5 3 5 5 5 5 5 5 5 3 5 5 5 5 5 5 5 5 5 5 5 5 5 5 3 5 5 5 3 5 3 5 5 5 5 5 5 5 5 3 5 5 5 5 5 5 5 3 5 3 5 3 5 5 5 5 5 5 5 5 3 5 5 3 3 3 5 3 5 3 5 5 5 5 5 5 5 5 5 5 5 5 5 5 5 5 5 5 5 5 5 3 5 5 3 3 5 5 5 3 5 5 5 5 5 5 5 3 5 3 5 5 5 5 3 5 5 3 5 5 5 5 5 5 5 3 5 5 3 5 5 5 3 5 5 5 5 5 5 5 5 5 3 5 5 5 5 5 5 3 5 5 3 5 5 5 5 3 5 5 5 5 5 5 3 3 3 5 5 5 3 5 3 5 3 5 5 5 5 5 5 3 5 5 5 3 5 5 5 3 5 5 5 5 5 5 5 5 5 5 5 5 3 5 5 5 3 5 5 5 5 5 3 3 5 5 3 5 3 3 3 5 5 5 3 5 5 5 5 5 3 5 5 5 5 5 5 5 5 5 5 5 5 3 5 5 5 5 5 5 3 5 5 3 5 5 3 5 5 5 5 5 3 5 5 3 5 3 5 3 5 5 5 5 5 5 3 5 5 5 5 3 5 5 5 5 5 5 5 5 5 5 3 5 5 5 5 5 3 5 5 5 5 5 5 5 5 5 5 5 5 5 5 5 3 5 5 5 5 5 3 5 3 5 5 5 5 5 3 5 5 5 5 5 3 5 5 5 5 5 3 5 5 5 5 5 5 5 5 5 5 3 5 3 5 3 5 5 3 5 5 5 5 5 5 5 5 3 5 3 5 5 5 5 5 5 5 5 5 5 3 5 5 5 5 5 5 5 5 5 5 3 5 5 5 3 5 3 3 5 5 5 3 5 5 5 3 3 5 5 5 5 5 5 5 5 5 5 3 3 5 5 5 5 5 3 5 5 5 5 5 5 5 5 5 5 3 5 3 3 3 5 5 5 5 5 5 5 5 3 5 5 5 5 5 5 5 5 5 5 5 5 5 5 5 5 5 5 5 5 5 5 5 5 5 5 5 5 5 3 5 5 5 5 3 5 5 5 5 5 5 5 5 3 5 5 5 5 5 5 5 5 3 5 5 5 5 5 5 5 5 5 5 5 5 5 5 5 5 5 5 5 5 5 5 5 5 5 5 3 5 5 5 5 5 5 3 5 3 5 5 3 5 5 5 3 5 3 5 5 5 3 5 5 5 3 5 5 5 5 5 5 3 5 5 5 5 5 5 5 5 5 5 5 5 5 5 5 5 5 5 5 5 5 5 5 5 5 5 5 3 5 3 5 5 5 5 3 5 5 5 5 5 5 5 5 5 5 5 5 5 3 5 5 3 5 5 3 5 5 5 5 5 3 5 5 5 5 5 5 5 5 3 5 3 5 5 5 5 5 3 3 5 5 3 5 5 5 3 5 5 5 5 5 5 5 3 5 5 5 5 5 5 5 5 5 5 5 5 5 5 5 5 3 5 5 5 5 5 3 5 3 5 5 5 5 5 5 5 5 5 5 5 5 3 5 3 5 5 5 5 5 5 3 3 5 5 5 5 5 5 5 5 5 5 5 5 5 5 5 5 5 5 5 5 5 3 5 5 3 5 5 5 5 5 3 5 5 5 5 5 5 3 5 5 5 5 5 5 5 5 5 5 5 5 5 5 5 5 3 5 5 3 5 5 5 5 3 5 5 5 5 5 5 5 5 5 5 5 3 5 5 5 5 5 5 5 5 5 5 5 5 5 5 5 5 5 5 5 3 5 5 5 5 5 5 5 5 5 5 5 5 3 5 5 5 5 5 5 5 5 5 5 5 5 5 3 3 5 5 5 5 5 5 3 5 5 5 5 5 5 5 5 5 5 5 5 5 5 5 5 5 5 5 5 5 5 5 5 5 5 5 5 5 5 5 5 5 5 5 3 5 5 5 5 5 5 5 5 3 5 5 5 5 5 5 5 5 5 5 5 5 3 5 5 5 5 3 5 3 5 5 5 5 5 5 5 5 3 5 5 5 5 5 5 5 5 5 5 3 5 5 5 3 5 5 3 5 5 5 5 3 5 5 3 5 5 5 5 5 5 5 5 3 5 5 5 3 5 5 5 5 5 5 5 3 5 3 5 3 5 3 3 5 5 5 3 3 3 5 5 3 5 5 5 3 5 5 5 5 3 5 5 5 5 5 5 5 5 5 5 5 5 5 5 5 5 5 5 5 5 5 5 5 5 5 5 5 5 5 5 5 5 5 5 5 5 5 5 3 5 5 5 5 5 5 5 5 3 5 5 5 5 3 5 5 3 5 5 3 5 5 5 5 3 5 5 5 5 5 3 5 5 5 5 5 5 5 5 5 5 5 5 5 3 3 5 5 5 3 5 5 5 5 5 5 5 5 5 5 5 5 5 5 3 5 5 5 5 5 5 3 5 5 3 5 5 5 5 5 5 5 5 5 5 3 5 5 5 5 5 3 5 5 5 5 5 5 5 5 5 5 3 5 5 5 5 5 5 5 5 5 5 5 5 5 5 5 3 5 5 5 5 5 5 5 5 5 5 5 5 5 5 5 5 5 5 5 5 5 5 5 3 5 3 5 5 5 3 5 5 5 5 5 5 5 5 5 3 5 5 5 3 5 5 5 5 5 5 5 5 5 5 5 5 5 5 5 5 3 5 5 5 5 5 3 5 5 5 3 5 3 5 5 5 5 5 5 3 5 5 5 5 5 5 5 5 5 5 5 5 5 5 5 5 5 5 5 5 5 5 5 5 5 5 5 3 5 5 3 5 5 5 5 5 5 5 3 5 5 5 5 3 5 5 3 5 5 5 5 5 5 3 5 5 5 3 5 5 5 3 5 5 5 5 5 3 5 5 5 5 5 3 5 5 5 5 5 5 5 5 3 5 5 3 5 5 5 5 3 5 5 5 5 3 5 5 5 5 3 5 5 5 3 5 3 5 5 5 5 5 5 5 5 5 5 3 5 5 5 5 5 5 5 3 3 5 5 5 5 5 3 5 5 5 5 5 3 5 5 5 3 5 5 3 5 5 3 5 5 5 3 5 5 5 5 5 5 3 5 5 5 5 5 3 5 5 5 5 5 3 5 5 5 5 5 5 3 5 5 5 5 3 5 5 5 5 5 3 5 5 5 5 5 5 5 5 5 5 3 5 5 5 5 5 5 5 3 5 5 5 5 3 3 5 5 3 5 5 5 5 5 5 5 3 5 5 5 5 5 5 5 3 5 3 5 5 3 5 5 5 5 3 5 3 5 5 5 5 5 5 5 5 5 5 3 5 5 5 5 5 3 5 5 5 3 5 5 5 5 3 5 5 3 5 5 5 5 5 3 5 3 5 3 3 5 5 5 5 3 3 5 5 5 5 5 5 5 5 5 5 5 5 5 3 5 5 5 5 5 5 3 3 5 5 5 5 5 5 5 5 5 5 5 5 5 3 5 5 5 5 5 5 5 5 5 5 5 5 5 5 5 5 5 5 5 5 5 5 5 5 5 5 5 5 5 5 5 5 5 3 5 5 3 5 5 5 5 5 5 5 3 5 5 5 3 5 5 3 5 5 5 3 3 5 5 5 5 3 3 5 5 5 5 5 5 5 5 5 5 5 5 5 5 3 5 5 3 5 5 5 3 5 5 5 5 3 5 5 3 5 5 5 5 5 5 5 5 5 5 5 3 5 5 5 5 5 5 5 3 5 5 5 5 5 5 5 5 5 5 5 5 5 5 5 5 5 5 3 5 5 5 5 5 5 3 5 3 5 5 5 5 5 3 5 5 3 5 5 5 3 5 5 5 3 5 5 5 5 5 5 5 5 5 5 5 5 5 5 3 5 5 5 5 3 3 5 5 5 5 5 5 5 5 5 5 5 5 5 5 5 5 5 5 5 3 5 5 5 5 5 5 5 5 3 5 3 5 5 5 5 5 5 5 3 5 3 5 5 5 5 5 3 5 5 5 5 5 5 3 5 5 5 5 5 3 3 5 5 5 3 3 3 5 5 5 5 5 3 5 5 5 5 5 3 5 5 5 5 3 5 3 3 5 3 3 5 5 5 3 5 5 5 3 5 5 5 3 5 5 5 3 5 5 5 5 5 5 5 5 3 5 5 5 3 5 5 5 5 5 5 3 5 5 5 5 5 5 3 5 5 5 5 5 5 5 5 5 5 5 5 5 5 3 5 3 5 5 5 3 5 5 3 5 3 5 3 5 5 3 5 5 5 5 5 5 3 5 5 5 5 3 5 5 5 5 5 5 3 5 5 5 5 5 5 5 5 5 5 3 5 5 5 5 5 5 5 5 5 5 5 5 5 5 5 5 5 5 5 3 3 5 5 5 3 5 5 3 5 5 3 5 5 3 5 5 3 3 5 5 5 5 3 5 5 5 5 5 5 5 5 5 5 5 3 3 5 5 5 3 5 3 5 3 5 5 5 5 5 3 5 5 3 5 3 5 5 3 3 3 5 5 5 5 3 5 5 3 5 3 5 5 3 5 5 5 5 5 5 5 5 3 5 3 3 5 5 5 5 5 3 3 5 5 5 3 3 5 5 5 5 5 5 5 5 3 5 3 5 5 5 5 5 5 5 5 5 5 5 5 5 5 5 5 5 5 5 5 5 5 5 5 5 5 5 5 5 3 5 5 5 5 5 5 5 5 5 5 5 5 5 5 5 3 5 5 3 5 5 5 5 5 3 5 5 5 5 5 5 5 5 5 5 5 5 5 3 5 5 5 5 5 5 5 5 5 3 5 5 3 5 5 5 5 3 3 3 5 5 5 5 5 3 5 5 5 
</DataArray>
</Cells>
<PointData Scalars="" Vectors="displacement," Tensors="">
<DataArray type="Float64" Name="displacement" NumberOfComponents="3" format="ascii">
-0.054999670283763298 1.5186461045070894e-07 0 -0.054998911089940899 -3.0679781356201327e-07 0 -0.053353566897134677 5.1558951566137426e-08 0 -0.054998911089940899 -3.0679781356201327e-07 0 -0.053353566897134677 5.1558951566137426e-08 0 -0.050886923609620431 4.6078556020789749e-07 0 -0.054995134116304044 -7.9439380064742574e-07 0 -0.052974890508170544 -7.3618888166936114e-05 0 -0.054996867787523607 -9.615139225242428e-07 0 -0.053644671011424387 -0.00039504941983916085 0 -0.0528364486158268 -0.00046743844392077279 0 -0.054996867787523607 -9.615139225242428e-07 0 -0.053644671011424387 -0.00039504941983916085 0 -0.054999186704508159 -7.0179688557756178e-08 0 -0.053644671011424387 -0.00039504941983916085 0 -0.052246862400001939 -0.00033297209539687184 0 -0.052696319558224562 -0.00045491889098223001 0 -0.053644671011424387 -0.00039504941983916085 0 -0.0528364486158268 -0.00046743844392077279 0 -0.052246862400001939 -0.00033297209539687184 0 -0.052974890508170544 -7.3618888166936114e-05 0 -0.050889430663125949 5.2400118398190001e-07 0 -0.0528364486158268 -0.00046743844392077279 0 -0.050883691616347995 -1.7572315602964707e-06 0 -0.052246862400001939 -0.00033297209539687184 0 -0.050883691616347995 -1.7572315602964707e-06 0 -0.052246862400001939 -0.00033297209539687184 0 -0.05089747386677497 -0.00029594073946238224 0 -0.052246862400001939 -0.00033297209539687184 0 -0.05089747386677497 -0.00029594073946238224 0 -0.052696319558224562 -0.00045491889098223001 0 -0.051424762387549103 -0.00025078330122791547 0 -0.05089747386677497 -0.00029594073946238224 0 -0.052696319558224562 -0.00045491889098223001 0 -0.051424762387549103 -0.00025078330122791547 0 -0.05089747386677497 -0.00029594073946238224 0 -0.049863761832227967 -0.00010199704918564741 0 -0.05089747386677497 -0.00029594073946238224 0 -0.047605315771694974 -3.6919745148780661e-07 0 -0.049863761832227967 -0.00010199704918564741 0 -0.050883691616347995 -1.7572315602964707e-06 0 -0.05089747386677497 -0.00029594073946238224 0 -0.047605315771694974 -3.6919745148780661e-07 0 -0.05232118935577762 -0.00022034277718680287 0 -0.053079119400595662 3.6112255761325112e-05 0 -0.052266489945110579 0.00020910880620631959 0 -0.051424762387549103 -0.00025078330122791547 0 -0.05232118935577762 -0.00022034277718680287 0 -0.052696319558224562 -0.00045491889098223001 0 -0.051424762387549103 -0.00025078330122791547 0 -0.05232118935577762 -0.00022034277718680287 0 -0.051327747766699801 0.00016130829068403295 0 -0.05232118935577762 -0.00022034277718680287 0 -0.052696319558224562 -0.00045491889098223001 0 -0.053394831682865296 -0.00053500935634631002 0 -0.05232118935577762 -0.00022034277718680287 0 -0.053394831682865296 -0.00053500935634631002 0 -0.053079119400595662 3.6112255761325112e-05 0 -0.054355772380103681 -0.00020401292015275198 0 -0.054093877086166024 -5.7518421644209172e-05 0 -0.052696319558224562 -0.00045491889098223001 0 -0.053394831682865296 -0.00053500935634631002 0 -0.053971829719204757 -0.00033240207247396149 0 -0.053644671011424387 -0.00039504941983916085 0 -0.052696319558224562 -0.00045491889098223001 0 -0.053971829719204757 -0.00033240207247396149 0 -0.053644671011424387 -0.00039504941983916085 0 -0.053971829719204757 -0.00033240207247396149 0 -0.054999186704508159 -7.0179688557756178e-08 0 -0.053971829719204757 -0.00033240207247396149 0 -0.054999186704508159 -7.0179688557756178e-08 0 -0.054997676028556944 -4.5893328199459401e-07 0 -0.054355772380103681 -0.00020401292015275198 0 -0.05499880862196007 -3.7640408097961164e-07 0 -0.054375593331434428 -0.00013143021313299948 0 -0.054999606600691496 -5.6078613157316757e-08 0 -0.05473939212909118 -7.1294464379045267e-05 0 -0.053394831682865296 -0.00053500935634631002 0 -0.053971829719204757 -0.00033240207247396149 0 -0.054997676028556944 -4.5893328199459401e-07 0 -0.054999606600691496 -5.6078613157316757e-08 0 -0.05473939212909118 -7.1294464379045267e-05 0 -0.054999499345376998 -1.3831088794625631e-07 0 -0.05473939212909118 -7.1294464379045267e-05 0 -0.054999499345376998 -1.3831088794625631e-07 0 -0.054580509335670789 -0.00012127699350409228 0 -0.054999499345376998 -1.3831088794625631e-07 0 -0.054580509335670789 -0.00012127699350409228 0 -0.054866250293283646 -8.1608350288744525e-05 0 -0.054375593331434428 -0.00013143021313299948 0 -0.05473939212909118 -7.1294464379045267e-05 0 -0.054580509335670789 -0.00012127699350409228 0 -0.054999526440935476 -1.0925999166974378e-07 0 -0.054871464410676439 -9.3171412665541759e-05 0 -0.05478651417793981 -7.2031692787536609e-05 0 -0.053781693011732697 0.0002904450549503203 0 -0.054007184485653427 0.00014660961952752126 0 -0.054999526440935476 -1.0925999166974378e-07 0 -0.054866250293283646 -8.1608350288744525e-05 0 -0.054871464410676439 -9.3171412665541759e-05 0 -0.054999499345376998 -1.3831088794625631e-07 0 -0.054999526440935476 -1.0925999166974378e-07 0 -0.054866250293283646 -8.1608350288744525e-05 0 -0.054580509335670789 -0.00012127699350409228 0 -0.054866250293283646 -8.1608350288744525e-05 0 -0.054871464410676439 -9.3171412665541759e-05 0 -0.054580509335670789 -0.00012127699350409228 0 -0.054871464410676439 -9.3171412665541759e-05 0 -0.054449401782992339 2.2816334612919266e-06 0 -0.052960868412454377 0.00023898264711505539 0 -0.054191790074356233 0.00017329108970796074 0 -0.053648004244613995 0.00062036500723587791 0 -0.052960868412454377 0.00023898264711505539 0 -0.05478651417793981 -7.2031692787536609e-05 0 -0.054191790074356233 0.00017329108970796074 0 -0.052771174644941465 0.0012373172243428608 0 -0.053648004244613995 0.00062036500723587791 0 -0.053420007106321624 0.0011798169187449657 0 -0.052960868412454377 0.00023898264711505539 0 -0.052771174644941465 0.0012373172243428608 0 -0.053648004244613995 0.00062036500723587791 0 -0.053781693011732697 0.0002904450549503203 0 -0.05337158085111627 0.00063122944382508483 0 -0.052960868412454377 0.00023898264711505539 0 -0.052771174644941465 0.0012373172243428608 0 -0.051904443086422593 0.0011429934258691877 0 -0.052081840085136215 0.0016831539143320805 0 -0.051624829264124407 0.0016062652308605754 0 -0.052091495195957932 0.0021508408458336655 0 -0.052771174644941465 0.0012373172243428608 0 -0.052081840085136215 0.0016831539143320805 0 -0.052320519210935647 0.0019608636210196439 0 -0.052771174644941465 0.0012373172243428608 0 -0.052081840085136215 0.0016831539143320805 0 -0.051904443086422593 0.0011429934258691877 0 -0.052771174644941465 0.0012373172243428608 0 -0.052726286475876842 0.0019351020771882707 0 -0.052320519210935647 0.0019608636210196439 0 -0.052771174644941465 0.0012373172243428608 0 -0.052726286475876842 0.0019351020771882707 0 -0.053420007106321624 0.0011798169187449657 0 -0.054375593331434428 -0.00013143021313299948 0 -0.053955798535119698 -8.4837814087023299e-05 0 -0.053079119400595662 3.6112255761325112e-05 0 -0.054375593331434428 -0.00013143021313299948 0 -0.054580509335670789 -0.00012127699350409228 0 -0.053955798535119698 -8.4837814087023299e-05 0 -0.053955798535119698 -8.4837814087023299e-05 0 -0.054449401782992339 2.2816334612919266e-06 0 -0.054007708702621574 0.00013315975775507835 0 -0.054580509335670789 -0.00012127699350409228 0 -0.053955798535119698 -8.4837814087023299e-05 0 -0.054449401782992339 2.2816334612919266e-06 0 -0.052081840085136215 0.0016831539143320805 0 -0.051904443086422593 0.0011429934258691877 0 -0.051624829264124407 0.0016062652308605754 0 -0.05337158085111627 0.00063122944382508483 0 -0.053159303943934921 0.00085756960108342173 0 -0.053159303943934921 0.00085756960108342173 0 -0.053269507785574759 0.00071458011960300028 0 -0.053955798535119698 -8.4837814087023299e-05 0 -0.05327298817310494 0.00025734597971288392 0 -0.053079119400595662 3.6112255761325112e-05 0 -0.053955798535119698 -8.4837814087023299e-05 0 -0.054007708702621574 0.00013315975775507835 0 -0.05327298817310494 0.00025734597971288392 0 -0.05327298817310494 0.00025734597971288392 0 -0.053079119400595662 3.6112255761325112e-05 0 -0.052820195361777983 0.00034331446360040318 0 -0.052820195361777983 0.00034331446360040318 0 -0.053011486418086805 0.00049619620518000739 0 -0.052388044154318122 0.00063271659854766192 0 -0.05327298817310494 0.00025734597971288392 0 -0.052820195361777983 0.00034331446360040318 0 -0.053011486418086805 0.00049619620518000739 0 -0.051624829264124407 0.0016062652308605754 0 -0.051953400297192552 0.0023959403904598928 0 -0.052091495195957932 0.0021508408458336655 0 -0.053421682207086332 8.5891089029697305e-05 0 -0.05327298817310494 0.00025734597971288392 0 -0.053011486418086805 0.00049619620518000739 0 -0.053421682207086332 8.5891089029697305e-05 0 -0.053011486418086805 0.00049619620518000739 0 -0.053043138824245058 0.00072370065755925496 0 -0.053159303943934921 0.00085756960108342173 0 -0.052733324371709599 0.0012355936220412415 0 -0.053011486418086805 0.00049619620518000739 0 -0.053043138824245058 0.00072370065755925496 0 -0.052671381641118002 0.00082013732190715748 0 -0.053043138824245058 0.00072370065755925496 0 -0.052671381641118002 0.00082013732190715748 0 -0.052392157448261298 0.0012233692865685241 0 -0.052671381641118002 0.00082013732190715748 0 -0.052392157448261298 0.0012233692865685241 0 -0.052388044154318122 0.00063271659854766192 0 -0.053011486418086805 0.00049619620518000739 0 -0.052671381641118002 0.00082013732190715748 0 -0.052388044154318122 0.00063271659854766192 0 -0.052726286475876842 0.0019351020771882707 0 -0.052222115079770176 0.0022576068783136797 0 -0.052141430817358385 0.0025248277349431783 0 -0.052726286475876842 0.0019351020771882707 0 -0.052222115079770176 0.0022576068783136797 0 -0.052320519210935647 0.0019608636210196439 0 -0.052222115079770176 0.0022576068783136797 0 -0.052320519210935647 0.0019608636210196439 0 -0.052091495195957932 0.0021508408458336655 0 -0.052081840085136215 0.0016831539143320805 0 -0.052320519210935647 0.0019608636210196439 0 -0.052091495195957932 0.0021508408458336655 0 -0.051953400297192552 0.0023959403904598928 0 -0.051990160754720502 0.00245013423993032 0 -0.05195792382418514 0.0022040602178219864 0 -0.052222115079770176 0.0022576068783136797 0 -0.052091495195957932 0.0021508408458336655 0 -0.051990160754720502 0.00245013423993032 0 -0.051953400297192552 0.0023959403904598928 0 -0.052091495195957932 0.0021508408458336655 0 -0.051990160754720502 0.00245013423993032 0 -0.052222115079770176 0.0022576068783136797 0 -0.051990160754720502 0.00245013423993032 0 -0.052141430817358385 0.0025248277349431783 0 -0.051990160754720502 0.00245013423993032 0 -0.052141430817358385 0.0025248277349431783 0 -0.051751561555178363 0.0025319841368524614 0 -0.051571132074570897 0.0022258405789103322 0 -0.051751561555178363 0.0025319841368524614 0 -0.051243364817403894 0.0023641830168564396 0 -0.051990160754720502 0.00245013423993032 0 -0.051571132074570897 0.0022258405789103322 0 -0.051751561555178363 0.0025319841368524614 0 -0.051990160754720502 0.00245013423993032 0 -0.051571132074570897 0.0022258405789103322 0 -0.05195792382418514 0.0022040602178219864 0 -0.05195792382418514 0.0022040602178219864 0 -0.052213837693236988 0.0019775149235954628 0 -0.051852465060784711 0.0015167841570534438 0 -0.05195792382418514 0.0022040602178219864 0 -0.051219386196850646 0.0014455606413394978 0 -0.051852465060784711 0.0015167841570534438 0 -0.051571132074570897 0.0022258405789103322 0 -0.05195792382418514 0.0022040602178219864 0 -0.051219386196850646 0.0014455606413394978 0 -0.051571132074570897 0.0022258405789103322 0 -0.051219386196850646 0.0014455606413394978 0 -0.050904265578466515 0.0018481971967316082 0 -0.053043138824245058 0.00072370065755925496 0 -0.052392157448261298 0.0012233692865685241 0 -0.052526291976769314 0.0014924482807777456 0 -0.051953400297192552 0.0023959403904598928 0 -0.05195792382418514 0.0022040602178219864 0 -0.052213837693236988 0.0019775149235954628 0 -0.052733324371709599 0.0012355936220412415 0 -0.052518582685607801 0.0013969576779063295 0 -0.052526291976769314 0.0014924482807777456 0 -0.052272754516521663 0.0015379947763364276 0 -0.052238111814173212 0.0014136504548114338 0 -0.052272754516521663 0.0015379947763364276 0 -0.051786657164569143 0.0016524063191212179 0 -0.052085559098703438 0.0016548875431684703 0 -0.052392157448261298 0.0012233692865685241 0 -0.052272754516521663 0.0015379947763364276 0 -0.051786657164569143 0.0016524063191212179 0 -0.052392157448261298 0.0012233692865685241 0 -0.052526291976769314 0.0014924482807777456 0 -0.052272754516521663 0.0015379947763364276 0 -0.051786657164569143 0.0016524063191212179 0 -0.051625493659985908 0.0011150603374686027 0 -0.050793089315683319 0.0016914163113495786 0 -0.052392157448261298 0.0012233692865685241 0 -0.051786657164569143 0.0016524063191212179 0 -0.051625493659985908 0.0011150603374686027 0 -0.051625493659985908 0.0011150603374686027 0 -0.050793089315683319 0.0016914163113495786 0 -0.050298649104821819 0.0012479786669375352 0 -0.051786657164569143 0.0016524063191212179 0 -0.050793089315683319 0.0016914163113495786 0 -0.051043522050541267 0.0020433374075940029 0 -0.050793089315683319 0.0016914163113495786 0 -0.049960135559027015 0.0021131788198495982 0 -0.051043522050541267 0.0020433374075940029 0 -0.049960135559027015 0.0021131788198495982 0 -0.048796172734452053 0.0018816287044907765 0 -0.04976958530557999 0.0016871812798774633 0 -0.050793089315683319 0.0016914163113495786 0 -0.049960135559027015 0.0021131788198495982 0 -0.04976958530557999 0.0016871812798774633 0 -0.043049049664600318 -0.00016286839292686987 0 -0.041193798807756477 0.00086447084810658723 0 -0.043190012179218681 1.8441988325720209e-05 0 -0.044322392584856971 1.538516824358746e-06 0 -0.041040579355970455 -3.5114632654867722e-07 0 -0.043190012179218681 1.8441988325720209e-05 0 -0.04120564327606939 7.5591199292659769e-05 0 -0.041040579355970455 -3.5114632654867722e-07 0 -0.049960135559027015 0.0021131788198495982 0 -0.048796172734452053 0.0018816287044907765 0 -0.049154159874557096 0.0025554970104182551 0 -0.043049049664600318 -0.00016286839292686987 0 -0.043684787036411661 -0.00071951720158274781 0 -0.048796172734452053 0.0018816287044907765 0 -0.04976958530557999 0.0016871812798774633 0 -0.049083155880529611 0.0012490644472345552 0 -0.043190012179218681 1.8441988325720209e-05 0 -0.044322392584856971 1.538516824358746e-06 0 -0.04706843877985567 0.00027152545010046775 0 -0.048796172734452053 0.0018816287044907765 0 -0.049083155880529611 0.0012490644472345552 0 -0.04706843877985567 0.00027152545010046775 0 -0.050793089315683319 0.0016914163113495786 0 -0.04976958530557999 0.0016871812798774633 0 -0.050298649104821819 0.0012479786669375352 0 -0.04976958530557999 0.0016871812798774633 0 -0.049083155880529611 0.0012490644472345552 0 -0.050298649104821819 0.0012479786669375352 0 -0.050298649104821819 0.0012479786669375352 0 -0.049880607808338119 0.00041963061597182887 0 -0.051053682525715093 0.00069019072034813317 0 -0.049083155880529611 0.0012490644472345552 0 -0.049880607808338119 0.00041963061597182887 0 -0.04706843877985567 0.00027152545010046775 0 -0.049083155880529611 0.0012490644472345552 0 -0.050298649104821819 0.0012479786669375352 0 -0.049880607808338119 0.00041963061597182887 0 -0.049880607808338119 0.00041963061597182887 0 -0.04706843877985567 0.00027152545010046775 0 -0.048526560380897713 0.00010444039098153378 0 -0.044322392584856971 1.538516824358746e-06 0 -0.04706843877985567 0.00027152545010046775 0 -0.047605315771694974 -3.6919745148780661e-07 0 -0.04706843877985567 0.00027152545010046775 0 -0.048526560380897713 0.00010444039098153378 0 -0.047605315771694974 -3.6919745148780661e-07 0 -0.048526560380897713 0.00010444039098153378 0 -0.047605315771694974 -3.6919745148780661e-07 0 -0.049863761832227967 -0.00010199704918564741 0 -0.051424762387549103 -0.00025078330122791547 0 -0.049863761832227967 -0.00010199704918564741 0 -0.051327747766699801 0.00016130829068403295 0 -0.049880607808338119 0.00041963061597182887 0 -0.049863761832227967 -0.00010199704918564741 0 -0.051327747766699801 0.00016130829068403295 0 -0.049880607808338119 0.00041963061597182887 0 -0.048526560380897713 0.00010444039098153378 0 -0.049863761832227967 -0.00010199704918564741 0 -0.05232118935577762 -0.00022034277718680287 0 -0.051327747766699801 0.00016130829068403295 0 -0.052266489945110579 0.00020910880620631959 0 -0.051327747766699801 0.00016130829068403295 0 -0.051786071493179008 0.00055344524497114641 0 -0.051053682525715093 0.00069019072034813317 0 -0.051327747766699801 0.00016130829068403295 0 -0.052266489945110579 0.00020910880620631959 0 -0.051786071493179008 0.00055344524497114641 0 -0.053079119400595662 3.6112255761325112e-05 0 -0.052820195361777983 0.00034331446360040318 0 -0.052266489945110579 0.00020910880620631959 0 -0.052820195361777983 0.00034331446360040318 0 -0.052266489945110579 0.00020910880620631959 0 -0.052388044154318122 0.00063271659854766192 0 -0.052266489945110579 0.00020910880620631959 0 -0.051786071493179008 0.00055344524497114641 0 -0.052388044154318122 0.00063271659854766192 0 -0.052392157448261298 0.0012233692865685241 0 -0.051625493659985908 0.0011150603374686027 0 -0.052388044154318122 0.00063271659854766192 0 -0.051625493659985908 0.0011150603374686027 0 -0.051786071493179008 0.00055344524497114641 0 -0.052388044154318122 0.00063271659854766192 0 -0.051625493659985908 0.0011150603374686027 0 -0.051786071493179008 0.00055344524497114641 0 -0.051053682525715093 0.00069019072034813317 0 -0.051625493659985908 0.0011150603374686027 0 -0.050298649104821819 0.0012479786669375352 0 -0.051053682525715093 0.00069019072034813317 0 -0.049880607808338119 0.00041963061597182887 0 -0.051327747766699801 0.00016130829068403295 0 -0.051053682525715093 0.00069019072034813317 0 -0.054826159017783482 -5.0170533206537086e-05 0 -0.054836504739497839 -1.0714850331109751e-05 0 -0.054822528253561341 -3.7465492116976172e-05 0 -0.054826159017783482 -5.0170533206537086e-05 0 -0.054865769536854757 1.525366844152504e-05 0 -0.054836504739497839 -1.0714850331109751e-05 0 -0.054826159017783482 -5.0170533206537086e-05 0 -0.054822528253561341 -3.7465492116976172e-05 0 -0.05478528953940421 -8.9191292050941245e-05 0 -0.054826159017783482 -5.0170533206537086e-05 0 -0.054865769536854757 1.525366844152504e-05 0 -0.054909548847487943 1.7304012502394504e-05 0 -0.054865769536854757 1.525366844152504e-05 0 -0.054909548847487943 1.7304012502394504e-05 0 -0.054916149885448066 9.2324698814112471e-05 0 -0.054909548847487943 1.7304012502394504e-05 0 -0.054888167364984732 3.4078539155234877e-05 0 -0.054790740116210941 -7.0869871952505074e-05 0 -0.054826159017783482 -5.0170533206537086e-05 0 -0.054909548847487943 1.7304012502394504e-05 0 -0.054790740116210941 -7.0869871952505074e-05 0 -0.054826159017783482 -5.0170533206537086e-05 0 -0.054790740116210941 -7.0869871952505074e-05 0 -0.05478528953940421 -8.9191292050941245e-05 0 -0.054888167364984732 3.4078539155234877e-05 0 -0.054999998499322404 -2.2045988830481424e-08 0 -0.054999455012420581 3.251063484134854e-07 0 -0.054888167364984732 3.4078539155234877e-05 0 -0.054999998499322404 -2.2045988830481424e-08 0 -0.054970439531933327 4.096423005482464e-05 0 -0.054909548847487943 1.7304012502394504e-05 0 -0.054888167364984732 3.4078539155234877e-05 0 -0.054970439531933327 4.096423005482464e-05 0 -0.054909548847487943 1.7304012502394504e-05 0 -0.054970439531933327 4.096423005482464e-05 0 -0.054961185640929104 9.5104794126458416e-05 0 -0.054970439531933327 4.096423005482464e-05 0 -0.054999953021571166 6.1098569651524331e-08 0 -0.054961185640929104 9.5104794126458416e-05 0 -0.054999998499322404 -2.2045988830481424e-08 0 -0.054970439531933327 4.096423005482464e-05 0 -0.054999953021571166 6.1098569651524331e-08 0 -0.054999953021571166 6.1098569651524331e-08 0 -0.054961185640929104 9.5104794126458416e-05 0 -0.054955341198101165 0.00013221829335157375 0 -0.054961185640929104 9.5104794126458416e-05 0 -0.054916149885448066 9.2324698814112471e-05 0 -0.054895247789483383 0.00027309863120733894 0 -0.054909548847487943 1.7304012502394504e-05 0 -0.054961185640929104 9.5104794126458416e-05 0 -0.054916149885448066 9.2324698814112471e-05 0 -0.054865769536854757 1.525366844152504e-05 0 -0.054916149885448066 9.2324698814112471e-05 0 -0.054894239019942247 4.396255464826337e-05 0 -0.054916149885448066 9.2324698814112471e-05 0 -0.054895247789483383 0.00027309863120733894 0 -0.054917964223998729 7.5184878894900438e-05 0 -0.053331153275448788 0.0015394209847617933 0 -0.052855201072416112 0.0018557837049970774 0 -0.054895247789483383 0.00027309863120733894 0 -0.054764662806567041 0.00041300304186825745 0 -0.05482682318256886 0.00033857921052520641 0 -0.053401362807838533 0.00084496207504248936 0 -0.053000074063528767 0.0011018727849725488 0 -0.054895247789483383 0.00027309863120733894 0 -0.054764662806567041 0.00041300304186825745 0 -0.054955341198101165 0.00013221829335157375 0 -0.054961185640929104 9.5104794126458416e-05 0 -0.054895247789483383 0.00027309863120733894 0 -0.054955341198101165 0.00013221829335157375 0 -0.054999953021571166 6.1098569651524331e-08 0 -0.054955341198101165 0.00013221829335157375 0 -0.055000035203660827 7.1300974308188778e-08 0 -0.054955341198101165 0.00013221829335157375 0 -0.055000035203660827 7.1300974308188778e-08 0 -0.054856442449621623 5.6204978002377636e-05 0 -0.055000035203660827 7.1300974308188778e-08 0 -0.054999024895297156 -1.3276408991597787e-07 0 -0.054856442449621623 5.6204978002377636e-05 0 -0.054764662806567041 0.00041300304186825745 0 -0.054955341198101165 0.00013221829335157375 0 -0.054856442449621623 5.6204978002377636e-05 0 -0.054764662806567041 0.00041300304186825745 0 -0.05445728299800142 0.00023302018361368452 0 -0.054856442449621623 5.6204978002377636e-05 0 -0.05445728299800142 0.00023302018361368452 0 -0.054856442449621623 5.6204978002377636e-05 0 -0.054677452167804563 3.7888041987427397e-05 0 -0.054999024895297156 -1.3276408991597787e-07 0 -0.054856442449621623 5.6204978002377636e-05 0 -0.054677452167804563 3.7888041987427397e-05 0 -0.054999024895297156 -1.3276408991597787e-07 0 -0.05478651417793981 -7.2031692787536609e-05 0 -0.054677452167804563 3.7888041987427397e-05 0 -0.054999526440935476 -1.0925999166974378e-07 0 -0.054999024895297156 -1.3276408991597787e-07 0 -0.05478651417793981 -7.2031692787536609e-05 0 -0.05478651417793981 -7.2031692787536609e-05 0 -0.054677452167804563 3.7888041987427397e-05 0 -0.054191790074356233 0.00017329108970796074 0 -0.05445728299800142 0.00023302018361368452 0 -0.054191790074356233 0.00017329108970796074 0 -0.053648004244613995 0.00062036500723587791 0 -0.05445728299800142 0.00023302018361368452 0 -0.054677452167804563 3.7888041987427397e-05 0 -0.054191790074356233 0.00017329108970796074 0 -0.053648004244613995 0.00062036500723587791 0 -0.054060630554446862 0.00071953357066117127 0 -0.053420007106321624 0.0011798169187449657 0 -0.05445728299800142 0.00023302018361368452 0 -0.053648004244613995 0.00062036500723587791 0 -0.054060630554446862 0.00071953357066117127 0 -0.054764662806567041 0.00041300304186825745 0 -0.05445728299800142 0.00023302018361368452 0 -0.054060630554446862 0.00071953357066117127 0 -0.054764662806567041 0.00041300304186825745 0 -0.054060630554446862 0.00071953357066117127 0 -0.053767701166776462 0.0015030561667522533 0 -0.054764662806567041 0.00041300304186825745 0 -0.053767701166776462 0.0015030561667522533 0 -0.054707692035589998 0.0017800236417842249 0 -0.052726286475876842 0.0019351020771882707 0 -0.053767701166776462 0.0015030561667522533 0 -0.053420007106321624 0.0011798169187449657 0 -0.054060630554446862 0.00071953357066117127 0 -0.053767701166776462 0.0015030561667522533 0 -0.053420007106321624 0.0011798169187449657 0 -0.052726286475876842 0.0019351020771882707 0 -0.052141430817358385 0.0025248277349431783 0 -0.052805401469727911 0.0024448723260003732 0 -0.052726286475876842 0.0019351020771882707 0 -0.053767701166776462 0.0015030561667522533 0 -0.052805401469727911 0.0024448723260003732 0 -0.053767701166776462 0.0015030561667522533 0 -0.052805401469727911 0.0024448723260003732 0 -0.053986389557557947 0.0026222733224052397 0 -0.053767701166776462 0.0015030561667522533 0 -0.053986389557557947 0.0026222733224052397 0 -0.054707692035589998 0.0017800236417842249 0 -0.052805401469727911 0.0024448723260003732 0 -0.053986389557557947 0.0026222733224052397 0 -0.053272625980156946 0.0036121410367133096 0 -0.051606623763304056 0.00097128601552139073 0 -0.051418825889003886 0.00083984022357651061 0 -0.053986389557557947 0.0026222733224052397 0 -0.053272625980156946 0.0036121410367133096 0 -0.054910519875579718 0.0034047442792278474 0 -0.052805401469727911 0.0024448723260003732 0 -0.052033730017902777 0.0027856594409634734 0 -0.051664989809113139 0.0027883508262770695 0 -0.051606623763304056 0.00097128601552139073 0 -0.051585707354491916 0.0010167156740672079 0 -0.052141430817358385 0.0025248277349431783 0 -0.052805401469727911 0.0024448723260003732 0 -0.051664989809113139 0.0027883508262770695 0 -0.051829055813290774 0.0014647507192869392 0 -0.051606623763304056 0.00097128601552139073 0 -0.052141430817358385 0.0025248277349431783 0 -0.051751561555178363 0.0025319841368524614 0 -0.051664989809113139 0.0027883508262770695 0 -0.051751561555178363 0.0025319841368524614 0 -0.051664989809113139 0.0027883508262770695 0 -0.051243364817403894 0.0023641830168564396 0 -0.050716828637121972 0.0029960546795840381 0 -0.051042144518466774 0.0025344769632878184 0 -0.050426277921326361 0.0020725481446800362 0 -0.051664989809113139 0.0027883508262770695 0 -0.051042144518466774 0.0025344769632878184 0 -0.051243364817403894 0.0023641830168564396 0 -0.050716828637121972 0.0029960546795840381 0 -0.051664989809113139 0.0027883508262770695 0 -0.051042144518466774 0.0025344769632878184 0 -0.050426277921326361 0.0020725481446800362 0 -0.051243364817403894 0.0023641830168564396 0 -0.050904265578466515 0.0018481971967316082 0 -0.051042144518466774 0.0025344769632878184 0 -0.050426277921326361 0.0020725481446800362 0 -0.051243364817403894 0.0023641830168564396 0 -0.051571132074570897 0.0022258405789103322 0 -0.051243364817403894 0.0023641830168564396 0 -0.050904265578466515 0.0018481971967316082 0 -0.050426277921326361 0.0020725481446800362 0 -0.050904265578466515 0.0018481971967316082 0 -0.050241359338526095 0.0012741810929793105 0 -0.051219386196850646 0.0014455606413394978 0 -0.050904265578466515 0.0018481971967316082 0 -0.050241359338526095 0.0012741810929793105 0 -0.050426277921326361 0.0020725481446800362 0 -0.050241359338526095 0.0012741810929793105 0 -0.049064632868957334 0.0014604298577054449 0 -0.050716828637121972 0.0029960546795840381 0 -0.050426277921326361 0.0020725481446800362 0 -0.049064632868957334 0.0014604298577054449 0 -0.048450136134303032 -0.0027346327131748697 0 -0.048583952013672861 -0.0022497930176752523 0 -0.048711761320838258 -0.0025294434428925353 0 -0.048450136134303032 -0.0027346327131748697 0 -0.048711761320838258 -0.0025294434428925353 0 -0.04887558829073687 -0.0027729928446468357 0 -0.051606623763304056 0.00097128601552139073 0 -0.049822917934122364 -0.00053239249064530381 0 -0.048711761320838258 -0.0025294434428925353 0 -0.048945518579172426 -0.0023465317703245453 0 -0.04887558829073687 -0.0027729928446468357 0 -0.050412266601219259 -0.0003672276343791798 0 -0.051418825889003886 0.00083984022357651061 0 -0.048583952013672861 -0.0022497930176752523 0 -0.048711761320838258 -0.0025294434428925353 0 -0.048945518579172426 -0.0023465317703245453 0 -0.048583952013672861 -0.0022497930176752523 0 -0.048945518579172426 -0.0023465317703245453 0 -0.048831712244885153 -0.0020068087049753482 0 -0.049974418422693755 0.00079733179586928104 0 -0.049930801115089858 0.00076602180923244253 0 -0.049923212518545063 0.00082573302055311242 0 -0.049930801115089858 0.00076602180923244253 0 -0.049923212518545063 0.00082573302055311242 0 -0.049899922087423366 0.00077168210011987343 0 -0.049974418422693755 0.00079733179586928104 0 -0.049923212518545063 0.00082573302055311242 0 -0.049990073362749236 0.00087832279524056606 0 -0.049923212518545063 0.00082573302055311242 0 -0.049990073362749236 0.00087832279524056606 0 -0.04991424379247434 0.0008867438353887707 0 -0.054830164931805495 0.00042025646370629822 0 -0.054873973929298624 0.00036909565032768998 0 -0.054899353694429005 0.00041117137871615332 0 -0.051418825889003886 0.00083984022357651061 0 -0.051903506941211729 0.0015679391943834485 0 -0.053986389557557947 0.0026222733224052397 0 -0.054910519875579718 0.0034047442792278474 0 -0.054707692035589998 0.0017800236417842249 0 -0.051418825889003886 0.00083984022357651061 0 -0.053000074063528767 0.0011018727849725488 0 -0.054830164931805495 0.00042025646370629822 0 -0.05482682318256886 0.00033857921052520641 0 -0.054873973929298624 0.00036909565032768998 0 -0.054873973929298624 0.00036909565032768998 0 -0.054922216537896251 0.00035343976098907524 0 -0.054899353694429005 0.00041117137871615332 0 -0.054895247789483383 0.00027309863120733894 0 -0.05482682318256886 0.00033857921052520641 0 -0.054873973929298624 0.00036909565032768998 0 -0.054895247789483383 0.00027309863120733894 0 -0.054873973929298624 0.00036909565032768998 0 -0.054922216537896251 0.00035343976098907524 0 -0.054916149885448066 9.2324698814112471e-05 0 -0.054917964223998729 7.5184878894900438e-05 0 -0.054894239019942247 4.396255464826337e-05 0 -0.054917964223998729 7.5184878894900438e-05 0 -0.054894239019942247 4.396255464826337e-05 0 -0.054876594206623164 2.7579788158423557e-06 0 -0.052855201072416112 0.0018557837049970774 0 -0.051000506289288879 0.0028264155517253894 0 -0.054865769536854757 1.525366844152504e-05 0 -0.054894239019942247 4.396255464826337e-05 0 -0.054876594206623164 2.7579788158423557e-06 0 -0.054922216537896251 0.00035343976098907524 0 -0.054949531693086792 0.00040814041835219201 0 -0.054899353694429005 0.00041117137871615332 0 -0.051000506289288879 0.0028264155517253894 0 -0.051903506941211729 0.0015679391943834485 0 -0.049839878361169002 0.00089961801281712532 0 -0.04991424379247434 0.0008867438353887707 0 -0.049859633664547598 0.0008298506038368549 0 -0.049923212518545063 0.00082573302055311242 0 -0.04991424379247434 0.0008867438353887707 0 -0.049859633664547598 0.0008298506038368549 0 -0.049923212518545063 0.00082573302055311242 0 -0.049899922087423366 0.00077168210011987343 0 -0.049859633664547598 0.0008298506038368549 0 -0.049859633664547598 0.0008298506038368549 0 -0.049777015951760054 0.00084055404236147184 0 -0.049822261546300178 0.00076243658913379927 0 -0.049899922087423366 0.00077168210011987343 0 -0.049859633664547598 0.0008298506038368549 0 -0.049822261546300178 0.00076243658913379927 0 -0.049839878361169002 0.00089961801281712532 0 -0.049859633664547598 0.0008298506038368549 0 -0.049777015951760054 0.00084055404236147184 0 -0.051000506289288879 0.0028264155517253894 0 -0.047637520739617384 0.0057290997321548407 0 -0.047637520739617384 0.0057290997321548407 0 -0.046645979385933886 0.0062838979860011168 0 -0.042927329816487121 0.012494078236973922 0 -0.042780093939384999 0.012349785072684416 0 -0.043028085711342812 0.01234580300582263 0 -0.042307256556442512 0.012326049712973111 0 -0.042780093939384999 0.012349785072684416 0 -0.043535965974932839 0.012025231471396444 0 -0.047637520739617384 0.0057290997321548407 0 -0.047054706583395417 0.0074125608679941925 0 -0.042307256556442512 0.012326049712973111 0 -0.043535965974932839 0.012025231471396444 0 -0.043310949278035978 0.009428831017633239 0 -0.047637520739617384 0.0057290997321548407 0 -0.049221531957017173 0.004303366327579842 0 -0.043535965974932839 0.012025231471396444 0 -0.043310949278035978 0.009428831017633239 0 -0.04601094716978385 0.0089551988578396632 0 -0.049221531957017173 0.004303366327579842 0 -0.048451585308619476 0.0045952699753069384 0 -0.051000506289288879 0.0028264155517253894 0 -0.049221531957017173 0.004303366327579842 0 -0.054876594206623164 2.7579788158423557e-06 0 -0.054830845149005429 -1.0386869838128827e-05 0 -0.054836504739497839 -1.0714850331109751e-05 0 -0.049275827786775042 0.003929618309091003 0 -0.049003126640172576 0.00363570752874921 0 -0.048828372792863527 0.0039674461742722775 0 -0.054865769536854757 1.525366844152504e-05 0 -0.054876594206623164 2.7579788158423557e-06 0 -0.054836504739497839 -1.0714850331109751e-05 0 -0.049221531957017173 0.004303366327579842 0 -0.050451425913090028 0.0030064991022536163 0 -0.054830845149005429 -1.0386869838128827e-05 0 -0.054836504739497839 -1.0714850331109751e-05 0 -0.054822528253561341 -3.7465492116976172e-05 0 -0.044007872540682287 0.0091157282149564537 0 -0.046665455938684167 0.0054973910619857255 0 -0.04601094716978385 0.0089551988578396632 0 -0.042216990841818278 0.011269668601454624 0 -0.042282773244742694 0.011724185602718939 0 -0.041790432600285074 0.011330306773600033 0 -0.042216990841818278 0.011269668601454624 0 -0.042730276580805873 0.011046289368597117 0 -0.042151929968500174 0.010799471940030954 0 -0.042216990841818278 0.011269668601454624 0 -0.042730276580805873 0.011046289368597117 0 -0.0427768252412912 0.011643913086826947 0 -0.042730276580805873 0.011046289368597117 0 -0.0427768252412912 0.011643913086826947 0 -0.043267581979128111 0.011331402643265662 0 -0.0427768252412912 0.011643913086826947 0 -0.042282773244742694 0.011724185602718939 0 -0.042710983581627525 0.012101967459264746 0 -0.042216990841818278 0.011269668601454624 0 -0.0427768252412912 0.011643913086826947 0 -0.042282773244742694 0.011724185602718939 0 -0.042282773244742694 0.011724185602718939 0 -0.042710983581627525 0.012101967459264746 0 -0.042330571391754904 0.012076762407967637 0 -0.042780093939384999 0.012349785072684416 0 -0.042710983581627525 0.012101967459264746 0 -0.042330571391754904 0.012076762407967637 0 -0.042780093939384999 0.012349785072684416 0 -0.042710983581627525 0.012101967459264746 0 -0.043028085711342812 0.01234580300582263 0 -0.042710983581627525 0.012101967459264746 0 -0.04335686924941478 0.012035790112989423 0 -0.043028085711342812 0.01234580300582263 0 -0.0427768252412912 0.011643913086826947 0 -0.042710983581627525 0.012101967459264746 0 -0.04335686924941478 0.012035790112989423 0 -0.046124103447999366 0.0060133272704136365 0 -0.046645979385933886 0.0062838979860011168 0 -0.049899922087423366 0.00077168210011987343 0 -0.049822261546300178 0.00076243658913379927 0 -0.049891013778456811 0.00072908523324882182 0 -0.0498981397998337 0.00070009633830943655 0 -0.049822261546300178 0.00076243658913379927 0 -0.049891013778456811 0.00072908523324882182 0 -0.049899922087423366 0.00077168210011987343 0 -0.049891013778456811 0.00072908523324882182 0 -0.049914513695939709 0.00073289627918091886 0 -0.049891013778456811 0.00072908523324882182 0 -0.049907155185015512 0.00069971093473825119 0 -0.049914513695939709 0.00073289627918091886 0 -0.0498981397998337 0.00070009633830943655 0 -0.049917346446545517 0.00070206037714878671 0 -0.049907155185015512 0.00069971093473825119 0 -0.0498981397998337 0.00070009633830943655 0 -0.049891013778456811 0.00072908523324882182 0 -0.049907155185015512 0.00069971093473825119 0 -0.0498981397998337 0.00070009633830943655 0 -0.050041601830231743 0.00076172507613568705 0 -0.049917346446545517 0.00070206037714878671 0 -0.046124103447999366 0.0060133272704136365 0 -0.045343561729652794 0.0054817126002497272 0 -0.050041601830231743 0.00076172507613568705 0 -0.049867970325852523 0.00077178809281522581 0 -0.049917346446545517 0.00070206037714878671 0 -0.0427768252412912 0.011643913086826947 0 -0.04335686924941478 0.012035790112989423 0 -0.043267581979128111 0.011331402643265662 0 -0.04335686924941478 0.012035790112989423 0 -0.043267581979128111 0.011331402643265662 0 -0.04391320174738074 0.011456228862601975 0 -0.043267581979128111 0.011331402643265662 0 -0.043751836172636838 0.010971904263085197 0 -0.043301092863285706 0.010704076122898754 0 -0.042730276580805873 0.011046289368597117 0 -0.043267581979128111 0.011331402643265662 0 -0.043301092863285706 0.010704076122898754 0 -0.04391320174738074 0.011456228862601975 0 -0.04461878311807102 0.01061292457475024 0 -0.043751836172636838 0.010971904263085197 0 -0.043267581979128111 0.011331402643265662 0 -0.04391320174738074 0.011456228862601975 0 -0.043751836172636838 0.010971904263085197 0 -0.045343561729652794 0.0054817126002497272 0 -0.043478587374894212 0.0049004987938368371 0 -0.049658579073036606 0.0010203883365192709 0 -0.048962768940324058 -7.6159290770117077e-05 0 -0.049325693615683903 -0.00080762957138667119 0 -0.050041601830231743 0.00076172507613568705 0 -0.049658579073036606 0.0010203883365192709 0 -0.04998382359732452 0.0016926850011798138 0 -0.049658579073036606 0.0010203883365192709 0 -0.049846020387403087 0.00068112997280016284 0 -0.049867970325852523 0.00077178809281522581 0 -0.050041601830231743 0.00076172507613568705 0 -0.049658579073036606 0.0010203883365192709 0 -0.049867970325852523 0.00077178809281522581 0 -0.04984836763914529 0.0004309833556587729 0 -0.04986000533071748 5.9646830947628018e-05 0 -0.049658579073036606 0.0010203883365192709 0 -0.048716615449135268 0.0010368038675488136 0 -0.048962768940324058 -7.6159290770117077e-05 0 -0.048962768940324058 -7.6159290770117077e-05 0 -0.047891742254510164 -0.00012405827456713002 0 -0.048053277278523668 0.00076004277556231744 0 -0.048716615449135268 0.0010368038675488136 0 -0.048962768940324058 -7.6159290770117077e-05 0 -0.048053277278523668 0.00076004277556231744 0 -0.048716615449135268 0.0010368038675488136 0 -0.048053277278523668 0.00076004277556231744 0 -0.047958435466271397 0.0015009195073515905 0 -0.048962768940324058 -7.6159290770117077e-05 0 -0.049325693615683903 -0.00080762957138667119 0 -0.048676298700877661 -0.001544647697885222 0 -0.048962768940324058 -7.6159290770117077e-05 0 -0.047997646828886346 -0.00079349936563521961 0 -0.048229541868355354 -0.00071199542418944506 0 -0.049123995724217724 -0.00049493829048868237 0 -0.049156301049571305 -0.00080487895488649765 0 -0.048962768940324058 -7.6159290770117077e-05 0 -0.048229541868355354 -0.00071199542418944506 0 -0.047891742254510164 -0.00012405827456713002 0 -0.049846020387403087 0.00068112997280016284 0 -0.049867970325852523 0.00077178809281522581 0 -0.049917346446545517 0.00070206037714878671 0 -0.049846020387403087 0.00068112997280016284 0 -0.049917346446545517 0.00070206037714878671 0 -0.049907155185015512 0.00069971093473825119 0 -0.04986000533071748 5.9646830947628018e-05 0 -0.049997851911039261 -0.00035603513809054875 0 -0.049846020387403087 0.00068112997280016284 0 -0.049907155185015512 0.00069971093473825119 0 -0.049937315353392867 0.00071723221369544724 0 -0.049974418422693755 0.00079733179586928104 0 -0.049930801115089858 0.00076602180923244253 0 -0.049937315353392867 0.00071723221369544724 0 -0.049907155185015512 0.00069971093473825119 0 -0.049914513695939709 0.00073289627918091886 0 -0.049937315353392867 0.00071723221369544724 0 -0.049930801115089858 0.00076602180923244253 0 -0.049914513695939709 0.00073289627918091886 0 -0.049937315353392867 0.00071723221369544724 0 -0.049930801115089858 0.00076602180923244253 0 -0.049899922087423366 0.00077168210011987343 0 -0.049914513695939709 0.00073289627918091886 0 -0.048945518579172426 -0.0023465317703245453 0 -0.048831712244885153 -0.0020068087049753482 0 -0.049089663357370403 -0.0018123387630833044 0 -0.048831712244885153 -0.0020068087049753482 0 -0.049089663357370403 -0.0018123387630833044 0 -0.048676298700877661 -0.001544647697885222 0 -0.050412266601219259 -0.0003672276343791798 0 -0.049997851911039261 -0.00035603513809054875 0 -0.048583952013672861 -0.0022497930176752523 0 -0.048831712244885153 -0.0020068087049753482 0 -0.048676298700877661 -0.001544647697885222 0 -0.049325693615683903 -0.00080762957138667119 0 -0.049089663357370403 -0.0018123387630833044 0 -0.048676298700877661 -0.001544647697885222 0 -0.047997646828886346 -0.00079349936563521961 0 -0.049134255954346749 0.00019591815102693749 0 -0.048080612728440192 -0.0015193352649809815 0 -0.047997646828886346 -0.00079349936563521961 0 -0.048080612728440192 -0.0015193352649809815 0 -0.048229541868355354 -0.00071199542418944506 0 -0.050241359338526095 0.0012741810929793105 0 -0.049064632868957334 0.0014604298577054449 0 -0.049134255954346749 0.00019591815102693749 0 -0.049064632868957334 0.0014604298577054449 0 -0.047997646828886346 -0.00079349936563521961 0 -0.049134255954346749 0.00019591815102693749 0 -0.049822917934122364 -0.00053239249064530381 0 -0.049156301049571305 -0.00080487895488649765 0 -0.051219386196850646 0.0014455606413394978 0 -0.050241359338526095 0.0012741810929793105 0 -0.050432147533556869 0.00045435313654441407 0 -0.050241359338526095 0.0012741810929793105 0 -0.049134255954346749 0.00019591815102693749 0 -0.050432147533556869 0.00045435313654441407 0 -0.049134255954346749 0.00019591815102693749 0 -0.050432147533556869 0.00045435313654441407 0 -0.048080612728440192 -0.0015193352649809815 0 -0.050432147533556869 0.00045435313654441407 0 -0.048080612728440192 -0.0015193352649809815 0 -0.051079861029713625 -0.00063037580471367869 0 -0.048080612728440192 -0.0015193352649809815 0 -0.047891742254510164 -0.00012405827456713002 0 -0.045019974406247658 0.00042186323776961327 0 -0.048080612728440192 -0.0015193352649809815 0 -0.045019974406247658 0.00042186323776961327 0 -0.042757689898344345 -0.0034011217254005604 0 -0.046353774092451325 -0.0013089539491456135 0 -0.045546607755435779 -0.0012123683472046334 0 -0.048080612728440192 -0.0015193352649809815 0 -0.048229541868355354 -0.00071199542418944506 0 -0.047891742254510164 -0.00012405827456713002 0 -0.047891742254510164 -0.00012405827456713002 0 -0.047017290701107363 0.00090667768575291706 0 -0.045019974406247658 0.00042186323776961327 0 -0.047891742254510164 -0.00012405827456713002 0 -0.048053277278523668 0.00076004277556231744 0 -0.047017290701107363 0.00090667768575291706 0 -0.048053277278523668 0.00076004277556231744 0 -0.047017290701107363 0.00090667768575291706 0 -0.047292641283297757 0.0015200242890017236 0 -0.047017290701107363 0.00090667768575291706 0 -0.045019974406247658 0.00042186323776961327 0 -0.046554924084530172 0.0016705727383135196 0 -0.045019974406247658 0.00042186323776961327 0 -0.046138905489035716 0.0025575120351440037 0 -0.046554924084530172 0.0016705727383135196 0 -0.045019974406247658 0.00042186323776961327 0 -0.045613590509513233 0.0054062277576905253 0 -0.043316101727845564 0.0027916315306299772 0 -0.041507511225541818 0.0027641194967163341 0 -0.040556261071501433 0.0039564079975524646 0 -0.046138905489035716 0.0025575120351440037 0 -0.046647625782577667 0.0023473061399762771 0 -0.046554924084530172 0.0016705727383135196 0 -0.045613590509513233 0.0054062277576905253 0 -0.043949293831428857 0.0056462266061326673 0 -0.043316101727845564 0.0027916315306299772 0 -0.047017290701107363 0.00090667768575291706 0 -0.046554924084530172 0.0016705727383135196 0 -0.047292641283297757 0.0015200242890017236 0 -0.046554924084530172 0.0016705727383135196 0 -0.047292641283297757 0.0015200242890017236 0 -0.047018687901740436 0.0020555088438743659 0 -0.048053277278523668 0.00076004277556231744 0 -0.047292641283297757 0.0015200242890017236 0 -0.047958435466271397 0.0015009195073515905 0 -0.047292641283297757 0.0015200242890017236 0 -0.047958435466271397 0.0015009195073515905 0 -0.047665129911363631 0.0021599377628163338 0 -0.047958435466271397 0.0015009195073515905 0 -0.047665129911363631 0.0021599377628163338 0 -0.048349008188787825 0.0018349827604154144 0 -0.047292641283297757 0.0015200242890017236 0 -0.047665129911363631 0.0021599377628163338 0 -0.047018687901740436 0.0020555088438743659 0 -0.046647625782577667 0.0023473061399762771 0 -0.046554924084530172 0.0016705727383135196 0 -0.047018687901740436 0.0020555088438743659 0 -0.047665129911363631 0.0021599377628163338 0 -0.047018687901740436 0.0020555088438743659 0 -0.047191743295591372 0.0024823481444650867 0 -0.046647625782577667 0.0023473061399762771 0 -0.047018687901740436 0.0020555088438743659 0 -0.047191743295591372 0.0024823481444650867 0 -0.046647625782577667 0.0023473061399762771 0 -0.047191743295591372 0.0024823481444650867 0 -0.046895579311621208 0.0030490255948185537 0 -0.046895579311621208 0.0030490255948185537 0 -0.047373996170841225 0.0035902104143149013 0 -0.046619843462940888 0.0044455970631797062 0 -0.047191743295591372 0.0024823481444650867 0 -0.046895579311621208 0.0030490255948185537 0 -0.047497106179947422 0.0028222778503454314 0 -0.047497106179947422 0.0028222778503454314 0 -0.048009590738690787 0.0033070574437519566 0 -0.048245103880282969 0.0024743533781674048 0 -0.047665129911363631 0.0021599377628163338 0 -0.047191743295591372 0.0024823481444650867 0 -0.047497106179947422 0.0028222778503454314 0 -0.047665129911363631 0.0021599377628163338 0 -0.047497106179947422 0.0028222778503454314 0 -0.048245103880282969 0.0024743533781674048 0 -0.047497106179947422 0.0028222778503454314 0 -0.047373996170841225 0.0035902104143149013 0 -0.048009590738690787 0.0033070574437519566 0 -0.047373996170841225 0.0035902104143149013 0 -0.047745868904015859 0.0040557527119054523 0 -0.048009590738690787 0.0033070574437519566 0 -0.046895579311621208 0.0030490255948185537 0 -0.047497106179947422 0.0028222778503454314 0 -0.047373996170841225 0.0035902104143149013 0 -0.045469081920942678 0.0063632990533893929 0 -0.046651626197430504 0.010093392412647824 0 -0.042476626353850466 0.0079985235443076411 0 -0.040556261071501433 0.0039564079975524646 0 -0.035771658439640731 0.0024056901486981031 0 -0.037598920314208154 0.0027784297494552737 0 -0.0348591977451028 0.0031629209006447854 0 -0.045469081920942678 0.0063632990533893929 0 -0.043949293831428857 0.0056462266061326673 0 -0.042224841883363042 0.008326082168461528 0 -0.046138905489035716 0.0025575120351440037 0 -0.046895579311621208 0.0030490255948185537 0 -0.046619843462940888 0.0044455970631797062 0 -0.045613590509513233 0.0054062277576905253 0 -0.045469081920942678 0.0063632990533893929 0 -0.046651626197430504 0.010093392412647824 0 -0.046138905489035716 0.0025575120351440037 0 -0.046647625782577667 0.0023473061399762771 0 -0.046895579311621208 0.0030490255948185537 0 -0.045613590509513233 0.0054062277576905253 0 -0.045469081920942678 0.0063632990533893929 0 -0.043949293831428857 0.0056462266061326673 0 -0.035771658439640731 0.0024056901486981031 0 -0.0348591977451028 0.0031629209006447854 0 -0.026084799078059124 -0.00073863838071554905 0 -0.025883881721202855 -0.00085156375180152311 0 -0.025897288785259345 -0.00064382326407760729 0 -0.026084799078059124 -0.00073863838071554905 0 -0.026018704068428863 -0.00062924333838075726 0 -0.025897288785259345 -0.00064382326407760729 0 -0.026084799078059124 -0.00073863838071554905 0 -0.026018704068428863 -0.00062924333838075726 0 -0.026099074438726347 -0.00057709639684484575 0 -0.026018704068428863 -0.00062924333838075726 0 -0.025985202501066836 -0.00056255268484294691 0 -0.026099074438726347 -0.00057709639684484575 0 -0.026018704068428863 -0.00062924333838075726 0 -0.025897288785259345 -0.00064382326407760729 0 -0.025985202501066836 -0.00056255268484294691 0 -0.027288809405429295 -0.00025508092891190934 0 -0.027263823243487882 -0.00027898638614956442 0 -0.027250610215147995 -0.00026874025216312968 0 -0.027288809405429295 -0.00025508092891190934 0 -0.027266343734433991 -0.00027006934563489441 0 -0.027263823243487882 -0.00027898638614956442 0 -0.035771658439640731 0.0024056901486981031 0 -0.031031258004838354 -0.00024592909228815312 0 -0.046619843462940888 0.0044455970631797062 0 -0.047745868904015859 0.0040557527119054523 0 -0.04825305593868702 0.0052834881278292743 0 -0.035771658439640731 0.0024056901486981031 0 -0.036199714576741739 0.001191117134708994 0 -0.047373996170841225 0.0035902104143149013 0 -0.046619843462940888 0.0044455970631797062 0 -0.047745868904015859 0.0040557527119054523 0 -0.047745868904015859 0.0040557527119054523 0 -0.048370458625219818 0.0039041640960334181 0 -0.048009590738690787 0.0033070574437519566 0 -0.047745868904015859 0.0040557527119054523 0 -0.048370458625219818 0.0039041640960334181 0 -0.04825305593868702 0.0052834881278292743 0 -0.038880555543953914 0.00478115195786636 0 -0.036199714576741739 0.001191117134708994 0 -0.028800365162198329 0.0018697793045956744 0 -0.029407144291876901 0.00068484534793766577 0 -0.028675957779930386 0.0010489623422399682 0 -0.048370458625219818 0.0039041640960334181 0 -0.049114067448044141 0.0037159834915182124 0 -0.04825305593868702 0.0052834881278292743 0 -0.029407144291876901 0.00068484534793766577 0 -0.02842699440114041 0.00065099168518337614 0 -0.028675957779930386 0.0010489623422399682 0 -0.036199714576741739 0.001191117134708994 0 -0.031205204012542408 -0.00041821650740267934 0 -0.027280950765515982 -0.00031707654047230738 0 -0.027298585122722367 -0.00028600560409830202 0 -0.027359160985225651 -0.00030864697419426956 0 -0.036199714576741739 0.001191117134708994 0 -0.035909478744905958 0.0013201370099964816 0 -0.027298585122722367 -0.00028600560409830202 0 -0.027263823243487882 -0.00027898638614956442 0 -0.02727598406723749 -0.00025944409459033806 0 -0.027280950765515982 -0.00031707654047230738 0 -0.027298585122722367 -0.00028600560409830202 0 -0.027263823243487882 -0.00027898638614956442 0 -0.028377641812944655 0.0002202559330994492 0 -0.027976304351685421 0.00062256469024543236 0 -0.027531382235278241 -0.00012802306544319283 0 -0.029407144291876901 0.00068484534793766577 0 -0.028377641812944655 0.0002202559330994492 0 -0.02842699440114041 0.00065099168518337614 0 -0.02842699440114041 0.00065099168518337614 0 -0.027976304351685421 0.00062256469024543236 0 -0.028675957779930386 0.0010489623422399682 0 -0.028377641812944655 0.0002202559330994492 0 -0.02842699440114041 0.00065099168518337614 0 -0.027976304351685421 0.00062256469024543236 0 -0.04528280639402122 0.0095610445297530516 0 -0.044713232431818732 0.0085402849259244434 0 -0.044719647407495157 0.0092413348287609404 0 -0.038880555543953914 0.00478115195786636 0 -0.037441500915054389 0.0039832138693246845 0 -0.044713232431818732 0.0085402849259244434 0 -0.044719647407495157 0.0092413348287609404 0 -0.044451235639698571 0.0089150843815911356 0 -0.028800365162198329 0.0018697793045956744 0 -0.027976304351685421 0.00062256469024543236 0 -0.028675957779930386 0.0010489623422399682 0 -0.04528280639402122 0.0095610445297530516 0 -0.044719647407495157 0.0092413348287609404 0 -0.044852136233176444 0.0095768783660160565 0 -0.044719647407495157 0.0092413348287609404 0 -0.044504128551809678 0.0096441200957025335 0 -0.044852136233176444 0.0095768783660160565 0 -0.044504128551809678 0.0096441200957025335 0 -0.044694850176437213 0.0099112235163806919 0 -0.044276489770248 0.010157337897656151 0 -0.04528280639402122 0.0095610445297530516 0 -0.044694850176437213 0.0099112235163806919 0 -0.04461878311807102 0.01061292457475024 0 -0.049162108688779717 0.0037189134916448207 0 -0.049027431800240683 0.0025357484104453955 0 -0.04998382359732452 0.0016926850011798138 0 -0.038880555543953914 0.00478115195786636 0 -0.043478587374894212 0.0049004987938368371 0 -0.044504128551809678 0.0096441200957025335 0 -0.044852136233176444 0.0095768783660160565 0 -0.044694850176437213 0.0099112235163806919 0 -0.044694850176437213 0.0099112235163806919 0 -0.04461878311807102 0.01061292457475024 0 -0.044276489770248 0.010157337897656151 0 -0.04528280639402122 0.0095610445297530516 0 -0.044852136233176444 0.0095768783660160565 0 -0.044694850176437213 0.0099112235163806919 0 -0.038880555543953914 0.00478115195786636 0 -0.039359903325240531 0.0050262161612711865 0 -0.048370458625219818 0.0039041640960334181 0 -0.049114067448044141 0.0037159834915182124 0 -0.048740204470977981 0.0031225880436598435 0 -0.049162108688779717 0.0037189134916448207 0 -0.048740204470977981 0.0031225880436598435 0 -0.049027431800240683 0.0025357484104453955 0 -0.048370458625219818 0.0039041640960334181 0 -0.048740204470977981 0.0031225880436598435 0 -0.048009590738690787 0.0033070574437519566 0 -0.048740204470977981 0.0031225880436598435 0 -0.048009590738690787 0.0033070574437519566 0 -0.048245103880282969 0.0024743533781674048 0 -0.048740204470977981 0.0031225880436598435 0 -0.048245103880282969 0.0024743533781674048 0 -0.049027431800240683 0.0025357484104453955 0 -0.048245103880282969 0.0024743533781674048 0 -0.049027431800240683 0.0025357484104453955 0 -0.048995825975569215 0.0017408734307889269 0 -0.047665129911363631 0.0021599377628163338 0 -0.048245103880282969 0.0024743533781674048 0 -0.048349008188787825 0.0018349827604154144 0 -0.048245103880282969 0.0024743533781674048 0 -0.048995825975569215 0.0017408734307889269 0 -0.048349008188787825 0.0018349827604154144 0 -0.048716615449135268 0.0010368038675488136 0 -0.047958435466271397 0.0015009195073515905 0 -0.048349008188787825 0.0018349827604154144 0 -0.049658579073036606 0.0010203883365192709 0 -0.048716615449135268 0.0010368038675488136 0 -0.048995825975569215 0.0017408734307889269 0 -0.048716615449135268 0.0010368038675488136 0 -0.048995825975569215 0.0017408734307889269 0 -0.048349008188787825 0.0018349827604154144 0 -0.049658579073036606 0.0010203883365192709 0 -0.048995825975569215 0.0017408734307889269 0 -0.04998382359732452 0.0016926850011798138 0 -0.049027431800240683 0.0025357484104453955 0 -0.048995825975569215 0.0017408734307889269 0 -0.04998382359732452 0.0016926850011798138 0 -0.04461878311807102 0.01061292457475024 0 -0.043891569990349009 0.010498208141332222 0 -0.043751836172636838 0.010971904263085197 0 -0.04461878311807102 0.01061292457475024 0 -0.043891569990349009 0.010498208141332222 0 -0.044276489770248 0.010157337897656151 0 -0.043891569990349009 0.010498208141332222 0 -0.043301092863285706 0.010704076122898754 0 -0.04364901675234803 0.0099905336327274375 0 -0.043891569990349009 0.010498208141332222 0 -0.043751836172636838 0.010971904263085197 0 -0.043301092863285706 0.010704076122898754 0 -0.04364901675234803 0.0099905336327274375 0 -0.043101781431195446 0.0096455589778972929 0 -0.042721327631710188 0.010321649176728594 0 -0.043301092863285706 0.010704076122898754 0 -0.04364901675234803 0.0099905336327274375 0 -0.042721327631710188 0.010321649176728594 0 -0.04364901675234803 0.0099905336327274375 0 -0.044093536870887615 0.009680354399054349 0 -0.043706427588542929 0.0092501610366005071 0 -0.04364901675234803 0.0099905336327274375 0 -0.044093536870887615 0.009680354399054349 0 -0.044276489770248 0.010157337897656151 0 -0.043891569990349009 0.010498208141332222 0 -0.04364901675234803 0.0099905336327274375 0 -0.044276489770248 0.010157337897656151 0 -0.044504128551809678 0.0096441200957025335 0 -0.044093536870887615 0.009680354399054349 0 -0.044276489770248 0.010157337897656151 0 -0.044719647407495157 0.0092413348287609404 0 -0.044504128551809678 0.0096441200957025335 0 -0.044335031967523787 0.0092891979794901165 0 -0.044504128551809678 0.0096441200957025335 0 -0.044093536870887615 0.009680354399054349 0 -0.044335031967523787 0.0092891979794901165 0 -0.044093536870887615 0.009680354399054349 0 -0.044335031967523787 0.0092891979794901165 0 -0.043706427588542929 0.0092501610366005071 0 -0.044142215462298878 0.0089276866394735668 0 -0.043866075227119314 0.0086326507779757467 0 -0.043706427588542929 0.0092501610366005071 0 -0.044335031967523787 0.0092891979794901165 0 -0.044142215462298878 0.0089276866394735668 0 -0.043706427588542929 0.0092501610366005071 0 -0.044719647407495157 0.0092413348287609404 0 -0.044335031967523787 0.0092891979794901165 0 -0.044451235639698571 0.0089150843815911356 0 -0.044335031967523787 0.0092891979794901165 0 -0.044142215462298878 0.0089276866394735668 0 -0.044451235639698571 0.0089150843815911356 0 -0.044142215462298878 0.0089276866394735668 0 -0.044451235639698571 0.0089150843815911356 0 -0.044255543238002196 0.0086439629751029982 0 -0.044713232431818732 0.0085402849259244434 0 -0.044084721173993743 0.0081948799565713885 0 -0.044156973755734484 0.0073194827994894256 0 -0.037441500915054389 0.0039832138693246845 0 -0.036769908987065301 0.0031532593924332702 0 -0.044713232431818732 0.0085402849259244434 0 -0.044255543238002196 0.0086439629751029982 0 -0.044084721173993743 0.0081948799565713885 0 -0.044713232431818732 0.0085402849259244434 0 -0.044451235639698571 0.0089150843815911356 0 -0.044255543238002196 0.0086439629751029982 0 -0.044255543238002196 0.0086439629751029982 0 -0.043866075227119314 0.0086326507779757467 0 -0.044084721173993743 0.0081948799565713885 0 -0.043866075227119314 0.0086326507779757467 0 -0.044084721173993743 0.0081948799565713885 0 -0.043609053862096077 0.0083041672808730638 0 -0.044142215462298878 0.0089276866394735668 0 -0.044255543238002196 0.0086439629751029982 0 -0.043866075227119314 0.0086326507779757467 0 -0.043121258478418086 0.0082776404820426065 0 -0.043609053862096077 0.0083041672808730638 0 -0.043534887814321896 0.0077414996144801809 0 -0.044084721173993743 0.0081948799565713885 0 -0.043609053862096077 0.0083041672808730638 0 -0.043534887814321896 0.0077414996144801809 0 -0.043866075227119314 0.0086326507779757467 0 -0.043609053862096077 0.0083041672808730638 0 -0.043431887842936681 0.0086997703852873219 0 -0.043121258478418086 0.0082776404820426065 0 -0.043431887842936681 0.0086997703852873219 0 -0.042984474657584891 0.0090365119101769604 0 -0.043121258478418086 0.0082776404820426065 0 -0.043609053862096077 0.0083041672808730638 0 -0.043431887842936681 0.0086997703852873219 0 -0.043431887842936681 0.0086997703852873219 0 -0.043706427588542929 0.0092501610366005071 0 -0.042984474657584891 0.0090365119101769604 0 -0.043866075227119314 0.0086326507779757467 0 -0.043431887842936681 0.0086997703852873219 0 -0.043706427588542929 0.0092501610366005071 0 -0.04364901675234803 0.0099905336327274375 0 -0.043706427588542929 0.0092501610366005071 0 -0.043101781431195446 0.0096455589778972929 0 -0.043706427588542929 0.0092501610366005071 0 -0.043101781431195446 0.0096455589778972929 0 -0.042984474657584891 0.0090365119101769604 0 -0.042334798936186226 0.0095804506250079455 0 -0.042984474657584891 0.0090365119101769604 0 -0.042476529208679281 0.0085171586952883047 0 -0.043101781431195446 0.0096455589778972929 0 -0.042334798936186226 0.0095804506250079455 0 -0.042984474657584891 0.0090365119101769604 0 -0.043121258478418086 0.0082776404820426065 0 -0.042984474657584891 0.0090365119101769604 0 -0.042476529208679281 0.0085171586952883047 0 -0.043121258478418086 0.0082776404820426065 0 -0.042476529208679281 0.0085171586952883047 0 -0.042692013484627318 0.0075333019930950646 0 -0.041660652455454507 0.0088518276193945769 0 -0.041394623296067475 0.007507397434615347 0 -0.04064129889372365 0.0086802522429788743 0 -0.042476529208679281 0.0085171586952883047 0 -0.041660652455454507 0.0088518276193945769 0 -0.041394623296067475 0.007507397434615347 0 -0.042334798936186226 0.0095804506250079455 0 -0.041660652455454507 0.0088518276193945769 0 -0.041344328386001057 0.009718294766838935 0 -0.042334798936186226 0.0095804506250079455 0 -0.042476529208679281 0.0085171586952883047 0 -0.041660652455454507 0.0088518276193945769 0 -0.042334798936186226 0.0095804506250079455 0 -0.041864456947868618 0.010279408618077685 0 -0.041344328386001057 0.009718294766838935 0 -0.043101781431195446 0.0096455589778972929 0 -0.042334798936186226 0.0095804506250079455 0 -0.042721327631710188 0.010321649176728594 0 -0.042334798936186226 0.0095804506250079455 0 -0.041864456947868618 0.010279408618077685 0 -0.042721327631710188 0.010321649176728594 0 -0.042730276580805873 0.011046289368597117 0 -0.042721327631710188 0.010321649176728594 0 -0.042151929968500174 0.010799471940030954 0 -0.042730276580805873 0.011046289368597117 0 -0.043301092863285706 0.010704076122898754 0 -0.042721327631710188 0.010321649176728594 0 -0.041864456947868618 0.010279408618077685 0 -0.042721327631710188 0.010321649176728594 0 -0.042151929968500174 0.010799471940030954 0 -0.041864456947868618 0.010279408618077685 0 -0.042151929968500174 0.010799471940030954 0 -0.041586455183379986 0.010902768631519384 0 -0.042216990841818278 0.011269668601454624 0 -0.042151929968500174 0.010799471940030954 0 -0.041586455183379986 0.010902768631519384 0 -0.032219277943161657 0.00036008106779145241 0 -0.032356241509617696 -4.0378590516289057e-05 0 -0.032437086281256716 -1.0392105942318074e-05 0 -0.032219277943161657 0.00036008106779145241 0 -0.032437086281256716 -1.0392105942318074e-05 0 -0.0333285626927491 0.00023978731171644407 0 -0.033901058252743109 0.00049993606997199725 0 -0.038645749391307903 4.3074403959854894e-05 0 -0.032219277943161657 0.00036008106779145241 0 -0.032582053973462345 -0.00040664813057808352 0 -0.032356241509617696 -4.0378590516289057e-05 0 -0.032219277943161657 0.00036008106779145241 0 -0.032582053973462345 -0.00040664813057808352 0 -0.03308927518354636 -0.0014123227214800835 0 -0.032582053973462345 -0.00040664813057808352 0 -0.032356241509617696 -4.0378590516289057e-05 0 -0.03236643105910722 4.227632459633565e-05 0 -0.032582053973462345 -0.00040664813057808352 0 -0.03236643105910722 4.227632459633565e-05 0 -0.032790054227425959 -2.9703831922325116e-05 0 -0.03236643105910722 4.227632459633565e-05 0 -0.032450810657881871 0.00035500989769204021 0 -0.032790054227425959 -2.9703831922325116e-05 0 -0.03236643105910722 4.227632459633565e-05 0 -0.032450810657881871 0.00035500989769204021 0 -0.032222552415565833 0.00015270870252307939 0 -0.032437086281256716 -1.0392105942318074e-05 0 -0.032453572803099448 -7.0128037646620769e-05 0 -0.032222552415565833 0.00015270870252307939 0 -0.032437086281256716 -1.0392105942318074e-05 0 -0.032453572803099448 -7.0128037646620769e-05 0 -0.033212476218699973 -3.9782995554926156e-05 0 -0.03236643105910722 4.227632459633565e-05 0 -0.032437086281256716 -1.0392105942318074e-05 0 -0.032222552415565833 0.00015270870252307939 0 -0.032356241509617696 -4.0378590516289057e-05 0 -0.03236643105910722 4.227632459633565e-05 0 -0.032437086281256716 -1.0392105942318074e-05 0 -0.032453572803099448 -7.0128037646620769e-05 0 -0.033212476218699973 -3.9782995554926156e-05 0 -0.03262075126743904 -0.00022243074401642776 0 -0.033212476218699973 -3.9782995554926156e-05 0 -0.034252682032087402 -2.6976755197517989e-05 0 -0.03262075126743904 -0.00022243074401642776 0 -0.032437086281256716 -1.0392105942318074e-05 0 -0.033212476218699973 -3.9782995554926156e-05 0 -0.0333285626927491 0.00023978731171644407 0 -0.033212476218699973 -3.9782995554926156e-05 0 -0.034252682032087402 -2.6976755197517989e-05 0 -0.034257336274277773 0.00022876143406907369 0 -0.035204826948424174 -2.5051520907198852e-07 0 -0.034252682032087402 -2.6976755197517989e-05 0 -0.03262075126743904 -0.00022243074401642776 0 -0.035204826948424174 -2.5051520907198852e-07 0 -0.034252682032087402 -2.6976755197517989e-05 0 -0.036323447072630827 0.00017761850536449655 0 -0.035204826948424174 -2.5051520907198852e-07 0 -0.036323447072630827 0.00017761850536449655 0 -0.038122704807976644 1.035652517380993e-06 0 -0.036323447072630827 0.00017761850536449655 0 -0.035039800438760482 0.0012024359352812411 0 -0.035678729675308336 0.002519940712131726 0 -0.034252682032087402 -2.6976755197517989e-05 0 -0.036323447072630827 0.00017761850536449655 0 -0.034257336274277773 0.00022876143406907369 0 -0.036323447072630827 0.00017761850536449655 0 -0.034257336274277773 0.00022876143406907369 0 -0.035039800438760482 0.0012024359352812411 0 -0.033901058252743109 0.00049993606997199725 0 -0.034242812122619176 0.00067358807304519742 0 -0.032219277943161657 0.00036008106779145241 0 -0.035039800438760482 0.0012024359352812411 0 -0.0333285626927491 0.00023978731171644407 0 -0.034257336274277773 0.00022876143406907369 0 -0.035039800438760482 0.0012024359352812411 0 -0.0333285626927491 0.00023978731171644407 0 -0.033212476218699973 -3.9782995554926156e-05 0 -0.034257336274277773 0.00022876143406907369 0 -0.0333285626927491 0.00023978731171644407 0 -0.035039800438760482 0.0012024359352812411 0 -0.033428973615306209 0.002119320238164578 0 -0.034493069739719426 0.0024283256865608822 0 -0.032444092532069063 0.0014733183182773512 0 -0.035039800438760482 0.0012024359352812411 0 -0.033428973615306209 0.002119320238164578 0 -0.034493069739719426 0.0024283256865608822 0 -0.034813518636154742 0.0030447250099572519 0 -0.033554077917441145 0.0031277229897871228 0 -0.033428973615306209 0.002119320238164578 0 -0.034493069739719426 0.0024283256865608822 0 -0.033554077917441145 0.0031277229897871228 0 -0.039729449712407855 0.00014879230598578664 0 -0.040102855126831441 0.00049423176484846433 0 -0.036323447072630827 0.00017761850536449655 0 -0.038122704807976644 1.035652517380993e-06 0 -0.038906390822218043 -2.4302996499777476e-05 0 -0.038122704807976644 1.035652517380993e-06 0 -0.038906390822218043 -2.4302996499777476e-05 0 -0.041037901802790523 -4.4171522564436592e-07 0 -0.035039800438760482 0.0012024359352812411 0 -0.034493069739719426 0.0024283256865608822 0 -0.035678729675308336 0.002519940712131726 0 -0.034493069739719426 0.0024283256865608822 0 -0.035678729675308336 0.002519940712131726 0 -0.034813518636154742 0.0030447250099572519 0 -0.035678729675308336 0.002519940712131726 0 -0.034813518636154742 0.0030447250099572519 0 -0.035550818585435122 0.0040796042491888385 0 -0.040102855126831441 0.00049423176484846433 0 -0.041193798807756477 0.00086447084810658723 0 -0.034813518636154742 0.0030447250099572519 0 -0.035550818585435122 0.0040796042491888385 0 -0.033554077917441145 0.0031277229897871228 0 -0.038906390822218043 -2.4302996499777476e-05 0 -0.040521821766913442 2.5113530289194278e-05 0 -0.041037901802790523 -4.4171522564436592e-07 0 -0.041193798807756477 0.00086447084810658723 0 -0.041038566066424156 5.9913271184938914e-06 0 -0.049960135559027015 0.0021131788198495982 0 -0.049154159874557096 0.0025554970104182551 0 -0.050362445425440612 0.002651731112954222 0 -0.041193798807756477 0.00086447084810658723 0 -0.041687765881147566 0.0016274363473739589 0 -0.049960135559027015 0.0021131788198495982 0 -0.050362445425440612 0.002651731112954222 0 -0.051043522050541267 0.0020433374075940029 0 -0.051043522050541267 0.0020433374075940029 0 -0.051171422942568712 0.0022309612971365563 0 -0.051695963209040394 0.0019764147517379164 0 -0.050362445425440612 0.002651731112954222 0 -0.051043522050541267 0.0020433374075940029 0 -0.051171422942568712 0.0022309612971365563 0 -0.050362445425440612 0.002651731112954222 0 -0.051171422942568712 0.0022309612971365563 0 -0.051512197251747771 0.0022671567327666137 0 -0.041687765881147566 0.0016274363473739589 0 -0.040973986776019884 0.0013377655781873117 0 -0.033428973615306209 0.002119320238164578 0 -0.033554077917441145 0.0031277229897871228 0 -0.031790067753621518 0.0022277152920432285 0 -0.032444092532069063 0.0014733183182773512 0 -0.033428973615306209 0.002119320238164578 0 -0.031790067753621518 0.0022277152920432285 0 -0.040973986776019884 0.0013377655781873117 0 -0.038645749391307903 4.3074403959854894e-05 0 -0.051512197251747771 0.0022671567327666137 0 -0.051695963209040394 0.0019764147517379164 0 -0.052109711983594348 0.0016651326750246561 0 -0.032444092532069063 0.0014733183182773512 0 -0.031790067753621518 0.0022277152920432285 0 -0.030198594000466143 0.0015032052962022147 0 -0.051786657164569143 0.0016524063191212179 0 -0.051695963209040394 0.0019764147517379164 0 -0.052085559098703438 0.0016548875431684703 0 -0.051786657164569143 0.0016524063191212179 0 -0.051043522050541267 0.0020433374075940029 0 -0.051695963209040394 0.0019764147517379164 0 -0.051171422942568712 0.0022309612971365563 0 -0.051512197251747771 0.0022671567327666137 0 -0.051695963209040394 0.0019764147517379164 0 -0.052272754516521663 0.0015379947763364276 0 -0.052085559098703438 0.0016548875431684703 0 -0.052238111814173212 0.0014136504548114338 0 -0.052518582685607801 0.0013969576779063295 0 -0.052422041333593572 0.0012661398243366219 0 -0.052526291976769314 0.0014924482807777456 0 -0.052238111814173212 0.0014136504548114338 0 -0.052143753648814593 0.0010986526255036804 0 -0.052184500499909074 0.0012300169799731855 0 -0.052142229160955296 0.00069747070858020076 0 -0.052109711983594348 0.0016651326750246561 0 -0.052238111814173212 0.0014136504548114338 0 -0.052143753648814593 0.0010986526255036804 0 -0.052184500499909074 0.0012300169799731855 0 -0.052143753648814593 0.0010986526255036804 0 -0.052184500499909074 0.0012300169799731855 0 -0.052142229160955296 0.00069747070858020076 0 -0.051695963209040394 0.0019764147517379164 0 -0.052085559098703438 0.0016548875431684703 0 -0.052109711983594348 0.0016651326750246561 0 -0.052085559098703438 0.0016548875431684703 0 -0.052238111814173212 0.0014136504548114338 0 -0.052109711983594348 0.0016651326750246561 0 -0.052238111814173212 0.0014136504548114338 0 -0.052184500499909074 0.0012300169799731855 0 -0.052109711983594348 0.0016651326750246561 0 -0.051219386196850646 0.0014455606413394978 0 -0.051852465060784711 0.0015167841570534438 0 -0.051514019718416307 0.00074235391868409859 0 -0.051219386196850646 0.0014455606413394978 0 -0.050432147533556869 0.00045435313654441407 0 -0.051514019718416307 0.00074235391868409859 0 -0.052213837693236988 0.0019775149235954628 0 -0.052143753648814593 0.0010986526255036804 0 -0.051852465060784711 0.0015167841570534438 0 -0.052143753648814593 0.0010986526255036804 0 -0.051852465060784711 0.0015167841570534438 0 -0.051514019718416307 0.00074235391868409859 0 -0.052143753648814593 0.0010986526255036804 0 -0.051775709278851084 0.00050950321215911462 0 -0.051514019718416307 0.00074235391868409859 0 -0.051775709278851084 0.00050950321215911462 0 -0.051079861029713625 -0.00063037580471367869 0 -0.052142229160955296 0.00069747070858020076 0 -0.052143753648814593 0.0010986526255036804 0 -0.051775709278851084 0.00050950321215911462 0 -0.052142229160955296 0.00069747070858020076 0 -0.050432147533556869 0.00045435313654441407 0 -0.051514019718416307 0.00074235391868409859 0 -0.051079861029713625 -0.00063037580471367869 0 -0.051775709278851084 0.00050950321215911462 0 -0.051514019718416307 0.00074235391868409859 0 -0.051079861029713625 -0.00063037580471367869 0 -0.045019974406247658 0.00042186323776961327 0 -0.042757689898344345 -0.0034011217254005604 0 -0.042029501531790983 -3.4417221472075836e-06 0 -0.042757689898344345 -0.0034011217254005604 0 -0.039661856181952719 -0.0015468804770335371 0 -0.042029501531790983 -3.4417221472075836e-06 0 -0.042757689898344345 -0.0034011217254005604 0 -0.039661856181952719 -0.0015468804770335371 0 -0.0369390548440739 -0.0038771092421861723 0 -0.045546607755435779 -0.0012123683472046334 0 -0.043236209359265233 -0.00078612510358788939 0 -0.039661856181952719 -0.0015468804770335371 0 -0.037666383582919086 -0.00049986443445004195 0 -0.036033234406265033 -0.0016486783497274794 0 -0.039661856181952719 -0.0015468804770335371 0 -0.0369390548440739 -0.0038771092421861723 0 -0.036033234406265033 -0.0016486783497274794 0 -0.037666383582919086 -0.00049986443445004195 0 -0.039609763873950321 0.0010919129528003078 0 -0.036800490980767001 0.00070519539968715722 0 -0.039609763873950321 0.0010919129528003078 0 -0.036800490980767001 0.00070519539968715722 0 -0.037478259007099571 0.0025249391439975829 0 -0.039661856181952719 -0.0015468804770335371 0 -0.037666383582919086 -0.00049986443445004195 0 -0.039609763873950321 0.0010919129528003078 0 -0.039661856181952719 -0.0015468804770335371 0 -0.039609763873950321 0.0010919129528003078 0 -0.042029501531790983 -3.4417221472075836e-06 0 -0.039609763873950321 0.0010919129528003078 0 -0.042029501531790983 -3.4417221472075836e-06 0 -0.043316101727845564 0.0027916315306299772 0 -0.045019974406247658 0.00042186323776961327 0 -0.042029501531790983 -3.4417221472075836e-06 0 -0.043316101727845564 0.0027916315306299772 0 -0.03308927518354636 -0.0014123227214800835 0 -0.033675917990299585 0.00013909887488811772 0 -0.032790054227425959 -2.9703831922325116e-05 0 -0.032582053973462345 -0.00040664813057808352 0 -0.03308927518354636 -0.0014123227214800835 0 -0.032790054227425959 -2.9703831922325116e-05 0 -0.03308927518354636 -0.0014123227214800835 0 -0.035029638976178314 -0.00041800012663490517 0 -0.033675917990299585 0.00013909887488811772 0 -0.038645749391307903 4.3074403959854894e-05 0 -0.036753145980168607 -0.00084029631294801747 0 -0.043236209359265233 -0.00078612510358788939 0 -0.038645749391307903 4.3074403959854894e-05 0 -0.03308927518354636 -0.0014123227214800835 0 -0.036033234406265033 -0.0016486783497274794 0 -0.035029638976178314 -0.00041800012663490517 0 -0.0369390548440739 -0.0038771092421861723 0 -0.031129933534372295 -0.003799502550322693 0 -0.036033234406265033 -0.0016486783497274794 0 -0.037666383582919086 -0.00049986443445004195 0 -0.036033234406265033 -0.0016486783497274794 0 -0.035029638976178314 -0.00041800012663490517 0 -0.035029638976178314 -0.00041800012663490517 0 -0.035041095637659676 0.00097634886134701101 0 -0.033675917990299585 0.00013909887488811772 0 -0.037666383582919086 -0.00049986443445004195 0 -0.035029638976178314 -0.00041800012663490517 0 -0.036800490980767001 0.00070519539968715722 0 -0.035029638976178314 -0.00041800012663490517 0 -0.036800490980767001 0.00070519539968715722 0 -0.035041095637659676 0.00097634886134701101 0 -0.036800490980767001 0.00070519539968715722 0 -0.035041095637659676 0.00097634886134701101 0 -0.037478259007099571 0.0025249391439975829 0 -0.035041095637659676 0.00097634886134701101 0 -0.033675917990299585 0.00013909887488811772 0 -0.033736896777019791 0.001216560025995922 0 -0.033675917990299585 0.00013909887488811772 0 -0.032856660520946032 0.00080540207499563805 0 -0.033736896777019791 0.001216560025995922 0 -0.033675917990299585 0.00013909887488811772 0 -0.032790054227425959 -2.9703831922325116e-05 0 -0.032856660520946032 0.00080540207499563805 0 -0.032450810657881871 0.00035500989769204021 0 -0.032790054227425959 -2.9703831922325116e-05 0 -0.032856660520946032 0.00080540207499563805 0 -0.032856660520946032 0.00080540207499563805 0 -0.03264812926494369 0.00090906569286989104 0 -0.032351731957822989 0.00052525900438655669 0 -0.032856660520946032 0.00080540207499563805 0 -0.03264812926494369 0.00090906569286989104 0 -0.033151494865473988 0.0016616549956819883 0 -0.03264812926494369 0.00090906569286989104 0 -0.033151494865473988 0.0016616549956819883 0 -0.032537148714497532 0.00072892034179140159 0 -0.032856660520946032 0.00080540207499563805 0 -0.033151494865473988 0.0016616549956819883 0 -0.033736896777019791 0.001216560025995922 0 -0.035041095637659676 0.00097634886134701101 0 -0.033736896777019791 0.001216560025995922 0 -0.034775264212717809 0.0023786435452266344 0 -0.033151494865473988 0.0016616549956819883 0 -0.033736896777019791 0.001216560025995922 0 -0.034775264212717809 0.0023786435452266344 0 -0.035041095637659676 0.00097634886134701101 0 -0.034775264212717809 0.0023786435452266344 0 -0.037478259007099571 0.0025249391439975829 0 -0.034775264212717809 0.0023786435452266344 0 -0.037478259007099571 0.0025249391439975829 0 -0.036931880293384338 0.004157419270892429 0 -0.034775264212717809 0.0023786435452266344 0 -0.034768002930317302 0.00455961739012646 0 -0.036931880293384338 0.004157419270892429 0 -0.033151494865473988 0.0016616549956819883 0 -0.032276276989241279 0.0012269611204618791 0 -0.032537148714497532 0.00072892034179140159 0 -0.033168957740226615 0.0026569096230496803 0 -0.033135345923601754 0.0026702563815203311 0 -0.033151494865473988 0.0016616549956819883 0 -0.034775264212717809 0.0023786435452266344 0 -0.034724673723770451 0.0031888365090949979 0 -0.033164418430686626 0.0026854713179353799 0 -0.033135345923601754 0.0026702563815203311 0 -0.033135345923601754 0.0026702563815203311 0 -0.034690105271388869 0.0033554243868959594 0 -0.032505469853957157 0.0024228207343565153 0 -0.032507012146240563 0.00254801137243333 0 -0.032628767635687728 0.0024824011151229554 0 -0.032276276989241279 0.0012269611204618791 0 -0.032247020529575531 0.00050563605289237219 0 -0.032537148714497532 0.00072892034179140159 0 -0.033135345923601754 0.0026702563815203311 0 -0.031959473887744283 0.0020219549623228623 0 -0.032247020529575531 0.00050563605289237219 0 -0.032537148714497532 0.00072892034179140159 0 -0.032148258789766175 0.00044435666388094027 0 -0.032537148714497532 0.00072892034179140159 0 -0.032148258789766175 0.00044435666388094027 0 -0.032093232256642748 0.00039568366494763035 0 -0.03264812926494369 0.00090906569286989104 0 -0.032537148714497532 0.00072892034179140159 0 -0.032093232256642748 0.00039568366494763035 0 -0.039609763873950321 0.0010919129528003078 0 -0.043316101727845564 0.0027916315306299772 0 -0.040456732589412077 0.003801257552106297 0 -0.043949293831428857 0.0056462266061326673 0 -0.04242740273682534 0.0053768458091822792 0 -0.043316101727845564 0.0027916315306299772 0 -0.04242740273682534 0.0053768458091822792 0 -0.040456732589412077 0.003801257552106297 0 -0.040814990483021063 0.0059939336362400328 0 -0.04242740273682534 0.0053768458091822792 0 -0.043316101727845564 0.0027916315306299772 0 -0.040456732589412077 0.003801257552106297 0 -0.038766954554279101 0.004556537360747937 0 -0.040456732589412077 0.003801257552106297 0 -0.037478259007099571 0.0025249391439975829 0 -0.038766954554279101 0.004556537360747937 0 -0.040456732589412077 0.003801257552106297 0 -0.040814990483021063 0.0059939336362400328 0 -0.039609763873950321 0.0010919129528003078 0 -0.040456732589412077 0.003801257552106297 0 -0.037478259007099571 0.0025249391439975829 0 -0.038766954554279101 0.004556537360747937 0 -0.036931880293384338 0.004157419270892429 0 -0.038729598545481567 0.0066997140177891892 0 -0.038766954554279101 0.004556537360747937 0 -0.037478259007099571 0.0025249391439975829 0 -0.036931880293384338 0.004157419270892429 0 -0.034768002930317302 0.00455961739012646 0 -0.036931880293384338 0.004157419270892429 0 -0.038729598545481567 0.0066997140177891892 0 -0.034690105271388869 0.0033554243868959594 0 -0.0348591977451028 0.0031629209006447854 0 -0.032628767635687728 0.0024824011151229554 0 -0.032755417726844115 0.002542635603959923 0 -0.032630064761920548 0.0026095355297333263 0 -0.032507012146240563 0.00254801137243333 0 -0.032628767635687728 0.0024824011151229554 0 -0.032630064761920548 0.0026095355297333263 0 -0.038766954554279101 0.004556537360747937 0 -0.038729598545481567 0.0066997140177891892 0 -0.040814990483021063 0.0059939336362400328 0 -0.038729598545481567 0.0066997140177891892 0 -0.040814990483021063 0.0059939336362400328 0 -0.042224841883363042 0.008326082168461528 0 -0.04242740273682534 0.0053768458091822792 0 -0.040814990483021063 0.0059939336362400328 0 -0.042224841883363042 0.008326082168461528 0 -0.043949293831428857 0.0056462266061326673 0 -0.04242740273682534 0.0053768458091822792 0 -0.042224841883363042 0.008326082168461528 0 -0.025883881721202855 -0.00085156375180152311 0 -0.02571997627900343 -0.00078033012418557033 0 -0.025897288785259345 -0.00064382326407760729 0 -0.0348591977451028 0.0031629209006447854 0 -0.031831955279908168 0.0025954497970443404 0 -0.031831955279908168 0.0025954497970443404 0 -0.03069659898395077 0.0017829847278034638 0 -0.02571997627900343 -0.00078033012418557033 0 -0.025679792263313312 -0.00063542883959938844 0 -0.025524224313204859 -0.00069587429191518861 0 -0.025679792263313312 -0.00063542883959938844 0 -0.025897288785259345 -0.00064382326407760729 0 -0.025738605911170394 -0.00049664313652618766 0 -0.02571997627900343 -0.00078033012418557033 0 -0.025679792263313312 -0.00063542883959938844 0 -0.025897288785259345 -0.00064382326407760729 0 -0.025679792263313312 -0.00063542883959938844 0 -0.025498928446676089 -0.00044799960052540998 0 -0.025738605911170394 -0.00049664313652618766 0 -0.032148258789766175 0.00044435666388094027 0 -0.031674806470980289 0.00076917149284687607 0 -0.031748023361012907 0.00038800322340512447 0 -0.032148258789766175 0.00044435666388094027 0 -0.031748023361012907 0.00038800322340512447 0 -0.032093232256642748 0.00039568366494763035 0 -0.032247020529575531 0.00050563605289237219 0 -0.032148258789766175 0.00044435666388094027 0 -0.032310085796695573 0.00058061101474239641 0 -0.032507012146240563 0.00254801137243333 0 -0.032630064761920548 0.0026095355297333263 0 -0.032507396526816987 0.0026748662186966993 0 -0.031959473887744283 0.0020219549623228623 0 -0.03069659898395077 0.0017829847278034638 0 -0.03069659898395077 0.0017829847278034638 0 -0.029099119501659838 0.00097321454756074558 0 -0.025549543297397736 0.0033595706286423609 0 -0.027458380317252017 0.0023170556397432451 0 -0.0255037464874413 0.0018051955418156222 0 -0.025679792263313312 -0.00063542883959938844 0 -0.025524224313204859 -0.00069587429191518861 0 -0.025498928446676089 -0.00044799960052540998 0 -0.032148258789766175 0.00044435666388094027 0 -0.032310085796695573 0.00058061101474239641 0 -0.031674806470980289 0.00076917149284687607 0 -0.03069659898395077 0.0017829847278034638 0 -0.029874312509533325 0.001725510962473542 0 -0.031674806470980289 0.00076917149284687607 0 -0.03009893026233882 0.00030024869402003863 0 -0.031161637129281123 0.0001628821259797644 0 -0.031674806470980289 0.00076917149284687607 0 -0.031161637129281123 0.0001628821259797644 0 -0.031748023361012907 0.00038800322340512447 0 -0.031674806470980289 0.00076917149284687607 0 -0.03009893026233882 0.00030024869402003863 0 -0.029344856583932672 0.00090403161322057525 0 -0.031161637129281123 0.0001628821259797644 0 -0.031562597751721919 6.2693720583366567e-05 0 -0.030743525783498652 -3.2117538541745586e-05 0 -0.03009893026233882 0.00030024869402003863 0 -0.031161637129281123 0.0001628821259797644 0 -0.030743525783498652 -3.2117538541745586e-05 0 -0.031161637129281123 0.0001628821259797644 0 -0.031748023361012907 0.00038800322340512447 0 -0.032093232256642748 0.00039568366494763035 0 -0.032093232256642748 0.00039568366494763035 0 -0.032012679841356279 0.00021466171119721283 0 -0.031562597751721919 6.2693720583366567e-05 0 -0.032093232256642748 0.00039568366494763035 0 -0.032012679841356279 0.00021466171119721283 0 -0.032351731957822989 0.00052525900438655669 0 -0.031161637129281123 0.0001628821259797644 0 -0.032093232256642748 0.00039568366494763035 0 -0.031562597751721919 6.2693720583366567e-05 0 -0.03264812926494369 0.00090906569286989104 0 -0.032093232256642748 0.00039568366494763035 0 -0.032351731957822989 0.00052525900438655669 0 -0.031562597751721919 6.2693720583366567e-05 0 -0.031525327103281868 -0.00012296854236181105 0 -0.030743525783498652 -3.2117538541745586e-05 0 -0.031562597751721919 6.2693720583366567e-05 0 -0.03198907072070678 -3.9754144667537226e-05 0 -0.031525327103281868 -0.00012296854236181105 0 -0.032012679841356279 0.00021466171119721283 0 -0.031562597751721919 6.2693720583366567e-05 0 -0.03198907072070678 -3.9754144667537226e-05 0 -0.032012679841356279 0.00021466171119721283 0 -0.03198907072070678 -3.9754144667537226e-05 0 -0.032222552415565833 0.00015270870252307939 0 -0.032453572803099448 -7.0128037646620769e-05 0 -0.03198907072070678 -3.9754144667537226e-05 0 -0.032222552415565833 0.00015270870252307939 0 -0.032450810657881871 0.00035500989769204021 0 -0.032222552415565833 0.00015270870252307939 0 -0.032351731957822989 0.00052525900438655669 0 -0.032450810657881871 0.00035500989769204021 0 -0.032856660520946032 0.00080540207499563805 0 -0.032351731957822989 0.00052525900438655669 0 -0.032012679841356279 0.00021466171119721283 0 -0.032222552415565833 0.00015270870252307939 0 -0.032351731957822989 0.00052525900438655669 0 -0.035204826948424174 -2.5051520907198852e-07 0 -0.03262075126743904 -0.00022243074401642776 0 -0.032290571035783623 -6.818416737119592e-07 0 -0.03198907072070678 -3.9754144667537226e-05 0 -0.03262075126743904 -0.00022243074401642776 0 -0.031525327103281868 -0.00012296854236181105 0 -0.032453572803099448 -7.0128037646620769e-05 0 -0.03198907072070678 -3.9754144667537226e-05 0 -0.03262075126743904 -0.00022243074401642776 0 -0.03262075126743904 -0.00022243074401642776 0 -0.031525327103281868 -0.00012296854236181105 0 -0.030748729160762545 -0.00012126890839228836 0 -0.03262075126743904 -0.00022243074401642776 0 -0.032290571035783623 -6.818416737119592e-07 0 -0.030748729160762545 -0.00012126890839228836 0 -0.029374831841683061 7.1443537558395157e-08 0 -0.030748729160762545 -0.00012126890839228836 0 -0.029545906397342659 3.0071852469679835e-05 0 -0.032290571035783623 -6.818416737119592e-07 0 -0.029374831841683061 7.1443537558395157e-08 0 -0.030748729160762545 -0.00012126890839228836 0 -0.030748729160762545 -0.00012126890839228836 0 -0.030743525783498652 -3.2117538541745586e-05 0 -0.029545906397342659 3.0071852469679835e-05 0 -0.031525327103281868 -0.00012296854236181105 0 -0.030748729160762545 -0.00012126890839228836 0 -0.030743525783498652 -3.2117538541745586e-05 0 -0.03009893026233882 0.00030024869402003863 0 -0.030743525783498652 -3.2117538541745586e-05 0 -0.029545906397342659 3.0071852469679835e-05 0 -0.03009893026233882 0.00030024869402003863 0 -0.029545906397342659 3.0071852469679835e-05 0 -0.028460251583042436 0.00045207839352124062 0 -0.029374831841683061 7.1443537558395157e-08 0 -0.029545906397342659 3.0071852469679835e-05 0 -0.026457911056248361 -5.5235262022889898e-07 0 -0.029545906397342659 3.0071852469679835e-05 0 -0.026457911056248361 -5.5235262022889898e-07 0 -0.028460251583042436 0.00045207839352124062 0 -0.026457911056248361 -5.5235262022889898e-07 0 -0.028460251583042436 0.00045207839352124062 0 -0.026681693201538036 5.9046964384511766e-05 0 -0.028460251583042436 0.00045207839352124062 0 -0.026681693201538036 5.9046964384511766e-05 0 -0.02626930317481696 0.00035543274899528028 0 -0.026457911056248361 -5.5235262022889898e-07 0 -0.026681693201538036 5.9046964384511766e-05 0 -0.023548642179777958 2.4757023364818858e-06 0 -0.027458380317252017 0.0023170556397432451 0 -0.028010021788100987 0.0010059269578793406 0 -0.029344856583932672 0.00090403161322057525 0 -0.029874312509533325 0.001725510962473542 0 -0.029817731022821349 0.0015461928678073057 0 -0.03009893026233882 0.00030024869402003863 0 -0.028460251583042436 0.00045207839352124062 0 -0.029344856583932672 0.00090403161322057525 0 -0.028460251583042436 0.00045207839352124062 0 -0.029344856583932672 0.00090403161322057525 0 -0.029168381638696082 0.00066338193334296053 0 -0.027560997277835779 0.00035925220635189614 0 -0.027219597882428604 0.00023219883423976134 0 -0.026681693201538036 5.9046964384511766e-05 0 -0.02626930317481696 0.00035543274899528028 0 -0.026248853316509297 0.00015323341395773456 0 -0.028010021788100987 0.0010059269578793406 0 -0.029344856583932672 0.00090403161322057525 0 -0.029168381638696082 0.00066338193334296053 0 -0.028010021788100987 0.0010059269578793406 0 -0.029168381638696082 0.00066338193334296053 0 -0.027077291430550526 0.00038979448944925077 0 -0.02626930317481696 0.00035543274899528028 0 -0.026248853316509297 0.00015323341395773456 0 -0.02514172547449145 -0.00020811008469360715 0 -0.027219597882428604 0.00023219883423976134 0 -0.026348931475804648 -0.00025185190447078861 0 -0.026248853316509297 0.00015323341395773456 0 -0.025819820950772846 -0.00040757225508201788 0 -0.02514172547449145 -0.00020811008469360715 0 -0.029168381638696082 0.00066338193334296053 0 -0.026807384429404398 -0.00091640608725258171 0 -0.027077291430550526 0.00038979448944925077 0 -0.026248853316509297 0.00015323341395773456 0 -0.025819820950772846 -0.00040757225508201788 0 -0.026518777631860949 0.0005178879633411218 0 -0.024152469535918892 -0.00030048419333065862 0 -0.023803864903977682 -0.00015192704770731376 0 -0.021452485911180656 -0.00061953880009927307 0 -0.02233462160025829 -0.0012198177465501674 0 -0.021096463424053035 -0.00041860568942290235 0 -0.021452485911180656 -0.00061953880009927307 0 -0.02233462160025829 -0.0012198177465501674 0 -0.022169562753191333 -0.00043896688572633911 0 -0.025819820950772846 -0.00040757225508201788 0 -0.02514172547449145 -0.00020811008469360715 0 -0.024814407709165775 -0.0004551203718066394 0 -0.024152469535918892 -0.00030048419333065862 0 -0.024411700342160121 -0.00030301433537714267 0 -0.02233462160025829 -0.0012198177465501674 0 -0.023161348007620312 -0.00051247698780999926 0 -0.024814407709165775 -0.0004551203718066394 0 -0.02233462160025829 -0.0012198177465501674 0 -0.022169562753191333 -0.00043896688572633911 0 -0.023161348007620312 -0.00051247698780999926 0 -0.023542237450809529 -3.9634605423293444e-07 0 -0.023803864903977682 -0.00015192704770731376 0 -0.023537781417800271 1.1327369164742026e-06 0 -0.021096463424053035 -0.00041860568942290235 0 -0.0209633204313492 -0.00053500673292725424 0 -0.026681693201538036 5.9046964384511766e-05 0 -0.023548642179777958 2.4757023364818858e-06 0 -0.026518777631860949 0.0005178879633411218 0 -0.026681693201538036 5.9046964384511766e-05 0 -0.026248853316509297 0.00015323341395773456 0 -0.026518777631860949 0.0005178879633411218 0 -0.021452485911180656 -0.00061953880009927307 0 -0.021096463424053035 -0.00041860568942290235 0 -0.0209633204313492 -0.00053500673292725424 0 -0.021452485911180656 -0.00061953880009927307 0 -0.0209633204313492 -0.00053500673292725424 0 -0.02126478564618987 -0.00027929057370045099 0 -0.023537781417800271 1.1327369164742026e-06 0 -0.0209633204313492 -0.00053500673292725424 0 -0.020261932936166255 -2.5971176280514425e-06 0 -0.0209633204313492 -0.00053500673292725424 0 -0.020261932936166255 -2.5971176280514425e-06 0 -0.020048539646038706 -0.00011212725371800577 0 -0.020261932936166255 -2.5971176280514425e-06 0 -0.020048539646038706 -0.00011212725371800577 0 -0.016985434508251629 3.7675706466639055e-06 0 -0.020476059012854732 0.0011424253374036771 0 -0.020048539646038706 -0.00011212725371800577 0 -0.016985434508251629 3.7675706466639055e-06 0 -0.020476059012854732 0.0011424253374036771 0 -0.020048539646038706 -0.00011212725371800577 0 -0.02127688214317662 0.00040050311658335801 0 -0.020048539646038706 -0.00011212725371800577 0 -0.02126478564618987 -0.00027929057370045099 0 -0.02127688214317662 0.00040050311658335801 0 -0.0209633204313492 -0.00053500673292725424 0 -0.020048539646038706 -0.00011212725371800577 0 -0.02126478564618987 -0.00027929057370045099 0 -0.021452485911180656 -0.00061953880009927307 0 -0.02126478564618987 -0.00027929057370045099 0 -0.022169562753191333 -0.00043896688572633911 0 -0.02126478564618987 -0.00027929057370045099 0 -0.022169562753191333 -0.00043896688572633911 0 -0.022177238155981945 0.00022025103748887372 0 -0.02126478564618987 -0.00027929057370045099 0 -0.022177238155981945 0.00022025103748887372 0 -0.02127688214317662 0.00040050311658335801 0 -0.023161348007620312 -0.00051247698780999926 0 -0.023105682011552057 -6.9986922899078479e-05 0 -0.023838071375150951 -0.00023532767168005654 0 -0.022169562753191333 -0.00043896688572633911 0 -0.023161348007620312 -0.00051247698780999926 0 -0.023105682011552057 -6.9986922899078479e-05 0 -0.022177238155981945 0.00022025103748887372 0 -0.023105682011552057 -6.9986922899078479e-05 0 -0.023246574437371121 0.00037289337454268176 0 -0.022169562753191333 -0.00043896688572633911 0 -0.022177238155981945 0.00022025103748887372 0 -0.023105682011552057 -6.9986922899078479e-05 0 -0.023105682011552057 -6.9986922899078479e-05 0 -0.023246574437371121 0.00037289337454268176 0 -0.024264544621598143 -1.2551002238668625e-05 0 -0.016750121558946712 -0.0010086878412159134 0 -0.018911495393109028 0.00056289063297231825 0 -0.020961643705746269 -0.00095770058715641292 0 -0.019888058977732426 2.6620001066034382e-05 0 -0.021621712824201385 -8.6795666211603325e-05 0 -0.023246574437371121 0.00037289337454268176 0 -0.022418273224689721 0.0011435676380975074 0 -0.024092879240561648 0.00058297428645672856 0 -0.022177238155981945 0.00022025103748887372 0 -0.023246574437371121 0.00037289337454268176 0 -0.022418273224689721 0.0011435676380975074 0 -0.020476059012854732 0.0011424253374036771 0 -0.02127688214317662 0.00040050311658335801 0 -0.022418273224689721 0.0011435676380975074 0 -0.01836199327916934 8.496069598914693e-05 0 -0.019888058977732426 2.6620001066034382e-05 0 -0.022177238155981945 0.00022025103748887372 0 -0.02127688214317662 0.00040050311658335801 0 -0.022418273224689721 0.0011435676380975074 0 -0.015106695554179558 4.9081397615374484e-05 0 -0.016750121558946712 -0.0010086878412159134 0 -0.015774033320950429 0.00024592237393147138 0 -0.016750121558946712 -0.0010086878412159134 0 -0.015774033320950429 0.00024592237393147138 0 -0.018911495393109028 0.00056289063297231825 0 -0.015774033320950429 0.00024592237393147138 0 -0.018911495393109028 0.00056289063297231825 0 -0.019731014488273819 0.0031637805914132133 0 -0.015786590439253959 9.0263930699319099e-05 0 -0.015453968056163905 9.531933000802789e-05 0 -0.015595055331933573 0.00043814767328660171 0 -0.016958585575179069 0.00098839590047438189 0 -0.017734766389733637 0.0015222803193358011 0 -0.015774033320950429 0.00024592237393147138 0 -0.015453968056163905 9.531933000802789e-05 0 -0.014943091057401275 -0.00019143595070811797 0 -0.015774033320950429 0.00024592237393147138 0 -0.015786590439253959 9.0263930699319099e-05 0 -0.015453968056163905 9.531933000802789e-05 0 -0.014943091057401275 -0.00019143595070811797 0 -0.014877143320350806 0.00011927549219733332 0 -0.01405081145459453 -9.3813400106431281e-05 0 -0.015453968056163905 9.531933000802789e-05 0 -0.014943091057401275 -0.00019143595070811797 0 -0.014877143320350806 0.00011927549219733332 0 -0.014943091057401275 -0.00019143595070811797 0 -0.014423704880646938 -1.6647823324503492e-06 0 -0.01405081145459453 -9.3813400106431281e-05 0 -0.015106695554179558 4.9081397615374484e-05 0 -0.014943091057401275 -0.00019143595070811797 0 -0.016976141358230088 1.0507521900247337e-06 0 -0.01836199327916934 8.496069598914693e-05 0 -0.016982679300397967 3.8153403802129646e-07 0 -0.014943091057401275 -0.00019143595070811797 0 -0.014423704880646938 -1.6647823324503492e-06 0 -0.016976141358230088 1.0507521900247337e-06 0 -0.015106695554179558 4.9081397615374484e-05 0 -0.015774033320950429 0.00024592237393147138 0 -0.014943091057401275 -0.00019143595070811797 0 -0.024695690570066809 0.0022944772920592952 0 -0.023852294535735261 0.0011394591479142724 0 -0.025463680948397353 0.00063935166632587211 0 -0.025793812380796213 0.0022894565111874635 0 -0.024695690570066809 0.0022944772920592952 0 -0.025463680948397353 0.00063935166632587211 0 -0.025793812380796213 0.0022894565111874635 0 -0.025463680948397353 0.00063935166632587211 0 -0.026695200342665013 0.0014716504918397811 0 -0.025793812380796213 0.0022894565111874635 0 -0.02508051182616499 0.0032915506773050838 0 -0.024695690570066809 0.0022944772920592952 0 -0.025793812380796213 0.0022894565111874635 0 -0.026834929022136415 0.0027960947166456979 0 -0.025943839442794069 0.0035074420930161247 0 -0.025793812380796213 0.0022894565111874635 0 -0.02508051182616499 0.0032915506773050838 0 -0.025943839442794069 0.0035074420930161247 0 -0.02508051182616499 0.0032915506773050838 0 -0.024695690570066809 0.0022944772920592952 0 -0.02403240529877294 0.0033350001961554845 0 -0.024695690570066809 0.0022944772920592952 0 -0.02403240529877294 0.0033350001961554845 0 -0.023060351017392743 0.0025952647347918887 0 -0.024695690570066809 0.0022944772920592952 0 -0.023060351017392743 0.0025952647347918887 0 -0.023852294535735261 0.0011394591479142724 0 -0.02403240529877294 0.0033350001961554845 0 -0.023060351017392743 0.0025952647347918887 0 -0.022690867031717018 0.0043990340116769021 0 -0.019731014488273819 0.0031637805914132133 0 -0.023060351017392743 0.0025952647347918887 0 -0.021320352557071882 0.0013716938512029725 0 -0.019731014488273819 0.0031637805914132133 0 -0.023060351017392743 0.0025952647347918887 0 -0.022690867031717018 0.0043990340116769021 0 -0.018911495393109028 0.00056289063297231825 0 -0.021320352557071882 0.0013716938512029725 0 -0.020961643705746269 -0.00095770058715641292 0 -0.018911495393109028 0.00056289063297231825 0 -0.019731014488273819 0.0031637805914132133 0 -0.021320352557071882 0.0013716938512029725 0 -0.021320352557071882 0.0013716938512029725 0 -0.023852294535735261 0.0011394591479142724 0 -0.020961643705746269 -0.00095770058715641292 0 -0.023060351017392743 0.0025952647347918887 0 -0.021320352557071882 0.0013716938512029725 0 -0.023852294535735261 0.0011394591479142724 0 -0.022512997261787081 -0.00013460061030337911 0 -0.021621712824201385 -8.6795666211603325e-05 0 -0.023852294535735261 0.0011394591479142724 0 -0.024421414247451541 -1.9911517439886213e-05 0 -0.020961643705746269 -0.00095770058715641292 0 -0.024421414247451541 -1.9911517439886213e-05 0 -0.024092879240561648 0.00058297428645672856 0 -0.024264544621598143 -1.2551002238668625e-05 0 -0.023246574437371121 0.00037289337454268176 0 -0.024092879240561648 0.00058297428645672856 0 -0.024264544621598143 -1.2551002238668625e-05 0 -0.023161348007620312 -0.00051247698780999926 0 -0.023838071375150951 -0.00023532767168005654 0 -0.024814407709165775 -0.0004551203718066394 0 -0.023105682011552057 -6.9986922899078479e-05 0 -0.024264544621598143 -1.2551002238668625e-05 0 -0.023838071375150951 -0.00023532767168005654 0 -0.024264544621598143 -1.2551002238668625e-05 0 -0.024723105170568922 -0.00049336263600329767 0 -0.024814407709165775 -0.0004551203718066394 0 -0.024264544621598143 -1.2551002238668625e-05 0 -0.023838071375150951 -0.00023532767168005654 0 -0.024814407709165775 -0.0004551203718066394 0 -0.024723105170568922 -0.00049336263600329767 0 -0.025287493000846355 -0.00035356682155825809 0 -0.025256915240986316 -0.00054122879378575028 0 -0.024421414247451541 -1.9911517439886213e-05 0 -0.024264544621598143 -1.2551002238668625e-05 0 -0.024723105170568922 -0.00049336263600329767 0 -0.024421414247451541 -1.9911517439886213e-05 0 -0.024723105170568922 -0.00049336263600329767 0 -0.025287493000846355 -0.00035356682155825809 0 -0.024421414247451541 -1.9911517439886213e-05 0 -0.025287493000846355 -0.00035356682155825809 0 -0.025463680948397353 0.00063935166632587211 0 -0.023852294535735261 0.0011394591479142724 0 -0.024421414247451541 -1.9911517439886213e-05 0 -0.025463680948397353 0.00063935166632587211 0 -0.025463680948397353 0.00063935166632587211 0 -0.02593325039632299 -0.00020379593152868342 0 -0.026343477457419624 0.00032882593803501315 0 -0.025287493000846355 -0.00035356682155825809 0 -0.025463680948397353 0.00063935166632587211 0 -0.02593325039632299 -0.00020379593152868342 0 -0.025287493000846355 -0.00035356682155825809 0 -0.02593325039632299 -0.00020379593152868342 0 -0.025735309164754278 -0.00041655956439329414 0 -0.025287493000846355 -0.00035356682155825809 0 -0.025465399470454189 -0.00045433253912098901 0 -0.025256915240986316 -0.00054122879378575028 0 -0.025287493000846355 -0.00035356682155825809 0 -0.025735309164754278 -0.00041655956439329414 0 -0.025465399470454189 -0.00045433253912098901 0 -0.025465399470454189 -0.00045433253912098901 0 -0.025540338750520083 -0.0003144318618436726 0 -0.025630702475186305 -0.00033337204819785816 0 -0.025735309164754278 -0.00041655956439329414 0 -0.025465399470454189 -0.00045433253912098901 0 -0.025630702475186305 -0.00033337204819785816 0 -0.025735309164754278 -0.00041655956439329414 0 -0.025630702475186305 -0.00033337204819785816 0 -0.025953927281040411 -0.00044419911963293208 0 -0.024723105170568922 -0.00049336263600329767 0 -0.02514172547449145 -0.00020811008469360715 0 -0.024814407709165775 -0.0004551203718066394 0 -0.025872095476717996 -0.0004669317979798549 0 -0.026348931475804648 -0.00025185190447078861 0 -0.026807384429404398 -0.00091640608725258171 0 -0.025393552965247885 -0.00061340318328108063 0 -0.025899723371057653 -0.00060093129531026688 0 -0.024723105170568922 -0.00049336263600329767 0 -0.026807384429404398 -0.00091640608725258171 0 -0.025393552965247885 -0.00061340318328108063 0 -0.025393552965247885 -0.00061340318328108063 0 -0.025528450413538201 -0.00052875242941990627 0 -0.025899723371057653 -0.00060093129531026688 0 -0.024723105170568922 -0.00049336263600329767 0 -0.025393552965247885 -0.00061340318328108063 0 -0.025256915240986316 -0.00054122879378575028 0 -0.025393552965247885 -0.00061340318328108063 0 -0.025256915240986316 -0.00054122879378575028 0 -0.025528450413538201 -0.00052875242941990627 0 -0.025465399470454189 -0.00045433253912098901 0 -0.025256915240986316 -0.00054122879378575028 0 -0.025528450413538201 -0.00052875242941990627 0 -0.025465399470454189 -0.00045433253912098901 0 -0.025528450413538201 -0.00052875242941990627 0 -0.025540338750520083 -0.0003144318618436726 0 -0.025540338750520083 -0.0003144318618436726 0 -0.02607082913153309 -0.00032541644429314527 0 -0.025558489651867522 7.037543050618371e-05 0 -0.025528450413538201 -0.00052875242941990627 0 -0.025899723371057653 -0.00060093129531026688 0 -0.02607082913153309 -0.00032541644429314527 0 -0.025528450413538201 -0.00052875242941990627 0 -0.025540338750520083 -0.0003144318618436726 0 -0.02607082913153309 -0.00032541644429314527 0 -0.026807384429404398 -0.00091640608725258171 0 -0.02607082913153309 -0.00032541644429314527 0 -0.027077291430550526 0.00038979448944925077 0 -0.026807384429404398 -0.00091640608725258171 0 -0.025899723371057653 -0.00060093129531026688 0 -0.02607082913153309 -0.00032541644429314527 0 -0.028010021788100987 0.0010059269578793406 0 -0.027077291430550526 0.00038979448944925077 0 -0.026554855699497899 0.001036978321835097 0 -0.027077291430550526 0.00038979448944925077 0 -0.025558489651867522 7.037543050618371e-05 0 -0.026554855699497899 0.001036978321835097 0 -0.02607082913153309 -0.00032541644429314527 0 -0.027077291430550526 0.00038979448944925077 0 -0.025558489651867522 7.037543050618371e-05 0 -0.028617802329855439 0.00066077278831863987 0 -0.029099119501659838 0.00097321454756074558 0 -0.025558489651867522 7.037543050618371e-05 0 -0.0255037464874413 0.0018051955418156222 0 -0.026554855699497899 0.001036978321835097 0 -0.025558489651867522 7.037543050618371e-05 0 -0.025498928446676089 -0.00044799960052540998 0 -0.025693961818390128 -0.0002852520654020643 0 -0.027458380317252017 0.0023170556397432451 0 -0.0255037464874413 0.0018051955418156222 0 -0.026554855699497899 0.001036978321835097 0 -0.027458380317252017 0.0023170556397432451 0 -0.028010021788100987 0.0010059269578793406 0 -0.026554855699497899 0.001036978321835097 0 -0.025630702475186305 -0.00033337204819785816 0 -0.025832502083085077 -0.00044314548165861061 0 -0.025953927281040411 -0.00044419911963293208 0 -0.025630702475186305 -0.00033337204819785816 0 -0.025693961818390128 -0.0002852520654020643 0 -0.025832502083085077 -0.00044314548165861061 0 -0.025540338750520083 -0.0003144318618436726 0 -0.025558489651867522 7.037543050618371e-05 0 -0.025630702475186305 -0.00033337204819785816 0 -0.025558489651867522 7.037543050618371e-05 0 -0.025630702475186305 -0.00033337204819785816 0 -0.025693961818390128 -0.0002852520654020643 0 -0.025693961818390128 -0.0002852520654020643 0 -0.025738605911170394 -0.00049664313652618766 0 -0.025832502083085077 -0.00044314548165861061 0 -0.025498928446676089 -0.00044799960052540998 0 -0.025693961818390128 -0.0002852520654020643 0 -0.025738605911170394 -0.00049664313652618766 0 -0.025897288785259345 -0.00064382326407760729 0 -0.025738605911170394 -0.00049664313652618766 0 -0.025832502083085077 -0.00044314548165861061 0 -0.025897288785259345 -0.00064382326407760729 0 -0.025832502083085077 -0.00044314548165861061 0 -0.025985202501066836 -0.00056255268484294691 0 -0.025832502083085077 -0.00044314548165861061 0 -0.025985202501066836 -0.00056255268484294691 0 -0.026016265042925164 -0.0005107196777850351 0 -0.025985202501066836 -0.00056255268484294691 0 -0.026016265042925164 -0.0005107196777850351 0 -0.026099074438726347 -0.00057709639684484575 0 -0.026016265042925164 -0.0005107196777850351 0 -0.025953927281040411 -0.00044419911963293208 0 -0.026202699170341199 -0.00050846296962071325 0 -0.025832502083085077 -0.00044314548165861061 0 -0.026016265042925164 -0.0005107196777850351 0 -0.025953927281040411 -0.00044419911963293208 0 -0.027196073459447148 -0.00019514062517401239 0 -0.027250610215147995 -0.00026874025216312968 0 -0.027250914269512018 -0.00024953136535854154 0 -0.026016265042925164 -0.0005107196777850351 0 -0.026202699170341199 -0.00050846296962071325 0 -0.026099074438726347 -0.00057709639684484575 0 -0.028951678950718776 -0.0005093698304783692 0 -0.031031258004838354 -0.00024592909228815312 0 -0.027263823243487882 -0.00027898638614956442 0 -0.027250610215147995 -0.00026874025216312968 0 -0.027250914269512018 -0.00024953136535854154 0 -0.027263823243487882 -0.00027898638614956442 0 -0.027250914269512018 -0.00024953136535854154 0 -0.02727598406723749 -0.00025944409459033806 0 -0.027298585122722367 -0.00028600560409830202 0 -0.02727598406723749 -0.00025944409459033806 0 -0.027320747758348682 -0.00024391863488407959 0 -0.027263036974279155 -0.00022221065701925451 0 -0.027320747758348682 -0.00024391863488407959 0 -0.027307505515474267 -0.0002087676979169087 0 -0.02727598406723749 -0.00025944409459033806 0 -0.027263036974279155 -0.00022221065701925451 0 -0.027320747758348682 -0.00024391863488407959 0 -0.027250914269512018 -0.00024953136535854154 0 -0.02727598406723749 -0.00025944409459033806 0 -0.027263036974279155 -0.00022221065701925451 0 -0.027359160985225651 -0.00030864697419426956 0 -0.027438785378939394 -0.00020100981922211073 0 -0.027531382235278241 -0.00012802306544319283 0 -0.031205204012542408 -0.00041821650740267934 0 -0.029966802244341447 -0.00076408644368471926 0 -0.027359160985225651 -0.00030864697419426956 0 -0.027438785378939394 -0.00020100981922211073 0 -0.027375134309287185 -0.00023471510253682187 0 -0.027359160985225651 -0.00030864697419426956 0 -0.027320747758348682 -0.00024391863488407959 0 -0.027375134309287185 -0.00023471510253682187 0 -0.027298585122722367 -0.00028600560409830202 0 -0.027359160985225651 -0.00030864697419426956 0 -0.027320747758348682 -0.00024391863488407959 0 -0.027320747758348682 -0.00024391863488407959 0 -0.027375134309287185 -0.00023471510253682187 0 -0.027383109190255231 -0.00021823296795171109 0 -0.027320747758348682 -0.00024391863488407959 0 -0.027383109190255231 -0.00021823296795171109 0 -0.027307505515474267 -0.0002087676979169087 0 -0.027438785378939394 -0.00020100981922211073 0 -0.027383109190255231 -0.00021823296795171109 0 -0.027446297359125238 -0.00022765126924168566 0 -0.027438785378939394 -0.00020100981922211073 0 -0.027375134309287185 -0.00023471510253682187 0 -0.027383109190255231 -0.00021823296795171109 0 -0.027318435522234088 -0.00018843645890920317 0 -0.027397249223183907 -0.00022517878838494005 0 -0.027370988791116952 -0.00013304670256218405 0 -0.027383109190255231 -0.00021823296795171109 0 -0.027318435522234088 -0.00018843645890920317 0 -0.027397249223183907 -0.00022517878838494005 0 -0.027383109190255231 -0.00021823296795171109 0 -0.027307505515474267 -0.0002087676979169087 0 -0.027318435522234088 -0.00018843645890920317 0 -0.027307505515474267 -0.0002087676979169087 0 -0.027318435522234088 -0.00018843645890920317 0 -0.02723991508482218 -0.00017653960678337872 0 -0.027196073459447148 -0.00019514062517401239 0 -0.027263036974279155 -0.00022221065701925451 0 -0.02723991508482218 -0.00017653960678337872 0 -0.027196073459447148 -0.00019514062517401239 0 -0.027250914269512018 -0.00024953136535854154 0 -0.027263036974279155 -0.00022221065701925451 0 -0.027263036974279155 -0.00022221065701925451 0 -0.027307505515474267 -0.0002087676979169087 0 -0.02723991508482218 -0.00017653960678337872 0 -0.02723991508482218 -0.00017653960678337872 0 -0.027253314627289239 -0.0001183845090987935 0 -0.027106731243159512 -9.0176208711270392e-05 0 -0.027196073459447148 -0.00019514062517401239 0 -0.02723991508482218 -0.00017653960678337872 0 -0.027106731243159512 -9.0176208711270392e-05 0 -0.027318435522234088 -0.00018843645890920317 0 -0.027253314627289239 -0.0001183845090987935 0 -0.027370988791116952 -0.00013304670256218405 0 -0.027318435522234088 -0.00018843645890920317 0 -0.02723991508482218 -0.00017653960678337872 0 -0.027253314627289239 -0.0001183845090987935 0 -0.027253314627289239 -0.0001183845090987935 0 -0.027287743203908629 -3.0170770609550513e-05 0 -0.027370988791116952 -0.00013304670256218405 0 -0.027253314627289239 -0.0001183845090987935 0 -0.027287743203908629 -3.0170770609550513e-05 0 -0.027152778256964352 -4.5195573626958362e-05 0 -0.027287743203908629 -3.0170770609550513e-05 0 -0.027152778256964352 -4.5195573626958362e-05 0 -0.027174163013344018 6.2439375993500335e-05 0 -0.028090900705568241 -0.00032666664412893799 0 -0.027870610326742228 -0.0001761888223286932 0 -0.027152778256964352 -4.5195573626958362e-05 0 -0.027106731243159512 -9.0176208711270392e-05 0 -0.026901880939285489 9.2414766393360463e-05 0 -0.027253314627289239 -0.0001183845090987935 0 -0.027152778256964352 -4.5195573626958362e-05 0 -0.027106731243159512 -9.0176208711270392e-05 0 -0.026488846453776284 -0.00036409158943446487 0 -0.026146562374842711 -0.00037774821776619355 0 -0.026322265455363522 -0.00013031197361557706 0 -0.026488846453776284 -0.00036409158943446487 0 -0.026322265455363522 -0.00013031197361557706 0 -0.026901880939285489 9.2414766393360463e-05 0 -0.02593325039632299 -0.00020379593152868342 0 -0.025735309164754278 -0.00041655956439329414 0 -0.026146562374842711 -0.00037774821776619355 0 -0.02593325039632299 -0.00020379593152868342 0 -0.026146562374842711 -0.00037774821776619355 0 -0.026322265455363522 -0.00013031197361557706 0 -0.025953927281040411 -0.00044419911963293208 0 -0.026202699170341199 -0.00050846296962071325 0 -0.026146562374842711 -0.00037774821776619355 0 -0.025735309164754278 -0.00041655956439329414 0 -0.025953927281040411 -0.00044419911963293208 0 -0.026146562374842711 -0.00037774821776619355 0 -0.026202699170341199 -0.00050846296962071325 0 -0.026488846453776284 -0.00036409158943446487 0 -0.026146562374842711 -0.00037774821776619355 0 -0.028951678950718776 -0.0005093698304783692 0 -0.028090900705568241 -0.00032666664412893799 0 -0.041394623296067475 0.007507397434615347 0 -0.042165885320856272 0.0066912371332832187 0 -0.041207119939045009 0.0057196503303758072 0 -0.042165885320856272 0.0066912371332832187 0 -0.042434262710420424 0.0058147256066337768 0 -0.041207119939045009 0.0057196503303758072 0 -0.041394623296067475 0.007507397434615347 0 -0.042692013484627318 0.0075333019930950646 0 -0.042165885320856272 0.0066912371332832187 0 -0.042476529208679281 0.0085171586952883047 0 -0.041394623296067475 0.007507397434615347 0 -0.042692013484627318 0.0075333019930950646 0 -0.042692013484627318 0.0075333019930950646 0 -0.042165885320856272 0.0066912371332832187 0 -0.043049526391127295 0.0068434313082492869 0 -0.043413881169034177 0.0059227773749950443 0 -0.043049526391127295 0.0068434313082492869 0 -0.042434262710420424 0.0058147256066337768 0 -0.042165885320856272 0.0066912371332832187 0 -0.043049526391127295 0.0068434313082492869 0 -0.042434262710420424 0.0058147256066337768 0 -0.043413881169034177 0.0059227773749950443 0 -0.043049526391127295 0.0068434313082492869 0 -0.044156973755734484 0.0073194827994894256 0 -0.036909346432535288 0.0025448539044130745 0 -0.036769908987065301 0.0031532593924332702 0 -0.027561245293805804 -0.00018877105151706843 0 -0.027361664411854593 -0.00030465106055917179 0 -0.027440907372122059 -0.0001885934091240534 0 -0.042692013484627318 0.0075333019930950646 0 -0.043049526391127295 0.0068434313082492869 0 -0.043534887814321896 0.0077414996144801809 0 -0.043049526391127295 0.0068434313082492869 0 -0.043534887814321896 0.0077414996144801809 0 -0.044156973755734484 0.0073194827994894256 0 -0.043121258478418086 0.0082776404820426065 0 -0.042692013484627318 0.0075333019930950646 0 -0.043534887814321896 0.0077414996144801809 0 -0.027976304351685421 0.00062256469024543236 0 -0.027361664411854593 -0.00030465106055917179 0 -0.027531382235278241 -0.00012802306544319283 0 -0.044084721173993743 0.0081948799565713885 0 -0.043534887814321896 0.0077414996144801809 0 -0.044156973755734484 0.0073194827994894256 0 -0.027361664411854593 -0.00030465106055917179 0 -0.027446297359125238 -0.00022765126924168566 0 -0.027397249223183907 -0.00022517878838494005 0 -0.027438785378939394 -0.00020100981922211073 0 -0.027531382235278241 -0.00012802306544319283 0 -0.027446297359125238 -0.00022765126924168566 0 -0.027361664411854593 -0.00030465106055917179 0 -0.027531382235278241 -0.00012802306544319283 0 -0.027446297359125238 -0.00022765126924168566 0 -0.027383109190255231 -0.00021823296795171109 0 -0.027446297359125238 -0.00022765126924168566 0 -0.027397249223183907 -0.00022517878838494005 0 -0.027397249223183907 -0.00022517878838494005 0 -0.027440907372122059 -0.0001885934091240534 0 -0.027370988791116952 -0.00013304670256218405 0 -0.027361664411854593 -0.00030465106055917179 0 -0.027397249223183907 -0.00022517878838494005 0 -0.027440907372122059 -0.0001885934091240534 0 -0.027440907372122059 -0.0001885934091240534 0 -0.027370988791116952 -0.00013304670256218405 0 -0.027501058540242127 -5.5224187275328253e-05 0 -0.027370988791116952 -0.00013304670256218405 0 -0.027393493650095253 -5.1147976602453742e-05 0 -0.027501058540242127 -5.5224187275328253e-05 0 -0.027287743203908629 -3.0170770609550513e-05 0 -0.027370988791116952 -0.00013304670256218405 0 -0.027393493650095253 -5.1147976602453742e-05 0 -0.027416295832157395 4.1441185687749179e-05 0 -0.027501058540242127 -5.5224187275328253e-05 0 -0.027529272763160521 0.00013574866637151143 0 -0.027287743203908629 -3.0170770609550513e-05 0 -0.027393493650095253 -5.1147976602453742e-05 0 -0.027416295832157395 4.1441185687749179e-05 0 -0.027287743203908629 -3.0170770609550513e-05 0 -0.027416295832157395 4.1441185687749179e-05 0 -0.027295003683364762 0.0001272430175290977 0 -0.027393493650095253 -5.1147976602453742e-05 0 -0.027416295832157395 4.1441185687749179e-05 0 -0.027501058540242127 -5.5224187275328253e-05 0 -0.038528829096850833 0.0028203726043417709 0 -0.034897236314169258 0.0022834437049248204 0 -0.027501058540242127 -5.5224187275328253e-05 0 -0.027707433174963256 -2.9121807746272583e-05 0 -0.027529272763160521 0.00013574866637151143 0 -0.027561245293805804 -0.00018877105151706843 0 -0.027501058540242127 -5.5224187275328253e-05 0 -0.027707433174963256 -2.9121807746272583e-05 0 -0.027561245293805804 -0.00018877105151706843 0 -0.027440907372122059 -0.0001885934091240534 0 -0.027501058540242127 -5.5224187275328253e-05 0 -0.042434262710420424 0.0058147256066337768 0 -0.04254597998262713 0.0045876912511077748 0 -0.041207119939045009 0.0057196503303758072 0 -0.043413881169034177 0.0059227773749950443 0 -0.042434262710420424 0.0058147256066337768 0 -0.04254597998262713 0.0045876912511077748 0 -0.036909346432535288 0.0025448539044130745 0 -0.038528829096850833 0.0028203726043417709 0 -0.040908582400792148 0.0036200776144044056 0 -0.04067001498494445 0.0035799076810485342 0 -0.041038521555356137 0.0033259349189618259 0 -0.040908582400792148 0.0036200776144044056 0 -0.040934491907153953 0.0036517823947223318 0 -0.041038521555356137 0.0033259349189618259 0 -0.040908582400792148 0.0036200776144044056 0 -0.041015280115689993 0.0036889194638273148 0 -0.04067001498494445 0.0035799076810485342 0 -0.038552694771493881 0.0028446458964102523 0 -0.038528829096850833 0.0028203726043417709 0 -0.041015280115689993 0.0036889194638273148 0 -0.04067001498494445 0.0035799076810485342 0 -0.040344743665807682 0.0039108073844929606 0 -0.04067001498494445 0.0035799076810485342 0 -0.039942970431380571 0.0032170747550175406 0 -0.040221411503879791 0.0025149312917181438 0 -0.04067001498494445 0.0035799076810485342 0 -0.039942970431380571 0.0032170747550175406 0 -0.040344743665807682 0.0039108073844929606 0 -0.039942970431380571 0.0032170747550175406 0 -0.040344743665807682 0.0039108073844929606 0 -0.039411917574354839 0.0036422227891250978 0 -0.041015280115689993 0.0036889194638273148 0 -0.040344743665807682 0.0039108073844929606 0 -0.040346392923677685 0.0048904090149396616 0 -0.040344743665807682 0.0039108073844929606 0 -0.040346392923677685 0.0048904090149396616 0 -0.039411917574354839 0.0036422227891250978 0 -0.038528829096850833 0.0028203726043417709 0 -0.039400289894237668 0.0043203453063500727 0 -0.040899468291315071 0.00062197831239427215 0 -0.039967185877556231 0.0013233956284345453 0 -0.038496161261976407 -0.00080542248176817806 0 -0.040899468291315071 0.00062197831239427215 0 -0.041821007910502257 -4.9014759953496706e-05 0 -0.038496161261976407 -0.00080542248176817806 0 -0.040899468291315071 0.00062197831239427215 0 -0.039967185877556231 0.0013233956284345453 0 -0.040925261893014174 0.0016537544563612219 0 -0.039967185877556231 0.0013233956284345453 0 -0.040221411503879791 0.0025149312917181438 0 -0.039015770987554557 0.0020884583703207806 0 -0.039942970431380571 0.0032170747550175406 0 -0.040221411503879791 0.0025149312917181438 0 -0.039015770987554557 0.0020884583703207806 0 -0.04067001498494445 0.0035799076810485342 0 -0.040221411503879791 0.0025149312917181438 0 -0.041243226063430047 0.0025139399004487925 0 -0.039967185877556231 0.0013233956284345453 0 -0.040221411503879791 0.0025149312917181438 0 -0.040925261893014174 0.0016537544563612219 0 -0.040221411503879791 0.0025149312917181438 0 -0.040925261893014174 0.0016537544563612219 0 -0.041243226063430047 0.0025139399004487925 0 -0.04067001498494445 0.0035799076810485342 0 -0.041243226063430047 0.0025139399004487925 0 -0.042647093278057623 0.0020493619388359608 0 -0.040925261893014174 0.0016537544563612219 0 -0.041694053725790776 0.0018466543943832456 0 -0.041969686260207181 0.0011548950432446177 0 -0.039520029443989801 0.0015048032469650999 0 -0.039028033066186303 0.00090459719277846294 0 -0.040925261893014174 0.0016537544563612219 0 -0.041694053725790776 0.0018466543943832456 0 -0.041243226063430047 0.0025139399004487925 0 -0.041694053725790776 0.0018466543943832456 0 -0.041243226063430047 0.0025139399004487925 0 -0.042647093278057623 0.0020493619388359608 0 -0.041694053725790776 0.0018466543943832456 0 -0.041969686260207181 0.0011548950432446177 0 -0.042647093278057623 0.0020493619388359608 0 -0.041969686260207181 0.0011548950432446177 0 -0.042625348346649217 0.0011687789134535238 0 -0.042647093278057623 0.0020493619388359608 0 -0.041969686260207181 0.0011548950432446177 0 -0.042656461315718638 0.00058782423405310017 0 -0.042625348346649217 0.0011687789134535238 0 -0.040899468291315071 0.00062197831239427215 0 -0.040925261893014174 0.0016537544563612219 0 -0.041969686260207181 0.0011548950432446177 0 -0.040899468291315071 0.00062197831239427215 0 -0.041969686260207181 0.0011548950432446177 0 -0.041943306384584635 0.00053662537666958202 0 -0.040899468291315071 0.00062197831239427215 0 -0.041943306384584635 0.00053662537666958202 0 -0.041821007910502257 -4.9014759953496706e-05 0 -0.041943306384584635 0.00053662537666958202 0 -0.042656461315718638 0.00058782423405310017 0 -0.041821007910502257 -4.9014759953496706e-05 0 -0.041969686260207181 0.0011548950432446177 0 -0.041943306384584635 0.00053662537666958202 0 -0.042656461315718638 0.00058782423405310017 0 -0.042656461315718638 0.00058782423405310017 0 -0.043221962694391589 0.0008786797282559956 0 -0.044534237001086358 0.00031796846230509987 0 -0.042656461315718638 0.00058782423405310017 0 -0.044534237001086358 0.00031796846230509987 0 -0.041821007910502257 -4.9014759953496706e-05 0 -0.034550513238587308 0.0010756372715749849 0 -0.0358317535899337 -6.1914584024624008e-05 0 -0.043221962694391589 0.0008786797282559956 0 -0.042647093278057623 0.0020493619388359608 0 -0.044534237001086358 0.00031796846230509987 0 -0.039028033066186303 0.00090459719277846294 0 -0.034550513238587308 0.0010756372715749849 0 -0.043221962694391589 0.0008786797282559956 0 -0.042625348346649217 0.0011687789134535238 0 -0.042647093278057623 0.0020493619388359608 0 -0.042656461315718638 0.00058782423405310017 0 -0.043221962694391589 0.0008786797282559956 0 -0.042625348346649217 0.0011687789134535238 0 -0.041038521555356137 0.0033259349189618259 0 -0.041116768661156523 0.0033424731620004941 0 -0.041117588988956968 0.0032486128917192303 0 -0.040934491907153953 0.0036517823947223318 0 -0.041038521555356137 0.0033259349189618259 0 -0.041116768661156523 0.0033424731620004941 0 -0.027529272763160521 0.00013574866637151143 0 -0.027386925614121149 0.00017082048559131314 0 -0.027304959043035929 0.0004117662165897162 0 -0.027416295832157395 4.1441185687749179e-05 0 -0.027529272763160521 0.00013574866637151143 0 -0.027386925614121149 0.00017082048559131314 0 -0.027416295832157395 4.1441185687749179e-05 0 -0.027386925614121149 0.00017082048559131314 0 -0.027295003683364762 0.0001272430175290977 0 -0.034897236314169258 0.0022834437049248204 0 -0.032046889733273569 0.0018217523185744973 0 -0.041116768661156523 0.0033424731620004941 0 -0.041117588988956968 0.0032486128917192303 0 -0.041140571263800919 0.0032478789759191225 0 -0.034550513238587308 0.0010756372715749849 0 -0.032046889733273569 0.0018217523185744973 0 -0.029507703105892617 -0.0014584389615034819 0 -0.02941610854817199 -0.0011830508258813155 0 -0.028789849555904211 -0.0012223003743676555 0 -0.029595007704662089 -0.0019438423851055456 0 -0.029507703105892617 -0.0014584389615034819 0 -0.028789849555904211 -0.0012223003743676555 0 -0.029595007704662089 -0.0019438423851055456 0 -0.029507703105892617 -0.0014584389615034819 0 -0.02990924665731198 -0.0016162826032819501 0 -0.029832350665232314 -0.0013266272838046494 0 -0.029507703105892617 -0.0014584389615034819 0 -0.02990924665731198 -0.0016162826032819501 0 -0.029832350665232314 -0.0013266272838046494 0 -0.029507703105892617 -0.0014584389615034819 0 -0.02941610854817199 -0.0011830508258813155 0 -0.02941610854817199 -0.0011830508258813155 0 -0.029724898271767428 -0.00094543071698241585 0 -0.029195802845109722 -0.00077986014237261842 0 -0.029724898271767428 -0.00094543071698241585 0 -0.029195802845109722 -0.00077986014237261842 0 -0.029742787053857456 -0.00049333168550096021 0 -0.029832350665232314 -0.0013266272838046494 0 -0.02941610854817199 -0.0011830508258813155 0 -0.029724898271767428 -0.00094543071698241585 0 -0.029832350665232314 -0.0013266272838046494 0 -0.029724898271767428 -0.00094543071698241585 0 -0.030155678626045991 -0.0011728937557001396 0 -0.029724898271767428 -0.00094543071698241585 0 -0.030155678626045991 -0.0011728937557001396 0 -0.030127343023021926 -0.0007717613077225376 0 -0.029724898271767428 -0.00094543071698241585 0 -0.030127343023021926 -0.0007717613077225376 0 -0.029742787053857456 -0.00049333168550096021 0 -0.030127343023021926 -0.0007717613077225376 0 -0.030539853415520374 -0.00104462816135785 0 -0.030502413306716922 -0.00061732065315904343 0 -0.030127343023021926 -0.0007717613077225376 0 -0.030502413306716922 -0.00061732065315904343 0 -0.030217370988897874 -0.00036103986847199149 0 -0.030155678626045991 -0.0011728937557001396 0 -0.030127343023021926 -0.0007717613077225376 0 -0.030539853415520374 -0.00104462816135785 0 -0.029595007704662089 -0.0019438423851055456 0 -0.030279916084686755 -0.0016385381459162207 0 -0.030844261598805309 -0.0018229605574874737 0 -0.030155678626045991 -0.0011728937557001396 0 -0.030459281352719265 -0.0013995026234305112 0 -0.030539853415520374 -0.00104462816135785 0 -0.029595007704662089 -0.0019438423851055456 0 -0.02990924665731198 -0.0016162826032819501 0 -0.030279916084686755 -0.0016385381459162207 0 -0.030459281352719265 -0.0013995026234305112 0 -0.030175188710476215 -0.0014444941869347855 0 -0.030279916084686755 -0.0016385381459162207 0 -0.030155678626045991 -0.0011728937557001396 0 -0.030459281352719265 -0.0013995026234305112 0 -0.030175188710476215 -0.0014444941869347855 0 -0.029832350665232314 -0.0013266272838046494 0 -0.030175188710476215 -0.0014444941869347855 0 -0.02990924665731198 -0.0016162826032819501 0 -0.029832350665232314 -0.0013266272838046494 0 -0.030155678626045991 -0.0011728937557001396 0 -0.030175188710476215 -0.0014444941869347855 0 -0.030175188710476215 -0.0014444941869347855 0 -0.02990924665731198 -0.0016162826032819501 0 -0.030279916084686755 -0.0016385381459162207 0 -0.030459281352719265 -0.0013995026234305112 0 -0.030279916084686755 -0.0016385381459162207 0 -0.030703060403237743 -0.0016032820009097043 0 -0.030279916084686755 -0.0016385381459162207 0 -0.030703060403237743 -0.0016032820009097043 0 -0.030844261598805309 -0.0018229605574874737 0 -0.030703060403237743 -0.0016032820009097043 0 -0.03083821973683467 -0.0016494358625044122 0 -0.030838301400055251 -0.0015157283657830595 0 -0.030703060403237743 -0.0016032820009097043 0 -0.03083821973683467 -0.0016494358625044122 0 -0.030844261598805309 -0.0018229605574874737 0 -0.030838301400055251 -0.0015157283657830595 0 -0.030967367622610223 -0.0016724347664142469 0 -0.030967265094844886 -0.001311483789551194 0 -0.03083821973683467 -0.0016494358625044122 0 -0.030844261598805309 -0.0018229605574874737 0 -0.030967367622610223 -0.0016724347664142469 0 -0.03083821973683467 -0.0016494358625044122 0 -0.030838301400055251 -0.0015157283657830595 0 -0.030967367622610223 -0.0016724347664142469 0 -0.030838301400055251 -0.0015157283657830595 0 -0.030967265094844886 -0.001311483789551194 0 -0.030729700904562986 -0.0013301899402142576 0 -0.030967265094844886 -0.001311483789551194 0 -0.030729700904562986 -0.0013301899402142576 0 -0.030836441720777361 -0.0011027049781132724 0 -0.030459281352719265 -0.0013995026234305112 0 -0.030729700904562986 -0.0013301899402142576 0 -0.030539853415520374 -0.00104462816135785 0 -0.030703060403237743 -0.0016032820009097043 0 -0.030838301400055251 -0.0015157283657830595 0 -0.030729700904562986 -0.0013301899402142576 0 -0.030459281352719265 -0.0013995026234305112 0 -0.030703060403237743 -0.0016032820009097043 0 -0.030729700904562986 -0.0013301899402142576 0 -0.030539853415520374 -0.00104462816135785 0 -0.030840186923089371 -0.00077909691396865581 0 -0.030836441720777361 -0.0011027049781132724 0 -0.030729700904562986 -0.0013301899402142576 0 -0.030539853415520374 -0.00104462816135785 0 -0.030836441720777361 -0.0011027049781132724 0 -0.030539853415520374 -0.00104462816135785 0 -0.030502413306716922 -0.00061732065315904343 0 -0.030840186923089371 -0.00077909691396865581 0 -0.030840186923089371 -0.00077909691396865581 0 -0.03108548951670222 -0.0010053367388201976 0 -0.031213932216681797 -0.00075915943867399202 0 -0.030967265094844886 -0.001311483789551194 0 -0.030836441720777361 -0.0011027049781132724 0 -0.03108548951670222 -0.0010053367388201976 0 -0.030840186923089371 -0.00077909691396865581 0 -0.030836441720777361 -0.0011027049781132724 0 -0.03108548951670222 -0.0010053367388201976 0 -0.03108548951670222 -0.0010053367388201976 0 -0.031213932216681797 -0.00075915943867399202 0 -0.031391281580980201 -0.0010631438300652452 0 -0.030967265094844886 -0.001311483789551194 0 -0.03108548951670222 -0.0010053367388201976 0 -0.031391281580980201 -0.0010631438300652452 0 -0.031213932216681797 -0.00075915943867399202 0 -0.031391281580980201 -0.0010631438300652452 0 -0.031847369396035483 -0.00057272103917295643 0 -0.030967367622610223 -0.0016724347664142469 0 -0.03190791158935409 -0.00090560660182018927 0 -0.032517590065938635 -0.0015828877033472553 0 -0.030844261598805309 -0.0018229605574874737 0 -0.030967367622610223 -0.0016724347664142469 0 -0.032517590065938635 -0.0015828877033472553 0 -0.0358317535899337 -6.1914584024624008e-05 0 -0.035198294030008008 -0.00063013231648555385 0 -0.029122286643466586 -0.00054421669869376087 0 -0.02828186455159893 -0.00078529117599397539 0 -0.030967367622610223 -0.0016724347664142469 0 -0.030967265094844886 -0.001311483789551194 0 -0.031391281580980201 -0.0010631438300652452 0 -0.026343477457419624 0.00032882593803501315 0 -0.028408206183043509 0.0004418550108962417 0 -0.027502013270853803 0.0011093844123705354 0 -0.02730690837532249 0.00077370110523078243 0 -0.028306902607165021 0.00099398056049908551 0 -0.026343477457419624 0.00032882593803501315 0 -0.026584650746785864 0.00018400055519393694 0 -0.026802818756981667 0.00039284649716641234 0 -0.026343477457419624 0.00032882593803501315 0 -0.027502013270853803 0.0011093844123705354 0 -0.026695200342665013 0.0014716504918397811 0 -0.025463680948397353 0.00063935166632587211 0 -0.026343477457419624 0.00032882593803501315 0 -0.026695200342665013 0.0014716504918397811 0 -0.02593325039632299 -0.00020379593152868342 0 -0.026343477457419624 0.00032882593803501315 0 -0.026322265455363522 -0.00013031197361557706 0 -0.026343477457419624 0.00032882593803501315 0 -0.026322265455363522 -0.00013031197361557706 0 -0.026584650746785864 0.00018400055519393694 0 -0.026322265455363522 -0.00013031197361557706 0 -0.026584650746785864 0.00018400055519393694 0 -0.026901880939285489 9.2414766393360463e-05 0 -0.026584650746785864 0.00018400055519393694 0 -0.026901880939285489 9.2414766393360463e-05 0 -0.026802818756981667 0.00039284649716641234 0 -0.027152778256964352 -4.5195573626958362e-05 0 -0.026901880939285489 9.2414766393360463e-05 0 -0.027174163013344018 6.2439375993500335e-05 0 -0.026901880939285489 9.2414766393360463e-05 0 -0.027174163013344018 6.2439375993500335e-05 0 -0.027111286116554764 0.00020843375284074184 0 -0.026901880939285489 9.2414766393360463e-05 0 -0.027111286116554764 0.00020843375284074184 0 -0.026802818756981667 0.00039284649716641234 0 -0.027386925614121149 0.00017082048559131314 0 -0.027295003683364762 0.0001272430175290977 0 -0.027304959043035929 0.0004117662165897162 0 -0.027287743203908629 -3.0170770609550513e-05 0 -0.027295003683364762 0.0001272430175290977 0 -0.027174163013344018 6.2439375993500335e-05 0 -0.027295003683364762 0.0001272430175290977 0 -0.027174163013344018 6.2439375993500335e-05 0 -0.027111286116554764 0.00020843375284074184 0 -0.027295003683364762 0.0001272430175290977 0 -0.027111286116554764 0.00020843375284074184 0 -0.027304959043035929 0.0004117662165897162 0 -0.027111286116554764 0.00020843375284074184 0 -0.027304959043035929 0.0004117662165897162 0 -0.026802818756981667 0.00039284649716641234 0 -0.030295392348970104 0.00065615116110527007 0 -0.028408206183043509 0.0004418550108962417 0 -0.029295595725875985 0.0015628821741641456 0 -0.032046889733273569 0.0018217523185744973 0 -0.028306902607165021 0.00099398056049908551 0 -0.028408206183043509 0.0004418550108962417 0 -0.028369875754271249 0.0013832423226702729 0 -0.029295595725875985 0.0015628821741641456 0 -0.029295595725875985 0.0015628821741641456 0 -0.029787044790314993 0.0020132084523312417 0 -0.029118175048520323 0.0021077750383433494 0 -0.029295595725875985 0.0015628821741641456 0 -0.028619901662155785 0.0020358574201228912 0 -0.029118175048520323 0.0021077750383433494 0 -0.028369875754271249 0.0013832423226702729 0 -0.029295595725875985 0.0015628821741641456 0 -0.028619901662155785 0.0020358574201228912 0 -0.034550513238587308 0.0010756372715749849 0 -0.029678885798435514 0.00089467956687912654 0 -0.030294966020429252 0.0006523526709740113 0 -0.029295595725875985 0.0015628821741641456 0 -0.029787044790314993 0.0020132084523312417 0 -0.031202562204555525 0.00075045069382081075 0 -0.030294966020429252 0.0006523526709740113 0 -0.029787044790314993 0.0020132084523312417 0 -0.032046889733273569 0.0018217523185744973 0 -0.031436115692112722 0.0020173334520026441 0 -0.028789849555904211 -0.0012223003743676555 0 -0.02870485448714695 -0.00066834157901406546 0 -0.029195802845109722 -0.00077986014237261842 0 -0.02941610854817199 -0.0011830508258813155 0 -0.028789849555904211 -0.0012223003743676555 0 -0.029195802845109722 -0.00077986014237261842 0 -0.028789849555904211 -0.0012223003743676555 0 -0.02870485448714695 -0.00066834157901406546 0 -0.028225564215684264 -0.00072063681599385167 0 -0.02870485448714695 -0.00066834157901406546 0 -0.028225564215684264 -0.00072063681599385167 0 -0.027951124616787035 -0.00047128596160144224 0 -0.028619901662155785 0.0020358574201228912 0 -0.028810751339142071 0.0028553366933420665 0 -0.028053628031798939 0.0025433869588730668 0 -0.028619901662155785 0.0020358574201228912 0 -0.029118175048520323 0.0021077750383433494 0 -0.028810751339142071 0.0028553366933420665 0 -0.029678885798435514 0.00089467956687912654 0 -0.026726436407432743 0.00085305933732662679 0 -0.029787044790314993 0.0020132084523312417 0 -0.029118175048520323 0.0021077750383433494 0 -0.028810751339142071 0.0028553366933420665 0 -0.026726436407432743 0.00085305933732662679 0 -0.024914528451078704 0.0010318177173628674 0 -0.028810751339142071 0.0028553366933420665 0 -0.028053628031798939 0.0025433869588730668 0 -0.028351621858067857 0.0032443569431573958 0 -0.028053628031798939 0.0025433869588730668 0 -0.026834929022136415 0.0027960947166456979 0 -0.028351621858067857 0.0032443569431573958 0 -0.026497136334802097 0.0017657781267158828 0 -0.024914528451078704 0.0010318177173628674 0 -0.028053628031798939 0.0025433869588730668 0 -0.0277472511842131 0.0018564171323213392 0 -0.026834929022136415 0.0027960947166456979 0 -0.028619901662155785 0.0020358574201228912 0 -0.028053628031798939 0.0025433869588730668 0 -0.0277472511842131 0.0018564171323213392 0 -0.028369875754271249 0.0013832423226702729 0 -0.028619901662155785 0.0020358574201228912 0 -0.0277472511842131 0.0018564171323213392 0 -0.0277472511842131 0.0018564171323213392 0 -0.027502013270853803 0.0011093844123705354 0 -0.026695200342665013 0.0014716504918397811 0 -0.028408206183043509 0.0004418550108962417 0 -0.028369875754271249 0.0013832423226702729 0 -0.027502013270853803 0.0011093844123705354 0 -0.028369875754271249 0.0013832423226702729 0 -0.0277472511842131 0.0018564171323213392 0 -0.027502013270853803 0.0011093844123705354 0 -0.0277472511842131 0.0018564171323213392 0 -0.026695200342665013 0.0014716504918397811 0 -0.026834929022136415 0.0027960947166456979 0 -0.025793812380796213 0.0022894565111874635 0 -0.026695200342665013 0.0014716504918397811 0 -0.026834929022136415 0.0027960947166456979 0 -0.026834929022136415 0.0027960947166456979 0 -0.026851740738565354 0.0039612513777893084 0 -0.028415777460408083 0.0037161999862094616 0 -0.026834929022136415 0.0027960947166456979 0 -0.026851740738565354 0.0039612513777893084 0 -0.025943839442794069 0.0035074420930161247 0 -0.019500776356473903 0.00011901982811162666 0 -0.017125624889037652 0.0012148280805826645 0 -0.026851740738565354 0.0039612513777893084 0 -0.02721927407556924 0.005014271809355873 0 -0.025935472246367625 0.004512754792860907 0 -0.017133728602631002 0.00042179356711051947 0 -0.016314382798797194 0.00045098705096866909 0 -0.016570438697853979 0.00067131632039775339 0 -0.017133728602631002 0.00042179356711051947 0 -0.016728882195521082 0.00085844809438087165 0 -0.016570438697853979 0.00067131632039775339 0 -0.017909152610872881 -0.00072981957942843724 0 -0.017783391157260041 -0.00022365712030401091 0 -0.01722875480538048 5.7597203614708713e-06 0 -0.017909152610872881 -0.00072981957942843724 0 -0.017783391157260041 -0.00022365712030401091 0 -0.018261865530877493 -0.00032727434345553426 0 -0.019500776356473903 0.00011901982811162666 0 -0.015749653437784335 5.2268549327340839e-06 0 -0.019500776356473903 0.00011901982811162666 0 -0.019276585815372414 -8.8271415800812925e-05 0 -0.018329996745446768 -0.0007069729527897316 0 -0.019056533603952656 -0.00073383535439705571 0 -0.018999753645370831 -0.0014511167942006581 0 -0.017909152610872881 -0.00072981957942843724 0 -0.018261865530877493 -0.00032727434345553426 0 -0.018890632202310603 -0.00074895916115475501 0 -0.018261865530877493 -0.00032727434345553426 0 -0.018890632202310603 -0.00074895916115475501 0 -0.019139603923237096 -0.00020203389888173032 0 -0.026851740738565354 0.0039612513777893084 0 -0.02721927407556924 0.005014271809355873 0 -0.028415777460408083 0.0037161999862094616 0 -0.019500776356473903 0.00011901982811162666 0 -0.023875819414004656 0.00088980760519191541 0 -0.026834929022136415 0.0027960947166456979 0 -0.028415777460408083 0.0037161999862094616 0 -0.028715543650685182 0.0033873829933195819 0 -0.019056533603952656 -0.00073383535439705571 0 -0.018999753645370831 -0.0014511167942006581 0 -0.019163455456009837 -0.0016357414447789012 0 -0.023875819414004656 0.00088980760519191541 0 -0.024914528451078704 0.0010318177173628674 0 -0.019056533603952656 -0.00073383535439705571 0 -0.019519965184032019 -0.0012204866443271392 0 -0.019163455456009837 -0.0016357414447789012 0 -0.024914528451078704 0.0010318177173628674 0 -0.024037511774339323 -0.00046089441824565008 0 -0.019519965184032019 -0.0012204866443271392 0 -0.019163455456009837 -0.0016357414447789012 0 -0.020437706896571844 -0.001342061094061485 0 -0.02870485448714695 -0.00066834157901406546 0 -0.027951124616787035 -0.00047128596160144224 0 -0.029076581013256515 -0.00019805711745412023 0 -0.019519965184032019 -0.0012204866443271392 0 -0.020437706896571844 -0.001342061094061485 0 -0.019779648178357163 -0.00075030895255955455 0 -0.02870485448714695 -0.00066834157901406546 0 -0.029195802845109722 -0.00077986014237261842 0 -0.029076581013256515 -0.00019805711745412023 0 -0.020437706896571844 -0.001342061094061485 0 -0.020475164054086965 -0.00062560669617807874 0 -0.019779648178357163 -0.00075030895255955455 0 -0.017018211343303846 -0.0016243496966261643 0 -0.015351029393364794 -0.0011959682792615669 0 -0.012270730076826428 -0.0033611289133916927 0 -0.011163048183838531 -0.002976893155842019 0 -0.011670056627330174 -0.002749936078592159 0 -0.020475164054086965 -0.00062560669617807874 0 -0.019779648178357163 -0.00075030895255955455 0 -0.019139603923237096 -0.00020203389888173032 0 -0.019276585815372414 -8.8271415800812925e-05 0 -0.019357834244672502 -0.00015680920958746798 0 -0.018890632202310603 -0.00074895916115475501 0 -0.019779648178357163 -0.00075030895255955455 0 -0.019139603923237096 -0.00020203389888173032 0 -0.019056533603952656 -0.00073383535439705571 0 -0.019519965184032019 -0.0012204866443271392 0 -0.019779648178357163 -0.00075030895255955455 0 -0.011163048183838531 -0.002976893155842019 0 -0.011670056627330174 -0.002749936078592159 0 -0.01125998162720389 -0.0024745378210477326 0 -0.011670056627330174 -0.002749936078592159 0 -0.01125998162720389 -0.0024745378210477326 0 -0.011632127610282757 -0.0023349794503098979 0 -0.011163048183838531 -0.002976893155842019 0 -0.01125998162720389 -0.0024745378210477326 0 -0.010819369776129914 -0.0024485892117940174 0 -0.012270730076826428 -0.0033611289133916927 0 -0.012075208479202456 -0.0026671195265428817 0 -0.012449055726691182 -0.0029639960850354067 0 -0.012270730076826428 -0.0033611289133916927 0 -0.011670056627330174 -0.002749936078592159 0 -0.012075208479202456 -0.0026671195265428817 0 -0.012075208479202456 -0.0026671195265428817 0 -0.012015652227046219 -0.0023053759418896935 0 -0.011632127610282757 -0.0023349794503098979 0 -0.011670056627330174 -0.002749936078592159 0 -0.012075208479202456 -0.0026671195265428817 0 -0.011632127610282757 -0.0023349794503098979 0 -0.012075208479202456 -0.0026671195265428817 0 -0.012015652227046219 -0.0023053759418896935 0 -0.012475350874072411 -0.0023666956898368181 0 -0.012075208479202456 -0.0026671195265428817 0 -0.012449055726691182 -0.0029639960850354067 0 -0.012475350874072411 -0.0023666956898368181 0 -0.011832867922092538 -0.0019008407451696699 0 -0.012475350874072411 -0.0023666956898368181 0 -0.012025644819129393 -0.0013919343131224848 0 -0.0092999209289402716 -0.0035765291775203966 0 -0.0063920856710998663 -0.0040120343090104971 0 -0.012015652227046219 -0.0023053759418896935 0 -0.011832867922092538 -0.0019008407451696699 0 -0.012475350874072411 -0.0023666956898368181 0 -0.012015652227046219 -0.0023053759418896935 0 -0.011832867922092538 -0.0019008407451696699 0 -0.011632127610282757 -0.0023349794503098979 0 -0.011832867922092538 -0.0019008407451696699 0 -0.011176013355915081 -0.0020363526314736316 0 -0.011188420081732956 -0.0014068024517437932 0 -0.011832867922092538 -0.0019008407451696699 0 -0.011632127610282757 -0.0023349794503098979 0 -0.011176013355915081 -0.0020363526314736316 0 -0.01125998162720389 -0.0024745378210477326 0 -0.011632127610282757 -0.0023349794503098979 0 -0.011176013355915081 -0.0020363526314736316 0 -0.01125998162720389 -0.0024745378210477326 0 -0.011176013355915081 -0.0020363526314736316 0 -0.010819369776129914 -0.0024485892117940174 0 -0.011176013355915081 -0.0020363526314736316 0 -0.010542218946465679 -0.0018882312215405951 0 -0.011188420081732956 -0.0014068024517437932 0 -0.011176013355915081 -0.0020363526314736316 0 -0.010542218946465679 -0.0018882312215405951 0 -0.010819369776129914 -0.0024485892117940174 0 -0.010542218946465679 -0.0018882312215405951 0 -0.0104049941198231 -0.0022891988160598114 0 -0.010819369776129914 -0.0024485892117940174 0 -0.010542218946465679 -0.0018882312215405951 0 -0.010134893583587481 -0.0021760261687811884 0 -0.010029077228363947 -0.0015653111739699949 0 -0.010134893583587481 -0.0021760261687811884 0 -0.010029077228363947 -0.0015653111739699949 0 -0.0095973136834905728 -0.0024847654801409872 0 -0.010542218946465679 -0.0018882312215405951 0 -0.010134893583587481 -0.0021760261687811884 0 -0.0104049941198231 -0.0022891988160598114 0 -0.010134893583587481 -0.0021760261687811884 0 -0.0104049941198231 -0.0022891988160598114 0 -0.010125707641442059 -0.0026411700366041836 0 -0.014990848294319454 -0.00092726325753651176 0 -0.014586648934035541 -0.0010470687843540324 0 -0.014287852681285716 -0.00072102108041141404 0 -0.010134893583587481 -0.0021760261687811884 0 -0.010125707641442059 -0.0026411700366041836 0 -0.0095973136834905728 -0.0024847654801409872 0 -0.014109863315996621 -0.00058950811510362377 0 -0.01406448042417892 -0.00029897877510308185 0 -0.017783391157260041 -0.00022365712030401091 0 -0.017575205314417763 0.00027887442750719552 0 -0.017221715718979867 5.9367172678015984e-06 0 -0.015993294513195849 -7.1496123824403145e-05 0 -0.015749653437784335 5.2268549327340839e-06 0 -0.017575205314417763 0.00027887442750719552 0 -0.017221715718979867 5.9367172678015984e-06 0 -0.017098017265750019 0.00014015045598777059 0 -0.014109863315996621 -0.00058950811510362377 0 -0.015184912299162025 -1.6310131037629022e-05 0 -0.015749653437784335 5.2268549327340839e-06 0 -0.015184912299162025 -1.6310131037629022e-05 0 -0.017783391157260041 -0.00022365712030401091 0 -0.018261865530877493 -0.00032727434345553426 0 -0.017575205314417763 0.00027887442750719552 0 -0.015351029393364794 -0.0011959682792615669 0 -0.014109863315996621 -0.00058950811510362377 0 -0.0104049941198231 -0.0022891988160598114 0 -0.010125707641442059 -0.0026411700366041836 0 -0.010819369776129914 -0.0024485892117940174 0 -0.011163048183838531 -0.002976893155842019 0 -0.010137514392196694 -0.0026437746268806899 0 -0.010819369776129914 -0.0024485892117940174 0 -0.014109863315996621 -0.00058950811510362377 0 -0.012654860871228107 -0.0011318912303972515 0 -0.018261865530877493 -0.00032727434345553426 0 -0.019139603923237096 -0.00020203389888173032 0 -0.017575205314417763 0.00027887442750719552 0 -0.011293392986735842 -0.0091549218795341589 0 -0.010889671658804036 -0.0077825632096798795 0 -0.012975311650227514 -0.0087579393035528107 0 -0.011293392986735842 -0.0091549218795341589 0 -0.011671142108624804 -0.010362145688617928 0 -0.012975311650227514 -0.0087579393035528107 0 -0.031213932216681797 -0.00075915943867399202 0 -0.031331659572115866 -0.00041042794685652959 0 -0.030756023152445085 -0.00025199021807920346 0 -0.031213932216681797 -0.00075915943867399202 0 -0.031331659572115866 -0.00041042794685652959 0 -0.031847369396035483 -0.00057272103917295643 0 -0.011293392986735842 -0.0091549218795341589 0 -0.011671142108624804 -0.010362145688617928 0 -0.010095930934640777 -0.0099125688655039273 0 -0.022025257336827472 -0.0035274083549557979 0 -0.020505585164321917 -0.0032454700242142837 0 -0.030502413306716922 -0.00061732065315904343 0 -0.030840186923089371 -0.00077909691396865581 0 -0.030759876595877804 -0.00011459765065319841 0 -0.022873026891136978 -0.0039092553021409706 0 -0.020505585164321917 -0.0032454700242142837 0 -0.030840186923089371 -0.00077909691396865581 0 -0.031213932216681797 -0.00075915943867399202 0 -0.030759876595877804 -0.00011459765065319841 0 -0.030502413306716922 -0.00061732065315904343 0 -0.030759876595877804 -0.00011459765065319841 0 -0.030217370988897874 -0.00036103986847199149 0 -0.020505585164321917 -0.0032454700242142837 0 -0.020721963625764207 -0.0022765838911856921 0 -0.010095930934640777 -0.0099125688655039273 0 -0.008612419269559966 -0.0080754762947380411 0 -0.010889671658804036 -0.0077825632096798795 0 -0.011293392986735842 -0.0091549218795341589 0 -0.010095930934640777 -0.0099125688655039273 0 -0.010889671658804036 -0.0077825632096798795 0 -0.014368139588490992 -0.0039819811839259889 0 -0.013884911562764592 -0.0036741090060244605 0 -0.013554975894285779 -0.002997494515347593 0 -0.020505585164321917 -0.0032454700242142837 0 -0.014193577182408622 -0.0036591275456631096 0 -0.013567360112844672 -0.0037554775083903226 0 -0.012995290893984084 -0.0034724479757878329 0 -0.013554975894285779 -0.002997494515347593 0 -0.014368139588490992 -0.0039819811839259889 0 -0.013580677988384917 -0.0037609571551624932 0 -0.013884911562764592 -0.0036741090060244605 0 -0.020721963625764207 -0.0022765838911856921 0 -0.02031744574214684 -0.002382595762005757 0 -0.013567360112844672 -0.0037554775083903226 0 -0.013884911562764592 -0.0036741090060244605 0 -0.013554975894285779 -0.002997494515347593 0 -0.030759876595877804 -0.00011459765065319841 0 -0.030155264503376661 8.0035435970658218e-05 0 -0.030217370988897874 -0.00036103986847199149 0 -0.030127343023021926 -0.0007717613077225376 0 -0.030217370988897874 -0.00036103986847199149 0 -0.029742787053857456 -0.00049333168550096021 0 -0.030155264503376661 8.0035435970658218e-05 0 -0.030217370988897874 -0.00036103986847199149 0 -0.029742787053857456 -0.00049333168550096021 0 -0.029076581013256515 -0.00019805711745412023 0 -0.030155264503376661 8.0035435970658218e-05 0 -0.029742787053857456 -0.00049333168550096021 0 -0.024037511774339323 -0.00046089441824565008 0 -0.020721963625764207 -0.0022765838911856921 0 -0.029195802845109722 -0.00077986014237261842 0 -0.029076581013256515 -0.00019805711745412023 0 -0.029742787053857456 -0.00049333168550096021 0 -0.020437706896571844 -0.001342061094061485 0 -0.020475164054086965 -0.00062560669617807874 0 -0.021703892815457187 -0.0009987030737608777 0 -0.017018211343303846 -0.0016243496966261643 0 -0.020721963625764207 -0.0022765838911856921 0 -0.012270730076826428 -0.0033611289133916927 0 -0.013567360112844672 -0.0037554775083903226 0 -0.012995290893984084 -0.0034724479757878329 0 -0.012270730076826428 -0.0033611289133916927 0 -0.012995290893984084 -0.0034724479757878329 0 -0.012449055726691182 -0.0029639960850354067 0 -0.012480466945961501 -0.0022805929401942568 0 -0.012759755710587269 -0.0020439848842294249 0 -0.013554975894285779 -0.002997494515347593 0 -0.012995290893984084 -0.0034724479757878329 0 -0.012480466945961501 -0.0022805929401942568 0 -0.013554975894285779 -0.002997494515347593 0 -0.012995290893984084 -0.0034724479757878329 0 -0.012449055726691182 -0.0029639960850354067 0 -0.012475350874072411 -0.0023666956898368181 0 -0.010246670889120117 -0.0037888259696694767 0 -0.0092999209289402716 -0.0035765291775203966 0 -0.012480466945961501 -0.0022805929401942568 0 -0.012759755710587269 -0.0020439848842294249 0 -0.011956759710561536 -0.0010934059687578001 0 -0.010224796097964322 -0.0039084515011179296 0 -0.0063920856710998663 -0.0040120343090104971 0 -0.0071254449455573935 -0.0062380155020032762 0 -0.0089546300264748656 -0.0059928689414484176 0 -0.0073545827764999374 -0.0045377968635213518 0 -0.0071254449455573935 -0.0062380155020032762 0 -0.0089546300264748656 -0.0059928689414484176 0 -0.008612419269559966 -0.0080754762947380411 0 -0.010224796097964322 -0.0039084515011179296 0 -0.014193577182408622 -0.0036591275456631096 0 -0.0089546300264748656 -0.0059928689414484176 0 -0.008612419269559966 -0.0080754762947380411 0 -0.010889671658804036 -0.0077825632096798795 0 -0.0089546300264748656 -0.0059928689414484176 0 -0.010945254009157572 -0.0052636849154459415 0 -0.010889671658804036 -0.0077825632096798795 0 -0.0010158391531123461 -0.011331273917364293 0 -0.0046857582811164859 -0.011453302979957784 0 -0.010945254009157572 -0.0052636849154459415 0 -0.010889671658804036 -0.0077825632096798795 0 -0.013089663066774244 -0.0064721689052078934 0 0.01239567133026565 -0.018847078229990859 0 0.013374001198458755 -0.019803163727263824 0 0.013128447965388992 -0.017556188028807297 0 0.010769327866051686 -0.0189407789331765 0 0.011504108861264314 -0.018940996243761339 0 0.010980410876712185 -0.01827957675008016 0 0.011504108861264314 -0.018940996243761339 0 0.011846933034224906 -0.018273373468569894 0 0.010980410876712185 -0.01827957675008016 0 0.011504108861264314 -0.018940996243761339 0 0.0110440806058627 -0.019636560746806083 0 0.012168543606001543 -0.019730861755895258 0 0.010769327866051686 -0.0189407789331765 0 0.011504108861264314 -0.018940996243761339 0 0.0110440806058627 -0.019636560746806083 0 0.011770576650116509 -0.021035526520137942 0 0.0110440806058627 -0.019636560746806083 0 0.010116287968390238 -0.020633174517263316 0 0.011770576650116509 -0.021035526520137942 0 0.0110440806058627 -0.019636560746806083 0 0.012168543606001543 -0.019730861755895258 0 -0.0010158391531123461 -0.011331273917364293 0 0.0012237506559529838 -0.010490907092727993 0 -0.0089546300264748656 -0.0059928689414484176 0 -0.010945254009157572 -0.0052636849154459415 0 -0.0087986147221082948 -0.0040571704991635782 0 0.011770576650116509 -0.021035526520137942 0 0.012168543606001543 -0.019730861755895258 0 0.013374001198458755 -0.019803163727263824 0 0.012168543606001543 -0.019730861755895258 0 0.01239567133026565 -0.018847078229990859 0 0.013374001198458755 -0.019803163727263824 0 0.011504108861264314 -0.018940996243761339 0 0.012168543606001543 -0.019730861755895258 0 0.01239567133026565 -0.018847078229990859 0 0.011504108861264314 -0.018940996243761339 0 0.01239567133026565 -0.018847078229990859 0 0.011846933034224906 -0.018273373468569894 0 0.013374001198458755 -0.019803163727263824 0 0.014798382980185019 -0.018840464732648065 0 0.013128447965388992 -0.017556188028807297 0 -0.0089546300264748656 -0.0059928689414484176 0 -0.0087986147221082948 -0.0040571704991635782 0 -0.0073545827764999374 -0.0045377968635213518 0 -0.0071254449455573935 -0.0062380155020032762 0 -0.0073545827764999374 -0.0045377968635213518 0 -0.0056419764101264527 -0.0043994435488563634 0 -0.0073545827764999374 -0.0045377968635213518 0 -0.0066515099565890466 -0.0028534867442199831 0 -0.0056419764101264527 -0.0043994435488563634 0 -0.0087986147221082948 -0.0040571704991635782 0 -0.0073545827764999374 -0.0045377968635213518 0 -0.0066515099565890466 -0.0028534867442199831 0 0.0012237506559529838 -0.010490907092727993 0 0.0025589561839488417 -0.0089592023861425323 0 0.014798382980185019 -0.018840464732648065 0 0.014859811831789251 -0.017311771820812828 0 0.013128447965388992 -0.017556188028807297 0 0.01399822448683646 -0.012410022563774008 0 0.014129929937461403 -0.012210235965510704 0 0.01388427318842617 -0.012214313198605801 0 0.01399822448683646 -0.012410022563774008 0 0.013668654508256762 -0.012491834990837171 0 0.01388427318842617 -0.012214313198605801 0 0.013668654508256762 -0.012491834990837171 0 0.013638999870328551 -0.012278331513402881 0 0.01388427318842617 -0.012214313198605801 0 0.01285940187820701 -0.012201762617694824 0 0.012891092184884415 -0.013878774371028701 0 0.01239567133026565 -0.018847078229990859 0 0.013128447965388992 -0.017556188028807297 0 0.011846933034224906 -0.018273373468569894 0 0.013128447965388992 -0.017556188028807297 0 0.011206018508576273 -0.017764864717936056 0 0.011846933034224906 -0.018273373468569894 0 0.012891092184884415 -0.013878774371028701 0 0.0116465575632502 -0.014940876105432394 0 0.013668654508256762 -0.012491834990837171 0 0.013499522301162871 -0.012378623360159073 0 0.013293746280101626 -0.01256684309333307 0 0.013668654508256762 -0.012491834990837171 0 0.013638999870328551 -0.012278331513402881 0 0.013499522301162871 -0.012378623360159073 0 0.013638999870328551 -0.012278331513402881 0 0.013499522301162871 -0.012378623360159073 0 0.013429454789121643 -0.012174596541908982 0 0.011139173990270436 -0.016817879717870101 0 0.011279110829065832 -0.017505507501186218 0 0.012251470301073394 -0.01527477434697035 0 0.013499522301162871 -0.012378623360159073 0 0.013293746280101626 -0.01256684309333307 0 0.013429454789121643 -0.012174596541908982 0 0.0116465575632502 -0.014940876105432394 0 0.012561097635414855 -0.013632648307353968 0 0.011139173990270436 -0.016817879717870101 0 0.010667511530302386 -0.016334755709420567 0 0.012251470301073394 -0.01527477434697035 0 0.011139173990270436 -0.016817879717870101 0 0.010596038122751627 -0.017193963815156397 0 0.010667511530302386 -0.016334755709420567 0 0.011139173990270436 -0.016817879717870101 0 0.011279110829065832 -0.017505507501186218 0 0.011155994340886403 -0.017527429949235999 0 0.011139173990270436 -0.016817879717870101 0 0.011155994340886403 -0.017527429949235999 0 0.010596038122751627 -0.017193963815156397 0 0.011155994340886403 -0.017527429949235999 0 0.010579234828202088 -0.017816084010015557 0 0.010596038122751627 -0.017193963815156397 0 0.0116465575632502 -0.014940876105432394 0 0.011643927466074098 -0.014943511520204239 0 0.011206018508576273 -0.017764864717936056 0 0.011846933034224906 -0.018273373468569894 0 0.010980410876712185 -0.01827957675008016 0 0.0116465575632502 -0.014940876105432394 0 0.011543710252810965 -0.015264186251857541 0 0.011301538160852774 -0.017505556782070414 0 0.011155994340886403 -0.017527429949235999 0 0.010980410876712185 -0.01827957675008016 0 0.011155994340886403 -0.017527429949235999 0 0.010980410876712185 -0.01827957675008016 0 0.010579234828202088 -0.017816084010015557 0 -0.010870425560439616 -0.00086175505645040204 0 -0.010460470418783254 -0.00063000263991016441 0 -0.010628977425898042 -0.0012814120768866052 0 -0.010870425560439616 -0.00086175505645040204 0 -0.011344749112783267 -0.00058755156256001199 0 -0.010730866547998522 -0.00041670924728753141 0 -0.010870425560439616 -0.00086175505645040204 0 -0.010460470418783254 -0.00063000263991016441 0 -0.010730866547998522 -0.00041670924728753141 0 -0.010460470418783254 -0.00063000263991016441 0 -0.010051745017605734 -0.00077399956746651143 0 -0.010250671723645846 -0.00014132767730862743 0 -0.011526625756969597 -0.0014445332765124087 0 -0.0118880267983997 -0.0015893714346452428 0 -0.010460470418783254 -0.00063000263991016441 0 -0.010051745017605734 -0.00077399956746651143 0 -0.010127404720643104 -0.0012727205870033972 0 -0.010051745017605734 -0.00077399956746651143 0 -0.010127404720643104 -0.0012727205870033972 0 -0.0098587224578382815 -0.0012740454334334809 0 -0.010460470418783254 -0.00063000263991016441 0 -0.010029077228363947 -0.0015653111739699949 0 -0.010628977425898042 -0.0012814120768866052 0 -0.010542218946465679 -0.0018882312215405951 0 -0.010029077228363947 -0.0015653111739699949 0 -0.010628977425898042 -0.0012814120768866052 0 -0.010542218946465679 -0.0018882312215405951 0 -0.010628977425898042 -0.0012814120768866052 0 -0.011188420081732956 -0.0014068024517437932 0 -0.010870425560439616 -0.00086175505645040204 0 -0.010628977425898042 -0.0012814120768866052 0 -0.011188420081732956 -0.0014068024517437932 0 -0.011832867922092538 -0.0019008407451696699 0 -0.011188420081732956 -0.0014068024517437932 0 -0.012025644819129393 -0.0013919343131224848 0 -0.011188420081732956 -0.0014068024517437932 0 -0.012025644819129393 -0.0013919343131224848 0 -0.011344749112783267 -0.00058755156256001199 0 -0.0063920856710998663 -0.0040120343090104971 0 -0.0022305700421579545 -0.0051088083525829935 0 -0.0063920856710998663 -0.0040120343090104971 0 -0.0047135528652875944 -0.0041156806806157261 0 0.0025589561839488417 -0.0089592023861425323 0 0.0022280746069265182 -0.0067637709317905368 0 -0.0037372321040402491 -0.00528526129810302 0 -0.0034554294475569805 -0.0046023612221135412 0 -0.0029684039332362705 -0.0043276074892643667 0 -0.0066515099565890466 -0.0028534867442199831 0 -0.0056419764101264527 -0.0043994435488563634 0 -0.0050742537471929897 -0.0030264524708955485 0 -0.0066515099565890466 -0.0028534867442199831 0 -0.0050742537471929897 -0.0030264524708955485 0 -0.0045065441316058507 -0.0016546008219722348 0 -0.010870425560439616 -0.00086175505645040204 0 -0.011188420081732956 -0.0014068024517437932 0 -0.011344749112783267 -0.00058755156256001199 0 -0.0022305700421579545 -0.0051088083525829935 0 0.0022280746069265182 -0.0067637709317905368 0 -0.0034554294475569805 -0.0046023612221135412 0 -0.0029684039332362705 -0.0043276074892643667 0 -0.0031746852703811385 -0.0039189086783540305 0 0.0022280746069265182 -0.0067637709317905368 0 -0.0011863550990343624 -0.0047108921460151266 0 -0.0029684039332362705 -0.0043276074892643667 0 -0.0031746852703811385 -0.0039189086783540305 0 -0.0022079894340823929 -0.0033681211718611472 0 0.0033431681112305041 -0.0078212028884617254 0 0.003710358239957235 -0.006907228365901452 0 0.0052646923887085242 -0.0067201686893755812 0 0.016136428543177875 -0.017960633915259323 0 0.015887738670694391 -0.017823442359214726 0 0.016354598162432812 -0.017354362160431992 0 0.0022280746069265182 -0.0067637709317905368 0 0.0066212354620641747 -0.0089735902307115853 0 0.0071578399861164377 -0.0092883912686266279 0 0.0066212354620641747 -0.0089735902307115853 0 0.014798382980185019 -0.018840464732648065 0 0.014859811831789251 -0.017311771820812828 0 0.015887738670694391 -0.017823442359214726 0 0.014798382980185019 -0.018840464732648065 0 0.016136428543177875 -0.017960633915259323 0 0.015887738670694391 -0.017823442359214726 0 0.014859811831789251 -0.017311771820812828 0 0.015887738670694391 -0.017823442359214726 0 0.01636903550674261 -0.017360104007317811 0 0.01285940187820701 -0.012201762617694824 0 0.0080662214391305602 -0.0093221436122351772 0 0.014859811831789251 -0.017311771820812828 0 0.016488186257511458 -0.017049418048185484 0 0.01636903550674261 -0.017360104007317811 0 0.01399822448683646 -0.012410022563774008 0 0.014298411852799314 -0.0123477203459988 0 0.014129929937461403 -0.012210235965510704 0 0.0086688832480618302 -0.0088543533730344737 0 0.0090064845611554888 -0.0088023616052450397 0 0.0092507342592345575 -0.0074093157527856668 0 0.0080662214391305602 -0.0093221436122351772 0 0.0099736050635109152 -0.0086806704649686761 0 0.0042904011414192748 -0.0063750935992408428 0 0.003710358239957235 -0.006907228365901452 0 0.0052646923887085242 -0.0067201686893755812 0 0.0080662214391305602 -0.0093221436122351772 0 0.0072634795609742659 -0.0087822673913247884 0 0.0065549370807595434 -0.0075682997980292292 0 0.0072543333173363681 -0.0074611487566224972 0 0.0062154685573157483 -0.0084166195425260937 0 0.0072634795609742659 -0.0087822673913247884 0 0.0066212354620641747 -0.0089735902307115853 0 0.0080662214391305602 -0.0093221436122351772 0 0.0066212354620641747 -0.0089735902307115853 0 0.014298411852799314 -0.0123477203459988 0 0.014259299242046298 -0.01218754278570334 0 0.014129929937461403 -0.012210235965510704 0 0.0072634795609742659 -0.0087822673913247884 0 0.0066751052715595827 -0.0085515998098277275 0 0.0042904011414192748 -0.0063750935992408428 0 0.0058918250105224378 -0.0061289997386226791 0 0.0052646923887085242 -0.0067201686893755812 0 0.004319021358833555 -0.0063780884856588695 0 0.0058918250105224378 -0.0061289997386226791 0 0.0062756072239122176 -0.0045645103826893706 0 -0.011344749112783267 -0.00058755156256001199 0 -0.010689183240856001 0.00017485738378853776 0 -0.010730866547998522 -0.00041670924728753141 0 -0.010689183240856001 0.00017485738378853776 0 -0.010730866547998522 -0.00041670924728753141 0 -0.010250671723645846 -0.00014132767730862743 0 -0.0047135528652875944 -0.0041156806806157261 0 -0.0011863550990343624 -0.0047108921460151266 0 -0.010460470418783254 -0.00063000263991016441 0 -0.010730866547998522 -0.00041670924728753141 0 -0.010250671723645846 -0.00014132767730862743 0 -0.0099103949212498363 -0.00086109980941644776 0 -0.010250671723645846 -0.00014132767730862743 0 -0.0096968850083227389 -0.00032120808297756147 0 -0.010250671723645846 -0.00014132767730862743 0 -0.0099095628079638575 0.00060337321844983866 0 -0.0096968850083227389 -0.00032120808297756147 0 -0.011182677772403497 -0.0010443339020777995 0 -0.011059071454242198 -0.00087734977334377067 0 -0.010689183240856001 0.00017485738378853776 0 -0.010250671723645846 -0.00014132767730862743 0 -0.0099095628079638575 0.00060337321844983866 0 -0.0011863550990343624 -0.0047108921460151266 0 0.001709910069610221 -0.0024057547630195303 0 0.0058918250105224378 -0.0061289997386226791 0 0.0052646923887085242 -0.0067201686893755812 0 0.0070815691877624664 -0.005675679040904138 0 0.001709910069610221 -0.0024057547630195303 0 -0.0032040884467941094 -0.0001695839004632764 0 0.0016945927584513143 -0.00029085667309369768 0 0.0017357819149103589 -0.00028819521805643504 0 0.0019146177887182565 -6.903473429206551e-05 0 0.0017357819149103589 -0.00028819521805643504 0 0.001972119966930828 -0.00020684792755710222 0 0.0015928652520662062 -0.00040333842087926204 0 0.0017357819149103589 -0.00028819521805643504 0 0.0015928652520662062 -0.00040333842087926204 0 0.0019146177887182565 -6.903473429206551e-05 0 0.0015928652520662062 -0.00040333842087926204 0 0.0019146177887182565 -6.903473429206551e-05 0 0.0011588155040621973 0.00051349961965194938 0 -0.0099095628079638575 0.00060337321844983866 0 -0.0092576345558768001 -0.0003262580450778901 0 -0.0096968850083227389 -0.00032120808297756147 0 -0.0092576345558768001 -0.0003262580450778901 0 -0.0096968850083227389 -0.00032120808297756147 0 -0.0094476452835996778 -0.00057484747585553159 0 -0.0096968850083227389 -0.00032120808297756147 0 -0.0096097924767035697 -0.00087889381198238861 0 -0.0094476452835996778 -0.00057484747585553159 0 -0.011179544385513203 -0.00083947988815222913 0 -0.011337477043103552 -0.0009476666772335055 0 -0.0099103949212498363 -0.00086109980941644776 0 -0.0096968850083227389 -0.00032120808297756147 0 -0.0096486470697267641 -0.0009506699065784201 0 -0.0096097924767035697 -0.00087889381198238861 0 -0.0092283425449533277 -0.00076195987481922876 0 -0.0093201448369222822 -0.0010986779782216382 0 -0.0096097924767035697 -0.00087889381198238861 0 -0.0092283425449533277 -0.00076195987481922876 0 -0.0094476452835996778 -0.00057484747585553159 0 -0.0092576345558768001 -0.0003262580450778901 0 -0.0092283425449533277 -0.00076195987481922876 0 -0.0094476452835996778 -0.00057484747585553159 0 -0.0032040884467941094 -0.0001695839004632764 0 -0.0063334679244967012 0.00014002701628641314 0 -0.0092283425449533277 -0.00076195987481922876 0 -0.0090085747140874646 -0.0010699880656976461 0 -0.0086762811560036693 -0.0011488067736328232 0 -0.0092576345558768001 -0.0003262580450778901 0 -0.0092283425449533277 -0.00076195987481922876 0 -0.0086762811560036693 -0.0011488067736328232 0 0.0019146177887182565 -6.903473429206551e-05 0 0.0011588155040621973 0.00051349961965194938 0 0.0010152712667538795 0.0016658244149899549 0 -0.0092283425449533277 -0.00076195987481922876 0 -0.0090085747140874646 -0.0010699880656976461 0 -0.0093201448369222822 -0.0010986779782216382 0 -0.0090085747140874646 -0.0010699880656976461 0 -0.0090867694002433174 -0.0013103806787516407 0 -0.0093201448369222822 -0.0010986779782216382 0 -0.0090867694002433174 -0.0013103806787516407 0 -0.00864234463998843 -0.0012097931567407411 0 -0.0093139195479743624 -0.0019260949711106929 0 -0.0090085747140874646 -0.0010699880656976461 0 -0.0090867694002433174 -0.0013103806787516407 0 -0.0086900892598324227 -0.0011435072234036179 0 -0.0090867694002433174 -0.0013103806787516407 0 -0.00864234463998843 -0.0012097931567407411 0 -0.0086900892598324227 -0.0011435072234036179 0 -0.0066603327467441376 0.00014587620810802907 0 -0.0063334679244967012 0.00014002701628641314 0 -0.0099103949212498363 -0.00086109980941644776 0 -0.0096486470697267641 -0.0009506699065784201 0 -0.0095944540869207055 -0.0015588316456761184 0 -0.011337477043103552 -0.0009476666772335055 0 -0.011879214653465951 -0.00097308410221110409 0 -0.011182677772403497 -0.0010443339020777995 0 -0.011879214653465951 -0.00097308410221110409 0 -0.0096097924767035697 -0.00087889381198238861 0 -0.009549696399555203 -0.0014116141767273854 0 -0.0093201448369222822 -0.0010986779782216382 0 -0.0090867694002433174 -0.0013103806787516407 0 -0.009549696399555203 -0.0014116141767273854 0 -0.0093201448369222822 -0.0010986779782216382 0 -0.0081312588106533645 0.0010736135767383098 0 -0.0080405739426365735 0.0010572123500364331 0 -0.0081538412793819952 0.0010077603129453486 0 -0.0059553246852596976 0.00061705953198552387 0 -0.0071870913734376311 0.0011227527844819153 0 -0.00080913490026552975 0.0010162087891788965 0 -0.0010087406645596239 0.00052627812020655752 0 -0.0013425943265215443 0.00077830237548035723 0 -0.0081312588106533645 0.0010736135767383098 0 -0.0081790456800005726 0.0010513553523888895 0 -0.0081538412793819952 0.0010077603129453486 0 -0.0081312588106533645 0.0010736135767383098 0 -0.0081790456800005726 0.0010513553523888895 0 -0.0082241837201273357 0.0010823060907096938 0 -0.00080913490026552975 0.0010162087891788965 0 -0.00016651208181758182 0.0009033240829859477 0 -0.000576265537229482 0.00044182999874171279 0 -0.0059553246852596976 0.00061705953198552387 0 -0.0065834658136139602 0.00021108573234966216 0 -0.0065834658136139602 0.00021108573234966216 0 -0.010591558570828438 0.00099100605536854027 0 -0.0081790456800005726 0.0010513553523888895 0 -0.0082241837201273357 0.0010823060907096938 0 -0.0081676878737615578 0.001003780149246536 0 0.00091340361416718523 0.0018012362650740013 0 0.0010152712667538795 0.0016658244149899549 0 0.00074655958292058782 0.0010799629850898732 0 -0.0065834658136139602 0.00021108573234966216 0 -0.0063334679244967012 0.00014002701628641314 0 -0.0065834658136139602 0.00021108573234966216 0 -0.0037488152032937663 0.001459125438312225 0 0.0011588155040621973 0.00051349961965194938 0 0.0010152712667538795 0.0016658244149899549 0 0.00074655958292058782 0.0010799629850898732 0 0.00091340361416718523 0.0018012362650740013 0 0.00074655958292058782 0.0010799629850898732 0 -2.0741194744879917e-06 0.00093384241710249409 0 0.0011588155040621973 0.00051349961965194938 0 0.00074655958292058782 0.0010799629850898732 0 0.00035267902965352129 0.00023020201849956385 0 0.00074655958292058782 0.0010799629850898732 0 -2.0741194744879917e-06 0.00093384241710249409 0 0.00035267902965352129 0.00023020201849956385 0 -0.00080913490026552975 0.0010162087891788965 0 -0.000576265537229482 0.00044182999874171279 0 -0.0010087406645596239 0.00052627812020655752 0 -0.0037488152032937663 0.001459125438312225 0 -0.0032298506744294184 0.001537975023477946 0 -0.000576265537229482 0.00044182999874171279 0 -0.0010087406645596239 0.00052627812020655752 0 -0.00089246562798809984 5.2588766536013061e-05 0 -0.0010087406645596239 0.00052627812020655752 0 -0.00089246562798809984 5.2588766536013061e-05 0 -0.0014122231806023291 0.00029477744537297366 0 -0.00089246562798809984 5.2588766536013061e-05 0 0.00035267902965352129 0.00023020201849956385 0 -0.00049117838673539565 -0.00086575267119417165 0 -0.00089246562798809984 5.2588766536013061e-05 0 -0.00049117838673539565 -0.00086575267119417165 0 -0.0015177414011491026 -0.00023964461309155182 0 -2.0741194744879917e-06 0.00093384241710249409 0 -0.00089246562798809984 5.2588766536013061e-05 0 0.00035267902965352129 0.00023020201849956385 0 0.0015928652520662062 -0.00040333842087926204 0 0.00035267902965352129 0.00023020201849956385 0 -0.00049117838673539565 -0.00086575267119417165 0 0.0015928652520662062 -0.00040333842087926204 0 0.0011588155040621973 0.00051349961965194938 0 0.00035267902965352129 0.00023020201849956385 0 0.001972119966930828 -0.00020684792755710222 0 0.0015928652520662062 -0.00040333842087926204 0 0.0026824634596593708 -0.00047927216806421211 0 0.0014162599781175249 -0.00034706579638043564 0 0.0012161967619637019 -0.00037096385876457224 0 0.001972119966930828 -0.00020684792755710222 0 0.0026824634596593708 -0.00047927216806421211 0 0.0023253475331788676 1.6216349278844957e-05 0 0.0012161967619637019 -0.00037096385876457224 0 0.0010042054764162439 -0.0002949539338795216 0 0.0026824634596593708 -0.00047927216806421211 0 0.0033755601772189978 -0.00012698880598153891 0 0.002914094138602543 3.3593244794128085e-05 0 -0.00049117838673539565 -0.00086575267119417165 0 -0.0017543234039944552 -0.00063122800146573905 0 -0.0015177414011491026 -0.00023964461309155182 0 -0.0017543234039944552 -0.00063122800146573905 0 -0.0019775235529983122 -0.00038693124547395673 0 -0.0015177414011491026 -0.00023964461309155182 0 -0.0017543234039944552 -0.00063122800146573905 0 -0.0019775235529983122 -0.00038693124547395673 0 -0.001784389388091687 6.1814616019441066e-05 0 -0.0019775235529983122 -0.00038693124547395673 0 -0.0022722680865792772 -0.00016693533451062647 0 -0.0018427346494767219 2.9669472569949467e-05 0 -0.0019775235529983122 -0.00038693124547395673 0 -0.0018427346494767219 2.9669472569949467e-05 0 -0.0015177414011491026 -0.00023964461309155182 0 -0.0018427346494767219 2.9669472569949467e-05 0 -0.0015177414011491026 -0.00023964461309155182 0 -0.0014122231806023291 0.00029477744537297366 0 -0.00089246562798809984 5.2588766536013061e-05 0 -0.0015177414011491026 -0.00023964461309155182 0 -0.0014122231806023291 0.00029477744537297366 0 -0.0016746911057396363 -1.3629429855866212e-06 0 -0.0019351653206960801 -0.00037087780807783217 0 -0.00041503474884683079 -0.00018602324963594416 0 -0.0019351653206960801 -0.00037087780807783217 0 -0.001784389388091687 6.1814616019441066e-05 0 -0.00041503474884683079 -0.00018602324963594416 0 -0.0019775235529983122 -0.00038693124547395673 0 -0.0019351653206960801 -0.00037087780807783217 0 -0.001784389388091687 6.1814616019441066e-05 0 -0.0019775235529983122 -0.00038693124547395673 0 -0.0022722680865792772 -0.00016693533451062647 0 -0.0019351653206960801 -0.00037087780807783217 0 -0.0022722680865792772 -0.00016693533451062647 0 -0.0019351653206960801 -0.00037087780807783217 0 -0.0026790960688545867 -0.00022823712868142923 0 -0.0016746911057396363 -1.3629429855866212e-06 0 -0.0026790960688545867 -0.00022823712868142923 0 -0.0036366756798775542 -4.6441758602018698e-05 0 -0.0016746911057396363 -1.3629429855866212e-06 0 -0.0019351653206960801 -0.00037087780807783217 0 -0.0026790960688545867 -0.00022823712868142923 0 -0.0016746911057396363 -1.3629429855866212e-06 0 -0.0048365670862225629 -6.458115454309552e-07 0 -0.0036366756798775542 -4.6441758602018698e-05 0 -0.0048365670862225629 -6.458115454309552e-07 0 -0.0036366756798775542 -4.6441758602018698e-05 0 -0.004469875570648295 -0.00010700052344832493 0 -0.0060251910861958812 0.0016626878562223312 0 -0.0064173179343454678 0.0017041875303707823 0 -0.0036366756798775542 -4.6441758602018698e-05 0 -0.0044560561509175917 -0.00010729326261103878 0 -0.004469875570648295 -0.00010700052344832493 0 -0.0026790960688545867 -0.00022823712868142923 0 -0.0036366756798775542 -4.6441758602018698e-05 0 -0.0025393656746672808 0.00019282878687904275 0 -0.0022722680865792772 -0.00016693533451062647 0 -0.0026790960688545867 -0.00022823712868142923 0 -0.0025393656746672808 0.00019282878687904275 0 -0.0025393656746672808 0.00019282878687904275 0 -0.0025514273709135705 0.00085202012063033666 0 -0.0022988971480381371 0.00062719895568152646 0 -0.0036366756798775542 -4.6441758602018698e-05 0 -0.0025393656746672808 0.00019282878687904275 0 -0.0025514273709135705 0.00085202012063033666 0 -0.0044560561509175917 -0.00010729326261103878 0 -0.0044527238488108831 -5.0596585975624329e-06 0 -0.004469875570648295 -0.00010700052344832493 0 -0.0044560561509175917 -0.00010729326261103878 0 -0.0044527238488108831 -5.0596585975624329e-06 0 -0.0042559538250865987 7.1287020936178596e-05 0 -0.0044527238488108831 -5.0596585975624329e-06 0 -0.0046634761303408889 9.3749014356220436e-05 0 -0.0041994040701860309 0.00031138892436562821 0 -0.0046634761303408889 9.3749014356220436e-05 0 -0.004469875570648295 -0.00010700052344832493 0 -0.0054279490362428486 -5.3864301523884424e-05 0 -0.0044527238488108831 -5.0596585975624329e-06 0 -0.0046634761303408889 9.3749014356220436e-05 0 -0.004469875570648295 -0.00010700052344832493 0 -0.0046634761303408889 9.3749014356220436e-05 0 -0.0054279490362428486 -5.3864301523884424e-05 0 -0.0050186062175036515 0.00062343829723151081 0 -0.0048365670862225629 -6.458115454309552e-07 0 -0.0054279490362428486 -5.3864301523884424e-05 0 -0.0079960425229106437 2.175716372191262e-06 0 -0.0048365670862225629 -6.458115454309552e-07 0 -0.004469875570648295 -0.00010700052344832493 0 -0.0054279490362428486 -5.3864301523884424e-05 0 -0.0017182825223358807 0.00062210455377623424 0 -0.0014122231806023291 0.00029477744537297366 0 -0.0013425943265215443 0.00077830237548035723 0 -0.0010087406645596239 0.00052627812020655752 0 -0.0014122231806023291 0.00029477744537297366 0 -0.0013425943265215443 0.00077830237548035723 0 -0.0018427346494767219 2.9669472569949467e-05 0 -0.0017182825223358807 0.00062210455377623424 0 -0.0014122231806023291 0.00029477744537297366 0 -0.0018427346494767219 2.9669472569949467e-05 0 -0.0017182825223358807 0.00062210455377623424 0 -0.002102830268721146 0.00035477023048989368 0 -0.0022722680865792772 -0.00016693533451062647 0 -0.0018427346494767219 2.9669472569949467e-05 0 -0.002102830268721146 0.00035477023048989368 0 -0.0022722680865792772 -0.00016693533451062647 0 -0.0025393656746672808 0.00019282878687904275 0 -0.002102830268721146 0.00035477023048989368 0 -0.0025393656746672808 0.00019282878687904275 0 -0.002102830268721146 0.00035477023048989368 0 -0.0022988971480381371 0.00062719895568152646 0 -0.002102830268721146 0.00035477023048989368 0 -0.0022988971480381371 0.00062719895568152646 0 -0.002015350324398086 0.00070859123319963046 0 -0.0017182825223358807 0.00062210455377623424 0 -0.002102830268721146 0.00035477023048989368 0 -0.002015350324398086 0.00070859123319963046 0 -0.0017182825223358807 0.00062210455377623424 0 -0.0017705642321358347 0.00084965996442624113 0 -0.002015350324398086 0.00070859123319963046 0 -0.0017705642321358347 0.00084965996442624113 0 -0.002015350324398086 0.00070859123319963046 0 -0.0023561890512104342 0.00094563898611392104 0 -0.0023561890512104342 0.00094563898611392104 0 -0.0020921217571293681 0.001180495053521826 0 -0.0016547624510812125 0.0011946820288775573 0 -0.0049608575120107011 0.0016874429443468494 0 -0.0071870913734376311 0.0011227527844819153 0 -0.0017705642321358347 0.00084965996442624113 0 -0.0023561890512104342 0.00094563898611392104 0 -0.0014829298013528441 0.0012240501090314733 0 -0.0064173179343454678 0.0017041875303707823 0 -0.0080746143978422079 0.0014572097212774053 0 -0.0025514273709135705 0.00085202012063033666 0 -0.0023561890512104342 0.00094563898611392104 0 -0.0020921217571293681 0.001180495053521826 0 -0.0025514273709135705 0.00085202012063033666 0 -0.0022988971480381371 0.00062719895568152646 0 -0.0023561890512104342 0.00094563898611392104 0 -0.0022988971480381371 0.00062719895568152646 0 -0.002015350324398086 0.00070859123319963046 0 -0.0023561890512104342 0.00094563898611392104 0 -0.0044527238488108831 -5.0596585975624329e-06 0 -0.0042559538250865987 7.1287020936178596e-05 0 -0.0041994040701860309 0.00031138892436562821 0 -0.0044560561509175917 -0.00010729326261103878 0 -0.0042559538250865987 7.1287020936178596e-05 0 -0.0040765577048195003 9.8455256384816066e-05 0 -0.0078595487145431929 0.0014782184542258649 0 -0.0080746143978422079 0.0014572097212774053 0 -0.0091692824866207324 0.00081525302852316207 0 -0.0093811582782998559 0.00097863748825266408 0 -0.0042559538250865987 7.1287020936178596e-05 0 -0.0041118562318528855 0.00013575535790825007 0 -0.0041994040701860309 0.00031138892436562821 0 -0.0042559538250865987 7.1287020936178596e-05 0 -0.0041118562318528855 0.00013575535790825007 0 -0.0040497059125371628 0.00013435134219413905 0 -0.0041118562318528855 0.00013575535790825007 0 -0.0039339894217839521 0.00023685232085122852 0 -0.0042617911340135503 0.0003174269350009954 0 -0.0041118562318528855 0.00013575535790825007 0 -0.0040497059125371628 0.00013435134219413905 0 -0.0039339894217839521 0.00023685232085122852 0 -0.0080746143978422079 0.0014572097212774053 0 -0.0091495315600330952 0.0011625833990343008 0 -0.0080746143978422079 0.0014572097212774053 0 -0.0085439453502777762 0.0012171619849839631 0 -0.0091401683174447447 0.00097303024210274958 0 -0.0090455049267033193 0.0010550967530192433 0 -0.0089385389911133817 0.0010283659186657694 0 -0.0091495315600330952 0.0011625833990343008 0 -0.0085439453502777762 0.0012171619849839631 0 -0.00080913490026552975 0.0010162087891788965 0 -0.0014829298013528441 0.0012240501090314733 0 -0.0013425943265215443 0.00077830237548035723 0 -0.0020921217571293681 0.001180495053521826 0 -0.0018411301677294888 0.0012445009016931363 0 -0.0016547624510812125 0.0011946820288775573 0 -0.0085439453502777762 0.0012171619849839631 0 -0.0071870913734376311 0.0011227527844819153 0 -0.0017705642321358347 0.00084965996442624113 0 -0.0014829298013528441 0.0012240501090314733 0 -0.0013425943265215443 0.00077830237548035723 0 -0.0017182825223358807 0.00062210455377623424 0 -0.0017705642321358347 0.00084965996442624113 0 -0.0013425943265215443 0.00077830237548035723 0 -0.0085439453502777762 0.0012171619849839631 0 -0.010333021483057862 0.00098399985394999963 0 -0.014930725138644064 0.0030215500321094041 0 -0.01514419524684101 0.0030724664848670443 0 -0.015875809379941427 0.0022096872898817832 0 -0.015405280819469491 0.0030386902833660066 0 -0.016215353733185323 0.0022376338275124858 0 -0.015225516429739181 0.0024828823997270571 0 -0.01514419524684101 0.0030724664848670443 0 -0.015875809379941427 0.0022096872898817832 0 -0.016681697531795613 0.0026263328253896268 0 -0.007510192961916789 0.0014782738210095845 0 -0.0080012654787795911 0.0015927756061002798 0 -0.010106974158360258 0.00071345856720806636 0 -0.0091495315600330952 0.0011625833990343008 0 -0.012990461375401887 0.00049493082494755306 0 -0.0091495315600330952 0.0011625833990343008 0 -0.0093811582782998559 0.00097863748825266408 0 -0.015405280819469491 0.0030386902833660066 0 -0.014948394599897866 0.002937774448365597 0 -0.015225516429739181 0.0024828823997270571 0 -0.015344267483839776 0.0019362681643207008 0 -0.013998575894397318 0.0020435909081773377 0 -0.01521351133218086 0.0010884098924082669 0 -0.015225516429739181 0.0024828823997270571 0 -0.015344267483839776 0.0019362681643207008 0 -0.013998575894397318 0.0020435909081773377 0 -0.015344267483839776 0.0019362681643207008 0 -0.01585458622203811 0.0016606357164438152 0 -0.01521351133218086 0.0010884098924082669 0 -0.016215353733185323 0.0022376338275124858 0 -0.015344267483839776 0.0019362681643207008 0 -0.01585458622203811 0.0016606357164438152 0 -0.016215353733185323 0.0022376338275124858 0 -0.015225516429739181 0.0024828823997270571 0 -0.015344267483839776 0.0019362681643207008 0 -0.01585458622203811 0.0016606357164438152 0 -0.016172417040851005 0.0012363228429013984 0 -0.016267749571371434 0.0016691963644004336 0 -0.016215353733185323 0.0022376338275124858 0 -0.01585458622203811 0.0016606357164438152 0 -0.016267749571371434 0.0016691963644004336 0 -0.0079995505813966819 9.3686599359195582e-07 0 -0.0080783974217320947 0.00038095802132253481 0 -0.0054279490362428486 -5.3864301523884424e-05 0 -0.0079960425229106437 2.175716372191262e-06 0 -0.0050186062175036515 0.00062343829723151081 0 -0.0080034503706984585 4.947803747769978e-07 0 -0.009128774532565536 0.00048107374495327685 0 -0.0092269289506108805 -0.00016413576058980171 0 -0.0093811582782998559 0.00097863748825266408 0 -0.0080783974217320947 0.00038095802132253481 0 -0.0046634761303408889 9.3749014356220436e-05 0 -0.0041994040701860309 0.00031138892436562821 0 -0.0050186062175036515 0.00062343829723151081 0 -0.014948394599897866 0.002937774448365597 0 -0.015225516429739181 0.0024828823997270571 0 -0.013998575894397318 0.0020435909081773377 0 -0.0097492146656529416 0.00063288105404974706 0 -0.009128774532565536 0.00048107374495327685 0 -0.0092269289506108805 -0.00016413576058980171 0 -0.0093811582782998559 0.00097863748825266408 0 -0.0110765478555758 0.00079673222951373362 0 -0.0080034503706984585 4.947803747769978e-07 0 -0.0092269289506108805 -0.00016413576058980171 0 -0.0099322139139441795 -4.9269818511603816e-07 0 -0.0092269289506108805 -0.00016413576058980171 0 -0.0099322139139441795 -4.9269818511603816e-07 0 -0.011862485748667856 4.9215523961455255e-07 0 -0.0110765478555758 0.00079673222951373362 0 -0.011863434141865374 9.7523006060384088e-07 0 -0.013998575894397318 0.0020435909081773377 0 -0.011869450020138839 2.9213561463475893e-06 0 -0.014210821090711711 0.00062987976903117475 0 -0.013998575894397318 0.0020435909081773377 0 -0.014210821090711711 0.00062987976903117475 0 -0.01521351133218086 0.0010884098924082669 0 -0.014210821090711711 0.00062987976903117475 0 -0.014877143320350806 0.00011927549219733332 0 -0.01521351133218086 0.0010884098924082669 0 -0.014210821090711711 0.00062987976903117475 0 -0.014877143320350806 0.00011927549219733332 0 -0.01405081145459453 -9.3813400106431281e-05 0 -0.014423704880646938 -1.6647823324503492e-06 0 -0.011869450020138839 2.9213561463475893e-06 0 -0.01405081145459453 -9.3813400106431281e-05 0 -0.011869450020138839 2.9213561463475893e-06 0 -0.014210821090711711 0.00062987976903117475 0 -0.01405081145459453 -9.3813400106431281e-05 0 -0.016033298168088364 0.0012266617939490441 0 -0.015718316485990078 0.00121107944507208 0 -0.015905090165403823 0.00095788219261416655 0 -0.01521351133218086 0.0010884098924082669 0 -0.015595055331933573 0.00043814767328660171 0 -0.01585458622203811 0.0016606357164438152 0 -0.016172417040851005 0.0012363228429013984 0 -0.01521351133218086 0.0010884098924082669 0 -0.014877143320350806 0.00011927549219733332 0 -0.01521351133218086 0.0010884098924082669 0 -0.015595055331933573 0.00043814767328660171 0 -0.015453968056163905 9.531933000802789e-05 0 -0.014877143320350806 0.00011927549219733332 0 -0.015595055331933573 0.00043814767328660171 0 -0.015786590439253959 9.0263930699319099e-05 0 -0.015595055331933573 0.00043814767328660171 0 -0.016048913434924844 0.00057457988698090818 0 -0.015905090165403823 0.00095788219261416655 0 -0.015595055331933573 0.00043814767328660171 0 -0.016048913434924844 0.00057457988698090818 0 -0.017734766389733637 0.0015222803193358011 0 -0.01866679472567026 0.0021620716560819138 0 -0.015786590439253959 9.0263930699319099e-05 0 -0.016048913434924844 0.00057457988698090818 0 -0.01646248705164214 0.00047039502859779733 0 -0.016048913434924844 0.00057457988698090818 0 -0.016451392173278092 0.00072243938206339 0 -0.01646248705164214 0.00047039502859779733 0 -0.016172417040851005 0.0012363228429013984 0 -0.016964172189629288 0.0012185068879710971 0 -0.016805437737878449 0.0015413291057120892 0 -0.016172417040851005 0.0012363228429013984 0 -0.016267749571371434 0.0016691963644004336 0 -0.016805437737878449 0.0015413291057120892 0 -0.015905090165403823 0.00095788219261416655 0 -0.016048913434924844 0.00057457988698090818 0 -0.0162742090963931 0.00086819736686897533 0 -0.016033298168088364 0.0012266617939490441 0 -0.016471885991022676 0.0012935952812014734 0 -0.015905090165403823 0.00095788219261416655 0 -0.0162742090963931 0.00086819736686897533 0 -0.016468343683199216 0.00092062006754553127 0 -0.016048913434924844 0.00057457988698090818 0 -0.0162742090963931 0.00086819736686897533 0 -0.016451392173278092 0.00072243938206339 0 -0.016471885991022676 0.0012935952812014734 0 -0.017597533177330628 0.0015562706701989135 0 -0.01866679472567026 0.0021620716560819138 0 -0.017597533177330628 0.0015562706701989135 0 -0.016964172189629288 0.0012185068879710971 0 -0.017783361744371905 0.0014616715536322413 0 -0.017264734803310415 0.0016989162977273649 0 -0.016491268482044023 0.00093653678578884845 0 -0.016451392173278092 0.00072243938206339 0 -0.017091240562008257 0.00091654940665917553 0 -0.016471885991022676 0.0012935952812014734 0 -0.015246355445715922 0.00098263321127646801 0 -0.016451392173278092 0.00072243938206339 0 -0.01646248705164214 0.00047039502859779733 0 -0.017091240562008257 0.00091654940665917553 0 -0.0162742090963931 0.00086819736686897533 0 -0.016491268482044023 0.00093653678578884845 0 -0.016451392173278092 0.00072243938206339 0 -0.016453722838390951 0.0012792935165980477 0 -0.016471885991022676 0.0012935952812014734 0 -0.02403240529877294 0.0033350001961554845 0 -0.022690867031717018 0.0043990340116769021 0 -0.024447188970964633 0.0042080269892715242 0 -0.022690867031717018 0.0043990340116769021 0 -0.024447188970964633 0.0042080269892715242 0 -0.024579876389430284 0.005287000964396946 0 -0.02508051182616499 0.0032915506773050838 0 -0.02403240529877294 0.0033350001961554845 0 -0.024447188970964633 0.0042080269892715242 0 -0.02508051182616499 0.0032915506773050838 0 -0.024447188970964633 0.0042080269892715242 0 -0.025276747203296385 0.0041521455636005997 0 -0.024447188970964633 0.0042080269892715242 0 -0.025276747203296385 0.0041521455636005997 0 -0.024856568605201714 0.0047447466765432513 0 -0.02508051182616499 0.0032915506773050838 0 -0.025943839442794069 0.0035074420930161247 0 -0.025276747203296385 0.0041521455636005997 0 -0.025276747203296385 0.0041521455636005997 0 -0.025935472246367625 0.004512754792860907 0 -0.025319132321461262 0.0047208578699247869 0 -0.025276747203296385 0.0041521455636005997 0 -0.025319132321461262 0.0047208578699247869 0 -0.024856568605201714 0.0047447466765432513 0 -0.025943839442794069 0.0035074420930161247 0 -0.025276747203296385 0.0041521455636005997 0 -0.025935472246367625 0.004512754792860907 0 -0.026851740738565354 0.0039612513777893084 0 -0.025943839442794069 0.0035074420930161247 0 -0.025935472246367625 0.004512754792860907 0 -0.02721927407556924 0.005014271809355873 0 -0.025935472246367625 0.004512754792860907 0 -0.025498641969531104 0.0051185238108161927 0 -0.025935472246367625 0.004512754792860907 0 -0.025498641969531104 0.0051185238108161927 0 -0.025319132321461262 0.0047208578699247869 0 -0.017125624889037652 0.0012148280805826645 0 -0.017247321621302776 0.0015132155952301072 0 -0.025498641969531104 0.0051185238108161927 0 -0.025319132321461262 0.0047208578699247869 0 -0.025084927362410112 0.0051464839253772109 0 -0.017125624889037652 0.0012148280805826645 0 -0.01562054212072563 0.00054713585299022503 0 -0.01634838546553137 0.00097707544967411456 0 -0.015783228021907344 0.00099591850662331008 0 -0.016154778962693635 0.0017609133965803196 0 -0.01634838546553137 0.00097707544967411456 0 -0.016446962307298287 0.0019726672936360135 0 -0.016154778962693635 0.0017609133965803196 0 -0.017247321621302776 0.0015132155952301072 0 -0.016029679801707709 0.00081530706396579016 0 -0.016314382798797194 0.00045098705096866909 0 -0.016570438697853979 0.00067131632039775339 0 -0.016349554611649022 0.00080799311654585122 0 -0.016523496495853836 0.0012065817748671812 0 -0.016346446039329436 0.0012068356407816524 0 -0.01636569998371264 0.0011915471844062091 0 -0.016523496495853836 0.0012065817748671812 0 -0.016345139114415097 0.0011475817928562426 0 -0.01636569998371264 0.0011915471844062091 0 -0.024447188970964633 0.0042080269892715242 0 -0.024856568605201714 0.0047447466765432513 0 -0.024579876389430284 0.005287000964396946 0 -0.025319132321461262 0.0047208578699247869 0 -0.024856568605201714 0.0047447466765432513 0 -0.025084927362410112 0.0051464839253772109 0 -0.024856568605201714 0.0047447466765432513 0 -0.024579876389430284 0.005287000964396946 0 -0.025105842313790448 0.0052605219826048393 0 -0.017549826803343986 0.0018947090667129597 0 -0.017247321621302776 0.0015132155952301072 0 -0.016346446039329436 0.0012068356407816524 0 -0.016345149917851576 0.0011420045209858726 0 -0.01636569998371264 0.0011915471844062091 0 -0.016346446039329436 0.0012068356407816524 0 -0.016345149917851576 0.0011420045209858726 0 -0.016248547791628664 0.0011318107418253882 0 -0.01665025046070279 0.0013834209617388834 0 -0.016946354203447308 0.0013728840434520633 0 -0.017114209608202962 0.001719300150744891 0 -0.017597533177330628 0.0015562706701989135 0 -0.016029679801707709 0.00081530706396579016 0 -0.017597533177330628 0.0015562706701989135 0 -0.017247321621302776 0.0015132155952301072 0 -0.015246355445715922 0.00098263321127646801 0 -0.015268928624302024 0.0010050719248917012 0 -0.017783361744371905 0.0014616715536322413 0 -0.017619358541295052 0.001827249830819219 0 -0.017264734803310415 0.0016989162977273649 0 -0.017783361744371905 0.0014616715536322413 0 -0.018008026914345773 0.0019466295674358985 0 -0.017619358541295052 0.001827249830819219 0 -0.014452664430364019 0.00039610850430535859 0 -0.014478803654517421 0.00045290479395172941 0 -0.014509902890656541 0.00041148640791231132 0 -0.015246355445715922 0.00098263321127646801 0 -0.013727948989994186 0.00029756161206734858 0 -0.015246355445715922 0.00098263321127646801 0 -0.015545399003390666 0.0005963195270942877 0 -0.013645747864897098 -6.4886098948089402e-05 0 -0.013796446864224095 0.00026254540984943237 0 -0.012347090484997884 0.00068463383799168996 0 -0.013727948989994186 0.00029756161206734858 0 -0.013125382803613382 -3.0040151092605011e-05 0 -0.013727948989994186 0.00029756161206734858 0 -0.012836042891980084 0.00052690776062255839 0 -0.018008026914345773 0.0019466295674358985 0 -0.017619358541295052 0.001827249830819219 0 -0.017417678028646449 0.00220646252064325 0 -0.017619358541295052 0.001827249830819219 0 -0.017417678028646449 0.00220646252064325 0 -0.017264734803310415 0.0016989162977273649 0 -0.015749653437784335 5.2268549327340839e-06 0 -0.015315499224765107 8.9119519131833019e-05 0 -0.014435214550218727 -0.00014000667321308576 0 -0.014615644731758245 -8.6219304342932457e-05 0 -0.014071136195934116 0.00050440578227946211 0 -0.01519928948648443 0.00067644807253187109 0 -0.015419238857402331 0.00058653715320546062 0 -0.0153120057951339 0.00055413437743642095 0 -0.015315499224765107 8.9119519131833019e-05 0 -0.015184912299162025 -1.6310131037629022e-05 0 -0.016728882195521082 0.00085844809438087165 0 -0.016570438697853979 0.00067131632039775339 0 -0.016589250227469168 0.0009160932119193127 0 -0.015315499224765107 8.9119519131833019e-05 0 -0.01562054212072563 0.00054713585299022503 0 -0.016570438697853979 0.00067131632039775339 0 -0.016589250227469168 0.0009160932119193127 0 -0.016349554611649022 0.00080799311654585122 0 -0.015315499224765107 8.9119519131833019e-05 0 -0.014753548727760427 0.000156503982784791 0 -0.015280934032144144 -0.00051204086585192679 0 -0.014752172171189033 -0.0003515436034999429 0 -0.014710489765317334 -0.00077008503211131892 0 -0.014478803654517421 0.00045290479395172941 0 -0.014520285780774727 0.00043251581076347466 0 -0.014509902890656541 0.00041148640791231132 0 -0.016345149917851576 0.0011420045209858726 0 -0.016236114642886958 0.0011055995022374221 0 -0.016248547791628664 0.0011318107418253882 0 -0.014753548727760427 0.000156503982784791 0 -0.01562054212072563 0.00054713585299022503 0 -0.014753548727760427 0.000156503982784791 0 -0.015545399003390666 0.0005963195270942877 0 -0.014949738521261018 0.0010121256159558822 0 -0.014915297970434574 0.00066189854357562967 0 -0.014798689511699761 0.00070107697589068187 0 -0.016068772261205688 0.00031291607136901497 0 -0.015649090446625154 0.00045413273454992218 0 -0.015314509858138856 -0.00023387501949291827 0 -0.015545399003390666 0.0005963195270942877 0 -0.016029679801707709 0.00081530706396579016 0 -0.01562054212072563 0.00054713585299022503 0 -0.016029679801707709 0.00081530706396579016 0 -0.01562054212072563 0.00054713585299022503 0 -0.015545399003390666 0.0005963195270942877 0 -0.013727948989994186 0.00029756161206734858 0 -0.014753548727760427 0.000156503982784791 0 -0.013649310786039764 0.00034001930472218645 0 -0.014321489087902617 7.9644747511880288e-06 0 -0.014365510667022605 0.00045230885402143013 0 -0.013649310786039764 0.00034001930472218645 0 -0.013778983871775148 0.00062180669823498765 0 -0.014365510667022605 0.00045230885402143013 0 -0.012512311054141075 3.7593236763374671e-05 0 -0.012673832695248985 -9.2162350333668511e-06 0 -0.012561440670346476 0.00014494995150064944 0 -0.013125382803613382 -3.0040151092605011e-05 0 -0.013763268780140898 -0.00024200915552723322 0 -0.014753548727760427 0.000156503982784791 0 -0.013763268780140898 -0.00024200915552723322 0 -0.014435214550218727 -0.00014000667321308576 0 -0.013844379432197546 3.9198264137403518e-05 0 -0.014071136195934116 0.00050440578227946211 0 -0.014542027351566154 -0.00028312876371232309 0 -0.01446568669785335 -0.0010382819836004446 0 -0.014209308961790458 -0.00096469693318754115 0 -0.014753548727760427 0.000156503982784791 0 -0.01406448042417892 -0.00029897877510308185 0 -0.013763268780140898 -0.00024200915552723322 0 -0.01406448042417892 -0.00029897877510308185 0 -0.015184912299162025 -1.6310131037629022e-05 0 -0.01406448042417892 -0.00029897877510308185 0 -0.0090867694002433174 -0.0013103806787516407 0 -0.009549696399555203 -0.0014116141767273854 0 -0.0093139195479743624 -0.0019260949711106929 0 -0.011879214653465951 -0.00097308410221110409 0 -0.012500600884506281 -0.00033816705375570909 0 -0.0118880267983997 -0.0015893714346452428 0 -0.01406448042417892 -0.00029897877510308185 0 -0.010127404720643104 -0.0012727205870033972 0 -0.0098222782016644684 -0.0018084643114586875 0 -0.0098664882256493096 -0.0018209003278043712 0 -0.012842676286474126 -0.00094952546225739642 0 -0.012944935227916095 2.4312181170922411e-05 0 -0.013157310208626125 -0.00027247065410637586 0 -0.011879214653465951 -0.00097308410221110409 0 -0.013763268780140898 -0.00024200915552723322 0 -0.010127404720643104 -0.0012727205870033972 0 -0.0098587224578382815 -0.0012740454334334809 0 -0.0098222782016644684 -0.0018084643114586875 0 -0.013763268780140898 -0.00024200915552723322 0 -0.012500600884506281 -0.00033816705375570909 0 -0.013125382803613382 -3.0040151092605011e-05 0 -0.012500600884506281 -0.00033816705375570909 0 -0.010476330512600373 -0.00027221539339963288 0 -0.010598828005935675 -4.485371708815944e-06 0 -0.0096212563710250925 -2.4458873010007173e-05 0 -0.0065834658136139602 0.00021108573234966216 0 -0.012500600884506281 -0.00033816705375570909 0 -0.0094757534626497483 0.0012068542175941149 0 -0.010598828005935675 -4.485371708815944e-06 0 -0.0096212563710250925 -2.4458873010007173e-05 0 -0.013645747864897098 -6.4886098948089402e-05 0 -0.012347090484997884 0.00068463383799168996 0 -0.012262332420783997 0.00050786698361216128 0 -0.013125382803613382 -3.0040151092605011e-05 0 -0.011602788937921479 0.00051610610293283208 0 -0.0094757534626497483 0.0012068542175941149 0 -0.0096212563710250925 -2.4458873010007173e-05 0 -0.0087695413803472021 0.00022353135964676944 0 -0.012836042891980084 0.00052690776062255839 0 -0.010591558570828438 0.00099100605536854027 0 -0.011602788937921479 0.00051610610293283208 0 -0.010591558570828438 0.00099100605536854027 0 -0.012347090484997884 0.00068463383799168996 0 -0.012262332420783997 0.00050786698361216128 0 -0.010897881209482478 0.0011111776703750882 0 -0.016799060136949061 0.002503191576925308 0 -0.016566987540350294 0.0022123676135306597 0 -0.016895696095894846 0.0021542697453847265 0 -0.017417678028646449 0.00220646252064325 0 -0.016799060136949061 0.002503191576925308 0 -0.016895696095894846 0.0021542697453847265 0 -0.0081790456800005726 0.0010513553523888895 0 -0.0081676878737615578 0.001003780149246536 0 -0.0081538412793819952 0.0010077603129453486 0 -0.0071870913734376311 0.0011227527844819153 0 -0.010333021483057862 0.00098399985394999963 0 -0.010591558570828438 0.00099100605536854027 0 -0.010333021483057862 0.00098399985394999963 0 -0.015875809379941427 0.0022096872898817832 0 -0.016681697531795613 0.0026263328253896268 0 -0.016566987540350294 0.0022123676135306597 0 -0.016832620548443887 0.0025813904122037501 0 -0.016681697531795613 0.0026263328253896268 0 -0.016566987540350294 0.0022123676135306597 0 -0.010591558570828438 0.00099100605536854027 0 -0.010987380194935904 0.0013331360493662927 0 -0.016566987540350294 0.0022123676135306597 0 -0.016664719097410071 0.0019484384536451538 0 -0.016895696095894846 0.0021542697453847265 0 -0.015875809379941427 0.0022096872898817832 0 -0.016664719097410071 0.0019484384536451538 0 -0.016805437737878449 0.0015413291057120892 0 -0.016215353733185323 0.0022376338275124858 0 -0.016267749571371434 0.0016691963644004336 0 -0.016805437737878449 0.0015413291057120892 0 -0.012990461375401887 0.00049493082494755306 0 -0.014078377524301999 0.00032558844646444595 0 -0.015875809379941427 0.0022096872898817832 0 -0.016566987540350294 0.0022123676135306597 0 -0.016664719097410071 0.0019484384536451538 0 -0.016964172189629288 0.0012185068879710971 0 -0.016805437737878449 0.0015413291057120892 0 -0.017264734803310415 0.0016989162977273649 0 -0.016664719097410071 0.0019484384536451538 0 -0.016805437737878449 0.0015413291057120892 0 -0.017010113387940631 0.0019067388920187916 0 -0.016805437737878449 0.0015413291057120892 0 -0.017264734803310415 0.0016989162977273649 0 -0.017010113387940631 0.0019067388920187916 0 -0.017417678028646449 0.00220646252064325 0 -0.017264734803310415 0.0016989162977273649 0 -0.017010113387940631 0.0019067388920187916 0 -0.017417678028646449 0.00220646252064325 0 -0.016895696095894846 0.0021542697453847265 0 -0.017010113387940631 0.0019067388920187916 0 -0.016664719097410071 0.0019484384536451538 0 -0.016895696095894846 0.0021542697453847265 0 -0.017010113387940631 0.0019067388920187916 0 -0.015996729455466097 -0.0027812653288283177 0 -0.016781427340947612 -0.0032256978065996582 0 -0.016585761138959772 -0.0026689618914841023 0 -0.015996729455466097 -0.0027812653288283177 0 -0.016585761138959772 -0.0026689618914841023 0 -0.016174445590955239 -0.002231672964535606 0 -0.015996729455466097 -0.0027812653288283177 0 -0.016174445590955239 -0.002231672964535606 0 -0.015603261799843322 -0.0021249414368927529 0 -0.015996729455466097 -0.0027812653288283177 0 -0.015228080929730149 -0.0024651658295290436 0 -0.015323493097397233 -0.0029484728029355984 0 -0.015996729455466097 -0.0027812653288283177 0 -0.015228080929730149 -0.0024651658295290436 0 -0.015603261799843322 -0.0021249414368927529 0 -0.015228080929730149 -0.0024651658295290436 0 -0.015603261799843322 -0.0021249414368927529 0 -0.015050254063526286 -0.0020524511769167931 0 -0.015228080929730149 -0.0024651658295290436 0 -0.015323493097397233 -0.0029484728029355984 0 -0.014860445300651393 -0.0027746867958236693 0 -0.015996729455466097 -0.0027812653288283177 0 -0.015323493097397233 -0.0029484728029355984 0 -0.015626638154502572 -0.003318670380654361 0 -0.015626638154502572 -0.003318670380654361 0 -0.014963428269399594 -0.0033523098892741577 0 -0.015558434101345182 -0.0037240885422500994 0 -0.015323493097397233 -0.0029484728029355984 0 -0.015626638154502572 -0.003318670380654361 0 -0.014963428269399594 -0.0033523098892741577 0 -0.015626638154502572 -0.003318670380654361 0 -0.016136316581446888 -0.0034290992055186092 0 -0.015558434101345182 -0.0037240885422500994 0 -0.015996729455466097 -0.0027812653288283177 0 -0.016136316581446888 -0.0034290992055186092 0 -0.016781427340947612 -0.0032256978065996582 0 -0.015996729455466097 -0.0027812653288283177 0 -0.015626638154502572 -0.003318670380654361 0 -0.016136316581446888 -0.0034290992055186092 0 -0.016136316581446888 -0.0034290992055186092 0 -0.016781427340947612 -0.0032256978065996582 0 -0.01690659244073953 -0.003802933184360487 0 -0.016781427340947612 -0.0032256978065996582 0 -0.01745065764620744 -0.0036790567186016756 0 -0.01690659244073953 -0.003802933184360487 0 -0.016781427340947612 -0.0032256978065996582 0 -0.01745065764620744 -0.0036790567186016756 0 -0.017432100156561894 -0.0032055001910721416 0 -0.01745065764620744 -0.0036790567186016756 0 -0.018036619279919095 -0.0039240000178620612 0 -0.017942913274052646 -0.0035397975659877986 0 -0.017432100156561894 -0.0032055001910721416 0 -0.017949639170596474 -0.0030755729707394553 0 -0.017942913274052646 -0.0035397975659877986 0 -0.01745065764620744 -0.0036790567186016756 0 -0.017432100156561894 -0.0032055001910721416 0 -0.017942913274052646 -0.0035397975659877986 0 -0.017432100156561894 -0.0032055001910721416 0 -0.017949639170596474 -0.0030755729707394553 0 -0.017165927136284429 -0.0027119108764350362 0 -0.017949639170596474 -0.0030755729707394553 0 -0.017165927136284429 -0.0027119108764350362 0 -0.017688925950963049 -0.0023384461559408675 0 -0.017949639170596474 -0.0030755729707394553 0 -0.017688925950963049 -0.0023384461559408675 0 -0.018440511227969508 -0.0024013472014839509 0 -0.016585761138959772 -0.0026689618914841023 0 -0.017165927136284429 -0.0027119108764350362 0 -0.016855369228992254 -0.0018921109280545939 0 -0.016781427340947612 -0.0032256978065996582 0 -0.016585761138959772 -0.0026689618914841023 0 -0.017165927136284429 -0.0027119108764350362 0 -0.016781427340947612 -0.0032256978065996582 0 -0.017432100156561894 -0.0032055001910721416 0 -0.017165927136284429 -0.0027119108764350362 0 -0.016585761138959772 -0.0026689618914841023 0 -0.016855369228992254 -0.0018921109280545939 0 -0.016174445590955239 -0.002231672964535606 0 -0.017165927136284429 -0.0027119108764350362 0 -0.016855369228992254 -0.0018921109280545939 0 -0.017688925950963049 -0.0023384461559408675 0 -0.016855369228992254 -0.0018921109280545939 0 -0.017688925950963049 -0.0023384461559408675 0 -0.017777028432184209 -0.0015407245689359026 0 -0.017688925950963049 -0.0023384461559408675 0 -0.017777028432184209 -0.0015407245689359026 0 -0.018440511227969508 -0.0024013472014839509 0 -0.017777028432184209 -0.0015407245689359026 0 -0.017022877804440052 -0.00098819055756520419 0 -0.017930653846804121 -0.00044027060755194027 0 -0.016855369228992254 -0.0018921109280545939 0 -0.017022877804440052 -0.00098819055756520419 0 -0.016151307480782848 -0.0010274042976114396 0 -0.016855369228992254 -0.0018921109280545939 0 -0.017777028432184209 -0.0015407245689359026 0 -0.017022877804440052 -0.00098819055756520419 0 -0.016151307480782848 -0.0010274042976114396 0 -0.015885040910042801 -0.0016830408601332142 0 -0.015379740438097523 -0.0012918705548122013 0 -0.016855369228992254 -0.0018921109280545939 0 -0.016151307480782848 -0.0010274042976114396 0 -0.015885040910042801 -0.0016830408601332142 0 -0.016855369228992254 -0.0018921109280545939 0 -0.015885040910042801 -0.0016830408601332142 0 -0.016174445590955239 -0.002231672964535606 0 -0.015885040910042801 -0.0016830408601332142 0 -0.016174445590955239 -0.002231672964535606 0 -0.015603261799843322 -0.0021249414368927529 0 -0.015603261799843322 -0.0021249414368927529 0 -0.015356739853127382 -0.0017528135794751508 0 -0.015050254063526286 -0.0020524511769167931 0 -0.015885040910042801 -0.0016830408601332142 0 -0.015356739853127382 -0.0017528135794751508 0 -0.015379740438097523 -0.0012918705548122013 0 -0.015885040910042801 -0.0016830408601332142 0 -0.015603261799843322 -0.0021249414368927529 0 -0.015356739853127382 -0.0017528135794751508 0 -0.015356739853127382 -0.0017528135794751508 0 -0.015050254063526286 -0.0020524511769167931 0 -0.014884143455786114 -0.0016093927941718902 0 -0.015356739853127382 -0.0017528135794751508 0 -0.015379740438097523 -0.0012918705548122013 0 -0.014884143455786114 -0.0016093927941718902 0 -0.016151307480782848 -0.0010274042976114396 0 -0.015379740438097523 -0.0012918705548122013 0 -0.015371353159624117 -0.00057236866116635731 0 -0.015379740438097523 -0.0012918705548122013 0 -0.014809074158313382 -0.0012168793040047516 0 -0.015371353159624117 -0.00057236866116635731 0 -0.014809074158313382 -0.0012168793040047516 0 -0.0143386128822467 -0.0010410643382341882 0 -0.015371353159624117 -0.00057236866116635731 0 -0.023283670003167157 0.00093904919313615579 0 -0.022805093687060823 0.00049287650137738151 0 -0.024961391400784703 0.001162815864943772 0 -0.014809074158313382 -0.0012168793040047516 0 -0.014475752253146507 -0.0015023424707174366 0 -0.014884143455786114 -0.0016093927941718902 0 -0.015379740438097523 -0.0012918705548122013 0 -0.014809074158313382 -0.0012168793040047516 0 -0.014884143455786114 -0.0016093927941718902 0 -0.014809074158313382 -0.0012168793040047516 0 -0.014475752253146507 -0.0015023424707174366 0 -0.014434855456438385 -0.0012900982399559895 0 -0.014809074158313382 -0.0012168793040047516 0 -0.014434855456438385 -0.0012900982399559895 0 -0.0143386128822467 -0.0010410643382341882 0 -0.023283670003167157 0.00093904919313615579 0 -0.022805093687060823 0.00049287650137738151 0 -0.018265087649016964 0.001585647453069059 0 -0.014128146575133534 -0.001397135278149059 0 -0.013869460753676691 -0.0015964991445899417 0 -0.013423108162409676 -0.0014980346352857473 0 -0.018228217397297714 -0.0001443801419732758 0 -0.016017497047393799 -0.00090736521723323068 0 -0.0143386128822467 -0.0010410643382341882 0 -0.014128146575133534 -0.001397135278149059 0 -0.013423108162409676 -0.0014980346352857473 0 -0.021331907723462502 0.001045917832681277 0 -0.020183832441656318 0.0010336155100701509 0 -0.014434855456438385 -0.0012900982399559895 0 -0.0143386128822467 -0.0010410643382341882 0 -0.014128146575133534 -0.001397135278149059 0 -0.014475752253146507 -0.0015023424707174366 0 -0.014434855456438385 -0.0012900982399559895 0 -0.014128146575133534 -0.001397135278149059 0 -0.014475752253146507 -0.0015023424707174366 0 -0.014128146575133534 -0.001397135278149059 0 -0.014129141444349897 -0.0017176584913674482 0 -0.014475752253146507 -0.0015023424707174366 0 -0.014129141444349897 -0.0017176584913674482 0 -0.014509261784897153 -0.0019079477317453467 0 -0.014129141444349897 -0.0017176584913674482 0 -0.013869460753676691 -0.0015964991445899417 0 -0.013719731198585992 -0.0018663720293495625 0 -0.014128146575133534 -0.001397135278149059 0 -0.014129141444349897 -0.0017176584913674482 0 -0.013869460753676691 -0.0015964991445899417 0 -0.014108994013352942 -0.0020244163776545372 0 -0.013719731198585992 -0.0018663720293495625 0 -0.013846041769639503 -0.0022302331229037031 0 -0.014129141444349897 -0.0017176584913674482 0 -0.014108994013352942 -0.0020244163776545372 0 -0.013719731198585992 -0.0018663720293495625 0 -0.014129141444349897 -0.0017176584913674482 0 -0.014108994013352942 -0.0020244163776545372 0 -0.014509261784897153 -0.0019079477317453467 0 -0.014108994013352942 -0.0020244163776545372 0 -0.014509261784897153 -0.0019079477317453467 0 -0.014287491902523397 -0.0024463294370254871 0 -0.014509261784897153 -0.0019079477317453467 0 -0.015050254063526286 -0.0020524511769167931 0 -0.014884143455786114 -0.0016093927941718902 0 -0.014509261784897153 -0.0019079477317453467 0 -0.015050254063526286 -0.0020524511769167931 0 -0.014760578670561081 -0.0023361025536111813 0 -0.014475752253146507 -0.0015023424707174366 0 -0.014509261784897153 -0.0019079477317453467 0 -0.014884143455786114 -0.0016093927941718902 0 -0.013457612469049543 0.0013452955049196172 0 -0.01755896818248848 -0.00081660190937813597 0 -0.01286594085587783 -0.0017217476453449906 0 -0.01881482472182152 0.00091486777334725926 0 -0.020183832441656318 0.0010336155100701509 0 -0.013457612469049543 0.0013452955049196172 0 -0.01755896818248848 -0.00081660190937813597 0 -0.018265087649016964 0.001585647453069059 0 -0.022805093687060823 0.00049287650137738151 0 -0.01755896818248848 -0.00081660190937813597 0 -0.018265087649016964 0.001585647453069059 0 -0.013869460753676691 -0.0015964991445899417 0 -0.013423108162409676 -0.0014980346352857473 0 -0.013719731198585992 -0.0018663720293495625 0 -0.013719731198585992 -0.0018663720293495625 0 -0.013470794375387772 -0.0022567096698429797 0 -0.013846041769639503 -0.0022302331229037031 0 -0.013719731198585992 -0.0018663720293495625 0 -0.013270723025012889 -0.0018868552814869223 0 -0.013470794375387772 -0.0022567096698429797 0 -0.013270723025012889 -0.0018868552814869223 0 -0.013035172744052985 -0.0021676252926987839 0 -0.013470794375387772 -0.0022567096698429797 0 -0.013423108162409676 -0.0014980346352857473 0 -0.013719731198585992 -0.0018663720293495625 0 -0.013270723025012889 -0.0018868552814869223 0 -0.013270723025012889 -0.0018868552814869223 0 -0.013035172744052985 -0.0021676252926987839 0 -0.01286594085587783 -0.0017217476453449906 0 -0.013423108162409676 -0.0014980346352857473 0 -0.013270723025012889 -0.0018868552814869223 0 -0.01286594085587783 -0.0017217476453449906 0 -0.013035172744052985 -0.0021676252926987839 0 -0.01286594085587783 -0.0017217476453449906 0 -0.012531768505738521 -0.0024413063560994341 0 -0.016017497047393799 -0.00090736521723323068 0 -0.014752329180398755 -0.0013151052875971505 0 -0.013035172744052985 -0.0021676252926987839 0 -0.013063334540568997 -0.0027657299473501456 0 -0.012531768505738521 -0.0024413063560994341 0 -0.013035172744052985 -0.0021676252926987839 0 -0.013470794375387772 -0.0022567096698429797 0 -0.013063334540568997 -0.0027657299473501456 0 -0.013470794375387772 -0.0022567096698429797 0 -0.013535238311430203 -0.0029522258727844816 0 -0.013063334540568997 -0.0027657299473501456 0 -0.013470794375387772 -0.0022567096698429797 0 -0.013535238311430203 -0.0029522258727844816 0 -0.013901798875530865 -0.0026283690019824352 0 -0.013470794375387772 -0.0022567096698429797 0 -0.013846041769639503 -0.0022302331229037031 0 -0.013901798875530865 -0.0026283690019824352 0 -0.013535238311430203 -0.0029522258727844816 0 -0.013063334540568997 -0.0027657299473501456 0 -0.013083264109848808 -0.0034879533898299962 0 -0.013535238311430203 -0.0029522258727844816 0 -0.013083264109848808 -0.0034879533898299962 0 -0.013711300277023076 -0.0035049317231852575 0 -0.013063334540568997 -0.0027657299473501456 0 -0.012531768505738521 -0.0024413063560994341 0 -0.01240990957270331 -0.0032755502633466538 0 -0.013063334540568997 -0.0027657299473501456 0 -0.013083264109848808 -0.0034879533898299962 0 -0.01240990957270331 -0.0032755502633466538 0 -0.014860445300651393 -0.0027746867958236693 0 -0.014287491902523397 -0.0024463294370254871 0 -0.014425759239379434 -0.0029537427163750401 0 -0.014860445300651393 -0.0027746867958236693 0 -0.014760578670561081 -0.0023361025536111813 0 -0.014287491902523397 -0.0024463294370254871 0 -0.015228080929730149 -0.0024651658295290436 0 -0.014860445300651393 -0.0027746867958236693 0 -0.014760578670561081 -0.0023361025536111813 0 -0.015228080929730149 -0.0024651658295290436 0 -0.015050254063526286 -0.0020524511769167931 0 -0.014760578670561081 -0.0023361025536111813 0 -0.014509261784897153 -0.0019079477317453467 0 -0.014760578670561081 -0.0023361025536111813 0 -0.014287491902523397 -0.0024463294370254871 0 -0.014108994013352942 -0.0020244163776545372 0 -0.014287491902523397 -0.0024463294370254871 0 -0.013846041769639503 -0.0022302331229037031 0 -0.014287491902523397 -0.0024463294370254871 0 -0.013846041769639503 -0.0022302331229037031 0 -0.013901798875530865 -0.0026283690019824352 0 -0.014287491902523397 -0.0024463294370254871 0 -0.013901798875530865 -0.0026283690019824352 0 -0.014425759239379434 -0.0029537427163750401 0 -0.013901798875530865 -0.0026283690019824352 0 -0.013978256353018734 -0.0030925054308296633 0 -0.014425759239379434 -0.0029537427163750401 0 -0.013535238311430203 -0.0029522258727844816 0 -0.013901798875530865 -0.0026283690019824352 0 -0.013978256353018734 -0.0030925054308296633 0 -0.013535238311430203 -0.0029522258727844816 0 -0.013978256353018734 -0.0030925054308296633 0 -0.013711300277023076 -0.0035049317231852575 0 -0.013978256353018734 -0.0030925054308296633 0 -0.014244732080567882 -0.0034772247575116048 0 -0.013711300277023076 -0.0035049317231852575 0 -0.013978256353018734 -0.0030925054308296633 0 -0.014425759239379434 -0.0029537427163750401 0 -0.014244732080567882 -0.0034772247575116048 0 -0.014425759239379434 -0.0029537427163750401 0 -0.014963428269399594 -0.0033523098892741577 0 -0.014244732080567882 -0.0034772247575116048 0 -0.014860445300651393 -0.0027746867958236693 0 -0.014425759239379434 -0.0029537427163750401 0 -0.014963428269399594 -0.0033523098892741577 0 -0.015323493097397233 -0.0029484728029355984 0 -0.014860445300651393 -0.0027746867958236693 0 -0.014963428269399594 -0.0033523098892741577 0 -0.014963428269399594 -0.0033523098892741577 0 -0.014537153385721631 -0.003889538166239776 0 -0.015070249143777029 -0.0037885568939732572 0 -0.014963428269399594 -0.0033523098892741577 0 -0.014537153385721631 -0.003889538166239776 0 -0.014244732080567882 -0.0034772247575116048 0 -0.014537153385721631 -0.003889538166239776 0 -0.015108450824792546 -0.0041859681636659879 0 -0.015070249143777029 -0.0037885568939732572 0 -0.014244732080567882 -0.0034772247575116048 0 -0.014006164448502216 -0.0040160171718068363 0 -0.013711300277023076 -0.0035049317231852575 0 -0.014537153385721631 -0.003889538166239776 0 -0.014244732080567882 -0.0034772247575116048 0 -0.014006164448502216 -0.0040160171718068363 0 -0.014006164448502216 -0.0040160171718068363 0 -0.014513362531419343 -0.0043745347977683551 0 -0.013776744199317363 -0.0046745534321506951 0 -0.014513362531419343 -0.0043745347977683551 0 -0.014295048802437149 -0.0049143987069786644 0 -0.013776744199317363 -0.0046745534321506951 0 -0.014006164448502216 -0.0040160171718068363 0 -0.013232652923272034 -0.0041637809037850717 0 -0.013776744199317363 -0.0046745534321506951 0 -0.014513362531419343 -0.0043745347977683551 0 -0.014808119585740204 -0.0047644543571972627 0 -0.014295048802437149 -0.0049143987069786644 0 -0.014513362531419343 -0.0043745347977683551 0 -0.014808119585740204 -0.0047644543571972627 0 -0.015108450824792546 -0.0041859681636659879 0 -0.014537153385721631 -0.003889538166239776 0 -0.014513362531419343 -0.0043745347977683551 0 -0.015108450824792546 -0.0041859681636659879 0 -0.014537153385721631 -0.003889538166239776 0 -0.014006164448502216 -0.0040160171718068363 0 -0.014513362531419343 -0.0043745347977683551 0 -0.013083264109848808 -0.0034879533898299962 0 -0.013232652923272034 -0.0041637809037850717 0 -0.012403234565070139 -0.0041179565163882237 0 -0.013083264109848808 -0.0034879533898299962 0 -0.012403234565070139 -0.0041179565163882237 0 -0.01240990957270331 -0.0032755502633466538 0 -0.014006164448502216 -0.0040160171718068363 0 -0.013711300277023076 -0.0035049317231852575 0 -0.013232652923272034 -0.0041637809037850717 0 -0.013083264109848808 -0.0034879533898299962 0 -0.013711300277023076 -0.0035049317231852575 0 -0.013232652923272034 -0.0041637809037850717 0 -0.013232652923272034 -0.0041637809037850717 0 -0.012715300899131757 -0.0048874864889565323 0 -0.013776744199317363 -0.0046745534321506951 0 -0.013232652923272034 -0.0041637809037850717 0 -0.012403234565070139 -0.0041179565163882237 0 -0.012715300899131757 -0.0048874864889565323 0 -0.012715300899131757 -0.0048874864889565323 0 -0.013247562346433393 -0.0055519050716120811 0 -0.012493044600388657 -0.0057205886255971422 0 -0.012715300899131757 -0.0048874864889565323 0 -0.012493044600388657 -0.0057205886255971422 0 -0.011871461834690554 -0.0054244800023249837 0 -0.012715300899131757 -0.0048874864889565323 0 -0.013247562346433393 -0.0055519050716120811 0 -0.013776744199317363 -0.0046745534321506951 0 -0.012573179148392009 -0.0054143945079643792 0 -0.01294047812561004 -0.005093812097874015 0 -0.01278007692623408 -0.0052371387708473188 0 -0.011892088257174064 -0.005932370334213284 0 -0.013011279678584566 -0.0058245060430331666 0 -0.01278007692623408 -0.0052371387708473188 0 -0.013800939083239561 -0.0053605802154843545 0 -0.013011279678584566 -0.0058245060430331666 0 -0.013247562346433393 -0.0055519050716120811 0 -0.012493044600388657 -0.0057205886255971422 0 -0.012597601003756467 -0.0065105673106672073 0 -0.012573179148392009 -0.0054143945079643792 0 -0.01180659871621746 -0.005958540950582604 0 -0.014295048802437149 -0.0049143987069786644 0 -0.013800939083239561 -0.0053605802154843545 0 -0.014657434008222728 -0.0052296748425488572 0 -0.014625845714081228 -0.0050758319932779393 0 -0.014611908969705193 -0.0051504264346817997 0 -0.014808119585740204 -0.0047644543571972627 0 -0.014295048802437149 -0.0049143987069786644 0 -0.014657434008222728 -0.0052296748425488572 0 -0.014295048802437149 -0.0049143987069786644 0 -0.013776744199317363 -0.0046745534321506951 0 -0.013800939083239561 -0.0053605802154843545 0 -0.01278007692623408 -0.0052371387708473188 0 -0.013776744199317363 -0.0046745534321506951 0 -0.013800939083239561 -0.0053605802154843545 0 -0.013800939083239561 -0.0053605802154843545 0 -0.013774887706593663 -0.0061755465057356587 0 -0.014631643305823444 -0.0058233608773452933 0 -0.013800939083239561 -0.0053605802154843545 0 -0.014657434008222728 -0.0052296748425488572 0 -0.014631643305823444 -0.0058233608773452933 0 -0.014611908969705193 -0.0051504264346817997 0 -0.014562704516773835 -0.0050383775557118378 0 -0.017918131832854688 -0.0046456179007360217 0 -0.01795846080102052 -0.0041709490140323215 0 -0.018410308768406429 -0.0043039354613889705 0 -0.01628064932450176 -0.0047639915507936724 0 -0.014562704516773835 -0.0050383775557118378 0 -0.014863597784734861 -0.0055762886830568537 0 -0.016075814844108183 -0.0057417215724427989 0 -0.01489158888469099 -0.0063638178100982106 0 -0.017918131832854688 -0.0046456179007360217 0 -0.017593413019144643 -0.0043448580811856303 0 -0.01795846080102052 -0.0041709490140323215 0 -0.016075814844108183 -0.0057417215724427989 0 -0.016382040017804467 -0.0047957763065665125 0 -0.017198820702026919 -0.0049887158060913459 0 -0.016075814844108183 -0.0057417215724427989 0 -0.016382040017804467 -0.0047957763065665125 0 -0.015637204910049808 -0.005021317841890317 0 -0.014863597784734861 -0.0055762886830568537 0 -0.016075814844108183 -0.0057417215724427989 0 -0.015637204910049808 -0.005021317841890317 0 -0.014808119585740204 -0.0047644543571972627 0 -0.014863597784734861 -0.0055762886830568537 0 -0.015637204910049808 -0.005021317841890317 0 -0.014808119585740204 -0.0047644543571972627 0 -0.015637204910049808 -0.005021317841890317 0 -0.015806452694710593 -0.004366406517483953 0 -0.014808119585740204 -0.0047644543571972627 0 -0.015108450824792546 -0.0041859681636659879 0 -0.015806452694710593 -0.004366406517483953 0 -0.016382040017804467 -0.0047957763065665125 0 -0.015637204910049808 -0.005021317841890317 0 -0.015806452694710593 -0.004366406517483953 0 -0.016382040017804467 -0.0047957763065665125 0 -0.015806452694710593 -0.004366406517483953 0 -0.016700526957729469 -0.0042109384341887457 0 -0.015806452694710593 -0.004366406517483953 0 -0.01615860657295078 -0.0039210903577642951 0 -0.015558434101345182 -0.0037240885422500994 0 -0.015806452694710593 -0.004366406517483953 0 -0.01615860657295078 -0.0039210903577642951 0 -0.016700526957729469 -0.0042109384341887457 0 -0.016136316581446888 -0.0034290992055186092 0 -0.01615860657295078 -0.0039210903577642951 0 -0.01690659244073953 -0.003802933184360487 0 -0.016136316581446888 -0.0034290992055186092 0 -0.01615860657295078 -0.0039210903577642951 0 -0.015558434101345182 -0.0037240885422500994 0 -0.015108450824792546 -0.0041859681636659879 0 -0.015806452694710593 -0.004366406517483953 0 -0.015558434101345182 -0.0037240885422500994 0 -0.014963428269399594 -0.0033523098892741577 0 -0.015558434101345182 -0.0037240885422500994 0 -0.015070249143777029 -0.0037885568939732572 0 -0.015108450824792546 -0.0041859681636659879 0 -0.015558434101345182 -0.0037240885422500994 0 -0.015070249143777029 -0.0037885568939732572 0 -0.01745065764620744 -0.0036790567186016756 0 -0.017432366537962415 -0.0042787454773229646 0 -0.01690659244073953 -0.003802933184360487 0 -0.01745065764620744 -0.0036790567186016756 0 -0.017432366537962415 -0.0042787454773229646 0 -0.018036619279919095 -0.0039240000178620612 0 -0.017432366537962415 -0.0042787454773229646 0 -0.01690659244073953 -0.003802933184360487 0 -0.016700526957729469 -0.0042109384341887457 0 -0.01615860657295078 -0.0039210903577642951 0 -0.01690659244073953 -0.003802933184360487 0 -0.016700526957729469 -0.0042109384341887457 0 -0.017432366537962415 -0.0042787454773229646 0 -0.016700526957729469 -0.0042109384341887457 0 -0.017198820702026919 -0.0049887158060913459 0 -0.016382040017804467 -0.0047957763065665125 0 -0.016700526957729469 -0.0042109384341887457 0 -0.017198820702026919 -0.0049887158060913459 0 -0.017432366537962415 -0.0042787454773229646 0 -0.017198820702026919 -0.0049887158060913459 0 -0.017564529611086208 -0.0047297053294001702 0 -0.017198820702026919 -0.0049887158060913459 0 -0.017160835657399762 -0.0048806243556854855 0 -0.017564529611086208 -0.0047297053294001702 0 -0.01628064932450176 -0.0047639915507936724 0 -0.016672007364626176 -0.0047260370854687352 0 -0.017198820702026919 -0.0049887158060913459 0 -0.017192611651813405 -0.0045409161296581027 0 -0.017593413019144643 -0.0043448580811856303 0 -0.017918131832854688 -0.0046456179007360217 0 -0.017198820702026919 -0.0049887158060913459 0 -0.017593413019144643 -0.0043448580811856303 0 -0.017198820702026919 -0.0049887158060913459 0 -0.017160835657399762 -0.0048806243556854855 0 -0.017192611651813405 -0.0045409161296581027 0 -0.017160835657399762 -0.0048806243556854855 0 -0.017442854381430898 -0.0049170109354053056 0 -0.016247066810356339 -0.0046874681173249512 0 -0.017160835657399762 -0.0048806243556854855 0 -0.016247066810356339 -0.0046874681173249512 0 -0.017192611651813405 -0.0045409161296581027 0 -0.017160835657399762 -0.0048806243556854855 0 -0.017564529611086208 -0.0047297053294001702 0 -0.017442854381430898 -0.0049170109354053056 0 -0.016034213636039376 -0.0079778962711243104 0 -0.015375771737775738 -0.010356501019543784 0 -0.017564529611086208 -0.0047297053294001702 0 -0.017442854381430898 -0.0049170109354053056 0 -0.01838351624203572 -0.0045889974552862055 0 -0.016034213636039376 -0.0079778962711243104 0 -0.016388631132351776 -0.0066772741925482972 0 -0.014569929231102681 -0.010408629419325386 0 -0.012726541198363379 -0.0062874502870474795 0 -0.016247066810356339 -0.0046874681173249512 0 -0.014569929231102681 -0.010408629419325386 0 -0.0065881089221535702 -0.0070241185357131806 0 -0.012726541198363379 -0.0062874502870474795 0 -0.014569929231102681 -0.010408629419325386 0 -0.0065881089221535702 -0.0070241185357131806 0 -0.0058854714368338518 -0.015108809866738356 0 -0.00014309058667270986 -0.011760026574132462 0 0.0034002689433098726 -0.014993389110034292 0 -0.0065881089221535702 -0.0070241185357131806 0 -0.0058854714368338518 -0.015108809866738356 0 0.00039192057771921858 -0.012566065958471952 0 -0.014569929231102681 -0.010408629419325386 0 -0.0058854714368338518 -0.015108809866738356 0 -0.012121808229286215 -0.016820282307990639 0 -0.015375771737775738 -0.010356501019543784 0 -0.014949598618245451 -0.012151890008182302 0 -0.0058854714368338518 -0.015108809866738356 0 -0.012121808229286215 -0.016820282307990639 0 -0.0096147974508963112 -0.023573273092273979 0 -0.0058854714368338518 -0.015108809866738356 0 -0.0027489491647535633 -0.020796525460823456 0 -0.0015346766982711861 -0.016496458084765141 0 -0.0058854714368338518 -0.015108809866738356 0 -0.0027489491647535633 -0.020796525460823456 0 -0.0096147974508963112 -0.023573273092273979 0 -0.0027489491647535633 -0.020796525460823456 0 -0.0096147974508963112 -0.023573273092273979 0 -0.0047603925487050384 -0.025519543948860662 0 -0.01838351624203572 -0.0045889974552862055 0 -0.019080218278109334 -0.0039245501626013384 0 -0.018635508515302098 -0.0039051479096191936 0 -0.01838351624203572 -0.0045889974552862055 0 -0.018635508515302098 -0.0039051479096191936 0 -0.018006025455565591 -0.004295416060451294 0 -0.017432366537962415 -0.0042787454773229646 0 -0.018006025455565591 -0.004295416060451294 0 -0.018036619279919095 -0.0039240000178620612 0 -0.018635508515302098 -0.0039051479096191936 0 -0.018006025455565591 -0.004295416060451294 0 -0.018036619279919095 -0.0039240000178620612 0 -0.017432366537962415 -0.0042787454773229646 0 -0.017564529611086208 -0.0047297053294001702 0 -0.018006025455565591 -0.004295416060451294 0 -0.017564529611086208 -0.0047297053294001702 0 -0.01838351624203572 -0.0045889974552862055 0 -0.018006025455565591 -0.004295416060451294 0 0.010980410876712185 -0.01827957675008016 0 0.010579234828202088 -0.017816084010015557 0 0.010177824150758951 -0.018431025661303058 0 0.010579234828202088 -0.017816084010015557 0 0.010027099069197746 -0.017650655498825666 0 0.010177824150758951 -0.018431025661303058 0 0.0094249801932993447 -0.018047076770057326 0 0.010027099069197746 -0.017650655498825666 0 0.0091813410409413432 -0.017280809604535492 0 0.0094249801932993447 -0.018047076770057326 0 0.010027099069197746 -0.017650655498825666 0 0.010177824150758951 -0.018431025661303058 0 0.010027099069197746 -0.017650655498825666 0 0.0099387844532508717 -0.016992271942204953 0 0.0091813410409413432 -0.017280809604535492 0 0.010027099069197746 -0.017650655498825666 0 0.0099387844532508717 -0.016992271942204953 0 0.010596038122751627 -0.017193963815156397 0 0.010579234828202088 -0.017816084010015557 0 0.010027099069197746 -0.017650655498825666 0 0.010596038122751627 -0.017193963815156397 0 0.0099387844532508717 -0.016992271942204953 0 0.010596038122751627 -0.017193963815156397 0 0.010667511530302386 -0.016334755709420567 0 0.010667511530302386 -0.016334755709420567 0 0.0097160804394635543 -0.016357396260221094 0 0.010380012576548584 -0.015287533300994277 0 0.0099387844532508717 -0.016992271942204953 0 0.0097160804394635543 -0.016357396260221094 0 0.0091813410409413432 -0.017280809604535492 0 0.0099387844532508717 -0.016992271942204953 0 0.010667511530302386 -0.016334755709420567 0 0.0097160804394635543 -0.016357396260221094 0 0.0097160804394635543 -0.016357396260221094 0 0.0083310932495591471 -0.016283696606925805 0 0.0093157778421641725 -0.015468860882675907 0 0.0097160804394635543 -0.016357396260221094 0 0.0083310932495591471 -0.016283696606925805 0 0.0091813410409413432 -0.017280809604535492 0 0.0083310932495591471 -0.016283696606925805 0 0.0091813410409413432 -0.017280809604535492 0 0.0080415029209534826 -0.017563837597245415 0 0.0094249801932993447 -0.018047076770057326 0 0.0091813410409413432 -0.017280809604535492 0 0.0085166915074949383 -0.018157485543163394 0 0.0091813410409413432 -0.017280809604535492 0 0.0080415029209534826 -0.017563837597245415 0 0.0085166915074949383 -0.018157485543163394 0 0.0083310932495591471 -0.016283696606925805 0 0.0080415029209534826 -0.017563837597245415 0 0.0068515685486212731 -0.017257407051775808 0 0.0080415029209534826 -0.017563837597245415 0 0.0068515685486212731 -0.017257407051775808 0 0.0075336585792668822 -0.018896055789713123 0 0.0083310932495591471 -0.016283696606925805 0 0.0068515685486212731 -0.017257407051775808 0 0.0071242497437345835 -0.015453225104396512 0 0.005608579235976077 -0.015765671572894029 0 0.0068515685486212731 -0.017257407051775808 0 0.0071242497437345835 -0.015453225104396512 0 -0.0058854714368338518 -0.015108809866738356 0 0.00039192057771921858 -0.012566065958471952 0 -0.0015346766982711861 -0.016496458084765141 0 0.00039192057771921858 -0.012566065958471952 0 -0.0015346766982711861 -0.016496458084765141 0 0.0019302447600183566 -0.018766689839045638 0 -0.0027489491647535633 -0.020796525460823456 0 -0.0015346766982711861 -0.016496458084765141 0 0.0019302447600183566 -0.018766689839045638 0 -0.0027489491647535633 -0.020796525460823456 0 0.0017948376373100527 -0.023817609410059313 0 -0.0047603925487050384 -0.025519543948860662 0 -0.0027489491647535633 -0.020796525460823456 0 0.0019302447600183566 -0.018766689839045638 0 0.0017948376373100527 -0.023817609410059313 0 0.0017948376373100527 -0.023817609410059313 0 0.0059063153491695306 -0.020266849077989896 0 0.0066129695334312399 -0.026307968740141231 0 0.0019302447600183566 -0.018766689839045638 0 0.0017948376373100527 -0.023817609410059313 0 0.0059063153491695306 -0.020266849077989896 0 -0.0066847257738538125 -0.017417863968007468 0 -0.0089037340806033902 -0.013955052766470919 0 0.0059063153491695306 -0.020266849077989896 0 0.0075241558458997498 -0.020312365078802578 0 0.0068541867528206755 -0.022404093146537553 0 0.0034002689433098726 -0.014993389110034292 0 0.0055237311130617184 -0.017000097935181927 0 0.00039192057771921858 -0.012566065958471952 0 0.0019302447600183566 -0.018766689839045638 0 0.0075336585792668822 -0.018896055789713123 0 0.0019302447600183566 -0.018766689839045638 0 0.0059063153491695306 -0.020266849077989896 0 0.0075336585792668822 -0.018896055789713123 0 0.0059063153491695306 -0.020266849077989896 0 0.0075336585792668822 -0.018896055789713123 0 0.0075241558458997498 -0.020312365078802578 0 0.0080415029209534826 -0.017563837597245415 0 0.0085166915074949383 -0.018157485543163394 0 0.0075336585792668822 -0.018896055789713123 0 0.0085166915074949383 -0.018157485543163394 0 0.0075336585792668822 -0.018896055789713123 0 0.008361453084027623 -0.019016716927563949 0 0.0085166915074949383 -0.018157485543163394 0 0.008361453084027623 -0.019016716927563949 0 0.0092277369589132251 -0.018771118453744174 0 0.0094249801932993447 -0.018047076770057326 0 0.0085166915074949383 -0.018157485543163394 0 0.0092277369589132251 -0.018771118453744174 0 0.008361453084027623 -0.019016716927563949 0 0.0085965970197445941 -0.02040318332017213 0 0.0092277369589132251 -0.018771118453744174 0 0.0075336585792668822 -0.018896055789713123 0 0.008361453084027623 -0.019016716927563949 0 0.0075241558458997498 -0.020312365078802578 0 0.008361453084027623 -0.019016716927563949 0 0.0075241558458997498 -0.020312365078802578 0 0.0085965970197445941 -0.02040318332017213 0 0.0022685016318372947 -0.013939438934667982 0 -0.0089037340806033902 -0.013955052766470919 0 0.0075241558458997498 -0.020312365078802578 0 0.0085965970197445941 -0.02040318332017213 0 0.0068541867528206755 -0.022404093146537553 0 0.0085965970197445941 -0.02040318332017213 0 0.010116287968390238 -0.020633174517263316 0 0.0068541867528206755 -0.022404093146537553 0 0.0085965970197445941 -0.02040318332017213 0 0.010116287968390238 -0.020633174517263316 0 0.01002061493667889 -0.019536251323399485 0 0.0110440806058627 -0.019636560746806083 0 0.010116287968390238 -0.020633174517263316 0 0.01002061493667889 -0.019536251323399485 0 0.010769327866051686 -0.0189407789331765 0 0.0110440806058627 -0.019636560746806083 0 0.01002061493667889 -0.019536251323399485 0 0.0085965970197445941 -0.02040318332017213 0 0.01002061493667889 -0.019536251323399485 0 0.0092277369589132251 -0.018771118453744174 0 0.0094249801932993447 -0.018047076770057326 0 0.0092277369589132251 -0.018771118453744174 0 0.010177824150758951 -0.018431025661303058 0 0.01002061493667889 -0.019536251323399485 0 0.0092277369589132251 -0.018771118453744174 0 0.010177824150758951 -0.018431025661303058 0 0.010769327866051686 -0.0189407789331765 0 0.010980410876712185 -0.01827957675008016 0 0.010177824150758951 -0.018431025661303058 0 0.010769327866051686 -0.0189407789331765 0 0.01002061493667889 -0.019536251323399485 0 0.010177824150758951 -0.018431025661303058 0 -0.013089663066774244 -0.0064721689052078934 0 -0.014090406586157792 -0.0081945320409038801 0 -0.012975311650227514 -0.0087579393035528107 0 -0.010889671658804036 -0.0077825632096798795 0 -0.013089663066774244 -0.0064721689052078934 0 -0.012975311650227514 -0.0087579393035528107 0 0.011770576650116509 -0.021035526520137942 0 0.010116287968390238 -0.020633174517263316 0 0.0098679386839134794 -0.022258750264982488 0 0.010116287968390238 -0.020633174517263316 0 0.0098679386839134794 -0.022258750264982488 0 0.0085197998716202792 -0.02225488378389838 0 0.010116287968390238 -0.020633174517263316 0 0.0085197998716202792 -0.02225488378389838 0 0.0075333077686258239 -0.021335195210437967 0 0.0085197998716202792 -0.02225488378389838 0 0.0078132093950124791 -0.023397739689192606 0 0.0075333077686258239 -0.021335195210437967 0 0.0098679386839134794 -0.022258750264982488 0 0.0085197998716202792 -0.02225488378389838 0 0.0078132093950124791 -0.023397739689192606 0 -0.0046857582811164859 -0.011453302979957784 0 -0.013003840011877007 -0.011500853507071243 0 -0.013089663066774244 -0.0064721689052078934 0 -0.01523142684190067 -0.0076816363592960481 0 -0.014090406586157792 -0.0081945320409038801 0 -0.032483765465234224 -0.0040835736562696758 0 -0.030696142272521057 -0.0042015833314766474 0 -0.032042545621591825 -0.0074320516710912827 0 -0.032483765465234224 -0.0040835736562696758 0 -0.031839117193065564 -0.0037278754466958052 0 -0.030696142272521057 -0.0042015833314766474 0 -0.013003840011877007 -0.011500853507071243 0 -0.01356606516103623 -0.011618875851094605 0 -0.013003840011877007 -0.011500853507071243 0 -0.0089037340806033902 -0.013955052766470919 0 0.0017948376373100527 -0.023817609410059313 0 0.0066129695334312399 -0.026307968740141231 0 -0.00030088151052136815 -0.028458435434556856 0 -0.0089037340806033902 -0.013955052766470919 0 -0.014084098383272063 -0.01320217675709613 0 -0.030696142272521057 -0.0042015833314766474 0 -0.032042545621591825 -0.0074320516710912827 0 -0.028954031729717489 -0.0064679144172476062 0 0.0017948376373100527 -0.023817609410059313 0 -0.00030088151052136815 -0.028458435434556856 0 -0.0047603925487050384 -0.025519543948860662 0 -0.030696142272521057 -0.0042015833314766474 0 -0.028954031729717489 -0.0064679144172476062 0 -0.028133708327952884 -0.0040749440192652921 0 -0.030696142272521057 -0.0042015833314766474 0 -0.028133708327952884 -0.0040749440192652921 0 -0.029234423755141722 -0.0025388874874153872 0 -0.028133708327952884 -0.0040749440192652921 0 -0.029234423755141722 -0.0025388874874153872 0 -0.027103445479052999 -0.0016877992341569449 0 -0.030696142272521057 -0.0042015833314766474 0 -0.029234423755141722 -0.0025388874874153872 0 -0.030822489605938894 -0.0019551636406172543 0 -0.029234423755141722 -0.0025388874874153872 0 -0.029406506948583332 -0.00075678176742670562 0 -0.030822489605938894 -0.0019551636406172543 0 -0.029234423755141722 -0.0025388874874153872 0 -0.029406506948583332 -0.00075678176742670562 0 -0.027103445479052999 -0.0016877992341569449 0 -0.022725429794096932 -0.0018484948586902498 0 -0.024650529358376989 0.00060262559177738379 0 -0.029406506948583332 -0.00075678176742670562 0 -0.030729849096997143 0.00051097015700529692 0 -0.028679409642508084 0.0023572242616101699 0 -0.029406506948583332 -0.00075678176742670562 0 -0.027103445479052999 -0.0016877992341569449 0 -0.028679409642508084 0.0023572242616101699 0 -0.029406506948583332 -0.00075678176742670562 0 -0.031486643882524347 -0.00087520810508390711 0 -0.030729849096997143 0.00051097015700529692 0 -0.030729849096997143 0.00051097015700529692 0 -0.032869386000410165 -0.00091177172459108767 0 -0.031175743477367311 0.0029808906748299466 0 -0.032232497622036699 0.00027078246830242625 0 -0.031789571807320782 0.0011236134553231419 0 -0.032869386000410165 -0.00091177172459108767 0 -0.033080301454279662 -0.00067211249393096036 0 -0.033309576890727485 -0.0010469897331860647 0 -0.031486643882524347 -0.00087520810508390711 0 -0.030729849096997143 0.00051097015700529692 0 -0.032869386000410165 -0.00091177172459108767 0 -0.031486643882524347 -0.00087520810508390711 0 -0.033084483467291245 -0.0014436453401410938 0 -0.032869386000410165 -0.00091177172459108767 0 -0.031486643882524347 -0.00087520810508390711 0 -0.030822489605938894 -0.0019551636406172543 0 -0.033084483467291245 -0.0014436453401410938 0 -0.029406506948583332 -0.00075678176742670562 0 -0.031486643882524347 -0.00087520810508390711 0 -0.030822489605938894 -0.0019551636406172543 0 -0.031839117193065564 -0.0037278754466958052 0 -0.030696142272521057 -0.0042015833314766474 0 -0.03268771980394243 -0.0022388452848065158 0 -0.032414008130841873 -0.0040642799895679732 0 -0.031839117193065564 -0.0037278754466958052 0 -0.03268771980394243 -0.0022388452848065158 0 -0.024948154139976773 -0.0030577615349103022 0 -0.021342899892729431 -0.0053226776258435598 0 -0.030696142272521057 -0.0042015833314766474 0 -0.030822489605938894 -0.0019551636406172543 0 -0.033084483467291245 -0.0014436453401410938 0 -0.014090406586157792 -0.0081945320409038801 0 -0.015047527133661295 -0.0090050913606136412 0 -0.012975311650227514 -0.0087579393035528107 0 -0.013003840011877007 -0.011500853507071243 0 -0.021342899892729431 -0.0053226776258435598 0 -0.01523142684190067 -0.0076816363592960481 0 -0.014090406586157792 -0.0081945320409038801 0 -0.015047527133661295 -0.0090050913606136412 0 -0.021342899892729431 -0.0053226776258435598 0 -0.02367273246812162 -0.0033478099264368805 0 -0.03309866478202033 -0.00020618793232610413 0 -0.033080301454279662 -0.00067211249393096036 0 -0.032797798625913026 -0.0005993334143579264 0 -0.03309866478202033 -0.00020618793232610413 0 -0.03268988157973278 -0.0005697502521858184 0 -0.032797798625913026 -0.0005993334143579264 0 -0.021342899892729431 -0.0053226776258435598 0 -0.023497349396467138 -0.0026172318360066864 0 -0.033084483467291245 -0.0014436453401410938 0 -0.032869386000410165 -0.00091177172459108767 0 -0.033080301454279662 -0.00067211249393096036 0 -0.011671142108624804 -0.010362145688617928 0 -0.013244600443693261 -0.010809119251045869 0 -0.012975311650227514 -0.0087579393035528107 0 -0.022025257336827472 -0.0035274083549557979 0 -0.02367273246812162 -0.0033478099264368805 0 -0.02367273246812162 -0.0033478099264368805 0 -0.024011933705728794 -0.0033870364404978257 0 -0.015047527133661295 -0.0090050913606136412 0 -0.013244600443693261 -0.010809119251045869 0 -0.012975311650227514 -0.0087579393035528107 0 -0.019563710026776024 -0.0035191676300196919 0 -0.018725635581560457 -0.0031929756044121781 0 -0.019052949312257671 -0.0035736409330061909 0 -0.019563710026776024 -0.0035191676300196919 0 -0.019052949312257671 -0.0035736409330061909 0 -0.019110482643298819 -0.0036340429689182582 0 -0.019563710026776024 -0.0035191676300196919 0 -0.022432404290839175 -0.0028451993158359911 0 -0.020212215734194468 -0.0020301520712504521 0 -0.019563710026776024 -0.0035191676300196919 0 -0.018725635581560457 -0.0031929756044121781 0 -0.019109244017213669 -0.0025462447554021007 0 -0.018725635581560457 -0.0031929756044121781 0 -0.018440511227969508 -0.0024013472014839509 0 -0.019109244017213669 -0.0025462447554021007 0 -0.017949639170596474 -0.0030755729707394553 0 -0.018725635581560457 -0.0031929756044121781 0 -0.018440511227969508 -0.0024013472014839509 0 -0.017949639170596474 -0.0030755729707394553 0 -0.018725635581560457 -0.0031929756044121781 0 -0.018534378141184457 -0.0035916634679427945 0 -0.018725635581560457 -0.0031929756044121781 0 -0.018534378141184457 -0.0035916634679427945 0 -0.019052949312257671 -0.0035736409330061909 0 -0.018635508515302098 -0.0039051479096191936 0 -0.018036619279919095 -0.0039240000178620612 0 -0.018534378141184457 -0.0035916634679427945 0 -0.017949639170596474 -0.0030755729707394553 0 -0.018534378141184457 -0.0035916634679427945 0 -0.017942913274052646 -0.0035397975659877986 0 -0.018036619279919095 -0.0039240000178620612 0 -0.018534378141184457 -0.0035916634679427945 0 -0.017942913274052646 -0.0035397975659877986 0 -0.018635508515302098 -0.0039051479096191936 0 -0.018534378141184457 -0.0035916634679427945 0 -0.019052949312257671 -0.0035736409330061909 0 -0.019080218278109334 -0.0039245501626013384 0 -0.018635508515302098 -0.0039051479096191936 0 -0.019110482643298819 -0.0036340429689182582 0 -0.018635508515302098 -0.0039051479096191936 0 -0.019052949312257671 -0.0035736409330061909 0 -0.019110482643298819 -0.0036340429689182582 0 -0.014949598618245451 -0.012151890008182302 0 -0.016177966619447318 -0.0097078597149118061 0 -0.019080218278109334 -0.0039245501626013384 0 -0.019110482643298819 -0.0036340429689182582 0 -0.0191202350684327 -0.0036478701180108646 0 -0.014084098383272063 -0.01320217675709613 0 -0.016177966619447318 -0.0097078597149118061 0 -0.0096147974508963112 -0.023573273092273979 0 -0.0047603925487050384 -0.025519543948860662 0 -0.0069880504636178212 -0.030557000987818304 0 -0.00030088151052136815 -0.028458435434556856 0 -0.0047603925487050384 -0.025519543948860662 0 -0.0069880504636178212 -0.030557000987818304 0 -0.028954031729717489 -0.0064679144172476062 0 -0.028133708327952884 -0.0040749440192652921 0 -0.025678243645606839 -0.0054414085575355906 0 -0.016177966619447318 -0.0097078597149118061 0 -0.022725429794096932 -0.0018484948586902498 0 -0.028133708327952884 -0.0040749440192652921 0 -0.025678243645606839 -0.0054414085575355906 0 -0.027103445479052999 -0.0016877992341569449 0 -0.018190331625064924 -0.0085687248492116695 0 -0.016177966619447318 -0.0097078597149118061 0 -0.025693766773569351 -0.0058988026736381902 0 -0.022432404290839175 -0.0028451993158359911 0 -0.024286340244751809 -0.0019707028429326876 0 -0.019563710026776024 -0.0035191676300196919 0 -0.025693766773569351 -0.0058988026736381902 0 -0.022432404290839175 -0.0028451993158359911 0 -0.019563710026776024 -0.0035191676300196919 0 -0.019110482643298819 -0.0036340429689182582 0 -0.0191202350684327 -0.0036478701180108646 0 -0.022432404290839175 -0.0028451993158359911 0 -0.024286340244751809 -0.0019707028429326876 0 -0.022698696849977801 -0.0012338984150471741 0 -0.024286340244751809 -0.0019707028429326876 0 -0.027398557485437989 -0.00082751532753213522 0 -0.023908757106959527 0.00069144723275702045 0 -0.024286340244751809 -0.0019707028429326876 0 -0.022698696849977801 -0.0012338984150471741 0 -0.023908757106959527 0.00069144723275702045 0 -0.025693766773569351 -0.0058988026736381902 0 -0.024286340244751809 -0.0019707028429326876 0 -0.027398557485437989 -0.00082751532753213522 0 -0.027398557485437989 -0.00082751532753213522 0 -0.026257839319616737 0.0013242238818846185 0 -0.023908757106959527 0.00069144723275702045 0 -0.027398557485437989 -0.00082751532753213522 0 -0.026257839319616737 0.0013242238818846185 0 -0.028679409642508084 0.0023572242616101699 0 -0.022698696849977801 -0.0012338984150471741 0 -0.023908757106959527 0.00069144723275702045 0 -0.02052585066585666 0.0020454359974370578 0 -0.026257839319616737 0.0013242238818846185 0 -0.023908757106959527 0.00069144723275702045 0 -0.024560175675983436 0.0021975769231729336 0 -0.023908757106959527 0.00069144723275702045 0 -0.02300122929999137 0.0012305029486878365 0 -0.024560175675983436 0.0021975769231729336 0 -0.023138629254587418 0.00099382592753873033 0 -0.02310600851570653 0.0010032990686500336 0 -0.022698696849977801 -0.0012338984150471741 0 -0.02052585066585666 0.0020454359974370578 0 -0.020212215734194468 -0.0020301520712504521 0 -0.02310600851570653 0.0010032990686500336 0 -0.022772857387823885 8.2059113146810899e-05 0 -0.019817826352482731 -0.00085070191119603717 0 -0.020212215734194468 -0.0020301520712504521 0 -0.019057668555157049 -0.001518107870311816 0 -0.019563710026776024 -0.0035191676300196919 0 -0.020212215734194468 -0.0020301520712504521 0 -0.019109244017213669 -0.0025462447554021007 0 -0.020212215734194468 -0.0020301520712504521 0 -0.019109244017213669 -0.0025462447554021007 0 -0.019057668555157049 -0.001518107870311816 0 -0.022432404290839175 -0.0028451993158359911 0 -0.022698696849977801 -0.0012338984150471741 0 -0.020212215734194468 -0.0020301520712504521 0 -0.017777028432184209 -0.0015407245689359026 0 -0.018440511227969508 -0.0024013472014839509 0 -0.019057668555157049 -0.001518107870311816 0 -0.018440511227969508 -0.0024013472014839509 0 -0.019109244017213669 -0.0025462447554021007 0 -0.019057668555157049 -0.001518107870311816 0 -0.017777028432184209 -0.0015407245689359026 0 -0.019057668555157049 -0.001518107870311816 0 -0.017930653846804121 -0.00044027060755194027 0 -0.019817826352482731 -0.00085070191119603717 0 -0.019057668555157049 -0.001518107870311816 0 -0.017930653846804121 -0.00044027060755194027 0 -0.02310600851570653 0.0010032990686500336 0 -0.021321187384477757 0.0012899213685403869 0 -0.023545326716792683 0.0019820387053919382 0 -0.023206774842285231 0.0017252637570502746 0 -0.023196383442133463 0.0022321501965264284 0 -0.02390628210160484 0.0014647040072090431 0 -0.023545326716792683 0.0019820387053919382 0 -0.023206774842285231 0.0017252637570502746 0 -0.025977233510860211 0.0037303969698156106 0 -0.024817404775297501 0.0026737311745092958 0 -0.023545326716792683 0.0019820387053919382 0 -0.023888257023267679 0.0024792081781480737 0 -0.023196383442133463 0.0022321501965264284 0 -0.023197853999401469 0.0034276370429905355 0 -0.024516936163143457 0.0054048361947216352 0 -0.023234581646842237 0.0060013159013002247 0 -0.023545326716792683 0.0019820387053919382 0 -0.023896456179919059 0.0019703292068278576 0 -0.023888257023267679 0.0024792081781480737 0 -0.024393454688817109 0.0025135673635922132 0 -0.025977233510860211 0.0037303969698156106 0 -0.02310600851570653 0.0010032990686500336 0 -0.024393454688817109 0.0025135673635922132 0 -0.02300122929999137 0.0012305029486878365 0 -0.023197853999401469 0.0034276370429905355 0 -0.024560175675983436 0.0021975769231729336 0 -0.02390628210160484 0.0014647040072090431 0 -0.023545326716792683 0.0019820387053919382 0 -0.023896456179919059 0.0019703292068278576 0 -0.026257839319616737 0.0013242238818846185 0 -0.024560175675983436 0.0021975769231729336 0 -0.026448197117110817 0.0028832881407982432 0 -0.024560175675983436 0.0021975769231729336 0 -0.026448197117110817 0.0028832881407982432 0 -0.025141973266237048 0.0039780478434870269 0 -0.026448197117110817 0.0028832881407982432 0 -0.026527944614877952 0.0045300085989829443 0 -0.025141973266237048 0.0039780478434870269 0 -0.023197853999401469 0.0034276370429905355 0 -0.024560175675983436 0.0021975769231729336 0 -0.025141973266237048 0.0039780478434870269 0 -0.026257839319616737 0.0013242238818846185 0 -0.026448197117110817 0.0028832881407982432 0 -0.028679409642508084 0.0023572242616101699 0 -0.026448197117110817 0.0028832881407982432 0 -0.027712490336550002 0.0039539365430868428 0 -0.028679409642508084 0.0023572242616101699 0 -0.026448197117110817 0.0028832881407982432 0 -0.027712490336550002 0.0039539365430868428 0 -0.026527944614877952 0.0045300085989829443 0 -0.027712490336550002 0.0039539365430868428 0 -0.027545210976439201 0.0049560876602026153 0 -0.028353388359326263 0.0052204127848970595 0 -0.027712490336550002 0.0039539365430868428 0 -0.027545210976439201 0.0049560876602026153 0 -0.026527944614877952 0.0045300085989829443 0 -0.027545210976439201 0.0049560876602026153 0 -0.026527944614877952 0.0045300085989829443 0 -0.027343889051914764 0.0058838690296981943 0 -0.027545210976439201 0.0049560876602026153 0 -0.027980666526858985 0.0058300067275532108 0 -0.027343889051914764 0.0058838690296981943 0 -0.026527944614877952 0.0045300085989829443 0 -0.026019827183405238 0.0053758409918955056 0 -0.027343889051914764 0.0058838690296981943 0 -0.027545210976439201 0.0049560876602026153 0 -0.027980666526858985 0.0058300067275532108 0 -0.028353388359326263 0.0052204127848970595 0 -0.027980666526858985 0.0058300067275532108 0 -0.028468044996436879 0.006194613293714543 0 -0.028353388359326263 0.0052204127848970595 0 -0.023197853999401469 0.0034276370429905355 0 -0.025141973266237048 0.0039780478434870269 0 -0.024516936163143457 0.0054048361947216352 0 -0.026527944614877952 0.0045300085989829443 0 -0.025141973266237048 0.0039780478434870269 0 -0.026019827183405238 0.0053758409918955056 0 -0.026019827183405238 0.0053758409918955056 0 -0.024516936163143457 0.0054048361947216352 0 -0.025994521125192356 0.006543860915879527 0 -0.025141973266237048 0.0039780478434870269 0 -0.026019827183405238 0.0053758409918955056 0 -0.024516936163143457 0.0054048361947216352 0 -0.024516936163143457 0.0054048361947216352 0 -0.025994521125192356 0.006543860915879527 0 -0.02587409749208084 0.0068221951597627071 0 -0.027243428456999588 0.0045668700603747007 0 -0.025977233510860211 0.0037303969698156106 0 -0.024516936163143457 0.0054048361947216352 0 -0.02587409749208084 0.0068221951597627071 0 -0.023234581646842237 0.0060013159013002247 0 -0.026873151768447703 0.0061787646927486299 0 -0.025994521125192356 0.006543860915879527 0 -0.028238153256971061 0.0069027131406097474 0 -0.026019827183405238 0.0053758409918955056 0 -0.026873151768447703 0.0061787646927486299 0 -0.025994521125192356 0.006543860915879527 0 -0.025994521125192356 0.006543860915879527 0 -0.025873610837364173 0.006886024652629056 0 -0.028238153256971061 0.0069027131406097474 0 -0.026019827183405238 0.0053758409918955056 0 -0.026873151768447703 0.0061787646927486299 0 -0.027343889051914764 0.0058838690296981943 0 -0.027237836421940671 0.0045799214319911016 0 -0.027243428456999588 0.0045668700603747007 0 -0.029376871932968118 0.0071991282838260182 0 -0.028238153256971061 0.0069027131406097474 0 -0.029152907549342105 0.0061947515081863186 0 -0.027243428456999588 0.0045668700603747007 0 -0.027367657616003845 0.0047012837329716024 0 -0.027980666526858985 0.0058300067275532108 0 -0.028468044996436879 0.006194613293714543 0 -0.028238153256971061 0.0069027131406097474 0 -0.027980666526858985 0.0058300067275532108 0 -0.027343889051914764 0.0058838690296981943 0 -0.028238153256971061 0.0069027131406097474 0 -0.026873151768447703 0.0061787646927486299 0 -0.027343889051914764 0.0058838690296981943 0 -0.028238153256971061 0.0069027131406097474 0 -0.028468044996436879 0.006194613293714543 0 -0.028238153256971061 0.0069027131406097474 0 -0.028325817925222336 0.0066245994547037392 0 -0.030127709752809199 0.0040404133089305639 0 -0.029852778352918018 0.0045968257883954068 0 -0.029152907549342105 0.0061947515081863186 0 -0.028325817925222336 0.0066245994547037392 0 -0.029713375804705844 0.0051444964097300573 0 -0.028238153256971061 0.0069027131406097474 0 -0.029152907549342105 0.0061947515081863186 0 -0.028325817925222336 0.0066245994547037392 0 -0.027243428456999588 0.0045668700603747007 0 -0.028019513852374615 0.0049207422612326324 0 -0.02746697084749318 0.0046032574795300948 0 -0.02739438318324498 0.0046975878318433134 0 -0.027431467718938497 0.0047108065151159123 0 -0.029376871932968118 0.0071991282838260182 0 -0.029152907549342105 0.0061947515081863186 0 -0.030428851604937725 0.0054610375309910968 0 -0.029051531941320589 0.004017564614036977 0 -0.028108397285967455 0.0030152741655872202 0 -0.027715989137833828 0.003926331752342597 0 -0.028108397285967455 0.0030152741655872202 0 -0.029057631226342622 0.0025411478035846169 0 -0.02764582675734744 0.002047154169294864 0 -0.029051531941320589 0.004017564614036977 0 -0.028108397285967455 0.0030152741655872202 0 -0.029057631226342622 0.0025411478035846169 0 -0.027404236444621956 0.0043931077485624762 0 -0.025977233510860211 0.0037303969698156106 0 -0.02746697084749318 0.0046032574795300948 0 -0.02739438318324498 0.0046975878318433134 0 -0.027393086576996496 0.0045768329459529578 0 -0.03190791158935409 -0.00090560660182018927 0 -0.032517590065938635 -0.0015828877033472553 0 -0.032666018559517493 -0.00086228673785218363 0 -0.032517590065938635 -0.0015828877033472553 0 -0.032666018559517493 -0.00086228673785218363 0 -0.03301644298051172 -0.0010166969617199017 0 -0.03190791158935409 -0.00090560660182018927 0 -0.032631835938671139 -0.00049730109682587307 0 -0.032666018559517493 -0.00086228673785218363 0 -0.02828186455159893 -0.00078529117599397539 0 -0.02367273246812162 -0.0033478099264368805 0 -0.032797798625913026 -0.0005993334143579264 0 -0.032666018559517493 -0.00086228673785218363 0 -0.032973896554795726 -0.00080772012996955438 0 -0.032631835938671139 -0.00049730109682587307 0 -0.032797798625913026 -0.0005993334143579264 0 -0.032666018559517493 -0.00086228673785218363 0 -0.032666018559517493 -0.00086228673785218363 0 -0.03301644298051172 -0.0010166969617199017 0 -0.032973896554795726 -0.00080772012996955438 0 -0.033080301454279662 -0.00067211249393096036 0 -0.032797798625913026 -0.0005993334143579264 0 -0.032973896554795726 -0.00080772012996955438 0 -0.033080301454279662 -0.00067211249393096036 0 -0.032973896554795726 -0.00080772012996955438 0 -0.033233174498071685 -0.00092111323762985231 0 -0.03301644298051172 -0.0010166969617199017 0 -0.032973896554795726 -0.00080772012996955438 0 -0.033233174498071685 -0.00092111323762985231 0 -0.03301644298051172 -0.0010166969617199017 0 -0.033233174498071685 -0.00092111323762985231 0 -0.033588382911563047 -0.00097886647754400272 0 -0.035198294030008008 -0.00063013231648555385 0 -0.034450598397799494 -0.00080262372370399834 0 -0.038496161261976407 -0.00080542248176817806 0 -0.033588382911563047 -0.00097886647754400272 0 -0.035941799758931268 0.0010885306743849512 0 -0.032517590065938635 -0.0015828877033472553 0 -0.03301644298051172 -0.0010166969617199017 0 -0.033588382911563047 -0.00097886647754400272 0 -0.033588382911563047 -0.00097886647754400272 0 -0.033309576890727485 -0.0010469897331860647 0 -0.032279922223884032 -0.00051105870646750396 0 -0.031789571807320782 0.0011236134553231419 0 -0.030921812492497047 0.0026339246724714884 0 -0.033233174498071685 -0.00092111323762985231 0 -0.033588382911563047 -0.00097886647754400272 0 -0.033309576890727485 -0.0010469897331860647 0 -0.033080301454279662 -0.00067211249393096036 0 -0.033233174498071685 -0.00092111323762985231 0 -0.033309576890727485 -0.0010469897331860647 0 -0.030729849096997143 0.00051097015700529692 0 -0.031175743477367311 0.0029808906748299466 0 -0.028679409642508084 0.0023572242616101699 0 -0.031175743477367311 0.0029808906748299466 0 -0.028679409642508084 0.0023572242616101699 0 -0.029023328151280014 0.0040599013114203308 0 -0.027712490336550002 0.0039539365430868428 0 -0.028679409642508084 0.0023572242616101699 0 -0.029023328151280014 0.0040599013114203308 0 -0.031175743477367311 0.0029808906748299466 0 -0.029023328151280014 0.0040599013114203308 0 -0.02940708002914914 0.00578851214585568 0 -0.029023328151280014 0.0040599013114203308 0 -0.02940708002914914 0.00578851214585568 0 -0.028353388359326263 0.0052204127848970595 0 -0.027712490336550002 0.0039539365430868428 0 -0.029023328151280014 0.0040599013114203308 0 -0.028353388359326263 0.0052204127848970595 0 -0.028468044996436879 0.006194613293714543 0 -0.02940708002914914 0.00578851214585568 0 -0.028353388359326263 0.0052204127848970595 0 -0.028468044996436879 0.006194613293714543 0 -0.02940708002914914 0.00578851214585568 0 -0.028325817925222336 0.0066245994547037392 0 -0.032279922223884032 -0.00051105870646750396 0 -0.030682561728742563 0.0023948326092734927 0 -0.033324425813030488 0.0013374531660504158 0 -0.030921812492497047 0.0026339246724714884 0 -0.030127709752809199 0.0040404133089305639 0 -0.030682561728742563 0.0023948326092734927 0 -0.032464024521109969 0.0033129047885446512 0 -0.033324425813030488 0.0013374531660504158 0 -0.030682561728742563 0.0023948326092734927 0 -0.032464024521109969 0.0033129047885446512 0 -0.031106367163904008 0.0042696753317615996 0 -0.032464024521109969 0.0033129047885446512 0 -0.033324425813030488 0.0013374531660504158 0 -0.035574304968802477 0.0038963966523291428 0 -0.033588382911563047 -0.00097886647754400272 0 -0.032279922223884032 -0.00051105870646750396 0 -0.033324425813030488 0.0013374531660504158 0 -0.033588382911563047 -0.00097886647754400272 0 -0.033324425813030488 0.0013374531660504158 0 -0.035941799758931268 0.0010885306743849512 0 -0.033324425813030488 0.0013374531660504158 0 -0.035941799758931268 0.0010885306743849512 0 -0.035574304968802477 0.0038963966523291428 0 -0.035941799758931268 0.0010885306743849512 0 -0.035574304968802477 0.0038963966523291428 0 -0.039015770987554557 0.0020884583703207806 0 -0.038335856834065152 0.0026537840394992686 0 -0.039015770987554557 0.0020884583703207806 0 -0.039411917574354839 0.0036422227891250978 0 -0.036522733885807263 0.0031539945394993183 0 -0.037511603366907585 0.0026571718477499339 0 -0.038496161261976407 -0.00080542248176817806 0 -0.035941799758931268 0.0010885306743849512 0 -0.039015770987554557 0.0020884583703207806 0 -0.039967185877556231 0.0013233956284345453 0 -0.038496161261976407 -0.00080542248176817806 0 -0.039015770987554557 0.0020884583703207806 0 -0.040346392923677685 0.0048904090149396616 0 -0.039411917574354839 0.0036422227891250978 0 -0.038362541720359633 0.0045973583425879677 0 -0.039942970431380571 0.0032170747550175406 0 -0.039015770987554557 0.0020884583703207806 0 -0.039411917574354839 0.0036422227891250978 0 -0.038335856834065152 0.0026537840394992686 0 -0.039411917574354839 0.0036422227891250978 0 -0.038362541720359633 0.0045973583425879677 0 -0.038362541720359633 0.0045973583425879677 0 -0.036797315289345371 0.0031184550176105788 0 -0.036386478640308237 0.0045300629418580764 0 -0.036522733885807263 0.0031539945394993183 0 -0.034692869689104976 0.0039911749042527535 0 -0.032464024521109969 0.0033129047885446512 0 -0.035574304968802477 0.0038963966523291428 0 -0.032601041252739597 0.0051606049772538968 0 -0.038335856834065152 0.0026537840394992686 0 -0.038362541720359633 0.0045973583425879677 0 -0.036797315289345371 0.0031184550176105788 0 -0.032601041252739597 0.0051606049772538968 0 -0.031106367163904008 0.0042696753317615996 0 -0.030150455250885434 0.0056793854357026349 0 -0.032464024521109969 0.0033129047885446512 0 -0.032601041252739597 0.0051606049772538968 0 -0.031106367163904008 0.0042696753317615996 0 -0.036386478640308237 0.0045300629418580764 0 -0.034417713261138135 0.0037251308026586133 0 -0.03408001955183125 0.0060253774085761453 0 -0.036797315289345371 0.0031184550176105788 0 -0.036386478640308237 0.0045300629418580764 0 -0.034417713261138135 0.0037251308026586133 0 -0.034692869689104976 0.0039911749042527535 0 -0.032952024343711375 0.0047356975162870033 0 -0.036386478640308237 0.0045300629418580764 0 -0.03671126142694011 0.0063532196237997846 0 -0.03408001955183125 0.0060253774085761453 0 -0.035247046889166703 0.0072758575447972058 0 -0.036499619163367851 0.0086207260903282089 0 -0.033659987243516022 0.0081436940749389335 0 -0.035247046889166703 0.0072758575447972058 0 -0.03671126142694011 0.0063532196237997846 0 -0.036499619163367851 0.0086207260903282089 0 -0.035247046889166703 0.0072758575447972058 0 -0.03671126142694011 0.0063532196237997846 0 -0.03408001955183125 0.0060253774085761453 0 -0.03671126142694011 0.0063532196237997846 0 -0.03953032502227196 0.0067816997088593935 0 -0.039037443910719734 0.0085531979581064555 0 -0.03671126142694011 0.0063532196237997846 0 -0.039037443910719734 0.0085531979581064555 0 -0.036499619163367851 0.0086207260903282089 0 -0.038362541720359633 0.0045973583425879677 0 -0.036386478640308237 0.0045300629418580764 0 -0.03671126142694011 0.0063532196237997846 0 -0.038362541720359633 0.0045973583425879677 0 -0.03671126142694011 0.0063532196237997846 0 -0.03953032502227196 0.0067816997088593935 0 -0.041394623296067475 0.007507397434615347 0 -0.03953032502227196 0.0067816997088593935 0 -0.04064129889372365 0.0086802522429788743 0 -0.041394623296067475 0.007507397434615347 0 -0.041207119939045009 0.0057196503303758072 0 -0.03953032502227196 0.0067816997088593935 0 -0.040346392923677685 0.0048904090149396616 0 -0.038362541720359633 0.0045973583425879677 0 -0.03953032502227196 0.0067816997088593935 0 -0.039400289894237668 0.0043203453063500727 0 -0.039118091183377043 0.0052357802892708874 0 -0.030330405073494934 0.0051516672568169631 0 -0.030428851604937725 0.0054610375309910968 0 -0.030525748534394107 0.0051537779791555501 0 -0.030525748534394107 0.0051537779791555501 0 -0.031137125627549899 0.0051686346833077221 0 -0.030172709007907323 0.0052303041158850228 0 -0.030330405073494934 0.0051516672568169631 0 -0.030525748534394107 0.0051537779791555501 0 -0.030172709007907323 0.0052303041158850228 0 -0.02818191192234604 0.0052027609887750886 0 -0.02820031255646626 0.005203692810085217 0 -0.028268332174301782 0.0048274051897596792 0 -0.028383986936996675 0.0060899585521041614 0 -0.027566731397856287 0.0053597665949150939 0 -0.02916733428043913 0.0055568579140561156 0 -0.028268332174301782 0.0048274051897596792 0 -0.028383986936996675 0.0060899585521041614 0 -0.029051531941320589 0.004017564614036977 0 -0.028268332174301782 0.0048274051897596792 0 -0.027715989137833828 0.003926331752342597 0 -0.02818191192234604 0.0052027609887750886 0 -0.028019513852374615 0.0049207422612326324 0 -0.02739438318324498 0.0046975878318433134 0 -0.027397212834770659 0.0048223071980387344 0 -0.027431467718938497 0.0047108065151159123 0 -0.027404236444621956 0.0043931077485624762 0 -0.02818191192234604 0.0052027609887750886 0 -0.029051531941320589 0.004017564614036977 0 -0.02916733428043913 0.0055568579140561156 0 -0.028268332174301782 0.0048274051897596792 0 -0.029152907549342105 0.0061947515081863186 0 -0.030428851604937725 0.0054610375309910968 0 -0.029713375804705844 0.0051444964097300573 0 -0.030428851604937725 0.0054610375309910968 0 -0.029713375804705844 0.0051444964097300573 0 -0.030304330369259416 0.0052449275189553959 0 -0.030428851604937725 0.0054610375309910968 0 -0.030304330369259416 0.0052449275189553959 0 -0.030525748534394107 0.0051537779791555501 0 -0.031106367163904008 0.0042696753317615996 0 -0.029713375804705844 0.0051444964097300573 0 -0.030150455250885434 0.0056793854357026349 0 -0.030682561728742563 0.0023948326092734927 0 -0.031106367163904008 0.0042696753317615996 0 -0.029713375804705844 0.0051444964097300573 0 -0.032952024343711375 0.0047356975162870033 0 -0.032182724267925754 0.0050719442108545015 0 -0.030150455250885434 0.0056793854357026349 0 -0.030304330369259416 0.0052449275189553959 0 -0.031137125627549899 0.0051686346833077221 0 -0.029713375804705844 0.0051444964097300573 0 -0.030150455250885434 0.0056793854357026349 0 -0.030304330369259416 0.0052449275189553959 0 -0.030304330369259416 0.0052449275189553959 0 -0.030525748534394107 0.0051537779791555501 0 -0.031137125627549899 0.0051686346833077221 0 -0.031137125627549899 0.0051686346833077221 0 -0.032081043159937962 0.0071134902703705585 0 -0.030674879654104835 0.0064271168538278019 0 -0.031137125627549899 0.0051686346833077221 0 -0.03408001955183125 0.0060253774085761453 0 -0.032081043159937962 0.0071134902703705585 0 -0.034417713261138135 0.0037251308026586133 0 -0.031137125627549899 0.0051686346833077221 0 -0.03408001955183125 0.0060253774085761453 0 -0.03408001955183125 0.0060253774085761453 0 -0.032081043159937962 0.0071134902703705585 0 -0.033659987243516022 0.0081436940749389335 0 -0.035247046889166703 0.0072758575447972058 0 -0.03408001955183125 0.0060253774085761453 0 -0.033659987243516022 0.0081436940749389335 0 -0.032081043159937962 0.0071134902703705585 0 -0.033659987243516022 0.0081436940749389335 0 -0.032246842968866478 0.0089713250526286554 0 -0.032081043159937962 0.0071134902703705585 0 -0.030888330156423498 0.0079480896452265963 0 -0.032246842968866478 0.0089713250526286554 0 -0.032081043159937962 0.0071134902703705585 0 -0.030888330156423498 0.0079480896452265963 0 -0.030674879654104835 0.0064271168538278019 0 -0.030888330156423498 0.0079480896452265963 0 -0.028947773106068549 0.0071857719315680845 0 -0.030172270485942791 0.008769170071813024 0 -0.030888330156423498 0.0079480896452265963 0 -0.030674879654104835 0.0064271168538278019 0 -0.028947773106068549 0.0071857719315680845 0 -0.030242717116737913 0.0047605887750323686 0 -0.030172709007907323 0.0052303041158850228 0 -0.028947773106068549 0.0071857719315680845 0 -0.031137125627549899 0.0051686346833077221 0 -0.030674879654104835 0.0064271168538278019 0 -0.030172709007907323 0.0052303041158850228 0 -0.02818191192234604 0.0052027609887750886 0 -0.028262024641891786 0.0059508519942222038 0 -0.030674879654104835 0.0064271168538278019 0 -0.030172709007907323 0.0052303041158850228 0 -0.028947773106068549 0.0071857719315680845 0 -0.02916733428043913 0.0055568579140561156 0 -0.028383986936996675 0.0060899585521041614 0 -0.028947773106068549 0.0071857719315680845 0 -0.028383986936996675 0.0060899585521041614 0 -0.028947773106068549 0.0071857719315680845 0 -0.027497754695322479 0.0069169268094935489 0 -0.028947773106068549 0.0071857719315680845 0 -0.027497754695322479 0.0069169268094935489 0 -0.02823138057955784 0.0081807895114628226 0 -0.02747450884336966 0.0062045931760636875 0 -0.027052677642585021 0.006630707461483136 0 -0.027471434039048906 0.0069864112575890877 0 -0.030178578074615187 0.0068430634075851513 0 -0.031992560098038032 0.0081107268651945588 0 -0.027497754695322479 0.0069169268094935489 0 -0.027431147565280929 0.0090724030948984742 0 -0.02823138057955784 0.0081807895114628226 0 -0.02747450884336966 0.0062045931760636875 0 -0.027052677642585021 0.006630707461483136 0 -0.026995603123864908 0.0062185575410678836 0 -0.026594817631528832 0.0063145333120205299 0 -0.026995603123864908 0.0062185575410678836 0 -0.026880523820343588 0.0057938793657850689 0 -0.027052677642585021 0.006630707461483136 0 -0.026594817631528832 0.0063145333120205299 0 -0.026628474068309586 0.0068619786606275279 0 -0.027052677642585021 0.006630707461483136 0 -0.026594817631528832 0.0063145333120205299 0 -0.026995603123864908 0.0062185575410678836 0 -0.026880523820343588 0.0057938793657850689 0 -0.02627865084775529 0.005840554642124178 0 -0.026354086812336298 0.0051971918471105157 0 -0.026594817631528832 0.0063145333120205299 0 -0.026880523820343588 0.0057938793657850689 0 -0.02627865084775529 0.005840554642124178 0 -0.028383986936996675 0.0060899585521041614 0 -0.027497754695322479 0.0069169268094935489 0 -0.027566731397856287 0.0053597665949150939 0 -0.030178578074615187 0.0068430634075851513 0 -0.029662065454581773 0.0062239161411200656 0 -0.02747450884336966 0.0062045931760636875 0 -0.026995603123864908 0.0062185575410678836 0 -0.026880523820343588 0.0057938793657850689 0 -0.02747450884336966 0.0062045931760636875 0 -0.026880523820343588 0.0057938793657850689 0 -0.027566731397856287 0.0053597665949150939 0 -0.025664034960768287 0.0064633192737683833 0 -0.025746832162538025 0.0058975527654283903 0 -0.025274693576670764 0.0061859420146841036 0 -0.025664034960768287 0.0064633192737683833 0 -0.026112023118653988 0.0061946498304151967 0 -0.026185552462793509 0.006646781318242311 0 -0.025664034960768287 0.0064633192737683833 0 -0.026112023118653988 0.0061946498304151967 0 -0.025746832162538025 0.0058975527654283903 0 -0.026594817631528832 0.0063145333120205299 0 -0.026185552462793509 0.006646781318242311 0 -0.026628474068309586 0.0068619786606275279 0 -0.026594817631528832 0.0063145333120205299 0 -0.026112023118653988 0.0061946498304151967 0 -0.026185552462793509 0.006646781318242311 0 -0.026594817631528832 0.0063145333120205299 0 -0.026112023118653988 0.0061946498304151967 0 -0.02627865084775529 0.005840554642124178 0 -0.026022665003508031 0.0055805078481694021 0 -0.02627865084775529 0.005840554642124178 0 -0.025746832162538025 0.0058975527654283903 0 -0.026112023118653988 0.0061946498304151967 0 -0.02627865084775529 0.005840554642124178 0 -0.025746832162538025 0.0058975527654283903 0 -0.026022665003508031 0.0055805078481694021 0 -0.02627865084775529 0.005840554642124178 0 -0.026354086812336298 0.0051971918471105157 0 -0.025746832162538025 0.0058975527654283903 0 -0.025714293844963154 0.005384076284747785 0 -0.025039950944352761 0.0055229020854820725 0 -0.026022665003508031 0.0055805078481694021 0 -0.025746832162538025 0.0058975527654283903 0 -0.025714293844963154 0.005384076284747785 0 -0.025746832162538025 0.0058975527654283903 0 -0.025155034715349415 0.0058206476497546763 0 -0.025274693576670764 0.0061859420146841036 0 -0.024675032292378482 0.0049436773872575893 0 -0.02504670011165255 0.0054961193210150867 0 -0.025371929302064323 0.0048780841132986174 0 -0.02504670011165255 0.0054961193210150867 0 -0.026354086812336298 0.0051971918471105157 0 -0.025371929302064323 0.0048780841132986174 0 -0.025179952002540286 0.0052654357244773901 0 -0.025642252112081057 0.0052055795671872799 0 -0.026022665003508031 0.0055805078481694021 0 -0.025714293844963154 0.005384076284747785 0 -0.026354086812336298 0.0051971918471105157 0 -0.026354086812336298 0.0051971918471105157 0 -0.025491205807153684 0.0041963106277286624 0 -0.025371929302064323 0.0048780841132986174 0 -0.026354086812336298 0.0051971918471105157 0 -0.025491205807153684 0.0041963106277286624 0 -0.026499421435299566 0.0039733773208899268 0 -0.024675032292378482 0.0049436773872575893 0 -0.025491205807153684 0.0041963106277286624 0 -0.025371929302064323 0.0048780841132986174 0 -0.024617670886293099 0.004978499949849227 0 -0.024929777366331073 0.0046983482813157109 0 -0.024507595493933113 0.0049536276874665736 0 -0.025491205807153684 0.0041963106277286624 0 -0.02435838370995963 0.0039997437920692583 0 -0.026880523820343588 0.0057938793657850689 0 -0.027566731397856287 0.0053597665949150939 0 -0.027021565979551791 0.0047303697452459508 0 -0.028268332174301782 0.0048274051897596792 0 -0.027566731397856287 0.0053597665949150939 0 -0.027021565979551791 0.0047303697452459508 0 -0.026880523820343588 0.0057938793657850689 0 -0.026354086812336298 0.0051971918471105157 0 -0.027021565979551791 0.0047303697452459508 0 -0.026354086812336298 0.0051971918471105157 0 -0.027021565979551791 0.0047303697452459508 0 -0.026499421435299566 0.0039733773208899268 0 -0.028268332174301782 0.0048274051897596792 0 -0.027021565979551791 0.0047303697452459508 0 -0.027715989137833828 0.003926331752342597 0 -0.027021565979551791 0.0047303697452459508 0 -0.027715989137833828 0.003926331752342597 0 -0.026499421435299566 0.0039733773208899268 0 -0.028108397285967455 0.0030152741655872202 0 -0.027715989137833828 0.003926331752342597 0 -0.027097342375205787 0.0030446160641856863 0 -0.027715989137833828 0.003926331752342597 0 -0.027097342375205787 0.0030446160641856863 0 -0.026499421435299566 0.0039733773208899268 0 -0.028108397285967455 0.0030152741655872202 0 -0.027097342375205787 0.0030446160641856863 0 -0.02764582675734744 0.002047154169294864 0 -0.027097342375205787 0.0030446160641856863 0 -0.026235912568736551 0.0029911770677297131 0 -0.026364779598549916 0.0022934627903303246 0 -0.027097342375205787 0.0030446160641856863 0 -0.026235912568736551 0.0029911770677297131 0 -0.026499421435299566 0.0039733773208899268 0 -0.026235912568736551 0.0029911770677297131 0 -0.026499421435299566 0.0039733773208899268 0 -0.025320645492711256 0.0033460025399877787 0 -0.025491205807153684 0.0041963106277286624 0 -0.026499421435299566 0.0039733773208899268 0 -0.025320645492711256 0.0033460025399877787 0 -0.025491205807153684 0.0041963106277286624 0 -0.025320645492711256 0.0033460025399877787 0 -0.02435838370995963 0.0039997437920692583 0 -0.025320645492711256 0.0033460025399877787 0 -0.024041287452692094 0.0031561205532078598 0 -0.02435838370995963 0.0039997437920692583 0 -0.025320645492711256 0.0033460025399877787 0 -0.02473027425909544 0.0025429979134810638 0 -0.024041287452692094 0.0031561205532078598 0 -0.025320645492711256 0.0033460025399877787 0 -0.025652245243260839 0.0024545039515987748 0 -0.02473027425909544 0.0025429979134810638 0 -0.026235912568736551 0.0029911770677297131 0 -0.025320645492711256 0.0033460025399877787 0 -0.025652245243260839 0.0024545039515987748 0 -0.026235912568736551 0.0029911770677297131 0 -0.025652245243260839 0.0024545039515987748 0 -0.026364779598549916 0.0022934627903303246 0 -0.025652245243260839 0.0024545039515987748 0 -0.025170738433801344 0.0018971270382951563 0 -0.02598951743348641 0.0016415725370708171 0 -0.025652245243260839 0.0024545039515987748 0 -0.02598951743348641 0.0016415725370708171 0 -0.026364779598549916 0.0022934627903303246 0 -0.026174550855359188 0.0015673708236547872 0 -0.02598951743348641 0.0016415725370708171 0 -0.026364779598549916 0.0022934627903303246 0 -0.025652245243260839 0.0024545039515987748 0 -0.02473027425909544 0.0025429979134810638 0 -0.025170738433801344 0.0018971270382951563 0 -0.02473027425909544 0.0025429979134810638 0 -0.025170738433801344 0.0018971270382951563 0 -0.024232749785833931 0.0017522988091321723 0 -0.025170738433801344 0.0018971270382951563 0 -0.024961391400784703 0.001162815864943772 0 -0.024232749785833931 0.0017522988091321723 0 -0.020012121292041878 0.00058965417126256121 0 -0.021713903399593056 0.001487733441187593 0 -0.024961391400784703 0.001162815864943772 0 -0.026156347524208572 0.0015783591107904828 0 -0.02598951743348641 0.0016415725370708171 0 -0.016151307480782848 -0.0010274042976114396 0 -0.015371353159624117 -0.00057236866116635731 0 -0.01649020558371005 -7.7884825774805281e-05 0 -0.025170738433801344 0.0018971270382951563 0 -0.024961391400784703 0.001162815864943772 0 -0.02598951743348641 0.0016415725370708171 0 -0.021713903399593056 0.001487733441187593 0 -0.021793813234811686 0.0014668006381677668 0 -0.017022877804440052 -0.00098819055756520419 0 -0.01649020558371005 -7.7884825774805281e-05 0 -0.017930653846804121 -0.00044027060755194027 0 -0.021713903399593056 0.001487733441187593 0 -0.021321187384477757 0.0012899213685403869 0 -0.017022877804440052 -0.00098819055756520419 0 -0.016151307480782848 -0.0010274042976114396 0 -0.01649020558371005 -7.7884825774805281e-05 0 -0.022502519970198802 0.0019834983815358361 0 -0.023206774842285231 0.0017252637570502746 0 -0.023196383442133463 0.0022321501965264284 0 -0.027097342375205787 0.0030446160641856863 0 -0.02764582675734744 0.002047154169294864 0 -0.026364779598549916 0.0022934627903303246 0 -0.026174550855359188 0.0015673708236547872 0 -0.02764582675734744 0.002047154169294864 0 -0.026364779598549916 0.0022934627903303246 0 -0.021713903399593056 0.001487733441187593 0 -0.024817404775297501 0.0026737311745092958 0 -0.022556056346536141 0.0022874158970976745 0 -0.021700527083450775 0.0026638033658113488 0 -0.022251790865312957 0.0028916579147408709 0 -0.021909431184895273 0.002510953682325269 0 -0.021454999877740029 0.0026157986970526824 0 -0.022556056346536141 0.0022874158970976745 0 -0.022415698391685487 0.0016149190352918272 0 -0.022889593233064536 0.0016236440259002648 0 -0.021354492927594611 0.0025204547864436737 0 -0.021805516848982676 0.0015173978438782934 0 -0.021126636098370517 0.0017548922501346323 0 -0.022556056346536141 0.0022874158970976745 0 -0.021354492927594611 0.0025204547864436737 0 -0.021805516848982676 0.0015173978438782934 0 -0.021105039888615437 0.001033522391261809 0 -0.022379586969957631 0.0010613289993553481 0 -0.021805516848982676 0.0015173978438782934 0 -0.021134224628060014 0.0011294607744061701 0 -0.021805516848982676 0.0015173978438782934 0 -0.021126636098370517 0.0017548922501346323 0 -0.01881482472182152 0.00091486777334725926 0 -0.019577684667778955 0.0012990533938736859 0 -0.022379586969957631 0.0010613289993553481 0 -0.021805516848982676 0.0015173978438782934 0 -0.022415698391685487 0.0016149190352918272 0 -0.022556056346536141 0.0022874158970976745 0 -0.021805516848982676 0.0015173978438782934 0 -0.022415698391685487 0.0016149190352918272 0 -0.022379586969957631 0.0010613289993553481 0 -0.022415698391685487 0.0016149190352918272 0 -0.022889593233064536 0.0016236440259002648 0 -0.023283670003167157 0.00093904919313615579 0 -0.022379586969957631 0.0010613289993553481 0 -0.02297903846819532 0.0012767267442345806 0 -0.022379586969957631 0.0010613289993553481 0 -0.02297903846819532 0.0012767267442345806 0 -0.022889593233064536 0.0016236440259002648 0 -0.023283670003167157 0.00093904919313615579 0 -0.02297903846819532 0.0012767267442345806 0 -0.023441289209816293 0.0015472407712426542 0 -0.02297903846819532 0.0012767267442345806 0 -0.022889593233064536 0.0016236440259002648 0 -0.023441289209816293 0.0015472407712426542 0 -0.022889593233064536 0.0016236440259002648 0 -0.023441289209816293 0.0015472407712426542 0 -0.023638161431525594 0.0021693987546196497 0 -0.023283670003167157 0.00093904919313615579 0 -0.024961391400784703 0.001162815864943772 0 -0.024232749785833931 0.0017522988091321723 0 -0.018228217397297714 -0.0001443801419732758 0 -0.020012121292041878 0.00058965417126256121 0 -0.023283670003167157 0.00093904919313615579 0 -0.023441289209816293 0.0015472407712426542 0 -0.024232749785833931 0.0017522988091321723 0 -0.02473027425909544 0.0025429979134810638 0 -0.024232749785833931 0.0017522988091321723 0 -0.023638161431525594 0.0021693987546196497 0 -0.023441289209816293 0.0015472407712426542 0 -0.024232749785833931 0.0017522988091321723 0 -0.023638161431525594 0.0021693987546196497 0 -0.022556056346536141 0.0022874158970976745 0 -0.023638161431525594 0.0021693987546196497 0 -0.02300440048184868 0.0029592200023844544 0 -0.022556056346536141 0.0022874158970976745 0 -0.022889593233064536 0.0016236440259002648 0 -0.023638161431525594 0.0021693987546196497 0 -0.023638161431525594 0.0021693987546196497 0 -0.02300440048184868 0.0029592200023844544 0 -0.024041287452692094 0.0031561205532078598 0 -0.02300440048184868 0.0029592200023844544 0 -0.024041287452692094 0.0031561205532078598 0 -0.023365320792403207 0.00371324350977543 0 -0.02473027425909544 0.0025429979134810638 0 -0.023638161431525594 0.0021693987546196497 0 -0.024041287452692094 0.0031561205532078598 0 -0.024041287452692094 0.0031561205532078598 0 -0.02435838370995963 0.0039997437920692583 0 -0.023365320792403207 0.00371324350977543 0 -0.02435838370995963 0.0039997437920692583 0 -0.023365320792403207 0.00371324350977543 0 -0.02350475050402177 0.0045469037125040884 0 -0.02300440048184868 0.0029592200023844544 0 -0.023365320792403207 0.00371324350977543 0 -0.022392393676023806 0.0034782632964610511 0 -0.023365320792403207 0.00371324350977543 0 -0.022392393676023806 0.0034782632964610511 0 -0.022769013038680116 0.0041529079525858487 0 -0.022392393676023806 0.0034782632964610511 0 -0.022130864923976548 0.0040886449624762573 0 -0.022769013038680116 0.0041529079525858487 0 -0.022556056346536141 0.0022874158970976745 0 -0.02300440048184868 0.0029592200023844544 0 -0.022251790865312957 0.0028916579147408709 0 -0.02300440048184868 0.0029592200023844544 0 -0.022392393676023806 0.0034782632964610511 0 -0.022251790865312957 0.0028916579147408709 0 -0.022392393676023806 0.0034782632964610511 0 -0.022251790865312957 0.0028916579147408709 0 -0.021817991689109962 0.0031335278697584988 0 -0.021700527083450775 0.0026638033658113488 0 -0.021817991689109962 0.0031335278697584988 0 -0.02135466961763113 0.0031657635296916393 0 -0.021700527083450775 0.0026638033658113488 0 -0.022251790865312957 0.0028916579147408709 0 -0.021817991689109962 0.0031335278697584988 0 -0.021817991689109962 0.0031335278697584988 0 -0.021786219289794854 0.0036223424159851437 0 -0.02135466961763113 0.0031657635296916393 0 -0.022392393676023806 0.0034782632964610511 0 -0.021817991689109962 0.0031335278697584988 0 -0.021786219289794854 0.0036223424159851437 0 -0.022392393676023806 0.0034782632964610511 0 -0.021786219289794854 0.0036223424159851437 0 -0.022130864923976548 0.0040886449624762573 0 -0.021786219289794854 0.0036223424159851437 0 -0.022130864923976548 0.0040886449624762573 0 -0.021437845099106415 0.0042768556499009078 0 -0.023152995665401223 0.0047519125838322279 0 -0.022746518766756093 0.0048432779056219767 0 -0.022657733420021611 0.0044883442626855686 0 -0.022130864923976548 0.0040886449624762573 0 -0.022483782167126227 0.004963528423704692 0 -0.021437845099106415 0.0042768556499009078 0 -0.023022176534720461 0.0046956975473079424 0 -0.022154035253174862 0.0041041442893621737 0 -0.022449358462748009 0.0046702854660333219 0 -0.022154035253174862 0.0041041442893621737 0 -0.022130864923976548 0.0040886449624762573 0 -0.022769013038680116 0.0041529079525858487 0 -0.022483782167126227 0.004963528423704692 0 -0.023152995665401223 0.0047519125838322279 0 -0.022991211656823374 0.0049771289042023241 0 -0.023230683955908951 0.0051158001878305959 0 -0.022148860346806017 0.0043140249938259691 0 -0.022319999029745404 0.0049351667143198831 0 -0.021724567372410471 0.0045233930954845626 0 -0.022746518766756093 0.0048432779056219767 0 -0.022991211656823374 0.0049771289042023241 0 -0.022834730440373423 0.0051975418811804307 0 -0.023152995665401223 0.0047519125838322279 0 -0.022746518766756093 0.0048432779056219767 0 -0.022991211656823374 0.0049771289042023241 0 -0.022449358462748009 0.0046702854660333219 0 -0.022762556271467151 0.005327407581809664 0 -0.024507595493933113 0.0049536276874665736 0 -0.02435838370995963 0.0039997437920692583 0 -0.02350475050402177 0.0045469037125040884 0 -0.023365320792403207 0.00371324350977543 0 -0.022769013038680116 0.0041529079525858487 0 -0.02350475050402177 0.0045469037125040884 0 -0.022769013038680116 0.0041529079525858487 0 -0.022483782167126227 0.004963528423704692 0 -0.02350475050402177 0.0045469037125040884 0 -0.023022176534720461 0.0046956975473079424 0 -0.024273453247865801 0.0053182502030142487 0 -0.023152995665401223 0.0047519125838322279 0 -0.023669060653762848 0.0050258373208671254 0 -0.023628053115264353 0.0050342659690902625 0 -0.022483782167126227 0.004963528423704692 0 -0.02350475050402177 0.0045469037125040884 0 -0.023692747815941381 0.0056774233402692937 0 -0.023152995665401223 0.0047519125838322279 0 -0.023628053115264353 0.0050342659690902625 0 -0.023230683955908951 0.0051158001878305959 0 -0.025179952002540286 0.0052654357244773901 0 -0.024273453247865801 0.0053182502030142487 0 -0.024675032292378482 0.0049436773872575893 0 -0.02504670011165255 0.0054961193210150867 0 -0.023853832456841938 0.0057380665807048844 0 -0.024507595493933113 0.0049536276874665736 0 -0.02350475050402177 0.0045469037125040884 0 -0.023692747815941381 0.0056774233402692937 0 -0.024617670886293099 0.004978499949849227 0 -0.024273453247865801 0.0053182502030142487 0 -0.025746832162538025 0.0058975527654283903 0 -0.024751490234374045 0.0052758096628827585 0 -0.025155034715349415 0.0058206476497546763 0 -0.025019953677219504 0.0056597841350729252 0 -0.024273453247865801 0.0053182502030142487 0 -0.024751490234374045 0.0052758096628827585 0 -0.025155034715349415 0.0058206476497546763 0 -0.024728660811626613 0.0055317027267877059 0 -0.025155034715349415 0.0058206476497546763 0 -0.024849057205007588 0.0058437459328948222 0 -0.024889196988836269 0.0061189651890867537 0 -0.025155034715349415 0.0058206476497546763 0 -0.024728660811626613 0.0055317027267877059 0 -0.024849057205007588 0.0058437459328948222 0 -0.024529116546641777 0.0053674340109853974 0 -0.024056703905789772 0.0057857463452630816 0 -0.023851899583755644 0.0055075139713964627 0 -0.024195705262579244 0.0053325023282466523 0 -0.023505385646832813 0.0053237282080465971 0 -0.024728660811626613 0.0055317027267877059 0 -0.024849057205007588 0.0058437459328948222 0 -0.024486464657112871 0.0059588576044171462 0 -0.024728660811626613 0.0055317027267877059 0 -0.024119916438693031 0.0057641054398261671 0 -0.024486464657112871 0.0059588576044171462 0 -0.024728660811626613 0.0055317027267877059 0 -0.024667924390836898 0.0052959351426412416 0 -0.024119916438693031 0.0057641054398261671 0 -0.024751490234374045 0.0052758096628827585 0 -0.024728660811626613 0.0055317027267877059 0 -0.024667924390836898 0.0052959351426412416 0 -0.024273453247865801 0.0053182502030142487 0 -0.024195705262579244 0.0053325023282466523 0 -0.024195705262579244 0.0053325023282466523 0 -0.024019884466683065 0.0055816281796861088 0 -0.024119916438693031 0.0057641054398261671 0 -0.024486464657112871 0.0059588576044171462 0 -0.024027156397310425 0.0061873621643819907 0 -0.024261963995646701 0.0064413482549320585 0 -0.024486464657112871 0.0059588576044171462 0 -0.024027156397310425 0.0061873621643819907 0 -0.024261963995646701 0.0064413482549320585 0 -0.024619781358180902 0.0062862234629283333 0 -0.024486464657112871 0.0059588576044171462 0 -0.024261963995646701 0.0064413482549320585 0 -0.024619781358180902 0.0062862234629283333 0 -0.02490068722703602 0.0066410461773648635 0 -0.024619781358180902 0.0062862234629283333 0 -0.024486464657112871 0.0059588576044171462 0 -0.024889196988836269 0.0061189651890867537 0 -0.025664034960768287 0.0064633192737683833 0 -0.025274693576670764 0.0061859420146841036 0 -0.02490068722703602 0.0066410461773648635 0 -0.024849057205007588 0.0058437459328948222 0 -0.024486464657112871 0.0059588576044171462 0 -0.024889196988836269 0.0061189651890867537 0 -0.024889196988836269 0.0061189651890867537 0 -0.025274693576670764 0.0061859420146841036 0 -0.02490068722703602 0.0066410461773648635 0 -0.024619781358180902 0.0062862234629283333 0 -0.024889196988836269 0.0061189651890867537 0 -0.02490068722703602 0.0066410461773648635 0 -0.025155034715349415 0.0058206476497546763 0 -0.024889196988836269 0.0061189651890867537 0 -0.025274693576670764 0.0061859420146841036 0 -0.022991211656823374 0.0049771289042023241 0 -0.022834730440373423 0.0051975418811804307 0 -0.023230683955908951 0.0051158001878305959 0 -0.023163900543457343 0.0056466784167529399 0 -0.023851899583755644 0.0055075139713964627 0 -0.023684182875397895 0.0058461808498077254 0 -0.022762556271467151 0.005327407581809664 0 -0.023505385646832813 0.0053237282080465971 0 -0.024056703905789772 0.0057857463452630816 0 -0.023851899583755644 0.0055075139713964627 0 -0.023684182875397895 0.0058461808498077254 0 -0.023163900543457343 0.0056466784167529399 0 -0.023684182875397895 0.0058461808498077254 0 -0.023580597656546482 0.0062123792791773519 0 -0.024119916438693031 0.0057641054398261671 0 -0.024027156397310425 0.0061873621643819907 0 -0.023580597656546482 0.0062123792791773519 0 -0.024056703905789772 0.0057857463452630816 0 -0.023684182875397895 0.0058461808498077254 0 -0.023580597656546482 0.0062123792791773519 0 -0.024019884466683065 0.0055816281796861088 0 -0.023885129871770081 0.0057289505885594512 0 -0.024261963995646701 0.0064413482549320585 0 -0.024027156397310425 0.0061873621643819907 0 -0.023774152715795863 0.0066443469929434104 0 -0.024027156397310425 0.0061873621643819907 0 -0.023580597656546482 0.0062123792791773519 0 -0.023774152715795863 0.0066443469929434104 0 -0.023580597656546482 0.0062123792791773519 0 -0.023353531715562915 0.006433470737864079 0 -0.023774152715795863 0.0066443469929434104 0 -0.022765176395906656 0.0048382820289202527 0 -0.023093577970582448 0.0059840970570850319 0 -0.022150446844301931 0.0058718232352638032 0 -0.023163900543457343 0.0056466784167529399 0 -0.023580597656546482 0.0062123792791773519 0 -0.023353531715562915 0.006433470737864079 0 -0.022762556271467151 0.005327407581809664 0 -0.02304225265100434 0.0061039872731746304 0 -0.023093577970582448 0.0059840970570850319 0 -0.022601335017428035 0.0066263374173774056 0 -0.022150446844301931 0.0058718232352638032 0 -0.023093577970582448 0.0059840970570850319 0 -0.022601335017428035 0.0066263374173774056 0 -0.023456948515803211 0.0072114392812585365 0 -0.02304225265100434 0.0061039872731746304 0 -0.023173418336279564 0.006532441035381361 0 -0.023774152715795863 0.0066443469929434104 0 -0.023456948515803211 0.0072114392812585365 0 -0.024344952467612504 0.0069668658360843563 0 -0.023353531715562915 0.006433470737864079 0 -0.023774152715795863 0.0066443469929434104 0 -0.023456948515803211 0.0072114392812585365 0 -0.023456948515803211 0.0072114392812585365 0 -0.024200540368013446 0.0081702918309307024 0 -0.024381407332894168 0.0075306425576802706 0 -0.022601335017428035 0.0066263374173774056 0 -0.023456948515803211 0.0072114392812585365 0 -0.022469578816909242 0.0073775388408305548 0 -0.023456948515803211 0.0072114392812585365 0 -0.022469578816909242 0.0073775388408305548 0 -0.022829731780576869 0.0080003534714429645 0 -0.022829731780576869 0.0080003534714429645 0 -0.023556936136399285 0.0085054669200688646 0 -0.022606355408863459 0.0088168519104279766 0 -0.022829731780576869 0.0080003534714429645 0 -0.022606355408863459 0.0088168519104279766 0 -0.022035059386446072 0.0080845814604570011 0 -0.022469578816909242 0.0073775388408305548 0 -0.022829731780576869 0.0080003534714429645 0 -0.022035059386446072 0.0080845814604570011 0 -0.023456948515803211 0.0072114392812585365 0 -0.022829731780576869 0.0080003534714429645 0 -0.023556936136399285 0.0085054669200688646 0 -0.023456948515803211 0.0072114392812585365 0 -0.023556936136399285 0.0085054669200688646 0 -0.024200540368013446 0.0081702918309307024 0 -0.023556936136399285 0.0085054669200688646 0 -0.024200540368013446 0.0081702918309307024 0 -0.024466825252005213 0.0094944766355084895 0 -0.023556936136399285 0.0085054669200688646 0 -0.023272299187669675 0.0094144067779778212 0 -0.024466825252005213 0.0094944766355084895 0 -0.023556936136399285 0.0085054669200688646 0 -0.022606355408863459 0.0088168519104279766 0 -0.023272299187669675 0.0094144067779778212 0 -0.025496088477623181 0.0085771041333534814 0 -0.02542936505087029 0.0083220019290142395 0 -0.026980216297148477 0.0090293630477272201 0 -0.025496088477623181 0.0085771041333534814 0 -0.025090071888149587 0.0080890649860416979 0 -0.025231342127761503 0.0092598916367005752 0 -0.025496088477623181 0.0085771041333534814 0 -0.02542936505087029 0.0083220019290142395 0 -0.025090071888149587 0.0080890649860416979 0 -0.035844855104726729 0.0053862048596630277 0 -0.036701949254562563 0.0049396221818667199 0 -0.025496088477623181 0.0085771041333534814 0 -0.0261787223833744 0.0093005552503395029 0 -0.025847141287905381 0.0096467206707481507 0 -0.025496088477623181 0.0085771041333534814 0 -0.025231342127761503 0.0092598916367005752 0 -0.02577918087438948 0.0094052906902019357 0 -0.024963847721383103 0.0082232615288639552 0 -0.024738798694888934 0.0087571976204590986 0 -0.025090071888149587 0.0080890649860416979 0 -0.024466825252005213 0.0094944766355084895 0 -0.025231342127761503 0.0092598916367005752 0 -0.024200540368013446 0.0081702918309307024 0 -0.024852337095268625 0.0083583952086325915 0 -0.024466825252005213 0.0094944766355084895 0 -0.024200540368013446 0.0081702918309307024 0 -0.024852337095268625 0.0083583952086325915 0 -0.024381407332894168 0.0075306425576802706 0 -0.024963847721383103 0.0082232615288639552 0 -0.025295613092715833 0.0074321685945406557 0 -0.025090071888149587 0.0080890649860416979 0 -0.025574317905165893 0.0078733077394452945 0 -0.025431121893869191 0.0073185163520813326 0 -0.02542936505087029 0.0083220019290142395 0 -0.025574317905165893 0.0078733077394452945 0 -0.025837538563140132 0.0081876956957146162 0 -0.02542936505087029 0.0083220019290142395 0 -0.025090071888149587 0.0080890649860416979 0 -0.025574317905165893 0.0078733077394452945 0 -0.024852337095268625 0.0083583952086325915 0 -0.025233089809559694 0.007336649294904035 0 -0.024381407332894168 0.0075306425576802706 0 -0.023456948515803211 0.0072114392812585365 0 -0.024381407332894168 0.0075306425576802706 0 -0.024344952467612504 0.0069668658360843563 0 -0.025233089809559694 0.007336649294904035 0 -0.024381407332894168 0.0075306425576802706 0 -0.024344952467612504 0.0069668658360843563 0 -0.024261963995646701 0.0064413482549320585 0 -0.024344952467612504 0.0069668658360843563 0 -0.02490068722703602 0.0066410461773648635 0 -0.024261963995646701 0.0064413482549320585 0 -0.023774152715795863 0.0066443469929434104 0 -0.024344952467612504 0.0069668658360843563 0 -0.025233089809559694 0.007336649294904035 0 -0.024344952467612504 0.0069668658360843563 0 -0.02490068722703602 0.0066410461773648635 0 -0.025664034960768287 0.0064633192737683833 0 -0.025233089809559694 0.007336649294904035 0 -0.02490068722703602 0.0066410461773648635 0 -0.025664034960768287 0.0064633192737683833 0 -0.025431121893869191 0.0073185163520813326 0 -0.025879039831478757 0.0069962848676170392 0 -0.025479760576533853 0.0069923638836682208 0 -0.025295613092715833 0.0074321685945406557 0 -0.025664034960768287 0.0064633192737683833 0 -0.025879039831478757 0.0069962848676170392 0 -0.026185552462793509 0.006646781318242311 0 -0.026185552462793509 0.006646781318242311 0 -0.02624714530512803 0.0071162049900434119 0 -0.026628474068309586 0.0068619786606275279 0 -0.02624714530512803 0.0071162049900434119 0 -0.026628474068309586 0.0068619786606275279 0 -0.026619759043476236 0.0072872334807226142 0 -0.025879039831478757 0.0069962848676170392 0 -0.026185552462793509 0.006646781318242311 0 -0.02624714530512803 0.0071162049900434119 0 -0.02624714530512803 0.0071162049900434119 0 -0.026328309278439405 0.0075273480029118848 0 -0.025909423945851787 0.0074534421884502921 0 -0.02624714530512803 0.0071162049900434119 0 -0.026328309278439405 0.0075273480029118848 0 -0.026619759043476236 0.0072872334807226142 0 -0.026328309278439405 0.0075273480029118848 0 -0.026619759043476236 0.0072872334807226142 0 -0.026799778891822838 0.007728911448508108 0 -0.026328309278439405 0.0075273480029118848 0 -0.025909423945851787 0.0074534421884502921 0 -0.026021161705915938 0.0078697859195548756 0 -0.025574317905165893 0.0078733077394452945 0 -0.025431121893869191 0.0073185163520813326 0 -0.025909423945851787 0.0074534421884502921 0 -0.025431121893869191 0.0073185163520813326 0 -0.025879039831478757 0.0069962848676170392 0 -0.025909423945851787 0.0074534421884502921 0 -0.025879039831478757 0.0069962848676170392 0 -0.02624714530512803 0.0071162049900434119 0 -0.025909423945851787 0.0074534421884502921 0 -0.027052677642585021 0.006630707461483136 0 -0.027471434039048906 0.0069864112575890877 0 -0.027052597235273198 0.0071428172498524461 0 -0.027052677642585021 0.006630707461483136 0 -0.027052597235273198 0.0071428172498524461 0 -0.026628474068309586 0.0068619786606275279 0 -0.027052597235273198 0.0071428172498524461 0 -0.026628474068309586 0.0068619786606275279 0 -0.026619759043476236 0.0072872334807226142 0 -0.027052597235273198 0.0071428172498524461 0 -0.027184022687384932 0.0074785397141674832 0 -0.026907535950155347 0.0076264600951609553 0 -0.027052597235273198 0.0071428172498524461 0 -0.026619759043476236 0.0072872334807226142 0 -0.026799778891822838 0.007728911448508108 0 -0.031349197045955318 0.0088103822901954374 0 -0.032047481211087761 0.0088576672981739973 0 -0.027431147565280929 0.0090724030948984742 0 -0.027490456989157457 0.011266028980582148 0 -0.028379004584693193 0.0097336565143832359 0 -0.027471434039048906 0.0069864112575890877 0 -0.027184022687384932 0.0074785397141674832 0 -0.027475076200937549 0.0076735660141213514 0 -0.031992560098038032 0.0081107268651945588 0 -0.035987993909115654 0.0096980525335731756 0 -0.027471434039048906 0.0069864112575890877 0 -0.027052597235273198 0.0071428172498524461 0 -0.027184022687384932 0.0074785397141674832 0 -0.035987993909115654 0.0096980525335731756 0 -0.041387956075851745 0.01122335156645809 0 -0.039568122261924667 0.0089882547418595419 0 -0.039335269258614594 0.0091131277614389661 0 -0.039588066372218379 0.009392864191011336 0 -0.027184022687384932 0.0074785397141674832 0 -0.027475076200937549 0.0076735660141213514 0 -0.027086789570946627 0.0078629467761595524 0 -0.035987993909115654 0.0096980525335731756 0 -0.034788100563076102 0.0091314275872817867 0 -0.027086789570946627 0.0078629467761595524 0 -0.026907535950155347 0.0076264600951609553 0 -0.026753371437778402 0.0080467444118169033 0 -0.032047481211087761 0.0088576672981739973 0 -0.03463829825353075 0.0083189197173714046 0 -0.027184022687384932 0.0074785397141674832 0 -0.027086789570946627 0.0078629467761595524 0 -0.026907535950155347 0.0076264600951609553 0 -0.034788100563076102 0.0091314275872817867 0 -0.03463829825353075 0.0083189197173714046 0 -0.039302350928611347 0.009372012455222312 0 -0.039095410097131085 0.0092381170182329296 0 -0.038986888793663549 0.0094902962367616021 0 -0.039335269258614594 0.0091131277614389661 0 -0.039302350928611347 0.009372012455222312 0 -0.039095410097131085 0.0092381170182329296 0 -0.046685179777631564 0.013199113545456427 0 -0.046726501960593601 0.01426989011528096 0 -0.047083948871508297 0.013978194096159836 0 -0.039335269258614594 0.0091131277614389661 0 -0.039302350928611347 0.009372012455222312 0 -0.039588066372218379 0.009392864191011336 0 -0.025837538563140132 0.0081876956957146162 0 -0.026021161705915938 0.0078697859195548756 0 -0.026163557831212346 0.0081661106989353444 0 -0.025574317905165893 0.0078733077394452945 0 -0.025837538563140132 0.0081876956957146162 0 -0.026021161705915938 0.0078697859195548756 0 -0.025574317905165893 0.0078733077394452945 0 -0.025909423945851787 0.0074534421884502921 0 -0.026021161705915938 0.0078697859195548756 0 -0.026328309278439405 0.0075273480029118848 0 -0.026021161705915938 0.0078697859195548756 0 -0.026399712888923031 0.0078889939764818506 0 -0.026799778891822838 0.007728911448508108 0 -0.026399712888923031 0.0078889939764818506 0 -0.02656066685811509 0.0082865735776813353 0 -0.026328309278439405 0.0075273480029118848 0 -0.026799778891822838 0.007728911448508108 0 -0.026399712888923031 0.0078889939764818506 0 -0.026399712888923031 0.0078889939764818506 0 -0.026163557831212346 0.0081661106989353444 0 -0.02656066685811509 0.0082865735776813353 0 -0.026021161705915938 0.0078697859195548756 0 -0.026399712888923031 0.0078889939764818506 0 -0.026163557831212346 0.0081661106989353444 0 -0.026163557831212346 0.0081661106989353444 0 -0.02656066685811509 0.0082865735776813353 0 -0.026008509925292751 0.008576091343931171 0 -0.03463829825353075 0.0083189197173714046 0 -0.035152057986374108 0.0067663721425184394 0 -0.03607869103429636 0.0074591416171571846 0 -0.038051469330776452 0.0063847678243398685 0 -0.036820990276683604 0.0057496293985124644 0 -0.03463829825353075 0.0083189197173714046 0 -0.038961846349796554 0.0074838828537232144 0 -0.035152057986374108 0.0067663721425184394 0 -0.038961846349796554 0.0074838828537232144 0 -0.025496088477623181 0.0085771041333534814 0 -0.026980216297148477 0.0090293630477272201 0 -0.0261787223833744 0.0093005552503395029 0 -0.02542936505087029 0.0083220019290142395 0 -0.025837538563140132 0.0081876956957146162 0 -0.026008509925292751 0.008576091343931171 0 -0.035152057986374108 0.0067663721425184394 0 -0.036984554118012915 0.0054581843749615744 0 -0.031337205061277407 0.0058983548697739982 0 -0.035152057986374108 0.0067663721425184394 0 -0.025837538563140132 0.0081876956957146162 0 -0.026163557831212346 0.0081661106989353444 0 -0.026008509925292751 0.008576091343931171 0 -0.026980216297148477 0.0090293630477272201 0 -0.0261787223833744 0.0093005552503395029 0 -0.026346058468282502 0.0093842951088148035 0 -0.036914764718482818 0.0054432158543110138 0 -0.036984554118012915 0.0054581843749615744 0 -0.036984554118012915 0.0054581843749615744 0 -0.041882495617404619 0.0057986653778497399 0 -0.041617613075136908 0.0062008983395841219 0 -0.040723979765857864 0.0057407112354536487 0 -0.041866229977479553 0.0055981262922679695 0 -0.0261787223833744 0.0093005552503395029 0 -0.026342434502436892 0.0093824432648416025 0 -0.025847141287905381 0.0096467206707481507 0 -0.038457569464577117 0.004550475177527844 0 -0.036978968436468675 0.0053484290195352667 0 -0.03990960650419241 0.0068531542954650632 0 -0.036984554118012915 0.0054581843749615744 0 -0.036701949254562563 0.0049396221818667199 0 -0.041617613075136908 0.0062008983395841219 0 -0.0419819055958583 0.0060059369185522507 0 -0.041866229977479553 0.0055981262922679695 0 -0.041882495617404619 0.0057986653778497399 0 -0.046068322548974916 0.0074397539960644439 0 -0.038457569464577117 0.004550475177527844 0 -0.040458325250929419 0.0055853710996108374 0 -0.03990960650419241 0.0068531542954650632 0 -0.040534792603985619 0.0060512246944797732 0 -0.040003000276648826 0.0072800543025813291 0 -0.043699257420931691 0.0076869221278018747 0 -0.038961846349796554 0.0074838828537232144 0 -0.041882495617404619 0.0057986653778497399 0 -0.054268744803396177 4.3351329388052816e-05 0 -0.054347080303702049 0.00016920656726602458 0 -0.054439205063281502 0.00014330920936392549 0 -0.054268744803396177 4.3351329388052816e-05 0 -0.054347080303702049 0.00016920656726602458 0 -0.054174523847785316 0.00025358218524384877 0 -0.040723979765857864 0.0057407112354536487 0 -0.041327697244669753 0.0043623820571280147 0 -0.041866229977479553 0.0055981262922679695 0 -0.041525698640569958 0.0043959880367756433 0 -0.041327697244669753 0.0043623820571280147 0 -0.041866229977479553 0.0055981262922679695 0 -0.04407691341665896 0.0041632727575162051 0 -0.038259915262876421 0.0051472827676591355 0 -0.041882495617404619 0.0057986653778497399 0 -0.045561824844855214 0.0037385606459276696 0 -0.039588066372218379 0.009392864191011336 0 -0.039296099994546384 0.0096501011091182556 0 -0.039610977161944477 0.009810937909686861 0 -0.041387956075851745 0.01122335156645809 0 -0.045855015832342319 0.011017212642596424 0 -0.046726501960593601 0.01426989011528096 0 -0.046918169930300437 0.014781377144557573 0 -0.046768847321667743 0.015300569758065156 0 -0.039302350928611347 0.009372012455222312 0 -0.039588066372218379 0.009392864191011336 0 -0.039296099994546384 0.0096501011091182556 0 -0.041986114728651949 0.009016226864333312 0 -0.045855015832342319 0.011017212642596424 0 -0.047052673568562214 0.01253099347577223 0 -0.047063501573416149 0.011624805451876169 0 -0.039302350928611347 0.009372012455222312 0 -0.038986888793663549 0.0094902962367616021 0 -0.039296099994546384 0.0096501011091182556 0 -0.040003000276648826 0.0072800543025813291 0 -0.043699257420931691 0.0076869221278018747 0 -0.043443946912625944 0.0090450286080976314 0 -0.038961846349796554 0.0074838828537232144 0 -0.041986114728651949 0.009016226864333312 0 -0.043699257420931691 0.0076869221278018747 0 -0.043443946912625944 0.0090450286080976314 0 -0.046858884518796495 0.0093192674949041376 0 -0.054347080303702049 0.00016920656726602458 0 -0.054439205063281502 0.00014330920936392549 0 -0.054478920510607445 0.00022700343825824603 0 -0.054439205063281502 0.00014330920936392549 0 -0.054484356618008212 0.00022010632455129434 0 -0.054478920510607445 0.00022700343825824603 0 -0.046068322548974916 0.0074397539960644439 0 -0.047325463507353935 0.0093151914175107556 0 -0.043443946912625944 0.0090450286080976314 0 -0.046879368987406404 0.0108054498133701 0 -0.046858884518796495 0.0093192674949041376 0 -0.054439205063281502 0.00014330920936392549 0 -0.054495005721176631 0.00021215546790048545 0 -0.054484356618008212 0.00022010632455129434 0 -0.046332714048075221 0.0093472136540281459 0 -0.04725603559856608 0.0098217521909208551 0 -0.046330179438359674 0.011447903280687522 0 -0.047325463507353935 0.0093151914175107556 0 -0.045855015832342319 0.011017212642596424 0 -0.048242685861378469 0.010278104768701087 0 -0.047063501573416149 0.011624805451876169 0 -0.048242685861378469 0.010278104768701087 0 -0.047325463507353935 0.0093151914175107556 0 -0.046918169930300437 0.014781377144557573 0 -0.046926565067032862 0.015379920824112358 0 -0.046768847321667743 0.015300569758065156 0 -0.04725603559856608 0.0098217521909208551 0 -0.046330179438359674 0.011447903280687522 0 -0.047279538853574228 0.011939448463824356 0 -0.047063501573416149 0.011624805451876169 0 -0.045855015832342319 0.011017212642596424 0 -0.054418769828143823 0.00031525732142191512 0 -0.054471816291618076 0.00022005816182933864 0 -0.054483503338166553 0.00011870522380197192 0 -0.048242685861378469 0.010278104768701087 0 -0.052296246781319819 0.0077003254628093447 0 -0.047325463507353935 0.0093151914175107556 0 -0.047801907476807674 0.0071114850409837189 0 -0.054495005721176631 0.00021215546790048545 0 -0.054471816291618076 0.00022005816182933864 0 -0.054484356618008212 0.00022010632455129434 0 -0.054418769828143823 0.00031525732142191512 0 -0.054445556254078292 0.00033473450936520024 0 -0.054471816291618076 0.00022005816182933864 0 -0.054471816291618076 0.00022005816182933864 0 -0.054484356618008212 0.00022010632455129434 0 -0.054505209849146127 0.00015961457534424935 0 -0.054484356618008212 0.00022010632455129434 0 -0.054478920510607445 0.00022700343825824603 0 -0.054505209849146127 0.00015961457534424935 0 -0.054552635491027672 7.2287655654781316e-05 0 -0.054505209849146127 0.00015961457534424935 0 -0.054553167167587208 7.5356458122246737e-05 0 -0.054478920510607445 0.00022700343825824603 0 -0.054552635491027672 7.2287655654781316e-05 0 -0.054584180683858362 9.9222358168316613e-05 0 -0.054478920510607445 0.00022700343825824603 0 -0.054552635491027672 7.2287655654781316e-05 0 -0.054505209849146127 0.00015961457534424935 0 -0.054505209849146127 0.00015961457534424935 0 -0.054483503338166553 0.00011870522380197192 0 -0.054553167167587208 7.5356458122246737e-05 0 -0.054471816291618076 0.00022005816182933864 0 -0.054505209849146127 0.00015961457534424935 0 -0.054483503338166553 0.00011870522380197192 0 -0.054689987983711712 0.00023156546322696239 0 -0.054618779521094507 0.00018147857496282399 0 -0.054666777775573785 9.1308946621236774e-05 0 -0.055235753875613053 -0.0023766462243195656 0 -0.05480784385346249 -0.0013892269473343704 0 -0.054743339551937643 -0.0020774998848503822 0 -0.04584908922943453 0.0028825294477881707 0 -0.048500951759764516 0.0017855906149125619 0 -0.04584908922943453 0.0028825294477881707 0 -0.049127614342902533 -0.00027353175006700827 0 -0.055235753875613053 -0.0023766462243195656 0 -0.055142423242177344 -0.0026882400110612146 0 -0.054743339551937643 -0.0020774998848503822 0 -0.04584908922943453 0.0028825294477881707 0 -0.04407691341665896 0.0041632727575162051 0 -0.045030132144128904 0.0043669401123165048 0 -0.045622026850885927 0.0063935544627068608 0 -0.044252384547734946 0.0061612149877292308 0 -0.04584908922943453 0.0028825294477881707 0 -0.045561824844855214 0.0037385606459276696 0 -0.054689987983711712 0.00023156546322696239 0 -0.054674763354436773 0.00026431611103915742 0 -0.054618779521094507 0.00018147857496282399 0 -0.04407691341665896 0.0041632727575162051 0 -0.045561824844855214 0.0037385606459276696 0 -0.054478920510607445 0.00022700343825824603 0 -0.054618779521094507 0.00018147857496282399 0 -0.054584180683858362 9.9222358168316613e-05 0 -0.054478920510607445 0.00022700343825824603 0 -0.054674763354436773 0.00026431611103915742 0 -0.054618779521094507 0.00018147857496282399 0 -0.054347080303702049 0.00016920656726602458 0 -0.054478920510607445 0.00022700343825824603 0 -0.054174523847785316 0.00025358218524384877 0 -0.051744228505774592 0.0033240419944724937 0 -0.045561824844855214 0.0037385606459276696 0 -0.054584180683858362 9.9222358168316613e-05 0 -0.054666777775573785 9.1308946621236774e-05 0 -0.054595349120803577 -8.4747358508158077e-05 0 -0.054618779521094507 0.00018147857496282399 0 -0.054584180683858362 9.9222358168316613e-05 0 -0.054666777775573785 9.1308946621236774e-05 0 -0.054401303700214058 -0.00068788954483469593 0 -0.054497702260108152 -0.00047200133016644984 0 -0.05433283308807698 -0.00049393124168821759 0 -0.054497702260108152 -0.00047200133016644984 0 -0.05433283308807698 -0.00049393124168821759 0 -0.054399462742062726 -0.00031500326371564205 0 -0.05480784385346249 -0.0013892269473343704 0 -0.054029212569631044 -0.0010900354228537343 0 -0.05426328153086904 -0.00038501671513336449 0 -0.049127614342902533 -0.00027353175006700827 0 -0.049971890575866422 -0.00087435134746781894 0 -0.054029212569631044 -0.0010900354228537343 0 -0.054304987065153382 -0.0016579745347870625 0 -0.053504313745183225 -0.001562461319401832 0 -0.05480784385346249 -0.0013892269473343704 0 -0.054304987065153382 -0.0016579745347870625 0 -0.054743339551937643 -0.0020774998848503822 0 -0.05480784385346249 -0.0013892269473343704 0 -0.054029212569631044 -0.0010900354228537343 0 -0.054304987065153382 -0.0016579745347870625 0 -0.054304987065153382 -0.0016579745347870625 0 -0.054743339551937643 -0.0020774998848503822 0 -0.054218687060066821 -0.0022602416322309916 0 -0.055142423242177344 -0.0026882400110612146 0 -0.054218687060066821 -0.0022602416322309916 0 -0.053488308276344522 -0.0030577558144638723 0 -0.054304987065153382 -0.0016579745347870625 0 -0.054218687060066821 -0.0022602416322309916 0 -0.053504313745183225 -0.001562461319401832 0 -0.055142423242177344 -0.0026882400110612146 0 -0.054743339551937643 -0.0020774998848503822 0 -0.054218687060066821 -0.0022602416322309916 0 -0.054218687060066821 -0.0022602416322309916 0 -0.053062252582478792 -0.0022713277068901715 0 -0.053504313745183225 -0.001562461319401832 0 -0.054218687060066821 -0.0022602416322309916 0 -0.053062252582478792 -0.0022713277068901715 0 -0.053488308276344522 -0.0030577558144638723 0 -0.053062252582478792 -0.0022713277068901715 0 -0.052203320778495238 -0.0026789906122869907 0 -0.053488308276344522 -0.0030577558144638723 0 -0.053062252582478792 -0.0022713277068901715 0 -0.053504313745183225 -0.001562461319401832 0 -0.052805646930526223 -0.0017046303129177338 0 -0.053504313745183225 -0.001562461319401832 0 -0.052892955531722741 -0.0011598223778368228 0 -0.052805646930526223 -0.0017046303129177338 0 -0.054029212569631044 -0.0010900354228537343 0 -0.053504313745183225 -0.001562461319401832 0 -0.053428002253490051 -0.00090539654654007333 0 -0.053504313745183225 -0.001562461319401832 0 -0.053428002253490051 -0.00090539654654007333 0 -0.052892955531722741 -0.0011598223778368228 0 -0.053428002253490051 -0.00090539654654007333 0 -0.052892955531722741 -0.0011598223778368228 0 -0.05292040102035326 -0.00067107404657461506 0 -0.052892955531722741 -0.0011598223778368228 0 -0.052535939121428912 -0.00093521048903722761 0 -0.05292040102035326 -0.00067107404657461506 0 -0.052892955531722741 -0.0011598223778368228 0 -0.052535939121428912 -0.00093521048903722761 0 -0.052368134534642799 -0.001389406946720069 0 -0.052535939121428912 -0.00093521048903722761 0 -0.052094533187115724 -0.00091254349952466602 0 -0.052368134534642799 -0.001389406946720069 0 -0.052094533187115724 -0.00091254349952466602 0 -0.052368134534642799 -0.001389406946720069 0 -0.051923883682386096 -0.0018213241392203662 0 -0.052368134534642799 -0.001389406946720069 0 -0.051923883682386096 -0.0018213241392203662 0 -0.05228042950035925 -0.0020170645491158394 0 -0.052368134534642799 -0.001389406946720069 0 -0.052805646930526223 -0.0017046303129177338 0 -0.05228042950035925 -0.0020170645491158394 0 -0.052892955531722741 -0.0011598223778368228 0 -0.052368134534642799 -0.001389406946720069 0 -0.052805646930526223 -0.0017046303129177338 0 -0.052094533187115724 -0.00091254349952466602 0 -0.051923883682386096 -0.0018213241392203662 0 -0.051059288852436928 -0.002505475328772655 0 -0.051640603755959358 -0.00037806839438506986 0 -0.050824281695464331 -0.0015842488150772766 0 -0.051059288852436928 -0.002505475328772655 0 -0.051741248899389393 -0.00042989644174044834 0 -0.05140278466568883 -0.001482868327332236 0 -0.050379788696516672 -0.00065718469997026947 0 -0.050879254154540476 -0.00086340456999576512 0 -0.050429308058155868 -0.0011631350083007059 0 -0.050379788696516672 -0.00065718469997026947 0 -0.050920526750502688 -0.00038602186389740431 0 -0.050406021478377333 -0.00014279110926368363 0 -0.050379788696516672 -0.00065718469997026947 0 -0.050920526750502688 -0.00038602186389740431 0 -0.050879254154540476 -0.00086340456999576512 0 -0.051640603755959358 -0.00037806839438506986 0 -0.050879254154540476 -0.00086340456999576512 0 -0.050824281695464331 -0.0015842488150772766 0 -0.051640603755959358 -0.00037806839438506986 0 -0.050920526750502688 -0.00038602186389740431 0 -0.050879254154540476 -0.00086340456999576512 0 -0.050879254154540476 -0.00086340456999576512 0 -0.050824281695464331 -0.0015842488150772766 0 -0.050429308058155868 -0.0011631350083007059 0 -0.050824281695464331 -0.0015842488150772766 0 -0.050429308058155868 -0.0011631350083007059 0 -0.050165126921581239 -0.0016429457507026008 0 -0.050824281695464331 -0.0015842488150772766 0 -0.050781601317989256 -0.0021997881619437217 0 -0.051059288852436928 -0.002505475328772655 0 -0.050824281695464331 -0.0015842488150772766 0 -0.050380691095919895 -0.0019607763224817709 0 -0.050165126921581239 -0.0016429457507026008 0 -0.050824281695464331 -0.0015842488150772766 0 -0.050380691095919895 -0.0019607763224817709 0 -0.050781601317989256 -0.0021997881619437217 0 -0.051923883682386096 -0.0018213241392203662 0 -0.051059288852436928 -0.002505475328772655 0 -0.051803342476671468 -0.0023133133418994909 0 -0.051059288852436928 -0.002505475328772655 0 -0.051632317131644449 -0.0027229416145463916 0 -0.051803342476671468 -0.0023133133418994909 0 -0.053062252582478792 -0.0022713277068901715 0 -0.052805646930526223 -0.0017046303129177338 0 -0.05228042950035925 -0.0020170645491158394 0 -0.053062252582478792 -0.0022713277068901715 0 -0.05228042950035925 -0.0020170645491158394 0 -0.052203320778495238 -0.0026789906122869907 0 -0.05228042950035925 -0.0020170645491158394 0 -0.051803342476671468 -0.0023133133418994909 0 -0.052203320778495238 -0.0026789906122869907 0 -0.051923883682386096 -0.0018213241392203662 0 -0.05228042950035925 -0.0020170645491158394 0 -0.051803342476671468 -0.0023133133418994909 0 -0.051632317131644449 -0.0027229416145463916 0 -0.051803342476671468 -0.0023133133418994909 0 -0.052203320778495238 -0.0026789906122869907 0 -0.023182573456106196 0.010504902892271203 0 -0.024466825252005213 0.0094944766355084895 0 -0.024675598684271632 0.010765923177523931 0 -0.037199428014129926 0.0036322147789853965 0 -0.039562225015564667 0.0037703375540476414 0 -0.052203320778495238 -0.0026789906122869907 0 -0.051527509777069457 -0.0035740813110569031 0 -0.053488308276344522 -0.0030577558144638723 0 -0.051632317131644449 -0.0027229416145463916 0 -0.052203320778495238 -0.0026789906122869907 0 -0.051527509777069457 -0.0035740813110569031 0 -0.023182573456106196 0.010504902892271203 0 -0.022542237045941788 0.0097355173250136973 0 -0.021732973699561512 0.010287067169295148 0 -0.051059288852436928 -0.002505475328772655 0 -0.051527509777069457 -0.0035740813110569031 0 -0.04911955107601805 -0.0039887894335568714 0 -0.051059288852436928 -0.002505475328772655 0 -0.051632317131644449 -0.0027229416145463916 0 -0.051527509777069457 -0.0035740813110569031 0 -0.022606355408863459 0.0088168519104279766 0 -0.023272299187669675 0.0094144067779778212 0 -0.022542237045941788 0.0097355173250136973 0 -0.023182573456106196 0.010504902892271203 0 -0.023272299187669675 0.0094144067779778212 0 -0.022542237045941788 0.0097355173250136973 0 -0.023182573456106196 0.010504902892271203 0 -0.023272299187669675 0.0094144067779778212 0 -0.024466825252005213 0.0094944766355084895 0 -0.024466825252005213 0.0094944766355084895 0 -0.025194535812702794 0.010024746597140793 0 -0.024675598684271632 0.010765923177523931 0 -0.024466825252005213 0.0094944766355084895 0 -0.025231342127761503 0.0092598916367005752 0 -0.025194535812702794 0.010024746597140793 0 -0.025231342127761503 0.0092598916367005752 0 -0.02577918087438948 0.0094052906902019357 0 -0.025914654176189902 0.0098217495568399295 0 -0.036701949254562563 0.0049396221818667199 0 -0.038259915262876421 0.0051472827676591355 0 -0.025914654176189902 0.0098217495568399295 0 -0.025194535812702794 0.010024746597140793 0 -0.025521707934321233 0.010417222800762302 0 -0.025231342127761503 0.0092598916367005752 0 -0.025914654176189902 0.0098217495568399295 0 -0.025194535812702794 0.010024746597140793 0 -0.026310964660047079 0.011050027555678424 0 -0.025914654176189902 0.0098217495568399295 0 -0.025521707934321233 0.010417222800762302 0 -0.026310964660047079 0.011050027555678424 0 -0.025521707934321233 0.010417222800762302 0 -0.024675598684271632 0.010765923177523931 0 -0.025194535812702794 0.010024746597140793 0 -0.025521707934321233 0.010417222800762302 0 -0.024675598684271632 0.010765923177523931 0 -0.04407691341665896 0.0041632727575162051 0 -0.039562225015564667 0.0037703375540476414 0 -0.041864456947868618 0.010279408618077685 0 -0.041586455183379986 0.010902768631519384 0 -0.041054876254696747 0.01042383689355245 0 -0.041586455183379986 0.010902768631519384 0 -0.041042299057089775 0.010914603256658746 0 -0.041054876254696747 0.01042383689355245 0 -0.041042299057089775 0.010914603256658746 0 -0.040274361946584875 0.010501824750987746 0 -0.040568449640898549 0.010937906900466038 0 -0.041042299057089775 0.010914603256658746 0 -0.040274361946584875 0.010501824750987746 0 -0.041054876254696747 0.01042383689355245 0 -0.040274361946584875 0.010501824750987746 0 -0.041054876254696747 0.01042383689355245 0 -0.040456545476717891 0.010001766202369606 0 -0.040274361946584875 0.010501824750987746 0 -0.040456545476717891 0.010001766202369606 0 -0.039361268809006131 0.01019703605918589 0 -0.041864456947868618 0.010279408618077685 0 -0.041054876254696747 0.01042383689355245 0 -0.041344328386001057 0.009718294766838935 0 -0.041054876254696747 0.01042383689355245 0 -0.041344328386001057 0.009718294766838935 0 -0.040456545476717891 0.010001766202369606 0 -0.041344328386001057 0.009718294766838935 0 -0.04064129889372365 0.0086802522429788743 0 -0.040456545476717891 0.010001766202369606 0 -0.041660652455454507 0.0088518276193945769 0 -0.041344328386001057 0.009718294766838935 0 -0.04064129889372365 0.0086802522429788743 0 -0.04064129889372365 0.0086802522429788743 0 -0.039037443910719734 0.0085531979581064555 0 -0.040456545476717891 0.010001766202369606 0 -0.03953032502227196 0.0067816997088593935 0 -0.04064129889372365 0.0086802522429788743 0 -0.039037443910719734 0.0085531979581064555 0 -0.039037443910719734 0.0085531979581064555 0 -0.040456545476717891 0.010001766202369606 0 -0.039361268809006131 0.01019703605918589 0 -0.039361268809006131 0.01019703605918589 0 -0.036499619163367851 0.0086207260903282089 0 -0.0359031326935427 0.011320824766323906 0 -0.038428232394892459 0.010826106574377476 0 -0.037916351269983502 0.010985387884140423 0 -0.039037443910719734 0.0085531979581064555 0 -0.039361268809006131 0.01019703605918589 0 -0.036499619163367851 0.0086207260903282089 0 -0.036499619163367851 0.0086207260903282089 0 -0.0359031326935427 0.011320824766323906 0 -0.033994911716557032 0.0099376247533574501 0 -0.039944071640667669 0.010408770582499125 0 -0.040035804181448968 0.010467964294889241 0 -0.039868868963946529 0.01054688574098832 0 -0.039361268809006131 0.01019703605918589 0 -0.039944071640667669 0.010408770582499125 0 -0.040035804181448968 0.010467964294889241 0 -0.040274361946584875 0.010501824750987746 0 -0.039361268809006131 0.01019703605918589 0 -0.040035804181448968 0.010467964294889241 0 -0.040274361946584875 0.010501824750987746 0 -0.040035804181448968 0.010467964294889241 0 -0.040568449640898549 0.010937906900466038 0 -0.040035804181448968 0.010467964294889241 0 -0.040025927431585305 0.010768148275222154 0 -0.039868868963946529 0.01054688574098832 0 -0.040035804181448968 0.010467964294889241 0 -0.040025927431585305 0.010768148275222154 0 -0.040568449640898549 0.010937906900466038 0 -0.039794883562379604 0.010754473556242086 0 -0.039599151261784996 0.010613727241836476 0 -0.039868868963946529 0.01054688574098832 0 -0.040025927431585305 0.010768148275222154 0 -0.039794883562379604 0.010754473556242086 0 -0.039868868963946529 0.01054688574098832 0 -0.040025927431585305 0.010768148275222154 0 -0.039794883562379604 0.010754473556242086 0 -0.039895325087641584 0.010961053327030915 0 -0.039794883562379604 0.010754473556242086 0 -0.039579455523115536 0.010882023228589742 0 -0.039599151261784996 0.010613727241836476 0 -0.039794883562379604 0.010754473556242086 0 -0.039579455523115536 0.010882023228589742 0 -0.039895325087641584 0.010961053327030915 0 -0.043276104584135291 0.013482610003270711 0 -0.043574027472476538 0.013786327698969305 0 -0.043439705047387069 0.013428579926280109 0 -0.041593209989380243 0.012218218954135057 0 -0.041847618872530142 0.01239528370014697 0 -0.039579455523115536 0.010882023228589742 0 -0.039599151261784996 0.010613727241836476 0 -0.03936364301446265 0.010587705543406586 0 -0.037517733962082772 0.011215125061813916 0 -0.039935787988056935 0.011125007680624422 0 -0.039599151261784996 0.010613727241836476 0 -0.039676910318943395 0.010393986725014447 0 -0.03936364301446265 0.010587705543406586 0 -0.039676910318943395 0.010393986725014447 0 -0.039310051855207813 0.010439942153973109 0 -0.03936364301446265 0.010587705543406586 0 -0.039944071640667669 0.010408770582499125 0 -0.039676910318943395 0.010393986725014447 0 -0.039868868963946529 0.01054688574098832 0 -0.039599151261784996 0.010613727241836476 0 -0.039676910318943395 0.010393986725014447 0 -0.039868868963946529 0.01054688574098832 0 -0.037916351269983502 0.010985387884140423 0 -0.037517733962082772 0.011215125061813916 0 -0.0359031326935427 0.011320824766323906 0 -0.032937504798489857 0.011852594260827588 0 -0.033994911716557032 0.0099376247533574501 0 -0.033994911716557032 0.0099376247533574501 0 -0.033659987243516022 0.0081436940749389335 0 -0.032246842968866478 0.0089713250526286554 0 -0.036499619163367851 0.0086207260903282089 0 -0.033994911716557032 0.0099376247533574501 0 -0.033659987243516022 0.0081436940749389335 0 -0.033994911716557032 0.0099376247533574501 0 -0.032246842968866478 0.0089713250526286554 0 -0.031850408103731666 0.010326065504127671 0 -0.030888330156423498 0.0079480896452265963 0 -0.032246842968866478 0.0089713250526286554 0 -0.031131046730547316 0.0093564801126138856 0 -0.032246842968866478 0.0089713250526286554 0 -0.031131046730547316 0.0093564801126138856 0 -0.031850408103731666 0.010326065504127671 0 -0.032937504798489857 0.011852594260827588 0 -0.030714020355734614 0.011113658971616773 0 -0.03019519129577759 0.012261795015003265 0 -0.032937504798489857 0.011852594260827588 0 -0.033994911716557032 0.0099376247533574501 0 -0.031850408103731666 0.010326065504127671 0 -0.031131046730547316 0.0093564801126138856 0 -0.031850408103731666 0.010326065504127671 0 -0.030425842412899584 0.010046971963757895 0 -0.032937504798489857 0.011852594260827588 0 -0.031850408103731666 0.010326065504127671 0 -0.030714020355734614 0.011113658971616773 0 -0.030714020355734614 0.011113658971616773 0 -0.029554423841934331 0.010529592388872666 0 -0.03019519129577759 0.012261795015003265 0 -0.047675617691075999 0.012664417848116609 0 -0.047623792982298033 0.013325466818279584 0 -0.047903605913489328 0.0132766314002132 0 -0.038310052162224453 0.01114063944738383 0 -0.039935787988056935 0.011125007680624422 0 -0.029637590833548687 0.010464598577846611 0 -0.030425842412899584 0.010046971963757895 0 -0.029163420630137264 0.0090336279225698007 0 -0.038310052162224453 0.01114063944738383 0 -0.037655072665287219 0.011353051476934928 0 -0.030714020355734614 0.011113658971616773 0 -0.029554423841934331 0.010529592388872666 0 -0.030425842412899584 0.010046971963757895 0 -0.031850408103731666 0.010326065504127671 0 -0.030714020355734614 0.011113658971616773 0 -0.030425842412899584 0.010046971963757895 0 -0.028947773106068549 0.0071857719315680845 0 -0.030172270485942791 0.008769170071813024 0 -0.029163420630137264 0.0090336279225698007 0 -0.031131046730547316 0.0093564801126138856 0 -0.030425842412899584 0.010046971963757895 0 -0.030172270485942791 0.008769170071813024 0 -0.038310052162224453 0.01114063944738383 0 -0.037452753291309232 0.01030492810602694 0 -0.030425842412899584 0.010046971963757895 0 -0.030172270485942791 0.008769170071813024 0 -0.029163420630137264 0.0090336279225698007 0 -0.030888330156423498 0.0079480896452265963 0 -0.031131046730547316 0.0093564801126138856 0 -0.030172270485942791 0.008769170071813024 0 -0.027431147565280929 0.0090724030948984742 0 -0.02823138057955784 0.0081807895114628226 0 -0.028379004584693193 0.0097336565143832359 0 -0.02823138057955784 0.0081807895114628226 0 -0.029163420630137264 0.0090336279225698007 0 -0.028379004584693193 0.0097336565143832359 0 -0.028947773106068549 0.0071857719315680845 0 -0.02823138057955784 0.0081807895114628226 0 -0.029163420630137264 0.0090336279225698007 0 -0.027490456989157457 0.011266028980582148 0 -0.029586583893060802 0.010118558922124604 0 -0.028379004584693193 0.0097336565143832359 0 -0.046685179777631564 0.013199113545456427 0 -0.047675617691075999 0.012664417848116609 0 -0.047296821980324776 0.013264453024434958 0 -0.035987993909115654 0.0096980525335731756 0 -0.038310052162224453 0.01114063944738383 0 -0.029586583893060802 0.010118558922124604 0 -0.029163420630137264 0.0090336279225698007 0 -0.028379004584693193 0.0097336565143832359 0 -0.047675617691075999 0.012664417848116609 0 -0.047296821980324776 0.013264453024434958 0 -0.047623792982298033 0.013325466818279584 0 -0.046685179777631564 0.013199113545456427 0 -0.047305929926881089 0.013693607199418679 0 -0.047296821980324776 0.013264453024434958 0 -0.046685179777631564 0.013199113545456427 0 -0.047305929926881089 0.013693607199418679 0 -0.047083948871508297 0.013978194096159836 0 -0.047305929926881089 0.013693607199418679 0 -0.047494028134523379 0.013532089293410743 0 -0.047296821980324776 0.013264453024434958 0 -0.047547044927991756 0.013767740726306973 0 -0.047305929926881089 0.013693607199418679 0 -0.047494028134523379 0.013532089293410743 0 -0.047494028134523379 0.013532089293410743 0 -0.047296821980324776 0.013264453024434958 0 -0.047623792982298033 0.013325466818279584 0 -0.040468818778514701 0.011103525065714796 0 -0.039935787988056935 0.011125007680624422 0 -0.047623792982298033 0.013325466818279584 0 -0.047931657435394785 0.01327491930058051 0 -0.047811218971073585 0.013446710932523949 0 -0.047931657435394785 0.01327491930058051 0 -0.047979459321943016 0.013572423131801565 0 -0.047811218971073585 0.013446710932523949 0 -0.047931657435394785 0.01327491930058051 0 -0.047979459321943016 0.013572423131801565 0 -0.048088549251578711 0.013691490959290935 0 -0.039935787988056935 0.011125007680624422 0 -0.041847618872530142 0.01239528370014697 0 -0.047979459321943016 0.013572423131801565 0 -0.048101463510599123 0.013695243651399104 0 -0.047899958174468314 0.013750447025482121 0 -0.041936518848257567 0.012461698218329813 0 -0.041847618872530142 0.01239528370014697 0 -0.047494028134523379 0.013532089293410743 0 -0.047623792982298033 0.013325466818279584 0 -0.04770053920088034 0.013613315718471138 0 -0.047623792982298033 0.013325466818279584 0 -0.047811218971073585 0.013446710932523949 0 -0.04770053920088034 0.013613315718471138 0 -0.047979459321943016 0.013572423131801565 0 -0.047811218971073585 0.013446710932523949 0 -0.04770053920088034 0.013613315718471138 0 -0.047899958174468314 0.013750447025482121 0 -0.04770053920088034 0.013613315718471138 0 -0.047758176531824945 0.013901972610754558 0 -0.047979459321943016 0.013572423131801565 0 -0.047899958174468314 0.013750447025482121 0 -0.04770053920088034 0.013613315718471138 0 -0.047547044927991756 0.013767740726306973 0 -0.047494028134523379 0.013532089293410743 0 -0.04770053920088034 0.013613315718471138 0 -0.047547044927991756 0.013767740726306973 0 -0.04770053920088034 0.013613315718471138 0 -0.047758176531824945 0.013901972610754558 0 -0.047758176531824945 0.013901972610754558 0 -0.047863320160492523 0.014171151197666194 0 -0.047508953262435587 0.014121308985112829 0 -0.048101463510599123 0.013695243651399104 0 -0.048124577495158 0.014205064510186747 0 -0.048433930018741626 0.014605513924521613 0 -0.041847618872530142 0.01239528370014697 0 -0.044436909437825182 0.014099299808728986 0 -0.047547044927991756 0.013767740726306973 0 -0.047758176531824945 0.013901972610754558 0 -0.047508953262435587 0.014121308985112829 0 -0.047899958174468314 0.013750447025482121 0 -0.047758176531824945 0.013901972610754558 0 -0.047952875100961898 0.01394731370120255 0 -0.047758176531824945 0.013901972610754558 0 -0.047952875100961898 0.01394731370120255 0 -0.047863320160492523 0.014171151197666194 0 -0.048101463510599123 0.013695243651399104 0 -0.047952875100961898 0.01394731370120255 0 -0.048124577495158 0.014205064510186747 0 -0.048101463510599123 0.013695243651399104 0 -0.047899958174468314 0.013750447025482121 0 -0.047952875100961898 0.01394731370120255 0 -0.047952875100961898 0.01394731370120255 0 -0.048124577495158 0.014205064510186747 0 -0.047863320160492523 0.014171151197666194 0 -0.048124577495158 0.014205064510186747 0 -0.048175592406235743 0.014472326518883792 0 -0.048433930018741626 0.014605513924521613 0 -0.048124577495158 0.014205064510186747 0 -0.048014883643231948 0.014405213820011451 0 -0.047863320160492523 0.014171151197666194 0 -0.048124577495158 0.014205064510186747 0 -0.048014883643231948 0.014405213820011451 0 -0.048175592406235743 0.014472326518883792 0 -0.047788151988253459 0.014477767735825238 0 -0.04751513824893687 0.014470045125992363 0 -0.047508953262435587 0.014121308985112829 0 -0.047863320160492523 0.014171151197666194 0 -0.047788151988253459 0.014477767735825238 0 -0.047508953262435587 0.014121308985112829 0 -0.048014883643231948 0.014405213820011451 0 -0.047863320160492523 0.014171151197666194 0 -0.047788151988253459 0.014477767735825238 0 -0.047083948871508297 0.013978194096159836 0 -0.047508953262435587 0.014121308985112829 0 -0.047211297056607558 0.014477512252904305 0 -0.04751513824893687 0.014470045125992363 0 -0.047508953262435587 0.014121308985112829 0 -0.047211297056607558 0.014477512252904305 0 -0.046726501960593601 0.01426989011528096 0 -0.047083948871508297 0.013978194096159836 0 -0.047211297056607558 0.014477512252904305 0 -0.047547044927991756 0.013767740726306973 0 -0.047305929926881089 0.013693607199418679 0 -0.047508953262435587 0.014121308985112829 0 -0.047305929926881089 0.013693607199418679 0 -0.047083948871508297 0.013978194096159836 0 -0.047508953262435587 0.014121308985112829 0 -0.047326257450732996 0.014909733924909163 0 -0.047553766650124493 0.014737541215780003 0 -0.04762491444479295 0.015022413314332203 0 -0.047326257450732996 0.014909733924909163 0 -0.04762491444479295 0.015022413314332203 0 -0.047478070886563542 0.015250258153820603 0 -0.047326257450732996 0.014909733924909163 0 -0.047155142727560308 0.015140816134103325 0 -0.047478070886563542 0.015250258153820603 0 -0.046918169930300437 0.014781377144557573 0 -0.046937630850008183 0.015424202680847361 0 -0.047155142727560308 0.015140816134103325 0 -0.046918169930300437 0.014781377144557573 0 -0.047326257450732996 0.014909733924909163 0 -0.047155142727560308 0.015140816134103325 0 -0.046918169930300437 0.014781377144557573 0 -0.047326257450732996 0.014909733924909163 0 -0.047211297056607558 0.014477512252904305 0 -0.046726501960593601 0.01426989011528096 0 -0.046918169930300437 0.014781377144557573 0 -0.047211297056607558 0.014477512252904305 0 -0.047326257450732996 0.014909733924909163 0 -0.047211297056607558 0.014477512252904305 0 -0.047553766650124493 0.014737541215780003 0 -0.04751513824893687 0.014470045125992363 0 -0.047211297056607558 0.014477512252904305 0 -0.047553766650124493 0.014737541215780003 0 -0.047788151988253459 0.014477767735825238 0 -0.04751513824893687 0.014470045125992363 0 -0.047553766650124493 0.014737541215780003 0 -0.047788151988253459 0.014477767735825238 0 -0.047553766650124493 0.014737541215780003 0 -0.047807287322776219 0.014852092968754048 0 -0.047788151988253459 0.014477767735825238 0 -0.048124818123923357 0.014704022167830174 0 -0.047807287322776219 0.014852092968754048 0 -0.048175592406235743 0.014472326518883792 0 -0.048124818123923357 0.014704022167830174 0 -0.048433930018741626 0.014605513924521613 0 -0.048014883643231948 0.014405213820011451 0 -0.047788151988253459 0.014477767735825238 0 -0.048124818123923357 0.014704022167830174 0 -0.048014883643231948 0.014405213820011451 0 -0.048175592406235743 0.014472326518883792 0 -0.048124818123923357 0.014704022167830174 0 -0.047807287322776219 0.014852092968754048 0 -0.04762491444479295 0.015022413314332203 0 -0.047931195894942921 0.01525926106319464 0 -0.048124818123923357 0.014704022167830174 0 -0.047807287322776219 0.014852092968754048 0 -0.047931195894942921 0.01525926106319464 0 -0.047553766650124493 0.014737541215780003 0 -0.047807287322776219 0.014852092968754048 0 -0.04762491444479295 0.015022413314332203 0 -0.047931195894942921 0.01525926106319464 0 -0.048297237037592547 0.01559478912615265 0 -0.047635378465992653 0.015728729683235829 0 -0.04762491444479295 0.015022413314332203 0 -0.047931195894942921 0.01525926106319464 0 -0.047478070886563542 0.015250258153820603 0 -0.048124818123923357 0.014704022167830174 0 -0.047931195894942921 0.01525926106319464 0 -0.048297237037592547 0.01559478912615265 0 -0.047931195894942921 0.01525926106319464 0 -0.047635378465992653 0.015728729683235829 0 -0.047478070886563542 0.015250258153820603 0 -0.048297237037592547 0.01559478912615265 0 -0.047635378465992653 0.015728729683235829 0 -0.048326044717903076 0.015909951269950998 0 -0.047635378465992653 0.015728729683235829 0 -0.04730239828250319 0.015387111833807456 0 -0.047478070886563542 0.015250258153820603 0 -0.047155142727560308 0.015140816134103325 0 -0.04730239828250319 0.015387111833807456 0 -0.047478070886563542 0.015250258153820603 0 -0.046937630850008183 0.015424202680847361 0 -0.047155142727560308 0.015140816134103325 0 -0.04730239828250319 0.015387111833807456 0 -0.047063501573416149 0.011624805451876169 0 -0.048032918253861738 0.01303359538305284 0 -0.047792634636090917 0.015760592369330036 0 -0.047790382829465669 0.015586275970316549 0 -0.048091658747674446 0.015755849691312874 0 -0.046937630850008183 0.015424202680847361 0 -0.047635378465992653 0.015728729683235829 0 -0.04730239828250319 0.015387111833807456 0 -0.048242685861378469 0.010278104768701087 0 -0.050699001176764201 0.013843769493400717 0 -0.057313182686493186 0.020066976852047294 0 -0.055800914612088963 0.017582230859106925 0 -0.053129141429935814 0.017964862322293804 0 -0.047792634636090917 0.015760592369330036 0 -0.048091658747674446 0.015755849691312874 0 -0.04824255002400147 0.016003447421637108 0 -0.057313182686493186 0.020066976852047294 0 -0.057342492754136318 0.015134176372633493 0 -0.055800914612088963 0.017582230859106925 0 -0.055800914612088963 0.017582230859106925 0 -0.054204185277555522 0.015919802888830631 0 -0.053129141429935814 0.017964862322293804 0 -0.057342492754136318 0.015134176372633493 0 -0.055800914612088963 0.017582230859106925 0 -0.054204185277555522 0.015919802888830631 0 -0.057342492754136318 0.015134176372633493 0 -0.054204185277555522 0.015919802888830631 0 -0.052803746373060838 0.013523038707348573 0 -0.051790893135667315 0.015316536776533824 0 -0.050498090313111983 0.013749935137165594 0 -0.052803746373060838 0.013523038707348573 0 -0.051790893135667315 0.015316536776533824 0 -0.054204185277555522 0.015919802888830631 0 -0.052803746373060838 0.013523038707348573 0 -0.051790893135667315 0.015316536776533824 0 -0.054204185277555522 0.015919802888830631 0 -0.053129141429935814 0.017964862322293804 0 -0.04824255002400147 0.016003447421637108 0 -0.048326044717903076 0.015909951269950998 0 -0.04851206105009423 0.015890029126851366 0 -0.048032918253861738 0.01303359538305284 0 -0.048323063583674775 0.013462230704863343 0 -0.048091658747674446 0.015755849691312874 0 -0.04824255002400147 0.016003447421637108 0 -0.048326044717903076 0.015909951269950998 0 -0.048297237037592547 0.01559478912615265 0 -0.048326044717903076 0.015909951269950998 0 -0.04847515793320286 0.015835000544469555 0 -0.04847515793320286 0.015835000544469555 0 -0.048256707680530066 0.016124403944949302 0 -0.048651920335542588 0.015545571562667235 0 -0.048326044717903076 0.015909951269950998 0 -0.04847515793320286 0.015835000544469555 0 -0.04851206105009423 0.015890029126851366 0 -0.04824255002400147 0.016003447421637108 0 -0.04851206105009423 0.015890029126851366 0 -0.048769640559047964 0.015641909299411748 0 -0.046923179987977702 0.016130829303232161 0 -0.046215277457853594 0.015220102497263148 0 -0.04847515793320286 0.015835000544469555 0 -0.04851206105009423 0.015890029126851366 0 -0.048256707680530066 0.016124403944949302 0 -0.04851206105009423 0.015890029126851366 0 -0.048769640559047964 0.015641909299411748 0 -0.048256707680530066 0.016124403944949302 0 -0.050699001176764201 0.013843769493400717 0 -0.050315131579645067 0.014270275642965766 0 -0.051790893135667315 0.015316536776533824 0 -0.053129141429935814 0.017964862322293804 0 -0.048769640559047964 0.015641909299411748 0 -0.051790893135667315 0.015316536776533824 0 -0.048769640559047964 0.015641909299411748 0 -0.050498090313111983 0.013749935137165594 0 -0.047306070111815264 0.014778004184261914 0 -0.04726957844127657 0.016704154406142389 0 -0.045070805204553095 0.014483121236310128 0 -0.048769640559047964 0.015641909299411748 0 -0.047306070111815264 0.014778004184261914 0 -0.04850100039264537 0.012666442911288611 0 -0.047306070111815264 0.014778004184261914 0 -0.04726957844127657 0.016704154406142389 0 -0.048256707680530066 0.016124403944949302 0 -0.048769640559047964 0.015641909299411748 0 -0.047306070111815264 0.014778004184261914 0 -0.048256707680530066 0.016124403944949302 0 -0.045232480140849018 0.014433070287478268 0 -0.046215277457853594 0.015220102497263148 0 -0.04726957844127657 0.016704154406142389 0 -0.048256707680530066 0.016124403944949302 0 -0.049391012071463028 0.019227221040393778 0 -0.042980051732745723 0.012633666565989949 0 -0.04294535984800469 0.013150608715805071 0 -0.043302829706822345 0.01303620148614546 0 -0.048124818123923357 0.014704022167830174 0 -0.048297237037592547 0.01559478912615265 0 -0.048651920335542588 0.015545571562667235 0 -0.048297237037592547 0.01559478912615265 0 -0.04847515793320286 0.015835000544469555 0 -0.048651920335542588 0.015545571562667235 0 -0.046859654862254158 0.015473758919218695 0 -0.046215277457853594 0.015220102497263148 0 -0.048124818123923357 0.014704022167830174 0 -0.04872148377789929 0.015433932319939205 0 -0.048433930018741626 0.014605513924521613 0 -0.043276104584135291 0.013482610003270711 0 -0.043302829706822345 0.01303620148614546 0 -0.043439705047387069 0.013428579926280109 0 -0.046215277457853594 0.015220102497263148 0 -0.044436909437825182 0.014099299808728986 0 -0.039579455523115536 0.010882023228589742 0 -0.039933300973406596 0.011373400182770109 0 -0.039895325087641584 0.010961053327030915 0 -0.041593209989380243 0.012218218954135057 0 -0.041563588146710538 0.012212992076771042 0 -0.043276104584135291 0.013482610003270711 0 -0.04294535984800469 0.013150608715805071 0 -0.043302829706822345 0.01303620148614546 0 -0.039933300973406596 0.011373400182770109 0 -0.039895325087641584 0.010961053327030915 0 -0.040152331052844131 0.011097675178691625 0 -0.040025927431585305 0.010768148275222154 0 -0.040152331052844131 0.011097675178691625 0 -0.040568449640898549 0.010937906900466038 0 -0.039933300973406596 0.011373400182770109 0 -0.040152331052844131 0.011097675178691625 0 -0.040558257208553446 0.011275863448246616 0 -0.040152331052844131 0.011097675178691625 0 -0.040568449640898549 0.010937906900466038 0 -0.040558257208553446 0.011275863448246616 0 -0.040025927431585305 0.010768148275222154 0 -0.039895325087641584 0.010961053327030915 0 -0.040152331052844131 0.011097675178691625 0 -0.040568449640898549 0.010937906900466038 0 -0.040558257208553446 0.011275863448246616 0 -0.041230016312818196 0.011504617702070978 0 -0.041230016312818196 0.011504617702070978 0 -0.040756336408089087 0.011972636866082555 0 -0.041862203258934236 0.012019362062933522 0 -0.040558257208553446 0.011275863448246616 0 -0.041230016312818196 0.011504617702070978 0 -0.040756336408089087 0.011972636866082555 0 -0.042980051732745723 0.012633666565989949 0 -0.04294535984800469 0.013150608715805071 0 -0.042589290357020686 0.012792679330409526 0 -0.039933300973406596 0.011373400182770109 0 -0.040558257208553446 0.011275863448246616 0 -0.040756336408089087 0.011972636866082555 0 -0.041563588146710538 0.012212992076771042 0 -0.041636450923243411 0.012246448344072496 0 -0.042980051732745723 0.012633666565989949 0 -0.042608884775014837 0.012498146519925788 0 -0.042589290357020686 0.012792679330409526 0 -0.045232480140849018 0.014433070287478268 0 -0.044196289693485193 0.013377932492829816 0 -0.042980051732745723 0.012633666565989949 0 -0.042608884775014837 0.012498146519925788 0 -0.042645888622784123 0.012218508538111513 0 -0.042645888622784123 0.012218508538111513 0 -0.042171868967642967 0.01234159513788138 0 -0.042617732576893878 0.012223223372380238 0 -0.042608884775014837 0.012498146519925788 0 -0.042645888622784123 0.012218508538111513 0 -0.042171868967642967 0.01234159513788138 0 -0.040756336408089087 0.011972636866082555 0 -0.042171868967642967 0.01234159513788138 0 -0.041862203258934236 0.012019362062933522 0 -0.041636450923243411 0.012246448344072496 0 -0.041710609181919246 0.012270579298188885 0 -0.042608884775014837 0.012498146519925788 0 -0.042589290357020686 0.012792679330409526 0 -0.042171868967642967 0.01234159513788138 0 -0.041862203258934236 0.012019362062933522 0 -0.042404692442557061 0.012267900807877884 0 -0.042330571391754904 0.012076762407967637 0 -0.042171868967642967 0.01234159513788138 0 -0.042404692442557061 0.012267900807877884 0 -0.042617732576893878 0.012223223372380238 0 -0.042171868967642967 0.01234159513788138 0 -0.041862203258934236 0.012019362062933522 0 -0.042404692442557061 0.012267900807877884 0 -0.042780093939384999 0.012349785072684416 0 -0.042404692442557061 0.012267900807877884 0 -0.042330571391754904 0.012076762407967637 0 -0.041862203258934236 0.012019362062933522 0 -0.042330571391754904 0.012076762407967637 0 -0.041824509924171326 0.011683871539559472 0 -0.042282773244742694 0.011724185602718939 0 -0.041824509924171326 0.011683871539559472 0 -0.041790432600285074 0.011330306773600033 0 -0.042282773244742694 0.011724185602718939 0 -0.042330571391754904 0.012076762407967637 0 -0.041824509924171326 0.011683871539559472 0 -0.041230016312818196 0.011504617702070978 0 -0.041824509924171326 0.011683871539559472 0 -0.041303248561473271 0.011275442500990794 0 -0.041230016312818196 0.011504617702070978 0 -0.041862203258934236 0.012019362062933522 0 -0.041824509924171326 0.011683871539559472 0 -0.041042299057089775 0.010914603256658746 0 -0.040568449640898549 0.010937906900466038 0 -0.041303248561473271 0.011275442500990794 0 -0.040568449640898549 0.010937906900466038 0 -0.041230016312818196 0.011504617702070978 0 -0.041303248561473271 0.011275442500990794 0 -0.041586455183379986 0.010902768631519384 0 -0.041042299057089775 0.010914603256658746 0 -0.041790432600285074 0.011330306773600033 0 -0.041042299057089775 0.010914603256658746 0 -0.041303248561473271 0.011275442500990794 0 -0.041790432600285074 0.011330306773600033 0 -0.042216990841818278 0.011269668601454624 0 -0.041586455183379986 0.010902768631519384 0 -0.041790432600285074 0.011330306773600033 0 -0.041824509924171326 0.011683871539559472 0 -0.041303248561473271 0.011275442500990794 0 -0.041790432600285074 0.011330306773600033 0 -0.046665455938684167 0.0054973910619857255 0 -0.049612590532986757 0.0077220642202033979 0 -0.04601094716978385 0.0089551988578396632 0 -0.046665455938684167 0.0054973910619857255 0 -0.049612590532986757 0.0077220642202033979 0 -0.050376849251234292 0.0050631561443792725 0 -0.049612590532986757 0.0077220642202033979 0 -0.053363950067728802 0.0092271874857781933 0 -0.05188117068774252 0.0066088965642295229 0 -0.049612590532986757 0.0077220642202033979 0 -0.05188117068774252 0.0066088965642295229 0 -0.050376849251234292 0.0050631561443792725 0 -0.05188117068774252 0.0066088965642295229 0 -0.052257766609191833 0.0049993821863090863 0 -0.050376849251234292 0.0050631561443792725 0 -0.046389888684596474 0.0099741027051426963 0 -0.048415512366026148 0.0085537844390290822 0 -0.049612590532986757 0.0077220642202033979 0 -0.049246311545058138 0.010928030836690332 0 -0.053363950067728802 0.0092271874857781933 0 -0.043535965974932839 0.012025231471396444 0 -0.04601094716978385 0.0089551988578396632 0 -0.049246311545058138 0.010928030836690332 0 -0.049612590532986757 0.0077220642202033979 0 -0.04601094716978385 0.0089551988578396632 0 -0.049246311545058138 0.010928030836690332 0 -0.043535965974932839 0.012025231471396444 0 -0.042714260504535126 0.012083463437244148 0 -0.042632508481796227 0.011622129548765252 0 -0.045337390099051904 0.010556649569094275 0 -0.046389888684596474 0.0099741027051426963 0 -0.042780093939384999 0.012349785072684416 0 -0.042404692442557061 0.012267900807877884 0 -0.042714260504535126 0.012083463437244148 0 -0.042780093939384999 0.012349785072684416 0 -0.043535965974932839 0.012025231471396444 0 -0.042714260504535126 0.012083463437244148 0 -0.042404692442557061 0.012267900807877884 0 -0.042714260504535126 0.012083463437244148 0 -0.042617732576893878 0.012223223372380238 0 -0.042714260504535126 0.012083463437244148 0 -0.042617732576893878 0.012223223372380238 0 -0.043083349364199761 0.012128254248903399 0 -0.042714260504535126 0.012083463437244148 0 -0.042632508481796227 0.011622129548765252 0 -0.043083349364199761 0.012128254248903399 0 -0.043083349364199761 0.012128254248903399 0 -0.045282626231242129 0.01094817905338278 0 -0.0438349307481928 0.010195910407124869 0 -0.042632508481796227 0.011622129548765252 0 -0.043083349364199761 0.012128254248903399 0 -0.0438349307481928 0.010195910407124869 0 -0.044196289693485193 0.013377932492829816 0 -0.043695621771149475 0.012814180741842649 0 -0.042645888622784123 0.012218508538111513 0 -0.042617732576893878 0.012223223372380238 0 -0.043083349364199761 0.012128254248903399 0 -0.047306070111815264 0.014778004184261914 0 -0.045070805204553095 0.014483121236310128 0 -0.046172779476330847 0.012572589230722006 0 -0.045070805204553095 0.014483121236310128 0 -0.043083349364199761 0.012128254248903399 0 -0.046172779476330847 0.012572589230722006 0 -0.046172779476330847 0.012572589230722006 0 -0.045282626231242129 0.01094817905338278 0 -0.047193734031860439 0.010877633543820975 0 -0.043083349364199761 0.012128254248903399 0 -0.046172779476330847 0.012572589230722006 0 -0.045282626231242129 0.01094817905338278 0 -0.048415512366026148 0.0085537844390290822 0 -0.050417714011022373 0.0065244394117880663 0 -0.045282626231242129 0.01094817905338278 0 -0.0438349307481928 0.010195910407124869 0 -0.046241907191280372 0.0090016145484383119 0 -0.053363950067728802 0.0092271874857781933 0 -0.05188117068774252 0.0066088965642295229 0 -0.05382037327955471 0.0062821591950566044 0 -0.05188117068774252 0.0066088965642295229 0 -0.05382037327955471 0.0062821591950566044 0 -0.052257766609191833 0.0049993821863090863 0 -0.050417714011022373 0.0065244394117880663 0 -0.051826093660427112 0.0046160033434286714 0 -0.053363950067728802 0.0092271874857781933 0 -0.05382037327955471 0.0062821591950566044 0 -0.056827459261694233 0.0078119379477468356 0 -0.05382037327955471 0.0062821591950566044 0 -0.056827459261694233 0.0078119379477468356 0 -0.055209088102927316 0.0041981423383698124 0 -0.053447405715575366 0.002629478714008017 0 -0.05353363319779305 0.002313876065374421 0 -0.053414912752231924 0.0022366999245411311 0 -0.050417714011022373 0.0065244394117880663 0 -0.051816903859324283 0.0051491420061270162 0 -0.053447405715575366 0.002629478714008017 0 -0.05375043135486076 0.0025967258556924386 0 -0.05353363319779305 0.002313876065374421 0 -0.05375043135486076 0.0025967258556924386 0 -0.053892521533426004 0.002910407439054968 0 -0.05386222071770428 0.002242169071927049 0 -0.051816903859324283 0.0051491420061270162 0 -0.052578099928404037 0.004637828879808974 0 -0.049694588975718226 0.0039515747418189555 0 -0.050087070617864583 0.0071127463455451035 0 -0.053162554918108229 0.0055159967427507381 0 -0.045932878283226973 0.0052442793708438618 0 -0.049694588975718226 0.0039515747418189555 0 -0.050087070617864583 0.0071127463455451035 0 -0.045282626231242129 0.01094817905338278 0 -0.046241907191280372 0.0090016145484383119 0 -0.047193734031860439 0.010877633543820975 0 -0.050417714011022373 0.0065244394117880663 0 -0.049785483358588505 0.0086709503518761916 0 -0.045932878283226973 0.0052442793708438618 0 -0.050087070617864583 0.0071127463455451035 0 -0.04730482050321539 0.0088858724379296955 0 -0.046172779476330847 0.012572589230722006 0 -0.047193734031860439 0.010877633543820975 0 -0.04850100039264537 0.012666442911288611 0 -0.049785483358588505 0.0086709503518761916 0 -0.049830044171327116 0.009877432920013883 0 -0.047306070111815264 0.014778004184261914 0 -0.046172779476330847 0.012572589230722006 0 -0.04850100039264537 0.012666442911288611 0 -0.048769640559047964 0.015641909299411748 0 -0.04850100039264537 0.012666442911288611 0 -0.050498090313111983 0.013749935137165594 0 -0.04850100039264537 0.012666442911288611 0 -0.050498090313111983 0.013749935137165594 0 -0.051195377721408704 0.010894918861011139 0 -0.04730482050321539 0.0088858724379296955 0 -0.04850100039264537 0.012666442911288611 0 -0.051195377721408704 0.010894918861011139 0 -0.050087070617864583 0.0071127463455451035 0 -0.051195377721408704 0.010894918861011139 0 -0.053844496754263518 0.0081972449510213166 0 -0.050087070617864583 0.0071127463455451035 0 -0.04730482050321539 0.0088858724379296955 0 -0.051195377721408704 0.010894918861011139 0 -0.051195377721408704 0.010894918861011139 0 -0.05441886271789604 0.010887362828464078 0 -0.053844496754263518 0.0081972449510213166 0 -0.051195377721408704 0.010894918861011139 0 -0.05441886271789604 0.010887362828464078 0 -0.052803746373060838 0.013523038707348573 0 -0.050498090313111983 0.013749935137165594 0 -0.051195377721408704 0.010894918861011139 0 -0.052803746373060838 0.013523038707348573 0 -0.057342492754136318 0.015134176372633493 0 -0.05441886271789604 0.010887362828464078 0 -0.052803746373060838 0.013523038707348573 0 -0.057342492754136318 0.015134176372633493 0 -0.05441886271789604 0.010887362828464078 0 -0.057358402264685242 0.010177757001611207 0 -0.05441886271789604 0.010887362828464078 0 -0.053844496754263518 0.0081972449510213166 0 -0.057358402264685242 0.010177757001611207 0 -0.053844496754263518 0.0081972449510213166 0 -0.057358402264685242 0.010177757001611207 0 -0.057078235960919488 0.0052753838343719949 0 -0.053844496754263518 0.0081972449510213166 0 -0.053162554918108229 0.0055159967427507381 0 -0.057078235960919488 0.0052753838343719949 0 -0.050087070617864583 0.0071127463455451035 0 -0.053844496754263518 0.0081972449510213166 0 -0.053162554918108229 0.0055159967427507381 0 -0.053162554918108229 0.0055159967427507381 0 -0.053892521533426004 0.002910407439054968 0 -0.057078235960919488 0.0052753838343719949 0 -0.049694588975718226 0.0039515747418189555 0 -0.053162554918108229 0.0055159967427507381 0 -0.053892521533426004 0.002910407439054968 0 -0.053892521533426004 0.002910407439054968 0 -0.057078235960919488 0.0052753838343719949 0 -0.056299112461320328 0.002061655870013189 0 -0.053892521533426004 0.002910407439054968 0 -0.054755874951037682 0.0016024792059472772 0 -0.056299112461320328 0.002061655870013189 0 -0.053892521533426004 0.002910407439054968 0 -0.054755874951037682 0.0016024792059472772 0 -0.05386222071770428 0.002242169071927049 0 -0.054755874951037682 0.0016024792059472772 0 -0.054195536119272095 0.0014043817835759115 0 -0.05386222071770428 0.002242169071927049 0 -0.054755874951037682 0.0016024792059472772 0 -0.054808696324708771 0.00057870549196499847 0 -0.054195536119272095 0.0014043817835759115 0 -0.054755874951037682 0.0016024792059472772 0 -0.056299112461320328 0.002061655870013189 0 -0.055687808997960338 0.00065521074052434034 0 -0.055140301918077679 0.00025530764046217079 0 -0.054808696324708771 0.00057870549196499847 0 -0.055687808997960338 0.00065521074052434034 0 -0.054755874951037682 0.0016024792059472772 0 -0.054808696324708771 0.00057870549196499847 0 -0.055687808997960338 0.00065521074052434034 0 -0.055140301918077679 0.00025530764046217079 0 -0.055000447490327328 2.5875494614729596e-07 0 -0.055000609927345394 -1.1094772478370004e-08 0 -0.055140301918077679 0.00025530764046217079 0 -0.055687808997960338 0.00065521074052434034 0 -0.055000609927345394 -1.1094772478370004e-08 0 -0.055000447490327328 2.5875494614729596e-07 0 -0.054808696324708771 0.00057870549196499847 0 -0.054997890073814018 -2.5283823826527716e-07 0 -0.055140301918077679 0.00025530764046217079 0 -0.055000447490327328 2.5875494614729596e-07 0 -0.054808696324708771 0.00057870549196499847 0 -0.054808696324708771 0.00057870549196499847 0 -0.054163499223214624 0.0008262639415530528 0 -0.054195536119272095 0.0014043817835759115 0 -0.054163499223214624 0.0008262639415530528 0 -0.054997890073814018 -2.5283823826527716e-07 0 -0.053648923720483917 0.00035928229411662981 0 -0.054999367536617869 4.9940876701694423e-07 0 -0.05451662345249126 0.00036635304795131927 0 -0.054808696324708771 0.00057870549196499847 0 -0.054163499223214624 0.0008262639415530528 0 -0.054997890073814018 -2.5283823826527716e-07 0 -0.054999999645596355 -7.7449693484382857e-10 0 -0.054999998864405743 9.4221126926513323e-10 0 -0.054999555618015089 4.3584049210283351e-07 0 -0.054999998864405743 9.4221126926513323e-10 0 -0.054999555618015089 4.3584049210283351e-07 0 -0.054999414889818493 6.041591954945248e-07 0 -0.054163499223214624 0.0008262639415530528 0 -0.053648923720483917 0.00035928229411662981 0 -0.053418520542353923 0.0010405837609891637 0 -0.054163499223214624 0.0008262639415530528 0 -0.053418520542353923 0.0010405837609891637 0 -0.053684062128669059 0.0016825917457140578 0 -0.053418520542353923 0.0010405837609891637 0 -0.053684062128669059 0.0016825917457140578 0 -0.053138494122975007 0.001654410079046376 0 -0.054163499223214624 0.0008262639415530528 0 -0.053684062128669059 0.0016825917457140578 0 -0.054195536119272095 0.0014043817835759115 0 -0.053684062128669059 0.0016825917457140578 0 -0.054195536119272095 0.0014043817835759115 0 -0.05386222071770428 0.002242169071927049 0 -0.05375043135486076 0.0025967258556924386 0 -0.05386222071770428 0.002242169071927049 0 -0.05353363319779305 0.002313876065374421 0 -0.053684062128669059 0.0016825917457140578 0 -0.05386222071770428 0.002242169071927049 0 -0.05353363319779305 0.002313876065374421 0 -0.053684062128669059 0.0016825917457140578 0 -0.05353363319779305 0.002313876065374421 0 -0.053138494122975007 0.001654410079046376 0 -0.054033279778702988 0.0014481786145886062 0 -0.054056759751667509 0.0011992263376148019 0 -0.05353363319779305 0.002313876065374421 0 -0.053414912752231924 0.0022366999245411311 0 -0.053634930552102333 0.0019121919442202367 0 -0.05382037327955471 0.0062821591950566044 0 -0.055209088102927316 0.0041981423383698124 0 -0.053598540633525607 0.0044494014981163897 0 -0.05382037327955471 0.0062821591950566044 0 -0.053598540633525607 0.0044494014981163897 0 -0.052257766609191833 0.0049993821863090863 0 -0.053598540633525607 0.0044494014981163897 0 -0.052257766609191833 0.0049993821863090863 0 -0.052776843681259997 0.0035692543961570937 0 -0.052776843681259997 0.0035692543961570937 0 -0.052306093304260469 0.0026515053280446472 0 -0.051567311121341851 0.0035779291684270229 0 -0.052257766609191833 0.0049993821863090863 0 -0.052776843681259997 0.0035692543961570937 0 -0.051567311121341851 0.0035779291684270229 0 -0.055209088102927316 0.0041981423383698124 0 -0.053598540633525607 0.0044494014981163897 0 -0.053624295437828547 0.0032243500618150574 0 -0.053598540633525607 0.0044494014981163897 0 -0.052776843681259997 0.0035692543961570937 0 -0.053624295437828547 0.0032243500618150574 0 -0.053624295437828547 0.0032243500618150574 0 -0.053039328837810117 0.0025253268797936299 0 -0.053417696389819219 0.0016380901903744864 0 -0.052776843681259997 0.0035692543961570937 0 -0.053624295437828547 0.0032243500618150574 0 -0.053039328837810117 0.0025253268797936299 0 -0.052776843681259997 0.0035692543961570937 0 -0.053039328837810117 0.0025253268797936299 0 -0.052306093304260469 0.0026515053280446472 0 -0.053039328837810117 0.0025253268797936299 0 -0.052306093304260469 0.0026515053280446472 0 -0.052754474526525763 0.0016626092559072277 0 -0.053039328837810117 0.0025253268797936299 0 -0.052754474526525763 0.0016626092559072277 0 -0.053417696389819219 0.0016380901903744864 0 -0.053414912752231924 0.0022366999245411311 0 -0.053417696389819219 0.0016380901903744864 0 -0.053634930552102333 0.0019121919442202367 0 -0.055209088102927316 0.0041981423383698124 0 -0.053624295437828547 0.0032243500618150574 0 -0.053417696389819219 0.0016380901903744864 0 -0.054056759751667509 0.0011992263376148019 0 -0.054269956584529697 0.00069990249558119107 0 -0.051826093660427112 0.0046160033434286714 0 -0.052049099705036787 0.0036812066307557855 0 -0.053417696389819219 0.0016380901903744864 0 -0.053634930552102333 0.0019121919442202367 0 -0.053686983904303057 0.0012586904013592417 0 -0.053418520542353923 0.0010405837609891637 0 -0.053138494122975007 0.001654410079046376 0 -0.05274378915250269 0.00088322758031787328 0 -0.053648923720483917 0.00035928229411662981 0 -0.053418520542353923 0.0010405837609891637 0 -0.05274378915250269 0.00088322758031787328 0 -0.05451662345249126 0.00036635304795131927 0 -0.054269956584529697 0.00069990249558119107 0 -0.054998531851288619 1.6461445664385588e-06 0 -0.054999414889818493 6.041591954945248e-07 0 -0.054999998350418973 2.2954700550952847e-10 0 -0.054999555618015089 4.3584049210283351e-07 0 -0.054998531851288619 1.6461445664385588e-06 0 -0.054999414889818493 6.041591954945248e-07 0 -0.054999998864405743 9.4221126926513323e-10 0 -0.054999414889818493 6.041591954945248e-07 0 -0.054999998350418973 2.2954700550952847e-10 0 -0.054999116341458522 -5.0001406435028842e-07 0 -0.054784282861896696 0.00018101848889300553 0 -0.05413119848514529 -7.2587272672900702e-06 0 -0.054269956584529697 0.00069990249558119107 0 -0.054998592867194704 9.6899072052667001e-07 0 -0.055135131999092001 0.00029501468238579264 0 -0.054999116341458522 -5.0001406435028842e-07 0 -0.054784282861896696 0.00018101848889300553 0 -0.054724725784904255 0.00092803342543980273 0 -0.055135131999092001 0.00029501468238579264 0 -0.054784282861896696 0.00018101848889300553 0 -0.053580995659244242 0.001163197904870461 0 -0.054269956584529697 0.00069990249558119107 0 -0.052754474526525763 0.0016626092559072277 0 -0.053417696389819219 0.0016380901903744864 0 -0.053686983904303057 0.0012586904013592417 0 -0.054724725784904255 0.00092803342543980273 0 -0.054784282861896696 0.00018101848889300553 0 -0.05413119848514529 -7.2587272672900702e-06 0 -0.054724725784904255 0.00092803342543980273 0 -0.05413119848514529 -7.2587272672900702e-06 0 -0.052729144477142872 0.0013509264606812344 0 -0.05413119848514529 -7.2587272672900702e-06 0 -0.054688074383348953 -3.6496840141650182e-05 0 -0.054705548928987387 -0.00015874733793797347 0 -0.054999116341458522 -5.0001406435028842e-07 0 -0.05413119848514529 -7.2587272672900702e-06 0 -0.054697605787248277 6.3816435967950272e-05 0 -0.054999116341458522 -5.0001406435028842e-07 0 -0.054999455012420581 3.251063484134854e-07 0 -0.054697605787248277 6.3816435967950272e-05 0 -0.054888167364984732 3.4078539155234877e-05 0 -0.054999455012420581 3.251063484134854e-07 0 -0.054697605787248277 6.3816435967950272e-05 0 -0.054888167364984732 3.4078539155234877e-05 0 -0.054688074383348953 -3.6496840141650182e-05 0 -0.054790740116210941 -7.0869871952505074e-05 0 -0.054888167364984732 3.4078539155234877e-05 0 -0.054697605787248277 6.3816435967950272e-05 0 -0.054688074383348953 -3.6496840141650182e-05 0 -0.05413119848514529 -7.2587272672900702e-06 0 -0.054697605787248277 6.3816435967950272e-05 0 -0.054688074383348953 -3.6496840141650182e-05 0 -0.054688074383348953 -3.6496840141650182e-05 0 -0.054790740116210941 -7.0869871952505074e-05 0 -0.054705548928987387 -0.00015874733793797347 0 -0.054790740116210941 -7.0869871952505074e-05 0 -0.054705548928987387 -0.00015874733793797347 0 -0.05478528953940421 -8.9191292050941245e-05 0 -0.05413119848514529 -7.2587272672900702e-06 0 -0.049808317578657835 0.0024033881866959124 0 -0.052729144477142872 0.0013509264606812344 0 -0.052063316755282717 0.0012485818504788136 0 -0.051523302927288149 0.0018314138835750788 0 -0.053580995659244242 0.001163197904870461 0 -0.053107204154386564 0.0014543277027150093 0 -0.052306093304260469 0.0026515053280446472 0 -0.052754474526525763 0.0016626092559072277 0 -0.051409444712911936 0.0023818612128890413 0 -0.054724725784904255 0.00092803342543980273 0 -0.052729144477142872 0.0013509264606812344 0 -0.051409444712911936 0.0023818612128890413 0 -0.052306093304260469 0.0026515053280446472 0 -0.051409444712911936 0.0023818612128890413 0 -0.051567311121341851 0.0035779291684270229 0 -0.049808317578657835 0.0024033881866959124 0 -0.052729144477142872 0.0013509264606812344 0 -0.051409444712911936 0.0023818612128890413 0 -0.049808317578657835 0.0024033881866959124 0 -0.051409444712911936 0.0023818612128890413 0 -0.050015552251916569 0.0037569821336631243 0 -0.051409444712911936 0.0023818612128890413 0 -0.050015552251916569 0.0037569821336631243 0 -0.051567311121341851 0.0035779291684270229 0 -0.050015552251916569 0.0037569821336631243 0 -0.051567311121341851 0.0035779291684270229 0 -0.050376849251234292 0.0050631561443792725 0 -0.052257766609191833 0.0049993821863090863 0 -0.051567311121341851 0.0035779291684270229 0 -0.050376849251234292 0.0050631561443792725 0 -0.046665455938684167 0.0054973910619857255 0 -0.050015552251916569 0.0037569821336631243 0 -0.050376849251234292 0.0050631561443792725 0 -0.054822528253561341 -3.7465492116976172e-05 0 -0.054705548928987387 -0.00015874733793797347 0 -0.05478528953940421 -8.9191292050941245e-05 0 -0.046665455938684167 0.0054973910619857255 0 -0.049808317578657835 0.0024033881866959124 0 -0.050015552251916569 0.0037569821336631243 0 -0.050451425913090028 0.0030064991022536163 0 -0.051523302927288149 0.0018314138835750788 0 -0.053284271684764649 0.0024256399305350594 0 -0.053270319768200652 0.0034526157278755459 0 -0.052699519603939107 0.0011520992654889281 0 -0.053284271684764649 0.0024256399305350594 0 -0.053817508837335555 0.0032737429307519456 0 -0.053084660945335017 0.0012954050103740188 0 -0.053878532639123754 0.001561170123917385 0 -0.053312826524813846 0.00062946685588660548 0 -0.053874375010874567 0.00022510847197173626 0 -0.054086443472383956 0.00034108897962997721 0 -0.053432064870492381 0.0001869239822756457 0 -0.054088625210970021 0.00027150134844806245 0 -0.053874375010874567 0.00022510847197173626 0 -0.054086443472383956 0.00034108897962997721 0 -0.053284271684764649 0.0024256399305350594 0 -0.053817508837335555 0.0032737429307519456 0 -0.053510285038523141 0.0032422035493366364 0 -0.053874375010874567 0.00022510847197173626 0 -0.053951163935587923 0.00012975702098701566 0 -0.053715426935090578 0.00012935935116167429 0 -0.054088625210970021 0.00027150134844806245 0 -0.053874375010874567 0.00022510847197173626 0 -0.054060772480851955 0.00020519687255911103 0 -0.053874375010874567 0.00022510847197173626 0 -0.054060772480851955 0.00020519687255911103 0 -0.053951163935587923 0.00012975702098701566 0 -0.054060772480851955 0.00020519687255911103 0 -0.053951163935587923 0.00012975702098701566 0 -0.05418823569200535 0.00011101762843839198 0 -0.054060772480851955 0.00020519687255911103 0 -0.05423657727136922 0.0002503450574570154 0 -0.05418823569200535 0.00011101762843839198 0 -0.05423657727136922 0.0002503450574570154 0 -0.05418823569200535 0.00011101762843839198 0 -0.054373361771407364 0.00016306533442255613 0 -0.05423657727136922 0.0002503450574570154 0 -0.054373361771407364 0.00016306533442255613 0 -0.054458742787607144 0.00024577378286928418 0 -0.054088625210970021 0.00027150134844806245 0 -0.054060772480851955 0.00020519687255911103 0 -0.05423657727136922 0.0002503450574570154 0 -0.054088625210970021 0.00027150134844806245 0 -0.05423657727136922 0.0002503450574570154 0 -0.054180098434582318 0.00029601402502929124 0 -0.054180098434582318 0.00029601402502929124 0 -0.054312628224344586 0.00030632916473608067 0 -0.054086443472383956 0.00034108897962997721 0 -0.05423657727136922 0.0002503450574570154 0 -0.054180098434582318 0.00029601402502929124 0 -0.054312628224344586 0.00030632916473608067 0 -0.054312628224344586 0.00030632916473608067 0 -0.054086443472383956 0.00034108897962997721 0 -0.054450989564659068 0.00031601244526391174 0 -0.05423657727136922 0.0002503450574570154 0 -0.054312628224344586 0.00030632916473608067 0 -0.054458742787607144 0.00024577378286928418 0 -0.054312628224344586 0.00030632916473608067 0 -0.054458742787607144 0.00024577378286928418 0 -0.054495959861022077 0.00028360787349645595 0 -0.053577187314850248 0.00358173343477159 0 -0.053307949878785746 0.0042787401025999924 0 -0.05463550349749631 0.0051649409640213964 0 -0.053817508837335555 0.0032737429307519456 0 -0.053577187314850248 0.00358173343477159 0 -0.05463550349749631 0.0051649409640213964 0 -0.053878532639123754 0.001561170123917385 0 -0.054360111010331884 0.0022582007308037558 0 -0.054088625210970021 0.00027150134844806245 0 -0.054180098434582318 0.00029601402502929124 0 -0.054086443472383956 0.00034108897962997721 0 -0.053284271684764649 0.0024256399305350594 0 -0.053510285038523141 0.0032422035493366364 0 -0.053270319768200652 0.0034526157278755459 0 -0.053817508837335555 0.0032737429307519456 0 -0.053510285038523141 0.0032422035493366364 0 -0.053577187314850248 0.00358173343477159 0 -0.052454380066849438 0.0028697523553342431 0 -0.052425937062011749 0.0028572854780701097 0 -0.053510285038523141 0.0032422035493366364 0 -0.053577187314850248 0.00358173343477159 0 -0.053270319768200652 0.0034526157278755459 0 -0.053577187314850248 0.00358173343477159 0 -0.053247263946713759 0.0034752768807757755 0 -0.053101151167360389 0.0037457912756131352 0 -0.053577187314850248 0.00358173343477159 0 -0.053101151167360389 0.0037457912756131352 0 -0.053307949878785746 0.0042787401025999924 0 -0.053101151167360389 0.0037457912756131352 0 -0.053307949878785746 0.0042787401025999924 0 -0.052776814070883332 0.0039931689352853328 0 -0.053247263946713759 0.0034752768807757755 0 -0.052451215441876392 0.0036426103863038835 0 -0.051232165424329061 0.0028054720208655322 0 -0.052425937062011749 0.0028572854780701097 0 -0.051170219102484711 0.0026637647937065656 0 -0.053307949878785746 0.0042787401025999924 0 -0.052776814070883332 0.0039931689352853328 0 -0.052571814575189113 0.0043583526042137201 0 -0.053101151167360389 0.0037457912756131352 0 -0.052776814070883332 0.0039931689352853328 0 -0.052451215441876392 0.0036426103863038835 0 -0.052455444822178815 0.0039431153805494631 0 -0.052571814575189113 0.0043583526042137201 0 -0.051962827272402388 0.0038682418480866475 0 -0.052776814070883332 0.0039931689352853328 0 -0.052455444822178815 0.0039431153805494631 0 -0.052451215441876392 0.0036426103863038835 0 -0.052776814070883332 0.0039931689352853328 0 -0.052455444822178815 0.0039431153805494631 0 -0.052571814575189113 0.0043583526042137201 0 -0.051962827272402388 0.0038682418480866475 0 -0.051522253296643651 0.00411589523049735 0 -0.051813280509724287 0.0045499536905881204 0 -0.052571814575189113 0.0043583526042137201 0 -0.051962827272402388 0.0038682418480866475 0 -0.051813280509724287 0.0045499536905881204 0 -0.052455444822178815 0.0039431153805494631 0 -0.051962827272402388 0.0038682418480866475 0 -0.052451215441876392 0.0036426103863038835 0 -0.051962827272402388 0.0038682418480866475 0 -0.052451215441876392 0.0036426103863038835 0 -0.051232165424329061 0.0028054720208655322 0 -0.053247263946713759 0.0034752768807757755 0 -0.053101151167360389 0.0037457912756131352 0 -0.052451215441876392 0.0036426103863038835 0 -0.051003946464966567 0.0042844479358344727 0 -0.05121800031287653 0.00371855068306436 0 -0.050286878195581884 0.0034731989153604513 0 -0.051962827272402388 0.0038682418480866475 0 -0.051522253296643651 0.00411589523049735 0 -0.05121800031287653 0.00371855068306436 0 -0.051003946464966567 0.0042844479358344727 0 -0.051522253296643651 0.00411589523049735 0 -0.051813280509724287 0.0045499536905881204 0 -0.051003946464966567 0.0042844479358344727 0 -0.051522253296643651 0.00411589523049735 0 -0.05121800031287653 0.00371855068306436 0 -0.051962827272402388 0.0038682418480866475 0 -0.05121800031287653 0.00371855068306436 0 -0.051232165424329061 0.0028054720208655322 0 -0.05121800031287653 0.00371855068306436 0 -0.051232165424329061 0.0028054720208655322 0 -0.050286878195581884 0.0034731989153604513 0 -0.051161727996329745 0.0030413142567849182 0 -0.05182559351083197 0.0024284524316732069 0 -0.051393239224171883 0.0016373958161763607 0 -0.051161727996329745 0.0030413142567849182 0 -0.050370381793411148 0.0018993776288331959 0 -0.051393239224171883 0.0016373958161763607 0 -0.053026630756553207 0.0037335534691101372 0 -0.051161727996329745 0.0030413142567849182 0 -0.05182559351083197 0.0024284524316732069 0 -0.053026630756553207 0.0037335534691101372 0 -0.05182559351083197 0.0024284524316732069 0 -0.052326211302414279 0.0016786510330390604 0 -0.052425937062011749 0.0028572854780701097 0 -0.052245618466338829 0.001427524895429266 0 -0.053284271684764649 0.0024256399305350594 0 -0.052699519603939107 0.0011520992654889281 0 -0.053084660945335017 0.0012954050103740188 0 -0.052699519603939107 0.0011520992654889281 0 -0.053084660945335017 0.0012954050103740188 0 -0.05236695772407092 -0.00049577597010062435 0 -0.053312826524813846 0.00062946685588660548 0 -0.052981438790077086 5.8983798114725311e-05 0 -0.05182559351083197 0.0024284524316732069 0 -0.052326211302414279 0.0016786510330390604 0 -0.051393239224171883 0.0016373958161763607 0 -0.052326211302414279 0.0016786510330390604 0 -0.051393239224171883 0.0016373958161763607 0 -0.051478113708653517 0.00062959788504116706 0 -0.050370381793411148 0.0018993776288331959 0 -0.051393239224171883 0.0016373958161763607 0 -0.050448910816743284 0.0011508468681952397 0 -0.051393239224171883 0.0016373958161763607 0 -0.050448910816743284 0.0011508468681952397 0 -0.050975794568959405 0.00083394798831446242 0 -0.051393239224171883 0.0016373958161763607 0 -0.050975794568959405 0.00083394798831446242 0 -0.051478113708653517 0.00062959788504116706 0 -0.050448910816743284 0.0011508468681952397 0 -0.050513083449067998 0.00041809626043073418 0 -0.050975794568959405 0.00083394798831446242 0 -0.050513083449067998 0.00041809626043073418 0 -0.051044193494868141 0.00033371269742667073 0 -0.050975794568959405 0.00083394798831446242 0 -0.051044193494868141 0.00033371269742667073 0 -0.051478113708653517 0.00062959788504116706 0 -0.051209725887804113 -2.9736419112453409e-05 0 -0.051044193494868141 0.00033371269742667073 0 -0.050975794568959405 0.00083394798831446242 0 -0.051478113708653517 0.00062959788504116706 0 -0.051640603755959358 -0.00037806839438506986 0 -0.050920526750502688 -0.00038602186389740431 0 -0.051209725887804113 -2.9736419112453409e-05 0 -0.051640603755959358 -0.00037806839438506986 0 -0.051478113708653517 0.00062959788504116706 0 -0.051209725887804113 -2.9736419112453409e-05 0 -0.050920526750502688 -0.00038602186389740431 0 -0.051209725887804113 -2.9736419112453409e-05 0 -0.050817140621852518 7.0575635016807642e-06 0 -0.051044193494868141 0.00033371269742667073 0 -0.051209725887804113 -2.9736419112453409e-05 0 -0.050817140621852518 7.0575635016807642e-06 0 -0.050513083449067998 0.00041809626043073418 0 -0.051044193494868141 0.00033371269742667073 0 -0.050817140621852518 7.0575635016807642e-06 0 -0.050920526750502688 -0.00038602186389740431 0 -0.050817140621852518 7.0575635016807642e-06 0 -0.050406021478377333 -0.00014279110926368363 0 -0.050513083449067998 0.00041809626043073418 0 -0.050817140621852518 7.0575635016807642e-06 0 -0.050406021478377333 -0.00014279110926368363 0 -0.051640603755959358 -0.00037806839438506986 0 -0.052326211302414279 0.0016786510330390604 0 -0.051478113708653517 0.00062959788504116706 0 -0.053432064870492381 0.0001869239822756457 0 -0.053086959955660838 -0.00027629911205662952 0 -0.05236695772407092 -0.00049577597010062435 0 -0.052094533187115724 -0.00091254349952466602 0 -0.052699519603939107 0.0011520992654889281 0 -0.05236695772407092 -0.00049577597010062435 0 -0.051741248899389393 -0.00042989644174044834 0 -0.052245618466338829 0.001427524895429266 0 -0.052535939121428912 -0.00093521048903722761 0 -0.052094533187115724 -0.00091254349952466602 0 -0.05236695772407092 -0.00049577597010062435 0 -0.052535939121428912 -0.00093521048903722761 0 -0.05236695772407092 -0.00049577597010062435 0 -0.05292040102035326 -0.00067107404657461506 0 -0.053086959955660838 -0.00027629911205662952 0 -0.05236695772407092 -0.00049577597010062435 0 -0.05292040102035326 -0.00067107404657461506 0 -0.053428002253490051 -0.00090539654654007333 0 -0.05292040102035326 -0.00067107404657461506 0 -0.053386325533970352 -0.0004362288118223004 0 -0.053428002253490051 -0.00090539654654007333 0 -0.053791000582815968 -0.00059507622469445937 0 -0.053386325533970352 -0.0004362288118223004 0 -0.054029212569631044 -0.0010900354228537343 0 -0.053428002253490051 -0.00090539654654007333 0 -0.053791000582815968 -0.00059507622469445937 0 -0.053791000582815968 -0.00059507622469445937 0 -0.053833796653170875 -0.0002400143111700214 0 -0.053386325533970352 -0.0004362288118223004 0 -0.053833796653170875 -0.0002400143111700214 0 -0.053386325533970352 -0.0004362288118223004 0 -0.053419105306881064 -7.905365123755076e-05 0 -0.053086959955660838 -0.00027629911205662952 0 -0.053386325533970352 -0.0004362288118223004 0 -0.053419105306881064 -7.905365123755076e-05 0 -0.053086959955660838 -0.00027629911205662952 0 -0.05292040102035326 -0.00067107404657461506 0 -0.053386325533970352 -0.0004362288118223004 0 -0.053432064870492381 0.0001869239822756457 0 -0.053086959955660838 -0.00027629911205662952 0 -0.053419105306881064 -7.905365123755076e-05 0 -0.053419105306881064 -7.905365123755076e-05 0 -0.053779788912710159 -1.8304507343880982e-07 0 -0.053560796423289168 6.808210141524937e-05 0 -0.053833796653170875 -0.0002400143111700214 0 -0.053419105306881064 -7.905365123755076e-05 0 -0.053779788912710159 -1.8304507343880982e-07 0 -0.053779788912710159 -1.8304507343880982e-07 0 -0.053951163935587923 0.00012975702098701566 0 -0.053715426935090578 0.00012935935116167429 0 -0.053779788912710159 -1.8304507343880982e-07 0 -0.053715426935090578 0.00012935935116167429 0 -0.053560796423289168 6.808210141524937e-05 0 -0.053432064870492381 0.0001869239822756457 0 -0.053419105306881064 -7.905365123755076e-05 0 -0.053560796423289168 6.808210141524937e-05 0 -0.053874375010874567 0.00022510847197173626 0 -0.053432064870492381 0.0001869239822756457 0 -0.053715426935090578 0.00012935935116167429 0 -0.053432064870492381 0.0001869239822756457 0 -0.053715426935090578 0.00012935935116167429 0 -0.053560796423289168 6.808210141524937e-05 0 -0.05418823569200535 0.00011101762843839198 0 -0.054371187834083311 -6.3329626468135793e-05 0 -0.054373361771407364 0.00016306533442255613 0 -0.05418823569200535 0.00011101762843839198 0 -0.054120492798608234 -8.5647492677408651e-05 0 -0.054371187834083311 -6.3329626468135793e-05 0 -0.053951163935587923 0.00012975702098701566 0 -0.05418823569200535 0.00011101762843839198 0 -0.054120492798608234 -8.5647492677408651e-05 0 -0.053779788912710159 -1.8304507343880982e-07 0 -0.053951163935587923 0.00012975702098701566 0 -0.054120492798608234 -8.5647492677408651e-05 0 -0.053833796653170875 -0.0002400143111700214 0 -0.053779788912710159 -1.8304507343880982e-07 0 -0.054120492798608234 -8.5647492677408651e-05 0 -0.054120492798608234 -8.5647492677408651e-05 0 -0.05426328153086904 -0.00038501671513336449 0 -0.054371187834083311 -6.3329626468135793e-05 0 -0.05433283308807698 -0.00049393124168821759 0 -0.05426328153086904 -0.00038501671513336449 0 -0.054399462742062726 -0.00031500326371564205 0 -0.053833796653170875 -0.0002400143111700214 0 -0.054120492798608234 -8.5647492677408651e-05 0 -0.05426328153086904 -0.00038501671513336449 0 -0.053791000582815968 -0.00059507622469445937 0 -0.053833796653170875 -0.0002400143111700214 0 -0.05426328153086904 -0.00038501671513336449 0 -0.054029212569631044 -0.0010900354228537343 0 -0.053791000582815968 -0.00059507622469445937 0 -0.05426328153086904 -0.00038501671513336449 0 -0.054497702260108152 -0.00047200133016644984 0 -0.054399462742062726 -0.00031500326371564205 0 -0.054595349120803577 -8.4747358508158077e-05 0 -0.054399462742062726 -0.00031500326371564205 0 -0.054595349120803577 -8.4747358508158077e-05 0 -0.054371187834083311 -6.3329626468135793e-05 0 -0.05426328153086904 -0.00038501671513336449 0 -0.054399462742062726 -0.00031500326371564205 0 -0.054371187834083311 -6.3329626468135793e-05 0 -0.054552635491027672 7.2287655654781316e-05 0 -0.054584180683858362 9.9222358168316613e-05 0 -0.054595349120803577 -8.4747358508158077e-05 0 -0.048500951759764516 0.0017855906149125619 0 -0.049313451684422374 0.0014962720581057703 0 -0.054594649488243996 2.9106768764255964e-05 0 -0.054608127353911753 2.975424453476053e-05 0 -0.054620837560289383 0.00011224012649282997 0 -0.054595349120803577 -8.4747358508158077e-05 0 -0.054594649488243996 2.9106768764255964e-05 0 -0.054504718962066878 8.741108663956383e-05 0 -0.054595349120803577 -8.4747358508158077e-05 0 -0.054594649488243996 2.9106768764255964e-05 0 -0.054608127353911753 2.975424453476053e-05 0 -0.054595349120803577 -8.4747358508158077e-05 0 -0.054371187834083311 -6.3329626468135793e-05 0 -0.054504718962066878 8.741108663956383e-05 0 -0.054371187834083311 -6.3329626468135793e-05 0 -0.054373361771407364 0.00016306533442255613 0 -0.054504718962066878 8.741108663956383e-05 0 -0.054483503338166553 0.00011870522380197192 0 -0.054553167167587208 7.5356458122246737e-05 0 -0.054616064527563526 6.1864786610287516e-05 0 -0.052296246781319819 0.0077003254628093447 0 -0.054158439196960111 0.0052810727657568888 0 -0.054553167167587208 7.5356458122246737e-05 0 -0.054608127353911753 2.975424453476053e-05 0 -0.054616064527563526 6.1864786610287516e-05 0 -0.054552635491027672 7.2287655654781316e-05 0 -0.054595349120803577 -8.4747358508158077e-05 0 -0.054608127353911753 2.975424453476053e-05 0 -0.054552635491027672 7.2287655654781316e-05 0 -0.054553167167587208 7.5356458122246737e-05 0 -0.054608127353911753 2.975424453476053e-05 0 -0.054608127353911753 2.975424453476053e-05 0 -0.054616064527563526 6.1864786610287516e-05 0 -0.054659105065606402 0.00010146002420530327 0 -0.054718682296755541 0.00014144257833370669 0 -0.054659105065606402 0.00010146002420530327 0 -0.054704564800730979 0.00018263137775717127 0 -0.054158439196960111 0.0052810727657568888 0 -0.054930437207740761 0.0031595422055134587 0 -0.054616064527563526 6.1864786610287516e-05 0 -0.054718682296755541 0.00014144257833370669 0 -0.054659105065606402 0.00010146002420530327 0 -0.054608127353911753 2.975424453476053e-05 0 -0.054659105065606402 0.00010146002420530327 0 -0.054620837560289383 0.00011224012649282997 0 -0.054659105065606402 0.00010146002420530327 0 -0.054704564800730979 0.00018263137775717127 0 -0.054620837560289383 0.00011224012649282997 0 -0.054718682296755541 0.00014144257833370669 0 -0.054704564800730979 0.00018263137775717127 0 -0.054763951914508391 0.00019401322644699677 0 -0.054930437207740761 0.0031595422055134587 0 -0.055144784864521068 0.0016238467260998504 0 -0.054534626217964413 0.00017538182462742587 0 -0.054373361771407364 0.00016306533442255613 0 -0.054458742787607144 0.00024577378286928418 0 -0.054534626217964413 0.00017538182462742587 0 -0.054373361771407364 0.00016306533442255613 0 -0.054504718962066878 8.741108663956383e-05 0 -0.054534626217964413 0.00017538182462742587 0 -0.054504718962066878 8.741108663956383e-05 0 -0.054620837560289383 0.00011224012649282997 0 -0.054594649488243996 2.9106768764255964e-05 0 -0.054504718962066878 8.741108663956383e-05 0 -0.054620837560289383 0.00011224012649282997 0 -0.054534626217964413 0.00017538182462742587 0 -0.054620837560289383 0.00011224012649282997 0 -0.054618353883521813 0.00020634283360029178 0 -0.054704564800730979 0.00018263137775717127 0 -0.054620837560289383 0.00011224012649282997 0 -0.054618353883521813 0.00020634283360029178 0 -0.054704564800730979 0.00018263137775717127 0 -0.054618353883521813 0.00020634283360029178 0 -0.054713755927977135 0.00022255175288111241 0 -0.054618353883521813 0.00020634283360029178 0 -0.054458742787607144 0.00024577378286928418 0 -0.054591642038067406 0.00024944456359122147 0 -0.054534626217964413 0.00017538182462742587 0 -0.054618353883521813 0.00020634283360029178 0 -0.054458742787607144 0.00024577378286928418 0 -0.054458742787607144 0.00024577378286928418 0 -0.054495959861022077 0.00028360787349645595 0 -0.054591642038067406 0.00024944456359122147 0 -0.054495959861022077 0.00028360787349645595 0 -0.054635594884536495 0.0002591145430925905 0 -0.054591642038067406 0.00024944456359122147 0 -0.054618353883521813 0.00020634283360029178 0 -0.054591642038067406 0.00024944456359122147 0 -0.054713755927977135 0.00022255175288111241 0 -0.054635594884536495 0.0002591145430925905 0 -0.054591642038067406 0.00024944456359122147 0 -0.054713755927977135 0.00022255175288111241 0 -0.054635594884536495 0.0002591145430925905 0 -0.054713755927977135 0.00022255175288111241 0 -0.054762314113058277 0.00021822330184717397 0 -0.054713755927977135 0.00022255175288111241 0 -0.054762314113058277 0.00021822330184717397 0 -0.054845916177401088 0.00015542520522245014 0 -0.054762314113058277 0.00021822330184717397 0 -0.054703622919246277 0.00024906478881658547 0 -0.054797945602297844 0.00022014643506723227 0 -0.054635594884536495 0.0002591145430925905 0 -0.054703622919246277 0.00024906478881658547 0 -0.054450989564659068 0.00031601244526391174 0 -0.054703622919246277 0.00024906478881658547 0 -0.054797945602297844 0.00022014643506723227 0 -0.054692655966301171 0.00026206612672889017 0 -0.054635594884536495 0.0002591145430925905 0 -0.054762314113058277 0.00021822330184717397 0 -0.054703622919246277 0.00024906478881658547 0 -0.054704564800730979 0.00018263137775717127 0 -0.054763951914508391 0.00019401322644699677 0 -0.054795935952076984 0.00018703319633784106 0 -0.054704564800730979 0.00018263137775717127 0 -0.054713755927977135 0.00022255175288111241 0 -0.054795935952076984 0.00018703319633784106 0 -0.054713755927977135 0.00022255175288111241 0 -0.054795935952076984 0.00018703319633784106 0 -0.054845916177401088 0.00015542520522245014 0 -0.055144784864521068 0.0016238467260998504 0 -0.055115936290277563 0.00069971176665753628 0 -0.054763951914508391 0.00019401322644699677 0 -0.054795935952076984 0.00018703319633784106 0 -0.05482475577349074 0.00013667983623502099 0 -0.054795935952076984 0.00018703319633784106 0 -0.05482475577349074 0.00013667983623502099 0 -0.054903630607264865 9.1647879321652979e-05 0 -0.054795935952076984 0.00018703319633784106 0 -0.054903630607264865 9.1647879321652979e-05 0 -0.054845916177401088 0.00015542520522245014 0 -0.054903630607264865 9.1647879321652979e-05 0 -0.054845916177401088 0.00015542520522245014 0 -0.054924287992287504 7.8679619864422984e-05 0 -0.054903630607264865 9.1647879321652979e-05 0 -0.05499988272501212 6.6981689197936294e-08 0 -0.054924287992287504 7.8679619864422984e-05 0 -0.05482475577349074 0.00013667983623502099 0 -0.054903630607264865 9.1647879321652979e-05 0 -0.054999723493862215 6.2466891702782695e-08 0 -0.054903630607264865 9.1647879321652979e-05 0 -0.05499988272501212 6.6981689197936294e-08 0 -0.054999723493862215 6.2466891702782695e-08 0 -0.055115936290277563 0.00069971176665753628 0 -0.05500024506224177 7.7583466772114121e-07 0 -0.054797945602297844 0.00022014643506723227 0 -0.054857458446752105 0.00014694405416607189 0 -0.05488794431421358 0.00012481812551967171 0 -0.054857458446752105 0.00014694405416607189 0 -0.054917800759692881 8.7751728549241031e-05 0 -0.05488794431421358 0.00012481812551967171 0 -0.054630462305469835 0.00067528586064234837 0 -0.05435690556770529 0.0018627194950503866 0 -0.05499378417698577 9.113353293492596e-06 0 -0.054995606667523386 1.2009073063086158e-05 0 -0.054991245932832139 2.1416141756925378e-05 0 -0.054797945602297844 0.00022014643506723227 0 -0.05488794431421358 0.00012481812551967171 0 -0.054838481289099857 0.00024880645779703836 0 -0.054344918069367983 0.0018066452061101697 0 -0.05435690556770529 0.0018627194950503866 0 -0.054762314113058277 0.00021822330184717397 0 -0.054797945602297844 0.00022014643506723227 0 -0.054857458446752105 0.00014694405416607189 0 -0.054762314113058277 0.00021822330184717397 0 -0.054845916177401088 0.00015542520522245014 0 -0.054857458446752105 0.00014694405416607189 0 -0.054845916177401088 0.00015542520522245014 0 -0.054857458446752105 0.00014694405416607189 0 -0.054924287992287504 7.8679619864422984e-05 0 -0.05499988272501212 6.6981689197936294e-08 0 -0.054924287992287504 7.8679619864422984e-05 0 -0.054999813711523883 1.4413487058517318e-07 0 -0.054917800759692881 8.7751728549241031e-05 0 -0.054924287992287504 7.8679619864422984e-05 0 -0.054999813711523883 1.4413487058517318e-07 0 -0.054857458446752105 0.00014694405416607189 0 -0.054917800759692881 8.7751728549241031e-05 0 -0.054924287992287504 7.8679619864422984e-05 0 -0.054998635868930008 1.2279328542283102e-06 0 -0.054630462305469835 0.00067528586064234837 0 -0.054999990497956938 3.6018052887146452e-09 0 -0.05499378417698577 9.113353293492596e-06 0 -0.054999989732196594 5.2337166482577622e-09 0 -0.054917800759692881 8.7751728549241031e-05 0 -0.054999813711523883 1.4413487058517318e-07 0 -0.05488794431421358 0.00012481812551967171 0 -0.05499378417698577 9.113353293492596e-06 0 -0.054999989732196594 5.2337166482577622e-09 0 -0.054995606667523386 1.2009073063086158e-05 0 -0.054999989732196594 5.2337166482577622e-09 0 -0.054998574033011997 1.3720316249728637e-05 0 -0.054995606667523386 1.2009073063086158e-05 0 -0.054999989732196594 5.2337166482577622e-09 0 -0.055000018702523176 9.6850805857114389e-09 0 -0.054998574033011997 1.3720316249728637e-05 0 -0.055000018702523176 9.6850805857114389e-09 0 -0.054998574033011997 1.3720316249728637e-05 0 -0.055005069585459129 1.6261277475837723e-05 0 -0.054998574033011997 1.3720316249728637e-05 0 -0.054999277944996081 3.6893951215879142e-05 0 -0.055005069585459129 1.6261277475837723e-05 0 -0.054998574033011997 1.3720316249728637e-05 0 -0.054991245932832139 2.1416141756925378e-05 0 -0.054999277944996081 3.6893951215879142e-05 0 -0.054998574033011997 1.3720316249728637e-05 0 -0.054995606667523386 1.2009073063086158e-05 0 -0.054991245932832139 2.1416141756925378e-05 0 -0.05547336417466734 0.0069683227801339599 0 -0.053350500886016353 0.0060561810798126815 0 -0.05463550349749631 0.0051649409640213964 0 -0.05435690556770529 0.0018627194950503866 0 -0.054138545243473245 0.002486968138900752 0 -0.054703622919246277 0.00024906478881658547 0 -0.054692655966301171 0.00026206612672889017 0 -0.054450989564659068 0.00031601244526391174 0 -0.05435690556770529 0.0018627194950503866 0 -0.054360111010331884 0.0022582007308037558 0 -0.053307949878785746 0.0042787401025999924 0 -0.053227820756666662 0.0048890003521357304 0 -0.05463550349749631 0.0051649409640213964 0 -0.053350500886016353 0.0060561810798126815 0 -0.053227820756666662 0.0048890003521357304 0 -0.05463550349749631 0.0051649409640213964 0 -0.053350500886016353 0.0060561810798126815 0 -0.053227820756666662 0.0048890003521357304 0 -0.052427255286648808 0.0048606711145028634 0 -0.053307949878785746 0.0042787401025999924 0 -0.052571814575189113 0.0043583526042137201 0 -0.053227820756666662 0.0048890003521357304 0 -0.054495959861022077 0.00028360787349645595 0 -0.054635594884536495 0.0002591145430925905 0 -0.054450989564659068 0.00031601244526391174 0 -0.054312628224344586 0.00030632916473608067 0 -0.054495959861022077 0.00028360787349645595 0 -0.054450989564659068 0.00031601244526391174 0 -0.051003946464966567 0.0042844479358344727 0 -0.051160666991104858 0.0051356835088240968 0 -0.049498564711011717 0.0044229664809890788 0 -0.051003946464966567 0.0042844479358344727 0 -0.051169164489697432 0.0051287286511766646 0 -0.051813280509724287 0.0045499536905881204 0 -0.052986426933597938 0.0026317383032495962 0 -0.053033232264387602 0.0023278320729520638 0 -0.052571814575189113 0.0043583526042137201 0 -0.051813280509724287 0.0045499536905881204 0 -0.052427255286648808 0.0048606711145028634 0 -0.053350500886016353 0.0060561810798126815 0 -0.051169164489697432 0.0051287286511766646 0 -0.052427255286648808 0.0048606711145028634 0 -0.054138545243473245 0.002486968138900752 0 -0.053033232264387602 0.0023278320729520638 0 -0.051169164489697432 0.0051287286511766646 0 -0.051813280509724287 0.0045499536905881204 0 -0.052427255286648808 0.0048606711145028634 0 -0.052571814575189113 0.0043583526042137201 0 -0.053227820756666662 0.0048890003521357304 0 -0.052427255286648808 0.0048606711145028634 0 -0.054999277944996081 3.6893951215879142e-05 0 -0.055014881194191866 5.4471203002671247e-05 0 -0.055015029006808013 2.7334746001474322e-05 0 -0.053033232264387602 0.0023278320729520638 0 -0.053810958132918016 0.0011733224311711648 0 -0.052253730640981606 0.0017273607974877838 0 -0.052334835156351941 0.0021532803698226135 0 -0.052010428590404154 0.0019690962336565794 0 -0.052334835156351941 0.0021532803698226135 0 -0.052118964347794616 0.0022790385053191773 0 -0.052010428590404154 0.0019690962336565794 0 -0.052334835156351941 0.0021532803698226135 0 -0.052118964347794616 0.0022790385053191773 0 -0.052417754889278231 0.0025786186601842575 0 -0.053810958132918016 0.0011733224311711648 0 -0.054716775955581644 0.0003416911824364991 0 -0.055015029006808013 2.7334746001474322e-05 0 -0.055005069585459129 1.6261277475837723e-05 0 -0.055012631708723253 4.0734344227255417e-06 0 -0.054999277944996081 3.6893951215879142e-05 0 -0.055015029006808013 2.7334746001474322e-05 0 -0.055005069585459129 1.6261277475837723e-05 0 -0.055000018702523176 9.6850805857114389e-09 0 -0.055005069585459129 1.6261277475837723e-05 0 -0.055012631708723253 4.0734344227255417e-06 0 -0.054716775955581644 0.0003416911824364991 0 -0.054995487009104858 2.9455490266436512e-06 0 -0.054999452452279933 1.1491635685836789e-06 0 -0.054716775955581644 0.0003416911824364991 0 -0.055000000319549942 -3.9249129760381165e-11 0 -0.05499987424686819 1.9653966548287777e-07 0 -0.054999998706491575 8.0397689276055187e-10 0 -0.052118964347794616 0.0022790385053191773 0 -0.052417754889278231 0.0025786186601842575 0 -0.052020561685629053 0.0024966003510204565 0 -0.054716775955581644 0.0003416911824364991 0 -0.053760943855994218 0.00083427369598467296 0 -0.05499983270738406 2.245944257498733e-07 0 -0.055000007773386775 -3.4538155452160371e-09 0 -0.054999548967366342 -2.0570191905752248e-07 0 -0.055000007773386775 -3.4538155452160371e-09 0 -0.054999548967366342 -2.0570191905752248e-07 0 -0.05499998166921978 9.8189386897706863e-09 0 -0.053760943855994218 0.00083427369598467296 0 -0.053241483228347736 0.0011976507766923196 0 -0.054999548967366342 -2.0570191905752248e-07 0 -0.05499998166921978 9.8189386897706863e-09 0 -0.054988796016214356 1.1646384840031292e-06 0 -0.055000002599894765 -7.715761405063581e-10 0 -0.054999995451422562 1.3514483569087343e-09 0 -0.05500017640818209 -2.3577141243824991e-07 0 -0.054999994160185119 7.361884109680271e-10 0 -0.054996827272656014 8.0602881113824356e-08 0 -0.05499998166921978 9.8189386897706863e-09 0 -0.054988796016214356 1.1646384840031292e-06 0 -0.054988621929773919 1.627055435135419e-06 0 -0.05162191022951329 0.0024118077359668172 0 -0.051810144242963443 0.002196879406326097 0 -0.051542002441186105 0.0021017062746011045 0 -0.052020561685629053 0.0024966003510204565 0 -0.05162191022951329 0.0024118077359668172 0 -0.051810144242963443 0.002196879406326097 0 -0.052118964347794616 0.0022790385053191773 0 -0.052020561685629053 0.0024966003510204565 0 -0.051810144242963443 0.002196879406326097 0 -0.052118964347794616 0.0022790385053191773 0 -0.051810144242963443 0.002196879406326097 0 -0.052010428590404154 0.0019690962336565794 0 -0.054997874580744011 1.0993497145281294e-06 0 -0.054999995451422562 1.3514483569087343e-09 0 -0.054999995887701478 2.9341527155752516e-09 0 -0.054997874580744011 1.0993497145281294e-06 0 -0.054994216906383855 2.8177927354462698e-06 0 -0.054999995887701478 2.9341527155752516e-09 0 -0.054988621929773919 1.627055435135419e-06 0 -0.054992946001368948 3.7389357774815598e-06 0 -0.054994216906383855 2.8177927354462698e-06 0 -0.054988796016214356 1.1646384840031292e-06 0 -0.054988621929773919 1.627055435135419e-06 0 -0.054992946001368948 3.7389357774815598e-06 0 -0.054996827272656014 8.0602881113824356e-08 0 -0.05499656144442075 5.5885424136792484e-07 0 -0.054997874580744011 1.0993497145281294e-06 0 -0.05500017640818209 -2.3577141243824991e-07 0 -0.054994216906383855 2.8177927354462698e-06 0 -0.054997874580744011 1.0993497145281294e-06 0 -0.054999995451422562 1.3514483569087343e-09 0 -0.05500017640818209 -2.3577141243824991e-07 0 -0.051230728703258399 0.0023232716193995842 0 -0.05134030677567341 0.0020337376733886945 0 -0.051542002441186105 0.0021017062746011045 0 -0.053241483228347736 0.0011976507766923196 0 -0.05255690412549311 0.0015274186024742942 0 -0.05162191022951329 0.0024118077359668172 0 -0.051230728703258399 0.0023232716193995842 0 -0.051542002441186105 0.0021017062746011045 0 -0.051230728703258399 0.0023232716193995842 0 -0.051135317394930831 0.0019212504888256475 0 -0.050846953830003719 0.0022372097960795824 0 -0.054992946001368948 3.7389357774815598e-06 0 -0.054994216906383855 2.8177927354462698e-06 0 -0.054992549656851845 4.485539926488676e-06 0 -0.05255690412549311 0.0015274186024742942 0 -0.050676072604927923 0.0018268574529943882 0 -0.051230728703258399 0.0023232716193995842 0 -0.051135317394930831 0.0019212504888256475 0 -0.05134030677567341 0.0020337376733886945 0 -0.051135317394930831 0.0019212504888256475 0 -0.05134030677567341 0.0020337376733886945 0 -0.051476385890520865 0.0018553559975721394 0 -0.05134030677567341 0.0020337376733886945 0 -0.051542002441186105 0.0021017062746011045 0 -0.051476385890520865 0.0018553559975721394 0 -0.050022454357811448 0.002361912547853152 0 -0.049872555744840084 0.0023958929883815148 0 -0.051135317394930831 0.0019212504888256475 0 -0.051476385890520865 0.0018553559975721394 0 -0.051417283933524863 0.0016121346671403179 0 -0.049872555744840084 0.0023958929883815148 0 -0.049427800072866915 0.0026551889013849595 0 -0.051482174964852079 0.0018437593146717998 0 -0.051421604026203001 0.0015869737103229753 0 -0.051615746509586939 0.0016733891786777887 0 -0.045665558830082865 0.0052308475680523823 0 -0.046841739002098544 0.0039313540799948907 0 -0.045684413912097217 0.0035316679532510866 0 -0.049115349711322275 0.0031672385604317038 0 -0.049427800072866915 0.0026551889013849595 0 -0.045665558830082865 0.0052308475680523823 0 -0.045684413912097217 0.0035316679532510866 0 -0.044534842037774622 0.0039144819710744171 0 -0.051810144242963443 0.002196879406326097 0 -0.052010428590404154 0.0019690962336565794 0 -0.051728256122897685 0.0018936295814363931 0 -0.051810144242963443 0.002196879406326097 0 -0.051542002441186105 0.0021017062746011045 0 -0.051728256122897685 0.0018936295814363931 0 -0.051542002441186105 0.0021017062746011045 0 -0.051482174964852079 0.0018437593146717998 0 -0.051728256122897685 0.0018936295814363931 0 -0.051728256122897685 0.0018936295814363931 0 -0.051615746509586939 0.0016733891786777887 0 -0.05190837703872235 0.0015781140869589605 0 -0.051482174964852079 0.0018437593146717998 0 -0.051728256122897685 0.0018936295814363931 0 -0.051615746509586939 0.0016733891786777887 0 -0.052010428590404154 0.0019690962336565794 0 -0.051728256122897685 0.0018936295814363931 0 -0.05190837703872235 0.0015781140869589605 0 -0.052253730640981606 0.0017273607974877838 0 -0.052010428590404154 0.0019690962336565794 0 -0.05190837703872235 0.0015781140869589605 0 -0.053033232264387602 0.0023278320729520638 0 -0.051130932102627494 0.0024514878274527522 0 -0.051003946464966567 0.0042844479358344727 0 -0.049498564711011717 0.0044229664809890788 0 -0.050286878195581884 0.0034731989153604513 0 -0.049498564711011717 0.0044229664809890788 0 -0.049212503319760306 0.0032634156807482616 0 -0.050286878195581884 0.0034731989153604513 0 -0.051170219102484711 0.0026637647937065656 0 -0.049565970899680574 0.0021995160950248863 0 -0.051161727996329745 0.0030413142567849182 0 -0.050370381793411148 0.0018993776288331959 0 -0.049263059019511266 0.0023450553196878777 0 -0.049212503319760306 0.0032634156807482616 0 -0.050286878195581884 0.0034731989153604513 0 -0.049261686311422789 0.0021621154261899323 0 -0.051232165424329061 0.0028054720208655322 0 -0.050286878195581884 0.0034731989153604513 0 -0.049261686311422789 0.0021621154261899323 0 -0.049261686311422789 0.0021621154261899323 0 -0.048419206591917612 0.0026522083340535323 0 -0.047359916374722637 0.0015868537693692147 0 -0.048419206591917612 0.0026522083340535323 0 -0.047598517404058502 0.0026334267589700647 0 -0.047359916374722637 0.0015868537693692147 0 -0.049212503319760306 0.0032634156807482616 0 -0.048419206591917612 0.0026522083340535323 0 -0.048141419450601089 0.0034389562975459076 0 -0.049212503319760306 0.0032634156807482616 0 -0.049261686311422789 0.0021621154261899323 0 -0.048419206591917612 0.0026522083340535323 0 -0.048419206591917612 0.0026522083340535323 0 -0.04795332074588423 0.0029755880885330038 0 -0.047598517404058502 0.0026334267589700647 0 -0.048419206591917612 0.0026522083340535323 0 -0.04795332074588423 0.0029755880885330038 0 -0.048141419450601089 0.0034389562975459076 0 -0.04795332074588423 0.0029755880885330038 0 -0.048141419450601089 0.0034389562975459076 0 -0.047659242903466882 0.0031798208066853139 0 -0.048141419450601089 0.0034389562975459076 0 -0.047885316247006947 0.0037188820637735478 0 -0.047659242903466882 0.0031798208066853139 0 -0.051615746509586939 0.0016733891786777887 0 -0.05190837703872235 0.0015781140869589605 0 -0.051563066753463435 0.0014294821206412409 0 -0.049498564711011717 0.0044229664809890788 0 -0.049212503319760306 0.0032634156807482616 0 -0.048141419450601089 0.0034389562975459076 0 -0.051130932102627494 0.0024514878274527522 0 -0.049657420817700346 0.0024638827905424554 0 -0.049498564711011717 0.0044229664809890788 0 -0.048141419450601089 0.0034389562975459076 0 -0.047880922872309717 0.0037283774495735556 0 -0.04960812429385264 0.0025119631793420259 0 -0.049657420817700346 0.0024638827905424554 0 -0.051421604026203001 0.0015869737103229753 0 -0.051615746509586939 0.0016733891786777887 0 -0.051563066753463435 0.0014294821206412409 0 -0.049258074267203911 0.0022106471478414553 0 -0.048788139743815961 0.00273239150325483 0 -0.049441819394909235 0.0030212158072296254 0 -0.046841739002098544 0.0039313540799948907 0 -0.046620218630635819 0.0029682153399965706 0 -0.045684413912097217 0.0035316679532510866 0 -0.049427800072866915 0.0026551889013849595 0 -0.049657420817700346 0.0024638827905424554 0 -0.049427800072866915 0.0026551889013849595 0 -0.048614373771411978 0.0022042730079885986 0 -0.047885316247006947 0.0037188820637735478 0 -0.046992411812930179 0.0033233270018898976 0 -0.047659242903466882 0.0031798208066853139 0 -0.049657420817700346 0.0024638827905424554 0 -0.048614373771411978 0.0022042730079885986 0 -0.046620218630635819 0.0029682153399965706 0 -0.045684413912097217 0.0035316679532510866 0 -0.045763859855021925 0.0025934327031212193 0 -0.045684413912097217 0.0035316679532510866 0 -0.045763859855021925 0.0025934327031212193 0 -0.04489874010274135 0.0025758066963212441 0 -0.046647536583061137 0.0029824300418982426 0 -0.045763859855021925 0.0025934327031212193 0 -0.046342181237673898 0.0015838919604497311 0 -0.045763859855021925 0.0025934327031212193 0 -0.045580857433000666 0.0019030677808109277 0 -0.04489874010274135 0.0025758066963212441 0 -0.048614373771411978 0.0022042730079885986 0 -0.048056317208550907 0.0020821668073860715 0 -0.045763859855021925 0.0025934327031212193 0 -0.045580857433000666 0.0019030677808109277 0 -0.046342181237673898 0.0015838919604497311 0 -0.048614373771411978 0.0022042730079885986 0 -0.047740740212062878 0.0015021532255262179 0 -0.046992411812930179 0.0033233270018898976 0 -0.047136949950336203 0.0023308941207497904 0 -0.046595219206803887 0.0017828730885088441 0 -0.046992411812930179 0.0033233270018898976 0 -0.047598517404058502 0.0026334267589700647 0 -0.047659242903466882 0.0031798208066853139 0 -0.046992411812930179 0.0033233270018898976 0 -0.047598517404058502 0.0026334267589700647 0 -0.047136949950336203 0.0023308941207497904 0 -0.04795332074588423 0.0029755880885330038 0 -0.047598517404058502 0.0026334267589700647 0 -0.047659242903466882 0.0031798208066853139 0 -0.047598517404058502 0.0026334267589700647 0 -0.047136949950336203 0.0023308941207497904 0 -0.047359916374722637 0.0015868537693692147 0 -0.046595219206803887 0.0017828730885088441 0 -0.046119571470286537 0.00015790570150393449 0 -0.047062806365090394 0.00061633018698163179 0 -0.047136949950336203 0.0023308941207497904 0 -0.047359916374722637 0.0015868537693692147 0 -0.046595219206803887 0.0017828730885088441 0 -0.047359916374722637 0.0015868537693692147 0 -0.046595219206803887 0.0017828730885088441 0 -0.047062806365090394 0.00061633018698163179 0 -0.047359916374722637 0.0015868537693692147 0 -0.047062806365090394 0.00061633018698163179 0 -0.04779568555486282 0.00074473735891629554 0 -0.047740740212062878 0.0015021532255262179 0 -0.047409178686436529 0.00097433833119178672 0 -0.046342181237673898 0.0015838919604497311 0 -0.045599087510176946 0.0011859439367258233 0 -0.046119571470286537 0.00015790570150393449 0 -0.045580857433000666 0.0019030677808109277 0 -0.045599087510176946 0.0011859439367258233 0 -0.044977733881408008 0.0015386467714542931 0 -0.045580857433000666 0.0019030677808109277 0 -0.046342181237673898 0.0015838919604497311 0 -0.045599087510176946 0.0011859439367258233 0 -0.046119571470286537 0.00015790570150393449 0 -0.045012938311381291 0.00059937225826590425 0 -0.04541326194756156 -0.00085085186729692093 0 -0.045599087510176946 0.0011859439367258233 0 -0.046119571470286537 0.00015790570150393449 0 -0.045012938311381291 0.00059937225826590425 0 -0.047062806365090394 0.00061633018698163179 0 -0.047740725386077112 -3.2130404725392901e-05 0 -0.04779568555486282 0.00074473735891629554 0 -0.046119571470286537 0.00015790570150393449 0 -0.047062806365090394 0.00061633018698163179 0 -0.046770988455564377 -0.00057368745671962373 0 -0.047062806365090394 0.00061633018698163179 0 -0.047740725386077112 -3.2130404725392901e-05 0 -0.046770988455564377 -0.00057368745671962373 0 -0.047740725386077112 -3.2130404725392901e-05 0 -0.048434901750957493 0.00033201189248765957 0 -0.0484609499346264 -0.00038944572717260759 0 -0.047740725386077112 -3.2130404725392901e-05 0 -0.04779568555486282 0.00074473735891629554 0 -0.048434901750957493 0.00033201189248765957 0 -0.04779568555486282 0.00074473735891629554 0 -0.048434901750957493 0.00033201189248765957 0 -0.048545551395372533 0.0011760791681753868 0 -0.048434901750957493 0.00033201189248765957 0 -0.049170091543339026 0.00055610387616886366 0 -0.048545551395372533 0.0011760791681753868 0 -0.048434901750957493 0.00033201189248765957 0 -0.049095372126020255 -0.0001425835505494169 0 -0.049170091543339026 0.00055610387616886366 0 -0.048434901750957493 0.00033201189248765957 0 -0.049095372126020255 -0.0001425835505494169 0 -0.0484609499346264 -0.00038944572717260759 0 -0.049095372126020255 -0.0001425835505494169 0 -0.049836991272906424 0.00016454732710846832 0 -0.049170091543339026 0.00055610387616886366 0 -0.049095372126020255 -0.0001425835505494169 0 -0.049836991272906424 0.00016454732710846832 0 -0.049762314852030427 -0.00039179325014636638 0 -0.050406021478377333 -0.00014279110926368363 0 -0.049836991272906424 0.00016454732710846832 0 -0.049762314852030427 -0.00039179325014636638 0 -0.050513083449067998 0.00041809626043073418 0 -0.050406021478377333 -0.00014279110926368363 0 -0.049836991272906424 0.00016454732710846832 0 -0.050513083449067998 0.00041809626043073418 0 -0.049836991272906424 0.00016454732710846832 0 -0.049825351336536157 0.00070281544538004846 0 -0.050448910816743284 0.0011508468681952397 0 -0.050513083449067998 0.00041809626043073418 0 -0.049825351336536157 0.00070281544538004846 0 -0.049825351336536157 0.00070281544538004846 0 -0.049170091543339026 0.00055610387616886366 0 -0.04957560174989966 0.0013206048845271791 0 -0.049836991272906424 0.00016454732710846832 0 -0.049825351336536157 0.00070281544538004846 0 -0.049170091543339026 0.00055610387616886366 0 -0.049170091543339026 0.00055610387616886366 0 -0.04957560174989966 0.0013206048845271791 0 -0.048545551395372533 0.0011760791681753868 0 -0.050448910816743284 0.0011508468681952397 0 -0.049825351336536157 0.00070281544538004846 0 -0.04957560174989966 0.0013206048845271791 0 -0.050370381793411148 0.0018993776288331959 0 -0.050448910816743284 0.0011508468681952397 0 -0.04957560174989966 0.0013206048845271791 0 -0.050370381793411148 0.0018993776288331959 0 -0.049263059019511266 0.0023450553196878777 0 -0.04957560174989966 0.0013206048845271791 0 -0.049263059019511266 0.0023450553196878777 0 -0.04957560174989966 0.0013206048845271791 0 -0.048545551395372533 0.0011760791681753868 0 -0.049263059019511266 0.0023450553196878777 0 -0.047359916374722637 0.0015868537693692147 0 -0.048545551395372533 0.0011760791681753868 0 -0.049565970899680574 0.0021995160950248863 0 -0.048659725322215741 0.0019036007564781144 0 -0.047359916374722637 0.0015868537693692147 0 -0.04779568555486282 0.00074473735891629554 0 -0.048545551395372533 0.0011760791681753868 0 -0.042417896114886937 0.00041474841170275153 0 -0.043772444382123105 0.0014350748174021448 0 -0.041743764357416079 0.001915302570019562 0 -0.041117720054065603 0.00044878741360446684 0 -0.041743764357416079 0.001915302570019562 0 -0.039942541769006225 0.0008937784691286911 0 -0.041117720054065603 0.00044878741360446684 0 -0.042417896114886937 0.00041474841170275153 0 -0.041743764357416079 0.001915302570019562 0 -0.041117720054065603 0.00044878741360446684 0 -0.042417896114886937 0.00041474841170275153 0 -0.041131360034022409 -0.00081226336268518768 0 -0.042417896114886937 0.00041474841170275153 0 -0.042528414084042697 -0.00071885139016791431 0 -0.041131360034022409 -0.00081226336268518768 0 -0.04405083899769778 0.00012944288131973302 0 -0.043842919913522023 0.0014475709595693817 0 -0.042417896114886937 0.00041474841170275153 0 -0.044027087619378596 -0.00012512245074382752 0 -0.043772444382123105 0.0014350748174021448 0 -0.042417896114886937 0.00041474841170275153 0 -0.044027087619378596 -0.00012512245074382752 0 -0.042528414084042697 -0.00071885139016791431 0 -0.044123874677725709 -6.8991818714643691e-05 0 -0.045012938311381291 0.00059937225826590425 0 -0.04541326194756156 -0.00085085186729692093 0 -0.044123874677725709 -6.8991818714643691e-05 0 -0.045012938311381291 0.00059937225826590425 0 -0.043921079674990288 0.0015095115476609869 0 -0.045012938311381291 0.00059937225826590425 0 -0.044977733881408008 0.0015386467714542931 0 -0.043921079674990288 0.0015095115476609869 0 -0.045599087510176946 0.0011859439367258233 0 -0.045012938311381291 0.00059937225826590425 0 -0.044977733881408008 0.0015386467714542931 0 -0.043842919913522023 0.0014475709595693817 0 -0.043637384720483584 0.0027369734328027825 0 -0.043772444382123105 0.0014350748174021448 0 -0.04355478824703677 0.0029704970884037707 0 -0.041743764357416079 0.001915302570019562 0 -0.044977733881408008 0.0015386467714542931 0 -0.043921079674990288 0.0015095115476609869 0 -0.04489874010274135 0.0025758066963212441 0 -0.043921079674990288 0.0015095115476609869 0 -0.04489874010274135 0.0025758066963212441 0 -0.043670488324273372 0.0030005238623829278 0 -0.045580857433000666 0.0019030677808109277 0 -0.044977733881408008 0.0015386467714542931 0 -0.04489874010274135 0.0025758066963212441 0 -0.04489874010274135 0.0025758066963212441 0 -0.043670488324273372 0.0030005238623829278 0 -0.044534842037774622 0.0039144819710744171 0 -0.045684413912097217 0.0035316679532510866 0 -0.04489874010274135 0.0025758066963212441 0 -0.044534842037774622 0.0039144819710744171 0 -0.043637384720483584 0.0027369734328027825 0 -0.043526917889128089 0.0034199245440240623 0 -0.043670488324273372 0.0030005238623829278 0 -0.044534842037774622 0.0039144819710744171 0 -0.043367489048127379 0.0044974760486882143 0 -0.04355478824703677 0.0029704970884037707 0 -0.042187846687758802 0.0033146139343227729 0 -0.043367489048127379 0.0044974760486882143 0 -0.04355478824703677 0.0029704970884037707 0 -0.042187846687758802 0.0033146139343227729 0 -0.041743764357416079 0.001915302570019562 0 -0.042278946687851308 0.0027946026952839916 0 -0.042746728074660539 0.0026553047660879915 0 -0.042187846687758802 0.0033146139343227729 0 -0.041743764357416079 0.001915302570019562 0 -0.040802997904778732 0.0035611936879102668 0 -0.042187846687758802 0.0033146139343227729 0 -0.041842182902849939 0.0046754488723960248 0 -0.040802997904778732 0.0035611936879102668 0 -0.041842182902849939 0.0046754488723960248 0 -0.041030048163051912 0.0049329276278509936 0 -0.04094237512569579 0.0036664004541806113 0 -0.042630855930032741 0.0030391827749195626 0 -0.042746728074660539 0.0026553047660879915 0 -0.042187846687758802 0.0033146139343227729 0 -0.041842182902849939 0.0046754488723960248 0 -0.043367489048127379 0.0044974760486882143 0 -0.041842182902849939 0.0046754488723960248 0 -0.043367489048127379 0.0044974760486882143 0 -0.042860639028072467 0.0061769414111562402 0 -0.048690646799473859 0.0017271055097796608 0 -0.049370166485396633 0.0020024207161541212 0 -0.041842182902849939 0.0046754488723960248 0 -0.041306645207917596 0.0057835742720077719 0 -0.042860639028072467 0.0061769414111562402 0 -0.041842182902849939 0.0046754488723960248 0 -0.041030048163051912 0.0049329276278509936 0 -0.041306645207917596 0.0057835742720077719 0 -0.045665558830082865 0.0052308475680523823 0 -0.044534842037774622 0.0039144819710744171 0 -0.044442568585205192 0.0051192104585829432 0 -0.044534842037774622 0.0039144819710744171 0 -0.043367489048127379 0.0044974760486882143 0 -0.044442568585205192 0.0051192104585829432 0 -0.043367489048127379 0.0044974760486882143 0 -0.044442568585205192 0.0051192104585829432 0 -0.042860639028072467 0.0061769414111562402 0 -0.044442568585205192 0.0051192104585829432 0 -0.044478696734530976 0.0065413418945332626 0 -0.042860639028072467 0.0061769414111562402 0 -0.049115349711322275 0.0031672385604317038 0 -0.050676072604927923 0.0018268574529943882 0 -0.045665558830082865 0.0052308475680523823 0 -0.044442568585205192 0.0051192104585829432 0 -0.044478696734530976 0.0065413418945332626 0 -0.054994216906383855 2.8177927354462698e-06 0 -0.054992549656851845 4.485539926488676e-06 0 -0.054997183679497068 1.5727403995531889e-06 0 -0.054948164009107493 2.4320706120181384e-05 0 -0.05498272559973974 1.1937682640333081e-05 0 -0.054982081975706032 1.9352516049151548e-05 0 -0.050676072604927923 0.0018268574529943882 0 -0.049370166485396633 0.0020024207161541212 0 -0.050676072604927923 0.0018268574529943882 0 -0.052992521173048548 2.2907205877011141e-05 0 -0.054999967512801069 7.4392789746673692e-10 0 -0.054996789811146363 -3.4499041909084907e-08 0 -0.054997183679497068 1.5727403995531889e-06 0 -0.054948164009107493 2.4320706120181384e-05 0 -0.05498272559973974 1.1937682640333081e-05 0 -0.054996789811146363 -3.4499041909084907e-08 0 -0.054992549656851845 4.485539926488676e-06 0 -0.054996789811146363 -3.4499041909084907e-08 0 -0.054997183679497068 1.5727403995531889e-06 0 -0.054999967512801069 7.4392789746673692e-10 0 -0.054999995887701478 2.9341527155752516e-09 0 -0.054997183679497068 1.5727403995531889e-06 0 -0.054994216906383855 2.8177927354462698e-06 0 -0.054999995887701478 2.9341527155752516e-09 0 -0.054997183679497068 1.5727403995531889e-06 0 -0.054983843587572009 8.7031661042183954e-06 0 -0.054992470491116482 6.6410344268577875e-06 0 -0.054992370455052439 4.6215471292824523e-06 0 -0.054983843587572009 8.7031661042183954e-06 0 -0.054982081975706032 1.9352516049151548e-05 0 -0.054992470491116482 6.6410344268577875e-06 0 -0.05498272559973974 1.1937682640333081e-05 0 -0.054982081975706032 1.9352516049151548e-05 0 -0.054992470491116482 6.6410344268577875e-06 0 -0.054999967512801069 7.4392789746673692e-10 0 -0.054996789811146363 -3.4499041909084907e-08 0 -0.05499999225328716 4.7993516261573246e-09 0 -0.054996789811146363 -3.4499041909084907e-08 0 -0.054992470491116482 6.6410344268577875e-06 0 -0.05499999225328716 4.7993516261573246e-09 0 -0.05498272559973974 1.1937682640333081e-05 0 -0.054996789811146363 -3.4499041909084907e-08 0 -0.054992470491116482 6.6410344268577875e-06 0 -0.054992470491116482 6.6410344268577875e-06 0 -0.05499999225328716 4.7993516261573246e-09 0 -0.054992370455052439 4.6215471292824523e-06 0 -0.05499999225328716 4.7993516261573246e-09 0 -0.054992370455052439 4.6215471292824523e-06 0 -0.054999980895310989 5.6749539967262654e-09 0 -0.054992370455052439 4.6215471292824523e-06 0 -0.054989140379762762 3.8858616478168708e-06 0 -0.054999980895310989 5.6749539967262654e-09 0 -0.054983843587572009 8.7031661042183954e-06 0 -0.054992370455052439 4.6215471292824523e-06 0 -0.054989140379762762 3.8858616478168708e-06 0 -0.054983843587572009 8.7031661042183954e-06 0 -0.054989140379762762 3.8858616478168708e-06 0 -0.054978093869517561 4.3760123710747686e-06 0 -0.054985287877767908 2.0204674194887076e-06 0 -0.05497989098913534 8.582542368687944e-06 0 -0.054946730694823517 1.7997819898426313e-05 0 -0.051312430696342073 -0.00072695784904360655 0 -0.048817756288499735 0.00099140359226315439 0 -0.054989140379762762 3.8858616478168708e-06 0 -0.054985287877767908 2.0204674194887076e-06 0 -0.054978093869517561 4.3760123710747686e-06 0 -0.054989140379762762 3.8858616478168708e-06 0 -0.054999980895310989 5.6749539967262654e-09 0 -0.054985287877767908 2.0204674194887076e-06 0 -0.054985287877767908 2.0204674194887076e-06 0 -0.054999977024511287 -1.1631432794327749e-09 0 -0.05499507528679997 1.3150777020712487e-06 0 -0.054999980895310989 5.6749539967262654e-09 0 -0.054985287877767908 2.0204674194887076e-06 0 -0.054999977024511287 -1.1631432794327749e-09 0 -0.054985287877767908 2.0204674194887076e-06 0 -0.05499507528679997 1.3150777020712487e-06 0 -0.054988292500427992 5.9277480055561978e-06 0 -0.054999977024511287 -1.1631432794327749e-09 0 -0.05499507528679997 1.3150777020712487e-06 0 -0.054999998999297382 5.3550302233355651e-10 0 -0.05499507528679997 1.3150777020712487e-06 0 -0.054988292500427992 5.9277480055561978e-06 0 -0.054996972214607899 2.0924621097933916e-06 0 -0.054453003852963401 -0.00027882793921153742 0 -0.054160234613862324 -0.00039805077466026557 0 -0.054988292500427992 5.9277480055561978e-06 0 -0.054979631076890828 5.5892545872057482e-06 0 -0.054976147783273276 6.9742703565838987e-06 0 -0.054988292500427992 5.9277480055561978e-06 0 -0.054981687762724676 8.1766270596795591e-06 0 -0.05497989098913534 8.582542368687944e-06 0 -0.054988292500427992 5.9277480055561978e-06 0 -0.054981687762724676 8.1766270596795591e-06 0 -0.054979733228243753 7.6325550834605557e-06 0 -0.054988292500427992 5.9277480055561978e-06 0 -0.054979631076890828 5.5892545872057482e-06 0 -0.054979733228243753 7.6325550834605557e-06 0 -0.054985287877767908 2.0204674194887076e-06 0 -0.054988292500427992 5.9277480055561978e-06 0 -0.05497989098913534 8.582542368687944e-06 0 -0.049527580990748922 0.00074846088779242058 0 -0.049999051098903742 0.00051731182887933898 0 -0.05497989098913534 8.582542368687944e-06 0 -0.054965057007395228 1.8787614233820495e-05 0 -0.054946730694823517 1.7997819898426313e-05 0 -0.054965057007395228 1.8787614233820495e-05 0 -0.054977946814181861 1.0835322146321748e-05 0 -0.054975044234339819 1.4409479450145986e-05 0 -0.054981687762724676 8.1766270596795591e-06 0 -0.05497989098913534 8.582542368687944e-06 0 -0.054977946814181861 1.0835322146321748e-05 0 -0.05497989098913534 8.582542368687944e-06 0 -0.054965057007395228 1.8787614233820495e-05 0 -0.054977946814181861 1.0835322146321748e-05 0 -0.054979453862986874 5.8048552094839181e-06 0 -0.054979733228243753 7.6325550834605557e-06 0 -0.054975044234339819 1.4409479450145986e-05 0 -0.053324071153192647 -0.00039536348335288861 0 -0.053419794519633253 -0.00039318888745359541 0 -0.054981687762724676 8.1766270596795591e-06 0 -0.054979733228243753 7.6325550834605557e-06 0 -0.054977946814181861 1.0835322146321748e-05 0 -0.054979733228243753 7.6325550834605557e-06 0 -0.054977946814181861 1.0835322146321748e-05 0 -0.054975044234339819 1.4409479450145986e-05 0 -0.053324071153192647 -0.00039536348335288861 0 -0.049999051098903742 0.00051731182887933898 0 -0.044255651170323637 0.00092073073317814117 0 -0.044032332704140933 0.00057808270796691908 0 -0.043607886534397212 0.00075352345477028412 0 -0.044255651170323637 0.00092073073317814117 0 -0.044032332704140933 0.00057808270796691908 0 -0.044591069259885319 0.00062086599549637063 0 -0.044672138966142527 0.0010159746436247327 0 -0.044591069259885319 0.00062086599549637063 0 -0.044905927279784021 0.00073500704743652474 0 -0.044672138966142527 0.0010159746436247327 0 -0.044289384761808472 0.00092440110840173143 0 -0.044591069259885319 0.00062086599549637063 0 -0.049999051098903742 0.00051731182887933898 0 -0.048560925483466154 0.0012857155141740924 0 -0.044591069259885319 0.00062086599549637063 0 -0.044905927279784021 0.00073500704743652474 0 -0.044698122352539671 0.00036979724075183556 0 -0.044905927279784021 0.00073500704743652474 0 -0.045081598628107698 0.00050337224103825422 0 -0.044698122352539671 0.00036979724075183556 0 -0.044905927279784021 0.00073500704743652474 0 -0.0452910486015278 0.00075378114681985393 0 -0.045074015072279268 0.001109431300142511 0 -0.044905927279784021 0.00073500704743652474 0 -0.0452910486015278 0.00075378114681985393 0 -0.045081598628107698 0.00050337224103825422 0 -0.041030048163051912 0.0049329276278509936 0 -0.040399082623448601 0.0045492433798734466 0 -0.04094237512569579 0.0036664004541806113 0 -0.0452910486015278 0.00075378114681985393 0 -0.045510232280018138 0.00039673736917147142 0 -0.045081598628107698 0.00050337224103825422 0 -0.045198716897156058 0.0023637469180919873 0 -0.042746728074660539 0.0026553047660879915 0 -0.041030048163051912 0.0049329276278509936 0 -0.040399082623448601 0.0045492433798734466 0 -0.039861351157776011 0.0054249255266395719 0 -0.048690646799473859 0.0017271055097796608 0 -0.048817756288499735 0.00099140359226315439 0 -0.041030048163051912 0.0049329276278509936 0 -0.041306645207917596 0.0057835742720077719 0 -0.039861351157776011 0.0054249255266395719 0 -0.045198716897156058 0.0023637469180919873 0 -0.048817756288499735 0.00099140359226315439 0 -0.049527580990748922 0.00074846088779242058 0 -0.048817756288499735 0.00099140359226315439 0 -0.044672138966142527 0.0010159746436247327 0 -0.044905927279784021 0.00073500704743652474 0 -0.045074015072279268 0.001109431300142511 0 -0.055131964742536406 -0.0006321362853334944 0 -0.05512752657673696 -0.00064432759377377785 0 -0.055173873686986584 -0.00042695232262525851 0 -0.055362134222950693 -0.00064547326934456903 0 -0.055051235416018605 -0.00069313372928530659 0 -0.055173873686986584 -0.00042695232262525851 0 -0.055515146206754226 -0.00037935209210937884 0 -0.055362134222950693 -0.00064547326934456903 0 -0.055173873686986584 -0.00042695232262525851 0 -0.055003035704347676 -4.9762118310414332e-07 0 -0.055515146206754226 -0.00037935209210937884 0 -0.054999825753376988 -5.6066231735064811e-07 0 -0.054938598992045284 -0.00033358644032460141 0 -0.054999994601837174 -5.1358320823284739e-09 0 -0.054999202607400439 -4.3068632672480764e-07 0 -0.054995659629691371 -1.3089498710725575e-06 0 -0.055000002302939825 2.4579514562230831e-09 0 -0.054999994601837174 -5.1358320823284739e-09 0 -0.054999202607400439 -4.3068632672480764e-07 0 -0.055631533258393553 -0.00059020315749750861 0 -0.05581510364903023 -0.00067141258155924588 0 -0.055362134222950693 -0.00064547326934456903 0 -0.055515146206754226 -0.00037935209210937884 0 -0.055631533258393553 -0.00059020315749750861 0 -0.055841791943730713 -0.00067293194055315574 0 -0.055515146206754226 -0.00037935209210937884 0 -0.055631533258393553 -0.00059020315749750861 0 -0.055362134222950693 -0.00064547326934456903 0 -0.054938598992045284 -0.00033358644032460141 0 -0.054446579430610299 -0.00053446146143348156 0 -0.054995659629691371 -1.3089498710725575e-06 0 -0.054990879423000273 -5.8656736849592657e-08 0 -0.054994205192019113 1.1463642629848642e-06 0 -0.054999202607400439 -4.3068632672480764e-07 0 -0.054995659629691371 -1.3089498710725575e-06 0 -0.054994205192019113 1.1463642629848642e-06 0 -0.055000001526401394 4.0175208366375586e-10 0 -0.05500026865330588 1.2239091672243174e-06 0 -0.054999998999297382 5.3550302233355651e-10 0 -0.054999325034230079 -5.7736246552691905e-07 0 -0.054675891966935265 -0.00020496578025381494 0 -0.05500026865330588 1.2239091672243174e-06 0 -0.054999998999297382 5.3550302233355651e-10 0 -0.054996972214607899 2.0924621097933916e-06 0 -0.05499507528679997 1.3150777020712487e-06 0 -0.054999998999297382 5.3550302233355651e-10 0 -0.054996972214607899 2.0924621097933916e-06 0 -0.05500026865330588 1.2239091672243174e-06 0 -0.054996972214607899 2.0924621097933916e-06 0 -0.05499688069401712 6.8414381426393251e-06 0 -0.054988292500427992 5.9277480055561978e-06 0 -0.054996972214607899 2.0924621097933916e-06 0 -0.05499688069401712 6.8414381426393251e-06 0 -0.054675891966935265 -0.00020496578025381494 0 -0.054160234613862324 -0.00039805077466026557 0 -0.054160234613862324 -0.00039805077466026557 0 -0.054446579430610299 -0.00053446146143348156 0 -0.053324071153192647 -0.00039536348335288861 0 -0.054160234613862324 -0.00039805077466026557 0 -0.052956169167029436 -0.0014800467904087383 0 -0.05337121678886031 -0.0013099880696182671 0 -0.053611536358752931 -0.0015178093778285304 0 -0.052956169167029436 -0.0014800467904087383 0 -0.052553174992657978 -0.001102630942692363 0 -0.053369109490499542 -0.00093869575030411335 0 -0.052956169167029436 -0.0014800467904087383 0 -0.05337121678886031 -0.0013099880696182671 0 -0.053369109490499542 -0.00093869575030411335 0 -0.054023088523153719 -0.00061078230537057522 0 -0.05405603342035975 -0.00064134847439754905 0 -0.054116704010299561 -0.00061690991930039905 0 -0.053324071153192647 -0.00039536348335288861 0 -0.054446579430610299 -0.00053446146143348156 0 -0.049999051098903742 0.00051731182887933898 0 -0.04876006195099318 6.9505304010600934e-05 0 -0.053369109490499542 -0.00093869575030411335 0 -0.053732026492154514 -0.0011323017847173951 0 -0.054147867959339652 -0.00081956498091541395 0 -0.04876006195099318 6.9505304010600934e-05 0 -0.048582304822513273 -7.8638240160116364e-05 0 -0.043607886534397212 0.00075352345477028412 0 -0.043008500857686378 0.00060233159537038006 0 -0.043243627935824334 0.00016018839897222355 0 -0.053907354234854779 -0.0012656609860240383 0 -0.053732026492154514 -0.0011323017847173951 0 -0.053654756464487779 -0.0013574072555289668 0 -0.053907354234854779 -0.0012656609860240383 0 -0.053732026492154514 -0.0011323017847173951 0 -0.054053711055083609 -0.0011176839221562866 0 -0.05337121678886031 -0.0013099880696182671 0 -0.053732026492154514 -0.0011323017847173951 0 -0.053654756464487779 -0.0013574072555289668 0 -0.05337121678886031 -0.0013099880696182671 0 -0.053369109490499542 -0.00093869575030411335 0 -0.053732026492154514 -0.0011323017847173951 0 -0.05337121678886031 -0.0013099880696182671 0 -0.053654756464487779 -0.0013574072555289668 0 -0.053608651368115406 -0.0015117913811066028 0 -0.054389919521524915 -0.00055453971410459983 0 -0.054446579430610299 -0.00053446146143348156 0 -0.053654756464487779 -0.0013574072555289668 0 -0.053608651368115406 -0.0015117913811066028 0 -0.05365681525794997 -0.0015136848829589236 0 -0.054446579430610299 -0.00053446146143348156 0 -0.054527027438999433 -0.00056247173278985195 0 -0.055631533258393553 -0.00059020315749750861 0 -0.055841791943730713 -0.00067293194055315574 0 -0.05581510364903023 -0.00067141258155924588 0 -0.053907354234854779 -0.0012656609860240383 0 -0.053654756464487779 -0.0013574072555289668 0 -0.05365681525794997 -0.0015136848829589236 0 -0.054527027438999433 -0.00056247173278985195 0 -0.054721625105392697 -0.0007692373184326819 0 -0.055485477756783495 -0.00072448477605441817 0 -0.055266301653750426 -0.00081406275913280235 0 -0.05527735260355305 -0.00071432375718662698 0 -0.053907354234854779 -0.0012656609860240383 0 -0.05365681525794997 -0.0015136848829589236 0 -0.054429339634488413 -0.0012005548254164034 0 -0.053907354234854779 -0.0012656609860240383 0 -0.054053711055083609 -0.0011176839221562866 0 -0.054429339634488413 -0.0012005548254164034 0 -0.054527027438999433 -0.00056247173278985195 0 -0.055131964742536406 -0.0006321362853334944 0 -0.053732026492154514 -0.0011323017847173951 0 -0.054053711055083609 -0.0011176839221562866 0 -0.054147867959339652 -0.00081956498091541395 0 -0.054053711055083609 -0.0011176839221562866 0 -0.054147867959339652 -0.00081956498091541395 0 -0.054429339634488413 -0.0012005548254164034 0 -0.048582304822513273 -7.8638240160116364e-05 0 -0.048514201396565988 -0.00018330912346383233 0 -0.054147867959339652 -0.00081956498091541395 0 -0.054429339634488413 -0.0012005548254164034 0 -0.054811835256819035 -0.00075442876273092607 0 -0.055266301653750426 -0.00081406275913280235 0 -0.05527735260355305 -0.00071432375718662698 0 -0.055051235416018605 -0.00069313372928530659 0 -0.042756583447310349 6.4968974448559487e-05 0 -0.042662527162347322 -0.00029299993851771017 0 -0.042354541195714641 -0.00011086688469860133 0 -0.042756583447310349 6.4968974448559487e-05 0 -0.042967973242305016 -0.00019488483252546606 0 -0.042662527162347322 -0.00029299993851771017 0 -0.042756583447310349 6.4968974448559487e-05 0 -0.042415417222588854 0.00045998048864827595 0 -0.042354541195714641 -0.00011086688469860133 0 -0.043008500857686378 0.00060233159537038006 0 -0.042756583447310349 6.4968974448559487e-05 0 -0.042415417222588854 0.00045998048864827595 0 -0.043008500857686378 0.00060233159537038006 0 -0.042756583447310349 6.4968974448559487e-05 0 -0.043243627935824334 0.00016018839897222355 0 -0.042756583447310349 6.4968974448559487e-05 0 -0.042967973242305016 -0.00019488483252546606 0 -0.043243627935824334 0.00016018839897222355 0 -0.042967973242305016 -0.00019488483252546606 0 -0.043243627935824334 0.00016018839897222355 0 -0.043324888782176454 -0.00025161151893405095 0 -0.043243627935824334 0.00016018839897222355 0 -0.043791524674879456 9.4645753815096755e-05 0 -0.043324888782176454 -0.00025161151893405095 0 -0.043607886534397212 0.00075352345477028412 0 -0.043243627935824334 0.00016018839897222355 0 -0.043791524674879456 9.4645753815096755e-05 0 -0.044032332704140933 0.00057808270796691908 0 -0.043607886534397212 0.00075352345477028412 0 -0.043791524674879456 9.4645753815096755e-05 0 -0.042723144739273557 0.00042828192623278966 0 -0.042033285442546732 0.00022875027227968944 0 -0.043791524674879456 9.4645753815096755e-05 0 -0.043624120796739579 -0.00040839377843348684 0 -0.043957725522716359 -0.00038875486174340536 0 -0.043791524674879456 9.4645753815096755e-05 0 -0.043624120796739579 -0.00040839377843348684 0 -0.043177469987834657 -0.00031299600519748156 0 -0.043624120796739579 -0.00040839377843348684 0 -0.043759296819421173 -0.00067062320796821434 0 -0.043957725522716359 -0.00038875486174340536 0 -0.043624120796739579 -0.00040839377843348684 0 -0.043759296819421173 -0.00067062320796821434 0 -0.043347608609323449 -0.00064980398716982962 0 -0.040163896100302687 -0.00069542942730986632 0 -0.040397689718052548 -0.00052683921907095829 0 -0.038390407984832682 -0.00059202471413068365 0 -0.039083120760874807 -0.00071597857612748961 0 -0.03853296053769021 -0.0012023634586090562 0 -0.038390407984832682 -0.00059202471413068365 0 -0.038071621530215906 -0.00098930919807067169 0 -0.03853296053769021 -0.0012023634586090562 0 -0.043759296819421173 -0.00067062320796821434 0 -0.043508945660809165 -0.00091913604952701517 0 -0.04401924425745702 -0.00099675943415374556 0 -0.043759296819421173 -0.00067062320796821434 0 -0.043508945660809165 -0.00091913604952701517 0 -0.043347608609323449 -0.00064980398716982962 0 -0.040163896100302687 -0.00069542942730986632 0 -0.038886303187286218 -0.00069752116902226113 0 -0.037701233838470564 -0.00046776838337277376 0 -0.037609610064466011 -0.0012037649614570784 0 -0.038071621530215906 -0.00098930919807067169 0 -0.043508945660809165 -0.00091913604952701517 0 -0.043347608609323449 -0.00064980398716982962 0 -0.042968511322075263 -0.00083706133532669127 0 -0.038390407984832682 -0.00059202471413068365 0 -0.037701233838470564 -0.00046776838337277376 0 -0.038071621530215906 -0.00098930919807067169 0 -0.042981832466854171 -0.0007248801686794941 0 -0.043347608609323449 -0.00064980398716982962 0 -0.042968511322075263 -0.00083706133532669127 0 -0.042981832466854171 -0.0007248801686794941 0 -0.043347608609323449 -0.00064980398716982962 0 -0.043177469987834657 -0.00031299600519748156 0 -0.043624120796739579 -0.00040839377843348684 0 -0.043347608609323449 -0.00064980398716982962 0 -0.043177469987834657 -0.00031299600519748156 0 -0.042967973242305016 -0.00019488483252546606 0 -0.042854526389148148 -0.00060267411543968373 0 -0.042662527162347322 -0.00029299993851771017 0 -0.042981832466854171 -0.0007248801686794941 0 -0.043177469987834657 -0.00031299600519748156 0 -0.042551580033075936 -0.00076490169149041594 0 -0.042967973242305016 -0.00019488483252546606 0 -0.043324888782176454 -0.00025161151893405095 0 -0.042854526389148148 -0.00060267411543968373 0 -0.042033285442546732 0.00022875027227968944 0 -0.039293729184534325 -0.00070263974645264071 0 -0.038886303187286218 -0.00069752116902226113 0 -0.039293729184534325 -0.00070263974645264071 0 -0.038886303187286218 -0.00069752116902226113 0 -0.037096735844776532 -0.0014680295209100801 0 -0.042981832466854171 -0.0007248801686794941 0 -0.042966480671786676 -0.00084228808511645475 0 -0.042551580033075936 -0.00076490169149041594 0 -0.036222940940173719 -0.0012643124405018623 0 -0.036136736709591569 -0.0013990389671550622 0 -0.036183424257782537 -0.0016051550847521838 0 -0.036222940940173719 -0.0012643124405018623 0 -0.036136736709591569 -0.0013990389671550622 0 -0.036026128849486416 -0.0012506366566975608 0 -0.038911566601635347 -0.00069053267217953848 0 -0.038886303187286218 -0.00069752116902226113 0 -0.036098800742889937 -0.0015738109585205027 0 -0.03634610538431915 -0.0015995527319370255 0 -0.037528095897340977 -0.00073817412436470557 0 -0.036694320951152527 -0.00058982619628388281 0 -0.036710422291804955 -0.0013501305343993184 0 -0.036136736709591569 -0.0013990389671550622 0 -0.036026128849486416 -0.0012506366566975608 0 -0.035764889930186845 -0.001457949291800847 0 -0.039293729184534325 -0.00070263974645264071 0 -0.03634610538431915 -0.0015995527319370255 0 -0.042662527162347322 -0.00029299993851771017 0 -0.042354541195714641 -0.00011086688469860133 0 -0.042383734040688757 -0.00051725014576640038 0 -0.039293729184534325 -0.00070263974645264071 0 -0.039355737009887801 -0.00065119161956096847 0 -0.042854526389148148 -0.00060267411543968373 0 -0.042662527162347322 -0.00029299993851771017 0 -0.042383734040688757 -0.00051725014576640038 0 -0.045108310868559674 -6.3416206257516374e-05 0 -0.044794768572436673 -5.3555650289775605e-05 0 -0.044986880418040387 0.00021534843631142164 0 -0.044794768572436673 -5.3555650289775605e-05 0 -0.044986880418040387 0.00021534843631142164 0 -0.044681292635957284 9.4538016078759779e-05 0 -0.045108310868559674 -6.3416206257516374e-05 0 -0.044794768572436673 -5.3555650289775605e-05 0 -0.04470731110547916 -0.00035458398852289966 0 -0.041743764357416079 0.001915302570019562 0 -0.039580305537491957 0.0023420176881130887 0 -0.04070338221802975 0.0035929699102210679 0 -0.045108310868559674 -6.3416206257516374e-05 0 -0.045510232280018138 0.00039673736917147142 0 -0.044986880418040387 0.00021534843631142164 0 -0.045510232280018138 0.00039673736917147142 0 -0.045081598628107698 0.00050337224103825422 0 -0.044986880418040387 0.00021534843631142164 0 -0.041948822637715578 0.0015220635431764298 0 -0.042746728074660539 0.0026553047660879915 0 -0.044986880418040387 0.00021534843631142164 0 -0.044698122352539671 0.00036979724075183556 0 -0.044681292635957284 9.4538016078759779e-05 0 -0.045081598628107698 0.00050337224103825422 0 -0.044986880418040387 0.00021534843631142164 0 -0.044698122352539671 0.00036979724075183556 0 -0.044698122352539671 0.00036979724075183556 0 -0.044237823106887689 0.00030511552681774097 0 -0.044450372244605803 0.00010210763104395924 0 -0.044591069259885319 0.00062086599549637063 0 -0.044698122352539671 0.00036979724075183556 0 -0.044237823106887689 0.00030511552681774097 0 -0.044698122352539671 0.00036979724075183556 0 -0.044681292635957284 9.4538016078759779e-05 0 -0.044450372244605803 0.00010210763104395924 0 -0.044032332704140933 0.00057808270796691908 0 -0.044591069259885319 0.00062086599549637063 0 -0.044237823106887689 0.00030511552681774097 0 -0.044032332704140933 0.00057808270796691908 0 -0.043791524674879456 9.4645753815096755e-05 0 -0.044237823106887689 0.00030511552681774097 0 -0.043791524674879456 9.4645753815096755e-05 0 -0.044237823106887689 0.00030511552681774097 0 -0.044218115653847694 -0.00013818878433150382 0 -0.043791524674879456 9.4645753815096755e-05 0 -0.044218115653847694 -0.00013818878433150382 0 -0.043957725522716359 -0.00038875486174340536 0 -0.044237823106887689 0.00030511552681774097 0 -0.044218115653847694 -0.00013818878433150382 0 -0.044450372244605803 0.00010210763104395924 0 -0.044794768572436673 -5.3555650289775605e-05 0 -0.044681292635957284 9.4538016078759779e-05 0 -0.044535919402308936 -0.0001246678736559016 0 -0.044681292635957284 9.4538016078759779e-05 0 -0.044450372244605803 0.00010210763104395924 0 -0.044535919402308936 -0.0001246678736559016 0 -0.044218115653847694 -0.00013818878433150382 0 -0.044450372244605803 0.00010210763104395924 0 -0.044535919402308936 -0.0001246678736559016 0 -0.044218115653847694 -0.00013818878433150382 0 -0.044535919402308936 -0.0001246678736559016 0 -0.044409340401078516 -0.00035077077112708577 0 -0.044535919402308936 -0.0001246678736559016 0 -0.044409340401078516 -0.00035077077112708577 0 -0.04470731110547916 -0.00035458398852289966 0 -0.044794768572436673 -5.3555650289775605e-05 0 -0.044535919402308936 -0.0001246678736559016 0 -0.04470731110547916 -0.00035458398852289966 0 -0.042216412844475991 8.4902277031710419e-05 0 -0.042758756595098153 0.00025836489142659597 0 -0.044409340401078516 -0.00035077077112708577 0 -0.044377370609675858 -0.00066281606270222741 0 -0.044206701225800907 -0.00044864583505602814 0 -0.044409340401078516 -0.00035077077112708577 0 -0.044377370609675858 -0.00066281606270222741 0 -0.04470731110547916 -0.00035458398852289966 0 -0.044233383722913799 -0.00072382841474686764 0 -0.0446535932228306 -0.0005771311377449882 0 -0.04470731110547916 -0.00035458398852289966 0 -0.043957725522716359 -0.00038875486174340536 0 -0.044206701225800907 -0.00044864583505602814 0 -0.04407793476874089 -0.00066087448422811484 0 -0.044218115653847694 -0.00013818878433150382 0 -0.043957725522716359 -0.00038875486174340536 0 -0.044206701225800907 -0.00044864583505602814 0 -0.044218115653847694 -0.00013818878433150382 0 -0.044409340401078516 -0.00035077077112708577 0 -0.044206701225800907 -0.00044864583505602814 0 -0.044377370609675858 -0.00066281606270222741 0 -0.044206701225800907 -0.00044864583505602814 0 -0.04407793476874089 -0.00066087448422811484 0 -0.043759296819421173 -0.00067062320796821434 0 -0.043957725522716359 -0.00038875486174340536 0 -0.04407793476874089 -0.00066087448422811484 0 -0.043759296819421173 -0.00067062320796821434 0 -0.04407793476874089 -0.00066087448422811484 0 -0.04401924425745702 -0.00099675943415374556 0 -0.042216412844475991 8.4902277031710419e-05 0 -0.040397689718052548 -0.00052683921907095829 0 -0.044377370609675858 -0.00066281606270222741 0 -0.04407793476874089 -0.00066087448422811484 0 -0.04401924425745702 -0.00099675943415374556 0 -0.044233383722913799 -0.00072382841474686764 0 -0.044074171946614407 -0.0012029702708451714 0 -0.043742428051684427 -0.0011437772976771086 0 -0.039583677603282713 -0.00028743607869491047 0 -0.040397689718052548 -0.00052683921907095829 0 -0.039726295120780908 -0.00022405403276085561 0 -0.039059461346625489 -0.00010304192419238349 0 -0.03930669774936553 -0.00069429751943584619 0 -0.039027544370882447 -0.00035095487666684356 0 -0.038615470585613709 -0.00071935113614847326 0 -0.03933788924025601 -0.00013056268201266631 0 -0.039586319828084672 -0.00017523452895579366 0 -0.039020518420413722 -0.00048712945628812717 0 -0.039583677603282713 -0.00028743607869491047 0 -0.038615470585613709 -0.00071935113614847326 0 -0.038491132617124606 0.0010998720595236594 0 -0.037427657870046767 -0.00011070826749177142 0 -0.038158950137312506 7.5045660441878267e-05 0 -0.037724842165608424 -0.00016118426378500521 0 -0.038158950137312506 7.5045660441878267e-05 0 -0.039446762980046103 -0.00048439711668697445 0 -0.040991266784068572 0.00061982543917583335 0 -0.039583677603282713 -0.00028743607869491047 0 -0.044233383722913799 -0.00072382841474686764 0 -0.0446535932228306 -0.0005771311377449882 0 -0.044074171946614407 -0.0012029702708451714 0 -0.038491132617124606 0.0010998720595236594 0 -0.038158950137312506 7.5045660441878267e-05 0 -0.039039033656682459 0.00034773289421886672 0 -0.037427657870046767 -0.00011070826749177142 0 -0.037727223875092607 -0.00016418124878533427 0 -0.038158950137312506 7.5045660441878267e-05 0 -0.039027544370882447 -0.00035095487666684356 0 -0.0389672635000737 -0.00036466192310814077 0 -0.039583677603282713 -0.00028743607869491047 0 -0.039027544370882447 -0.00035095487666684356 0 -0.039039033656682459 0.00034773289421886672 0 -0.039942541769006225 0.0008937784691286911 0 -0.039446762980046103 -0.00048439711668697445 0 -0.038158950137312506 7.5045660441878267e-05 0 -0.039039033656682459 0.00034773289421886672 0 -0.039446762980046103 -0.00048439711668697445 0 -0.039027544370882447 -0.00035095487666684356 0 -0.039379240041768432 -0.00043980595020726707 0 -0.038491132617124606 0.0010998720595236594 0 -0.039039033656682459 0.00034773289421886672 0 -0.039942541769006225 0.0008937784691286911 0 -0.039580305537491957 0.0023420176881130887 0 -0.038491132617124606 0.0010998720595236594 0 -0.039942541769006225 0.0008937784691286911 0 -0.045108310868559674 -6.3416206257516374e-05 0 -0.0446535932228306 -0.0005771311377449882 0 -0.04470731110547916 -0.00035458398852289966 0 -0.041948822637715578 0.0015220635431764298 0 -0.040991266784068572 0.00061982543917583335 0 -0.041743764357416079 0.001915302570019562 0 -0.039580305537491957 0.0023420176881130887 0 -0.039942541769006225 0.0008937784691286911 0 -0.041117720054065603 0.00044878741360446684 0 -0.039446762980046103 -0.00048439711668697445 0 -0.041131360034022409 -0.00081226336268518768 0 -0.041117720054065603 0.00044878741360446684 0 -0.039942541769006225 0.0008937784691286911 0 -0.039446762980046103 -0.00048439711668697445 0 -0.039688150471257205 -0.0016091718114491309 0 -0.039090329162431679 -0.00039544306732712347 0 -0.041131360034022409 -0.00081226336268518768 0 -0.039379240041768432 -0.00043980595020726707 0 -0.040090330908560158 -0.00057930431253876526 0 -0.039688150471257205 -0.0016091718114491309 0 -0.039879283849155171 -0.0026450135573423349 0 -0.041126747470983487 -0.0021248383165265476 0 -0.039688150471257205 -0.0016091718114491309 0 -0.039879283849155171 -0.0026450135573423349 0 -0.03854642239139186 -0.0023185932973148814 0 -0.039688150471257205 -0.0016091718114491309 0 -0.03854642239139186 -0.0023185932973148814 0 -0.038349261439126758 -0.0013164503587894251 0 -0.03854642239139186 -0.0023185932973148814 0 -0.037667602195424629 -0.0024276129801706417 0 -0.038715640624119946 -0.0032480470585564683 0 -0.03854642239139186 -0.0023185932973148814 0 -0.038349261439126758 -0.0013164503587894251 0 -0.037790043817027295 -0.0017936072528687923 0 -0.039688150471257205 -0.0016091718114491309 0 -0.038349261439126758 -0.0013164503587894251 0 -0.039090329162431679 -0.00039544306732712347 0 -0.037116015690455882 -3.8069633939636128e-05 0 -0.038349261439126758 -0.0013164503587894251 0 -0.039090329162431679 -0.00039544306732712347 0 -0.037116015690455882 -3.8069633939636128e-05 0 -0.038349261439126758 -0.0013164503587894251 0 -0.037260658156510459 -0.0012347440134551414 0 -0.037116015690455882 -3.8069633939636128e-05 0 -0.037260658156510459 -0.0012347440134551414 0 -0.036747161784482167 -0.00071383507712302586 0 -0.038349261439126758 -0.0013164503587894251 0 -0.037260658156510459 -0.0012347440134551414 0 -0.037790043817027295 -0.0017936072528687923 0 -0.039059461346625489 -0.00010304192419238349 0 -0.03930669774936553 -0.00069429751943584619 0 -0.037992584679718361 -0.0010516207645738717 0 -0.038615470585613709 -0.00071935113614847326 0 -0.037230136064772455 -0.0014060652083089957 0 -0.038615470585613709 -0.00071935113614847326 0 -0.038178398418460567 -0.0010076671162532861 0 -0.037116015690455882 -3.8069633939636128e-05 0 -0.036747161784482167 -0.00071383507712302586 0 -0.03633765705027895 -0.00046714190967299195 0 -0.036747161784482167 -0.00071383507712302586 0 -0.03633765705027895 -0.00046714190967299195 0 -0.0363221216173574 -0.0011336608029827546 0 -0.037260658156510459 -0.0012347440134551414 0 -0.036747161784482167 -0.00071383507712302586 0 -0.0363221216173574 -0.0011336608029827546 0 -0.037260658156510459 -0.0012347440134551414 0 -0.0363221216173574 -0.0011336608029827546 0 -0.03645179887279186 -0.0017406682991668013 0 -0.0363221216173574 -0.0011336608029827546 0 -0.03595676423953148 -0.0015997727599785525 0 -0.03645179887279186 -0.0017406682991668013 0 -0.0363221216173574 -0.0011336608029827546 0 -0.03595676423953148 -0.0015997727599785525 0 -0.035642737408852897 -0.0012458551013704981 0 -0.03633765705027895 -0.00046714190967299195 0 -0.0363221216173574 -0.0011336608029827546 0 -0.035642737408852897 -0.0012458551013704981 0 -0.03595676423953148 -0.0015997727599785525 0 -0.03645179887279186 -0.0017406682991668013 0 -0.035815231330903349 -0.0021566112367150882 0 -0.03595676423953148 -0.0015997727599785525 0 -0.035815231330903349 -0.0021566112367150882 0 -0.035346697219030249 -0.0017149601244487267 0 -0.03645179887279186 -0.0017406682991668013 0 -0.03669835999984894 -0.0023529627436839123 0 -0.037162941508015551 -0.0018785720343881124 0 -0.03645179887279186 -0.0017406682991668013 0 -0.03669835999984894 -0.0023529627436839123 0 -0.035815231330903349 -0.0021566112367150882 0 -0.035815231330903349 -0.0021566112367150882 0 -0.036177407166637865 -0.002793755118546481 0 -0.035459339541218812 -0.0029682502050523297 0 -0.03669835999984894 -0.0023529627436839123 0 -0.035815231330903349 -0.0021566112367150882 0 -0.036177407166637865 -0.002793755118546481 0 -0.037790043817027295 -0.0017936072528687923 0 -0.037162941508015551 -0.0018785720343881124 0 -0.037667602195424629 -0.0024276129801706417 0 -0.037260658156510459 -0.0012347440134551414 0 -0.03645179887279186 -0.0017406682991668013 0 -0.037162941508015551 -0.0018785720343881124 0 -0.037260658156510459 -0.0012347440134551414 0 -0.037790043817027295 -0.0017936072528687923 0 -0.037162941508015551 -0.0018785720343881124 0 -0.03669835999984894 -0.0023529627436839123 0 -0.037667602195424629 -0.0024276129801706417 0 -0.036920277950087017 -0.0031204434358654116 0 -0.03669835999984894 -0.0023529627436839123 0 -0.037162941508015551 -0.0018785720343881124 0 -0.037667602195424629 -0.0024276129801706417 0 -0.03854642239139186 -0.0023185932973148814 0 -0.037790043817027295 -0.0017936072528687923 0 -0.037667602195424629 -0.0024276129801706417 0 -0.037667602195424629 -0.0024276129801706417 0 -0.036920277950087017 -0.0031204434358654116 0 -0.037714776577444563 -0.0036627744148357523 0 -0.037667602195424629 -0.0024276129801706417 0 -0.037714776577444563 -0.0036627744148357523 0 -0.038715640624119946 -0.0032480470585564683 0 -0.036920277950087017 -0.0031204434358654116 0 -0.037714776577444563 -0.0036627744148357523 0 -0.036865587539445487 -0.0039867718999937549 0 -0.036177407166637865 -0.002793755118546481 0 -0.036017097075502831 -0.003583960501033592 0 -0.035459339541218812 -0.0029682502050523297 0 -0.03669835999984894 -0.0023529627436839123 0 -0.036920277950087017 -0.0031204434358654116 0 -0.036177407166637865 -0.002793755118546481 0 -0.036920277950087017 -0.0031204434358654116 0 -0.036177407166637865 -0.002793755118546481 0 -0.036017097075502831 -0.003583960501033592 0 -0.036920277950087017 -0.0031204434358654116 0 -0.036017097075502831 -0.003583960501033592 0 -0.036865587539445487 -0.0039867718999937549 0 -0.036865587539445487 -0.0039867718999937549 0 -0.035813399517728842 -0.004755969581400666 0 -0.037501619925820039 -0.004731554341381298 0 -0.036017097075502831 -0.003583960501033592 0 -0.036865587539445487 -0.0039867718999937549 0 -0.035813399517728842 -0.004755969581400666 0 -0.037714776577444563 -0.0036627744148357523 0 -0.037501619925820039 -0.004731554341381298 0 -0.038617487277423063 -0.0044542448951305534 0 -0.037714776577444563 -0.0036627744148357523 0 -0.036865587539445487 -0.0039867718999937549 0 -0.037501619925820039 -0.004731554341381298 0 -0.038617487277423063 -0.0044542448951305534 0 -0.038385755204390692 -0.0054554016372404292 0 -0.040537598802175119 -0.0050924092866797971 0 -0.037501619925820039 -0.004731554341381298 0 -0.038617487277423063 -0.0044542448951305534 0 -0.038386089449182863 -0.0054414605433191592 0 -0.028593331655824346 -0.0011914839855042363 0 -0.027932830059974136 -0.00058844656934054428 0 -0.039766986385665538 -0.0038007771801721701 0 -0.040537598802175119 -0.0050924092866797971 0 -0.04107877030305216 -0.0035682988411630395 0 -0.038617487277423063 -0.0044542448951305534 0 -0.039766986385665538 -0.0038007771801721701 0 -0.040537598802175119 -0.0050924092866797971 0 -0.039879283849155171 -0.0026450135573423349 0 -0.039766986385665538 -0.0038007771801721701 0 -0.04107877030305216 -0.0035682988411630395 0 -0.039879283849155171 -0.0026450135573423349 0 -0.039766986385665538 -0.0038007771801721701 0 -0.038715640624119946 -0.0032480470585564683 0 -0.038617487277423063 -0.0044542448951305534 0 -0.039766986385665538 -0.0038007771801721701 0 -0.038715640624119946 -0.0032480470585564683 0 -0.037714776577444563 -0.0036627744148357523 0 -0.038617487277423063 -0.0044542448951305534 0 -0.038715640624119946 -0.0032480470585564683 0 -0.039879283849155171 -0.0026450135573423349 0 -0.03854642239139186 -0.0023185932973148814 0 -0.038715640624119946 -0.0032480470585564683 0 -0.035837354637063126 -0.00188193293805851 0 -0.036133936586600114 -0.0019948423397374744 0 -0.035769486312363069 -0.0021903722926878678 0 -0.035837354637063126 -0.00188193293805851 0 -0.035769486312363069 -0.0021903722926878678 0 -0.035521479413970221 -0.0018732495032724047 0 -0.036136736709591569 -0.0013990389671550622 0 -0.035870169452962258 -0.0015705140658083831 0 -0.035562430700285259 -0.0014772889492923283 0 -0.035870169452962258 -0.0015705140658083831 0 -0.035521479413970221 -0.0018732495032724047 0 -0.035562430700285259 -0.0014772889492923283 0 -0.035837354637063126 -0.00188193293805851 0 -0.035870169452962258 -0.0015705140658083831 0 -0.035521479413970221 -0.0018732495032724047 0 -0.035837354637063126 -0.00188193293805851 0 -0.035870169452962258 -0.0015705140658083831 0 -0.036004938404665031 -0.0017372254108412386 0 -0.036004938404665031 -0.0017372254108412386 0 -0.036049339912836265 -0.0015767197989292844 0 -0.036183424257782537 -0.0016051550847521838 0 -0.035870169452962258 -0.0015705140658083831 0 -0.036004938404665031 -0.0017372254108412386 0 -0.036049339912836265 -0.0015767197989292844 0 -0.036136736709591569 -0.0013990389671550622 0 -0.035870169452962258 -0.0015705140658083831 0 -0.036049339912836265 -0.0015767197989292844 0 -0.036136736709591569 -0.0013990389671550622 0 -0.036049339912836265 -0.0015767197989292844 0 -0.036183424257782537 -0.0016051550847521838 0 -0.037609610064466011 -0.0012037649614570784 0 -0.037516410535148335 -0.0019423480038198578 0 -0.037983320475343356 -0.0016878548169433252 0 -0.036004938404665031 -0.0017372254108412386 0 -0.036183424257782537 -0.0016051550847521838 0 -0.036133936586600114 -0.0019948423397374744 0 -0.037096735844776532 -0.0014680295209100801 0 -0.035368156821765973 -0.0022993746497026756 0 -0.035837354637063126 -0.00188193293805851 0 -0.036004938404665031 -0.0017372254108412386 0 -0.036133936586600114 -0.0019948423397374744 0 -0.032944468351025241 -0.0023213260092161568 0 -0.033270065767103014 -0.0023516309285397901 0 -0.033481224609699843 -0.0029713590567592681 0 -0.033270065767103014 -0.0023516309285397901 0 -0.03409050885806935 -0.0025198992437036249 0 -0.033481224609699843 -0.0029713590567592681 0 -0.033270065767103014 -0.0023516309285397901 0 -0.03409050885806935 -0.0025198992437036249 0 -0.033875188087112207 -0.0018138165493400416 0 -0.032944468351025241 -0.0023213260092161568 0 -0.033270065767103014 -0.0023516309285397901 0 -0.033890774569558822 -0.0018046958925532217 0 -0.03409050885806935 -0.0025198992437036249 0 -0.033875188087112207 -0.0018138165493400416 0 -0.034675188506386657 -0.0019089076266320861 0 -0.036099964786221725 -0.0021082365965111802 0 -0.036447924710447756 -0.001905831147872325 0 -0.035368156821765973 -0.0022993746497026756 0 -0.036447924710447756 -0.001905831147872325 0 -0.037609610064466011 -0.0012037649614570784 0 -0.037983320475343356 -0.0016878548169433252 0 -0.038071621530215906 -0.00098930919807067169 0 -0.037983320475343356 -0.0016878548169433252 0 -0.038071621530215906 -0.00098930919807067169 0 -0.03853296053769021 -0.0012023634586090562 0 -0.036447924710447756 -0.001905831147872325 0 -0.037230136064772455 -0.0014060652083089957 0 -0.036447924710447756 -0.001905831147872325 0 -0.038387982359044157 -0.0012156677018635791 0 -0.03635425861328536 -0.0004582103039491147 0 -0.035101955810452633 -0.0011405452071667373 0 -0.035642737408852897 -0.0012458551013704981 0 -0.03930669774936553 -0.00069429751943584619 0 -0.038116525730885573 -0.0013478970742924 0 -0.037992584679718361 -0.0010516207645738717 0 -0.036922802092285337 -0.0020028428737713946 0 -0.038116525730885573 -0.0013478970742924 0 -0.037992584679718361 -0.0010516207645738717 0 -0.040397689718052548 -0.00052683921907095829 0 -0.038387982359044157 -0.0012156677018635791 0 -0.035101955810452633 -0.0011405452071667373 0 -0.035642737408852897 -0.0012458551013704981 0 -0.035346697219030249 -0.0017149601244487267 0 -0.03595676423953148 -0.0015997727599785525 0 -0.035642737408852897 -0.0012458551013704981 0 -0.035346697219030249 -0.0017149601244487267 0 -0.035815231330903349 -0.0021566112367150882 0 -0.035346697219030249 -0.0017149601244487267 0 -0.034964665526823396 -0.0023530149732095174 0 -0.033875188087112207 -0.0018138165493400416 0 -0.035101955810452633 -0.0011405452071667373 0 -0.034675188506386657 -0.0019089076266320861 0 -0.035346697219030249 -0.0017149601244487267 0 -0.034675188506386657 -0.0019089076266320861 0 -0.034964665526823396 -0.0023530149732095174 0 -0.035101955810452633 -0.0011405452071667373 0 -0.035346697219030249 -0.0017149601244487267 0 -0.034675188506386657 -0.0019089076266320861 0 -0.03409050885806935 -0.0025198992437036249 0 -0.034675188506386657 -0.0019089076266320861 0 -0.034964665526823396 -0.0023530149732095174 0 -0.03409050885806935 -0.0025198992437036249 0 -0.034964665526823396 -0.0023530149732095174 0 -0.034762542813254492 -0.0030111367085651083 0 -0.035815231330903349 -0.0021566112367150882 0 -0.034964665526823396 -0.0023530149732095174 0 -0.035459339541218812 -0.0029682502050523297 0 -0.035459339541218812 -0.0029682502050523297 0 -0.034762542813254492 -0.0030111367085651083 0 -0.035021455378119556 -0.003665013257466898 0 -0.034964665526823396 -0.0023530149732095174 0 -0.035459339541218812 -0.0029682502050523297 0 -0.034762542813254492 -0.0030111367085651083 0 -0.034762542813254492 -0.0030111367085651083 0 -0.035021455378119556 -0.003665013257466898 0 -0.034124909398379789 -0.0033954539499011145 0 -0.036017097075502831 -0.003583960501033592 0 -0.035459339541218812 -0.0029682502050523297 0 -0.035021455378119556 -0.003665013257466898 0 -0.035813399517728842 -0.004755969581400666 0 -0.035021455378119556 -0.003665013257466898 0 -0.034006501899280131 -0.0044395456108710929 0 -0.036017097075502831 -0.003583960501033592 0 -0.035813399517728842 -0.004755969581400666 0 -0.035021455378119556 -0.003665013257466898 0 -0.034006501899280131 -0.0044395456108710929 0 -0.032717964381103214 -0.0041192653305550031 0 -0.033259091805259988 -0.0053821974002679967 0 -0.034006501899280131 -0.0044395456108710929 0 -0.033572724703245738 -0.0037617592287827158 0 -0.032717964381103214 -0.0041192653305550031 0 -0.034006501899280131 -0.0044395456108710929 0 -0.033572724703245738 -0.0037617592287827158 0 -0.034124909398379789 -0.0033954539499011145 0 -0.033572724703245738 -0.0037617592287827158 0 -0.034124909398379789 -0.0033954539499011145 0 -0.033481224609699843 -0.0029713590567592681 0 -0.035021455378119556 -0.003665013257466898 0 -0.034006501899280131 -0.0044395456108710929 0 -0.034124909398379789 -0.0033954539499011145 0 -0.03409050885806935 -0.0025198992437036249 0 -0.034762542813254492 -0.0030111367085651083 0 -0.034124909398379789 -0.0033954539499011145 0 -0.03409050885806935 -0.0025198992437036249 0 -0.034124909398379789 -0.0033954539499011145 0 -0.033481224609699843 -0.0029713590567592681 0 -0.032944468351025241 -0.0023213260092161568 0 -0.033481224609699843 -0.0029713590567592681 0 -0.032717964381103214 -0.0041192653305550031 0 -0.035368156821765973 -0.0022993746497026756 0 -0.03416874702557833 -0.0038879253798896922 0 -0.032954225923074322 -0.0019347680475744872 0 -0.032712121533656963 -0.0039177219976360596 0 -0.031430135425595931 -0.0027647877375675881 0 -0.035368156821765973 -0.0022993746497026756 0 -0.033246576290242219 -0.0025063773616266138 0 -0.033572724703245738 -0.0037617592287827158 0 -0.033481224609699843 -0.0029713590567592681 0 -0.032717964381103214 -0.0041192653305550031 0 -0.03416874702557833 -0.0038879253798896922 0 -0.033775791754032794 -0.0047498469101653938 0 -0.032712121533656963 -0.0039177219976360596 0 -0.031302420962815915 -0.0039211856848267758 0 -0.031834615220665649 -0.0050312995548941865 0 -0.031302420962815915 -0.0039211856848267758 0 -0.03086520508566775 -0.0050002591262033238 0 -0.031834615220665649 -0.0050312995548941865 0 -0.032712121533656963 -0.0039177219976360596 0 -0.031302420962815915 -0.0039211856848267758 0 -0.031430135425595931 -0.0027647877375675881 0 -0.031302420962815915 -0.0039211856848267758 0 -0.031430135425595931 -0.0027647877375675881 0 -0.029906763528121275 -0.0035950907749852114 0 -0.024072278295452464 -0.0011204062041769412 0 -0.023958619090926923 -0.00095503868133150148 0 -0.022034247145439861 -0.0014756281851700868 0 -0.013397345394639111 -0.0019013824817703537 0 -0.012914179099616575 -0.0007109038288222614 0 -0.013712601723152824 -0.0012067476853219667 0 -0.023739599385844759 -0.00073795298271173756 0 -0.020343536322234446 -0.00084562908090720615 0 -0.013397345394639111 -0.0019013824817703537 0 -0.013712601723152824 -0.0012067476853219667 0 -0.014499585220174102 -0.0017342691268945624 0 -0.017082537454425999 0.00017496317046699979 0 -0.020343536322234446 -0.00084562908090720615 0 -0.023739599385844759 -0.00073795298271173756 0 -0.024512713526614913 -0.0012101642127185154 0 -0.031828750162367574 -0.0063988467004519175 0 -0.031834615220665649 -0.0050312995548941865 0 -0.032470335974855172 -0.0059075890360794194 0 -0.031828750162367574 -0.0063988467004519175 0 -0.03086520508566775 -0.0050002591262033238 0 -0.031834615220665649 -0.0050312995548941865 0 -0.024512713526614913 -0.0012101642127185154 0 -0.02809047166849089 -0.0028366073395386269 0 -0.026262502819805456 -0.0016982016235711794 0 -0.026702847720656866 -0.0023385873116511498 0 -0.027242873066677369 -0.0017241409011352754 0 -0.032717964381103214 -0.0041192653305550031 0 -0.032470335974855172 -0.0059075890360794194 0 -0.033259091805259988 -0.0053821974002679967 0 -0.032712121533656963 -0.0039177219976360596 0 -0.031834615220665649 -0.0050312995548941865 0 -0.032470335974855172 -0.0059075890360794194 0 -0.032470335974855172 -0.0059075890360794194 0 -0.033259091805259988 -0.0053821974002679967 0 -0.032580091762656353 -0.0063956514201161654 0 -0.024170406706160982 0.00050130181985383207 0 -0.024112222977215134 0.00049290982410618361 0 -0.024073740448326053 0.00065083361965060824 0 -0.024112222977215134 0.00049290982410618361 0 -0.024016457131648423 0.00057376377162877219 0 -0.024073740448326053 0.00065083361965060824 0 -0.02510895606904491 -0.00093503488208850777 0 -0.024483706339464843 -0.00058903341602289656 0 -0.023739599385844759 -0.00073795298271173756 0 -0.020315207816644643 0.00049560763773761306 0 -0.031828750162367574 -0.0063988467004519175 0 -0.032470335974855172 -0.0059075890360794194 0 -0.032580091762656353 -0.0063956514201161654 0 -0.023025893461726184 -0.0010038943134731376 0 -0.022729497283680324 -0.00057156700456481319 0 -0.025260523281480936 -0.00062222758072213449 0 -0.024512713526614913 -0.0012101642127185154 0 -0.02510895606904491 -0.00093503488208850777 0 -0.023739599385844759 -0.00073795298271173756 0 -0.02510895606904491 -0.00093503488208850777 0 -0.024092311362644992 0.00048249443466970163 0 -0.023968135087073437 0.00043377336654813563 0 -0.0238923363343066 0.00049345686751913105 0 -0.024310899739781965 0.00045456406427797879 0 -0.024092311362644992 0.00048249443466970163 0 -0.023968135087073437 0.00043377336654813563 0 -0.02510895606904491 -0.00093503488208850777 0 -0.028334204857238983 -0.001363079325463028 0 -0.024483706339464843 -0.00058903341602289656 0 -0.024301275321892274 -0.00048152042082232185 0 -0.023945110904558357 0.00056257057594718803 0 -0.023997160381172104 0.00049891418713552814 0 -0.0238923363343066 0.00049345686751913105 0 -0.024112222977215134 0.00049290982410618361 0 -0.024016457131648423 0.00057376377162877219 0 -0.023997160381172104 0.00049891418713552814 0 -0.024016457131648423 0.00057376377162877219 0 -0.023945110904558357 0.00056257057594718803 0 -0.023997160381172104 0.00049891418713552814 0 -0.034006501899280131 -0.0044395456108710929 0 -0.033259091805259988 -0.0053821974002679967 0 -0.034521465595691865 -0.0060712429916427273 0 -0.033259091805259988 -0.0053821974002679967 0 -0.032580091762656353 -0.0063956514201161654 0 -0.034521465595691865 -0.0060712429916427273 0 -0.023968135087073437 0.00043377336654813563 0 -0.0238923363343066 0.00049345686751913105 0 -0.023732070952314204 0.00041948293321133584 0 -0.035813399517728842 -0.004755969581400666 0 -0.034521465595691865 -0.0060712429916427273 0 -0.036453413957545651 -0.0057594114675285583 0 -0.035813399517728842 -0.004755969581400666 0 -0.034006501899280131 -0.0044395456108710929 0 -0.034521465595691865 -0.0060712429916427273 0 -0.028334204857238983 -0.001363079325463028 0 -0.029225874715112597 -0.001247882770295441 0 -0.023945110904558357 0.00056257057594718803 0 -0.0238923363343066 0.00049345686751913105 0 -0.023860880155548998 0.0005955889887668287 0 -0.0238923363343066 0.00049345686751913105 0 -0.023860880155548998 0.0005955889887668287 0 -0.023779728441563081 0.00054604826572089368 0 -0.023860880155548998 0.0005955889887668287 0 -0.023843056754292519 0.00071793632059857988 0 -0.023742927893471454 0.00064719550499497654 0 -0.023945110904558357 0.00056257057594718803 0 -0.023860880155548998 0.0005955889887668287 0 -0.023951966560156714 0.00064865016845176671 0 -0.023860880155548998 0.0005955889887668287 0 -0.023843056754292519 0.00071793632059857988 0 -0.023951966560156714 0.00064865016845176671 0 -0.018407307248091243 0.0011375985778443935 0 -0.019652436542406337 0.00207159568400384 0 -0.023843056754292519 0.00071793632059857988 0 -0.023970586094130567 0.00080898671825382906 0 -0.023798185056236206 0.00085326895064957579 0 -0.023843056754292519 0.00071793632059857988 0 -0.023970586094130567 0.00080898671825382906 0 -0.023951966560156714 0.00064865016845176671 0 -0.018407307248091243 0.0011375985778443935 0 -0.020315207816644643 0.00049560763773761306 0 -0.012494238744102958 -0.00035216928960630459 0 -0.012651851490476998 -0.00048150282545930499 0 -0.01268427089831462 -0.00081395913744079231 0 -0.012494238744102958 -0.00035216928960630459 0 -0.012603773050540303 -0.00039698858079957242 0 -0.012651851490476998 -0.00048150282545930499 0 -0.01249361180965106 -0.00037562474224760937 0 -0.012603773050540303 -0.00039698858079957242 0 -0.012541835384000593 -0.00016881724362889834 0 -0.018407307248091243 0.0011375985778443935 0 -0.018074241950508874 0.0011658258190490084 0 -0.023970586094130567 0.00080898671825382906 0 -0.023951966560156714 0.00064865016845176671 0 -0.024073740448326053 0.00065083361965060824 0 -0.024016457131648423 0.00057376377162877219 0 -0.023951966560156714 0.00064865016845176671 0 -0.024073740448326053 0.00065083361965060824 0 -0.024016457131648423 0.00057376377162877219 0 -0.023945110904558357 0.00056257057594718803 0 -0.023951966560156714 0.00064865016845176671 0 -0.013397345394639111 -0.0019013824817703537 0 -0.01268427089831462 -0.00081395913744079231 0 -0.012914179099616575 -0.0007109038288222614 0 -0.012914179099616575 -0.0007109038288222614 0 -0.012875769367970804 -0.00057782272253495653 0 -0.012988543833615987 -0.00065192820117211084 0 -0.012914179099616575 -0.0007109038288222614 0 -0.012809827140996061 -0.0006231241212857195 0 -0.012875769367970804 -0.00057782272253495653 0 -0.01268427089831462 -0.00081395913744079231 0 -0.012809827140996061 -0.0006231241212857195 0 -0.012737462961111761 -0.00056371800839294416 0 -0.012651851490476998 -0.00048150282545930499 0 -0.01268427089831462 -0.00081395913744079231 0 -0.012737462961111761 -0.00056371800839294416 0 -0.01268427089831462 -0.00081395913744079231 0 -0.012914179099616575 -0.0007109038288222614 0 -0.012809827140996061 -0.0006231241212857195 0 -0.012809827140996061 -0.0006231241212857195 0 -0.012737462961111761 -0.00056371800839294416 0 -0.012793165177117502 -0.00050213575887812355 0 -0.012793165177117502 -0.00050213575887812355 0 -0.012732714103782241 -0.00042378933607240487 0 -0.012869812820292316 -0.00044118795504387385 0 -0.012737462961111761 -0.00056371800839294416 0 -0.012793165177117502 -0.00050213575887812355 0 -0.012732714103782241 -0.00042378933607240487 0 -0.012651851490476998 -0.00048150282545930499 0 -0.012737462961111761 -0.00056371800839294416 0 -0.012732714103782241 -0.00042378933607240487 0 -0.012603773050540303 -0.00039698858079957242 0 -0.012651851490476998 -0.00048150282545930499 0 -0.012732714103782241 -0.00042378933607240487 0 -0.012732714103782241 -0.00042378933607240487 0 -0.012817684226261438 -0.00029710534908422142 0 -0.012692111309581477 -0.00027884818639306591 0 -0.012603773050540303 -0.00039698858079957242 0 -0.012732714103782241 -0.00042378933607240487 0 -0.012692111309581477 -0.00027884818639306591 0 -0.012938826341087553 -0.00032618137710369738 0 -0.012869812820292316 -0.00044118795504387385 0 -0.012817684226261438 -0.00029710534908422142 0 -0.012732714103782241 -0.00042378933607240487 0 -0.012869812820292316 -0.00044118795504387385 0 -0.012817684226261438 -0.00029710534908422142 0 -0.012869812820292316 -0.00044118795504387385 0 -0.012875769367970804 -0.00057782272253495653 0 -0.012961841568506114 -0.00053144717537188314 0 -0.012793165177117502 -0.00050213575887812355 0 -0.012869812820292316 -0.00044118795504387385 0 -0.012875769367970804 -0.00057782272253495653 0 -0.012809827140996061 -0.0006231241212857195 0 -0.012793165177117502 -0.00050213575887812355 0 -0.012875769367970804 -0.00057782272253495653 0 -0.012875769367970804 -0.00057782272253495653 0 -0.012961841568506114 -0.00053144717537188314 0 -0.012988543833615987 -0.00065192820117211084 0 -0.012961841568506114 -0.00053144717537188314 0 -0.013102919086748798 -0.0006088081211855802 0 -0.012988543833615987 -0.00065192820117211084 0 -0.012869812820292316 -0.00044118795504387385 0 -0.012961841568506114 -0.00053144717537188314 0 -0.013027106104302515 -0.00043869692759554847 0 -0.012961841568506114 -0.00053144717537188314 0 -0.013027106104302515 -0.00043869692759554847 0 -0.013102919086748798 -0.0006088081211855802 0 -0.012938826341087553 -0.00032618137710369738 0 -0.013027106104302515 -0.00043869692759554847 0 -0.013060945348969897 -0.00025539323810263724 0 -0.012938826341087553 -0.00032618137710369738 0 -0.012869812820292316 -0.00044118795504387385 0 -0.013027106104302515 -0.00043869692759554847 0 -0.013027106104302515 -0.00043869692759554847 0 -0.013253054841868684 -0.00043943729126967265 0 -0.013060945348969897 -0.00025539323810263724 0 -0.013027106104302515 -0.00043869692759554847 0 -0.013102919086748798 -0.0006088081211855802 0 -0.013253054841868684 -0.00043943729126967265 0 -0.013102919086748798 -0.0006088081211855802 0 -0.01326024441720711 -0.00071698325524656209 0 -0.013253054841868684 -0.00043943729126967265 0 -0.013102919086748798 -0.0006088081211855802 0 -0.013086766971442725 -0.00085149464430831412 0 -0.01326024441720711 -0.00071698325524656209 0 -0.013086766971442725 -0.00085149464430831412 0 -0.013327737405092955 -0.0010359919739932801 0 -0.01326024441720711 -0.00071698325524656209 0 -0.013102919086748798 -0.0006088081211855802 0 -0.012988543833615987 -0.00065192820117211084 0 -0.013086766971442725 -0.00085149464430831412 0 -0.012914179099616575 -0.0007109038288222614 0 -0.012988543833615987 -0.00065192820117211084 0 -0.013086766971442725 -0.00085149464430831412 0 -0.016154000381852194 0.0004343692154871934 0 -0.017082537454425999 0.00017496317046699979 0 -0.017259819836646442 0.0063019769554431915 0 -0.016953944893023661 0.0062036212380421896 0 -0.017089162378478157 0.0060141219023960276 0 -0.017259819836646442 0.0063019769554431915 0 -0.017028748195611624 0.0065032805154423964 0 -0.016953944893023661 0.0062036212380421896 0 -0.027932830059974136 -0.00058844656934054428 0 -0.029008564072749477 0.00057273903842364876 0 -0.017259819836646442 0.0063019769554431915 0 -0.017028748195611624 0.0065032805154423964 0 -0.017459882694873936 0.0065986690490960533 0 -0.027932830059974136 -0.00058844656934054428 0 -0.023928503143964178 0.0019542380346819245 0 -0.027932830059974136 -0.00058844656934054428 0 -0.029225874715112597 -0.001247882770295441 0 -0.037501619925820039 -0.004731554341381298 0 -0.038386089449182863 -0.0054414605433191592 0 -0.036453413957545651 -0.0057594114675285583 0 -0.023545286345317613 0.00039244080181767706 0 -0.023732070952314204 0.00041948293321133584 0 -0.023568236548460231 0.00055425910603183011 0 -0.035813399517728842 -0.004755969581400666 0 -0.037501619925820039 -0.004731554341381298 0 -0.036453413957545651 -0.0057594114675285583 0 -0.023732070952314204 0.00041948293321133584 0 -0.023779728441563081 0.00054604826572089368 0 -0.023680414299787646 0.00057539037779685939 0 -0.0238923363343066 0.00049345686751913105 0 -0.023732070952314204 0.00041948293321133584 0 -0.023779728441563081 0.00054604826572089368 0 -0.023779728441563081 0.00054604826572089368 0 -0.023680414299787646 0.00057539037779685939 0 -0.023742927893471454 0.00064719550499497654 0 -0.023732070952314204 0.00041948293321133584 0 -0.023568236548460231 0.00055425910603183011 0 -0.023680414299787646 0.00057539037779685939 0 -0.023568236548460231 0.00055425910603183011 0 -0.023680414299787646 0.00057539037779685939 0 -0.023590133573292829 0.00072474439402936061 0 -0.023680414299787646 0.00057539037779685939 0 -0.023742927893471454 0.00064719550499497654 0 -0.023590133573292829 0.00072474439402936061 0 -0.023928503143964178 0.0019542380346819245 0 -0.021149392488882816 0.0029954895649733841 0 -0.023742927893471454 0.00064719550499497654 0 -0.023711551321080854 0.00076190278325349121 0 -0.023590133573292829 0.00072474439402936061 0 -0.023843056754292519 0.00071793632059857988 0 -0.023742927893471454 0.00064719550499497654 0 -0.023711551321080854 0.00076190278325349121 0 -0.023860880155548998 0.0005955889887668287 0 -0.023779728441563081 0.00054604826572089368 0 -0.023742927893471454 0.00064719550499497654 0 -0.023843056754292519 0.00071793632059857988 0 -0.023711551321080854 0.00076190278325349121 0 -0.023798185056236206 0.00085326895064957579 0 -0.023711551321080854 0.00076190278325349121 0 -0.023615985785998692 0.00089769530900910238 0 -0.023798185056236206 0.00085326895064957579 0 -0.021149392488882816 0.0029954895649733841 0 -0.018676827461350846 0.0036821423959844377 0 -0.016889549619107797 0.0059478530092789729 0 -0.016992357006608595 0.00583580098144852 0 -0.016832113229460457 0.0057281898798112654 0 -0.023711551321080854 0.00076190278325349121 0 -0.023590133573292829 0.00072474439402936061 0 -0.023615985785998692 0.00089769530900910238 0 -0.016889549619107797 0.0059478530092789729 0 -0.016992357006608595 0.00583580098144852 0 -0.017089162378478157 0.0060141219023960276 0 -0.016992357006608595 0.00583580098144852 0 -0.017089162378478157 0.0060141219023960276 0 -0.017110110858103232 0.0058555667746444939 0 -0.016953944893023661 0.0062036212380421896 0 -0.016889549619107797 0.0059478530092789729 0 -0.017089162378478157 0.0060141219023960276 0 -0.017259819836646442 0.0063019769554431915 0 -0.017089162378478157 0.0060141219023960276 0 -0.017399038129554352 0.006048753726009313 0 -0.017089162378478157 0.0060141219023960276 0 -0.017110110858103232 0.0058555667746444939 0 -0.017399038129554352 0.006048753726009313 0 -0.019796408621976846 0.0045500589642907922 0 -0.020623618813778461 0.0043393318217604046 0 -0.017110110858103232 0.0058555667746444939 0 -0.017282015632502503 0.0064199269840999815 0 -0.017358313248231151 0.0057863766759907427 0 -0.017766129670918 0.0059614996357552864 0 -0.017282015632502503 0.0064199269840999815 0 -0.017358313248231151 0.0057863766759907427 0 -0.017766129670918 0.0059614996357552864 0 -0.018167206093046111 0.0059322612459660291 0 -0.018082089491789976 0.0056495885611622977 0 -0.017766129670918 0.0059614996357552864 0 -0.018140489075867499 0.0061895106511014372 0 -0.018167206093046111 0.0059322612459660291 0 -0.017766129670918 0.0059614996357552864 0 -0.017750607573381896 0.0064890877371145909 0 -0.018140489075867499 0.0061895106511014372 0 -0.017750607573381896 0.0064890877371145909 0 -0.018186071273010963 0.0065598737135824196 0 -0.018140489075867499 0.0061895106511014372 0 -0.017750607573381896 0.0064890877371145909 0 -0.018026479470150573 0.0068588392266370757 0 -0.018186071273010963 0.0065598737135824196 0 -0.017766129670918 0.0059614996357552864 0 -0.017750607573381896 0.0064890877371145909 0 -0.017282015632502503 0.0064199269840999815 0 -0.020623618813778461 0.0043393318217604046 0 -0.023445962477672135 0.0034200318686543711 0 -0.017259819836646442 0.0063019769554431915 0 -0.017399038129554352 0.006048753726009313 0 -0.017685753093545323 0.0063355584747583765 0 -0.017750607573381896 0.0064890877371145909 0 -0.017282015632502503 0.0064199269840999815 0 -0.017615916399958079 0.0071107882439797963 0 -0.017750607573381896 0.0064890877371145909 0 -0.017615916399958079 0.0071107882439797963 0 -0.018026479470150573 0.0068588392266370757 0 -0.017615916399958079 0.0071107882439797963 0 -0.018026479470150573 0.0068588392266370757 0 -0.018257001839958393 0.0072412858647200396 0 -0.017615916399958079 0.0071107882439797963 0 -0.018257001839958393 0.0072412858647200396 0 -0.018060672728436027 0.0078591429001780046 0 -0.023445962477672135 0.0034200318686543711 0 -0.030003419339822299 0.0015905229414691915 0 -0.017685753093545323 0.0063355584747583765 0 -0.017459882694873936 0.0065986690490960533 0 -0.017972536785932566 0.006683283908728117 0 -0.017259819836646442 0.0063019769554431915 0 -0.017685753093545323 0.0063355584747583765 0 -0.017459882694873936 0.0065986690490960533 0 -0.018700144358914213 0.0075160405661750902 0 -0.019339442672668301 0.0073543381137908155 0 -0.019032108506213161 0.0081003683156053337 0 -0.018700144358914213 0.0075160405661750902 0 -0.018864699133605226 0.007025247287817663 0 -0.019339442672668301 0.0073543381137908155 0 -0.018700144358914213 0.0075160405661750902 0 -0.018257001839958393 0.0072412858647200396 0 -0.018864699133605226 0.007025247287817663 0 -0.018700144358914213 0.0075160405661750902 0 -0.018257001839958393 0.0072412858647200396 0 -0.018060672728436027 0.0078591429001780046 0 -0.018257001839958393 0.0072412858647200396 0 -0.018464775437764168 0.0067964337175880421 0 -0.018864699133605226 0.007025247287817663 0 -0.018026479470150573 0.0068588392266370757 0 -0.018257001839958393 0.0072412858647200396 0 -0.018464775437764168 0.0067964337175880421 0 -0.018026479470150573 0.0068588392266370757 0 -0.018464775437764168 0.0067964337175880421 0 -0.018186071273010963 0.0065598737135824196 0 -0.018464775437764168 0.0067964337175880421 0 -0.018864699133605226 0.007025247287817663 0 -0.018782221640162883 0.0066294594001935084 0 -0.018864699133605226 0.007025247287817663 0 -0.019226118912309798 0.0069614424416444736 0 -0.019339442672668301 0.0073543381137908155 0 -0.018864699133605226 0.007025247287817663 0 -0.019226118912309798 0.0069614424416444736 0 -0.019136254883376686 0.0066841222406333776 0 -0.018864699133605226 0.007025247287817663 0 -0.019136254883376686 0.0066841222406333776 0 -0.018782221640162883 0.0066294594001935084 0 -0.019136254883376686 0.0066841222406333776 0 -0.018914049655102787 0.006504143641302253 0 -0.019011966757161523 0.0063410379242514556 0 -0.018713177423702033 0.0061719655026954102 0 -0.018669955086433994 0.0062255471825496877 0 -0.018473963718792862 0.0060096051004166692 0 -0.019136254883376686 0.0066841222406333776 0 -0.018914049655102787 0.006504143641302253 0 -0.018782221640162883 0.0066294594001935084 0 -0.018914049655102787 0.006504143641302253 0 -0.018733863018813621 0.0063678656672828404 0 -0.019011966757161523 0.0063410379242514556 0 -0.018914049655102787 0.006504143641302253 0 -0.018782221640162883 0.0066294594001935084 0 -0.018733863018813621 0.0063678656672828404 0 -0.018782221640162883 0.0066294594001935084 0 -0.018733863018813621 0.0063678656672828404 0 -0.018476126895473451 0.0064068218405203053 0 -0.018733863018813621 0.0063678656672828404 0 -0.019011966757161523 0.0063410379242514556 0 -0.018473963718792862 0.0060096051004166692 0 -0.018464775437764168 0.0067964337175880421 0 -0.018186071273010963 0.0065598737135824196 0 -0.018476126895473451 0.0064068218405203053 0 -0.018464775437764168 0.0067964337175880421 0 -0.018782221640162883 0.0066294594001935084 0 -0.018476126895473451 0.0064068218405203053 0 -0.018733863018813621 0.0063678656672828404 0 -0.018476126895473451 0.0064068218405203053 0 -0.018473963718792862 0.0060096051004166692 0 -0.018186071273010963 0.0065598737135824196 0 -0.018476126895473451 0.0064068218405203053 0 -0.018140489075867499 0.0061895106511014372 0 -0.018140489075867499 0.0061895106511014372 0 -0.018473963718792862 0.0060096051004166692 0 -0.018167206093046111 0.0059322612459660291 0 -0.018476126895473451 0.0064068218405203053 0 -0.018140489075867499 0.0061895106511014372 0 -0.018473963718792862 0.0060096051004166692 0 -0.018473963718792862 0.0060096051004166692 0 -0.018556991889764542 0.0059289300861661781 0 -0.018361230485560532 0.0058271346472118114 0 -0.018473963718792862 0.0060096051004166692 0 -0.018167206093046111 0.0059322612459660291 0 -0.018361230485560532 0.0058271346472118114 0 -0.018713177423702033 0.0061719655026954102 0 -0.018473963718792862 0.0060096051004166692 0 -0.018556991889764542 0.0059289300861661781 0 -0.018878002828857116 0.0068521340968562871 0 -0.018556991889764542 0.0059289300861661781 0 -0.018993273002621033 0.0062489300909327125 0 -0.019919287729673076 0.0060565497462761395 0 -0.01964970132028861 0.0059338569171169123 0 -0.019824296639719532 0.0058892439603782749 0 -0.019544721244781876 0.0057927557811253659 0 -0.018556991889764542 0.0059289300861661781 0 -0.018993273002621033 0.0062489300909327125 0 -0.018871178708857361 0.0058943447076007047 0 -0.019370957161244946 0.0065524509087870574 0 -0.019323237052190939 0.0060482405906449521 0 -0.020159411386727586 0.006497594838917803 0 -0.018993273002621033 0.0062489300909327125 0 -0.019370957161244946 0.0065524509087870574 0 -0.019323237052190939 0.0060482405906449521 0 -0.018993273002621033 0.0062489300909327125 0 -0.019323237052190939 0.0060482405906449521 0 -0.018871178708857361 0.0058943447076007047 0 -0.018878002828857116 0.0068521340968562871 0 -0.018993273002621033 0.0062489300909327125 0 -0.019370957161244946 0.0065524509087870574 0 -0.019323237052190939 0.0060482405906449521 0 -0.020159411386727586 0.006497594838917803 0 -0.019555769508564233 0.005591875449850626 0 -0.019370957161244946 0.0065524509087870574 0 -0.020159411386727586 0.006497594838917803 0 -0.019588635000709179 0.0071281335513259155 0 -0.020286944309840731 0.0065452586758084855 0 -0.020195246784663806 0.0071862331089709089 0 -0.020479719747072748 0.0066397108833740615 0 -0.020780460618573238 0.0077216502505207266 0 -0.020161443912598925 0.0079459494935614633 0 -0.020159411386727586 0.006497594838917803 0 -0.019588635000709179 0.0071281335513259155 0 -0.020161443912598925 0.0079459494935614633 0 -0.018713177423702033 0.0061719655026954102 0 -0.018669955086433994 0.0062255471825496877 0 -0.018894577880258393 0.0064600111393450137 0 -0.019919287729673076 0.0060565497462761395 0 -0.020641671127666756 0.0061130122395774925 0 -0.018878002828857116 0.0068521340968562871 0 -0.019588635000709179 0.0071281335513259155 0 -0.019404769736763965 0.0078894080614854284 0 -0.019824296639719532 0.0058892439603782749 0 -0.020641671127666756 0.0061130122395774925 0 -0.019136254883376686 0.0066841222406333776 0 -0.019011966757161523 0.0063410379242514556 0 -0.019576818444555524 0.0067878225684788645 0 -0.018878002828857116 0.0068521340968562871 0 -0.019370957161244946 0.0065524509087870574 0 -0.019588635000709179 0.0071281335513259155 0 -0.021866313320357197 0.006688017795410864 0 -0.021288024263647877 0.0059844107957863768 0 -0.022150446844301931 0.0058718232352638032 0 -0.022601335017428035 0.0066263374173774056 0 -0.021866313320357197 0.006688017795410864 0 -0.022150446844301931 0.0058718232352638032 0 -0.022601335017428035 0.0066263374173774056 0 -0.022469578816909242 0.0073775388408305548 0 -0.021866313320357197 0.006688017795410864 0 -0.020479719747072748 0.0066397108833740615 0 -0.021866313320357197 0.006688017795410864 0 -0.021288024263647877 0.0059844107957863768 0 -0.020479719747072748 0.0066397108833740615 0 -0.021866313320357197 0.006688017795410864 0 -0.021478841617557896 0.0074554246044251232 0 -0.020479719747072748 0.0066397108833740615 0 -0.021478841617557896 0.0074554246044251232 0 -0.020780460618573238 0.0077216502505207266 0 -0.022469578816909242 0.0073775388408305548 0 -0.021866313320357197 0.006688017795410864 0 -0.021478841617557896 0.0074554246044251232 0 -0.022469578816909242 0.0073775388408305548 0 -0.021478841617557896 0.0074554246044251232 0 -0.022035059386446072 0.0080845814604570011 0 -0.022035059386446072 0.0080845814604570011 0 -0.02124742412594656 0.0082108058375525341 0 -0.021837802013316945 0.008677917194044784 0 -0.021478841617557896 0.0074554246044251232 0 -0.02124742412594656 0.0082108058375525341 0 -0.020780460618573238 0.0077216502505207266 0 -0.021478841617557896 0.0074554246044251232 0 -0.022035059386446072 0.0080845814604570011 0 -0.02124742412594656 0.0082108058375525341 0 -0.02124742412594656 0.0082108058375525341 0 -0.020780460618573238 0.0077216502505207266 0 -0.020541535792686364 0.0084202990106285406 0 -0.02124742412594656 0.0082108058375525341 0 -0.021304916412059765 0.008997608664190403 0 -0.020541535792686364 0.0084202990106285406 0 -0.021304916412059765 0.008997608664190403 0 -0.020541535792686364 0.0084202990106285406 0 -0.020619846188659873 0.0091564829629228062 0 -0.02124742412594656 0.0082108058375525341 0 -0.021304916412059765 0.008997608664190403 0 -0.021837802013316945 0.008677917194044784 0 -0.022606355408863459 0.0088168519104279766 0 -0.022542237045941788 0.0097355173250136973 0 -0.021974300888106545 0.0092729286882133489 0 -0.021304916412059765 0.008997608664190403 0 -0.021837802013316945 0.008677917194044784 0 -0.021974300888106545 0.0092729286882133489 0 -0.022606355408863459 0.0088168519104279766 0 -0.021837802013316945 0.008677917194044784 0 -0.021974300888106545 0.0092729286882133489 0 -0.022606355408863459 0.0088168519104279766 0 -0.022035059386446072 0.0080845814604570011 0 -0.021837802013316945 0.008677917194044784 0 -0.020641671127666756 0.0061130122395774925 0 -0.020651698019656887 0.0068296491900112551 0 -0.019226118912309798 0.0069614424416444736 0 -0.019576818444555524 0.0067878225684788645 0 -0.019339442672668301 0.0073543381137908155 0 -0.019226118912309798 0.0069614424416444736 0 -0.019136254883376686 0.0066841222406333776 0 -0.019576818444555524 0.0067878225684788645 0 -0.019588635000709179 0.0071281335513259155 0 -0.019404769736763965 0.0078894080614854284 0 -0.020161443912598925 0.0079459494935614633 0 -0.019404769736763965 0.0078894080614854284 0 -0.020541535792686364 0.0084202990106285406 0 -0.020619846188659873 0.0091564829629228062 0 -0.019404769736763965 0.0078894080614854284 0 -0.020161443912598925 0.0079459494935614633 0 -0.020541535792686364 0.0084202990106285406 0 -0.020780460618573238 0.0077216502505207266 0 -0.020161443912598925 0.0079459494935614633 0 -0.020541535792686364 0.0084202990106285406 0 -0.020641671127666756 0.0061130122395774925 0 -0.024996838734083603 0.0051234218935408112 0 -0.019509283762732584 0.0060715028032329978 0 -0.020083097883781122 0.0071033102705089545 0 -0.020655526455055834 0.0073750642839627012 0 -0.020083097883781122 0.0071033102705089545 0 -0.020655526455055834 0.0073750642839627012 0 -0.020655751045938451 0.0081527681596475238 0 -0.020054574781133282 0.0074108005292424844 0 -0.019747364286356834 0.0078243486506701723 0 -0.020143343145207632 0.007900470633946716 0 -0.019576818444555524 0.0067878225684788645 0 -0.020054574781133282 0.0074108005292424844 0 -0.019339442672668301 0.0073543381137908155 0 -0.019339442672668301 0.0073543381137908155 0 -0.019747364286356834 0.0078243486506701723 0 -0.019032108506213161 0.0081003683156053337 0 -0.020054574781133282 0.0074108005292424844 0 -0.019339442672668301 0.0073543381137908155 0 -0.019747364286356834 0.0078243486506701723 0 -0.019747364286356834 0.0078243486506701723 0 -0.020208315367165847 0.0084003791296269822 0 -0.019032108506213161 0.0081003683156053337 0 -0.033398072700285227 0.0026256802171429209 0 -0.031785662759467537 0.0020177122269447556 0 -0.019747364286356834 0.0078243486506701723 0 -0.020143343145207632 0.007900470633946716 0 -0.020208315367165847 0.0084003791296269822 0 -0.020054574781133282 0.0074108005292424844 0 -0.020143343145207632 0.007900470633946716 0 -0.020655751045938451 0.0081527681596475238 0 -0.020651698019656887 0.0068296491900112551 0 -0.020755839049821381 0.0072143858271183931 0 -0.020143343145207632 0.007900470633946716 0 -0.020655751045938451 0.0081527681596475238 0 -0.020208315367165847 0.0084003791296269822 0 -0.046878418670651831 -0.0042850198945775554 0 -0.047733741696608802 -0.00286529642744561 0 -0.046512619297279983 -0.0022244918569727366 0 -0.046878418670651831 -0.0042850198945775554 0 -0.045343000765257359 -0.0032808268327328026 0 -0.0446519595844901 -0.0046621288261539436 0 -0.046878418670651831 -0.0042850198945775554 0 -0.045343000765257359 -0.0032808268327328026 0 -0.046512619297279983 -0.0022244918569727366 0 -0.022542237045941788 0.0097355173250136973 0 -0.021974300888106545 0.0092729286882133489 0 -0.021732973699561512 0.010287067169295148 0 -0.021304916412059765 0.008997608664190403 0 -0.021974300888106545 0.0092729286882133489 0 -0.021732973699561512 0.010287067169295148 0 -0.024996838734083603 0.0051234218935408112 0 -0.034514408260358793 0.0035621427242704035 0 -0.021304916412059765 0.008997608664190403 0 -0.020619846188659873 0.0091564829629228062 0 -0.021732973699561512 0.010287067169295148 0 -0.020655751045938451 0.0081527681596475238 0 -0.020208315367165847 0.0084003791296269822 0 -0.02184758659832901 0.0087032395662888645 0 -0.020655526455055834 0.0073750642839627012 0 -0.020655751045938451 0.0081527681596475238 0 -0.02184758659832901 0.0087032395662888645 0 -0.033398072700285227 0.0026256802171429209 0 -0.034514408260358793 0.0035621427242704035 0 -0.049101710650759439 -0.0039499926078359719 0 -0.047733741696608802 -0.00286529642744561 0 -0.048776300365593953 -0.0020660487355940466 0 -0.046878418670651831 -0.0042850198945775554 0 -0.049101710650759439 -0.0039499926078359719 0 -0.047733741696608802 -0.00286529642744561 0 -0.037199428014129926 0.0036322147789853965 0 -0.034514408260358793 0.0035621427242704035 0 -0.040397963948762577 0.0036818256191946132 0 -0.034514408260358793 0.0035621427242704035 0 -0.050781601317989256 -0.0021997881619437217 0 -0.051059288852436928 -0.002505475328772655 0 -0.04911955107601805 -0.0039887894335568714 0 -0.050781601317989256 -0.0021997881619437217 0 -0.049101710650759439 -0.0039499926078359719 0 -0.049736874842306919 -0.002425187136821987 0 -0.049101710650759439 -0.0039499926078359719 0 -0.049736874842306919 -0.002425187136821987 0 -0.048776300365593953 -0.0020660487355940466 0 -0.050165126921581239 -0.0016429457507026008 0 -0.049736874842306919 -0.002425187136821987 0 -0.04951724769906287 -0.0016991380125656347 0 -0.050380691095919895 -0.0019607763224817709 0 -0.050165126921581239 -0.0016429457507026008 0 -0.049736874842306919 -0.002425187136821987 0 -0.050380691095919895 -0.0019607763224817709 0 -0.050781601317989256 -0.0021997881619437217 0 -0.049736874842306919 -0.002425187136821987 0 -0.049736874842306919 -0.002425187136821987 0 -0.04951724769906287 -0.0016991380125656347 0 -0.048776300365593953 -0.0020660487355940466 0 -0.047733741696608802 -0.00286529642744561 0 -0.048776300365593953 -0.0020660487355940466 0 -0.047977750727789419 -0.0011296476041703883 0 -0.047740725386077112 -3.2130404725392901e-05 0 -0.047977750727789419 -0.0011296476041703883 0 -0.0484609499346264 -0.00038944572717260759 0 -0.047977750727789419 -0.0011296476041703883 0 -0.0484609499346264 -0.00038944572717260759 0 -0.04905900682281384 -0.00098070303414975863 0 -0.049095372126020255 -0.0001425835505494169 0 -0.0484609499346264 -0.00038944572717260759 0 -0.04905900682281384 -0.00098070303414975863 0 -0.048776300365593953 -0.0020660487355940466 0 -0.047977750727789419 -0.0011296476041703883 0 -0.04905900682281384 -0.00098070303414975863 0 -0.04951724769906287 -0.0016991380125656347 0 -0.04905900682281384 -0.00098070303414975863 0 -0.049897015975720167 -0.0010778097383518125 0 -0.04951724769906287 -0.0016991380125656347 0 -0.048776300365593953 -0.0020660487355940466 0 -0.04905900682281384 -0.00098070303414975863 0 -0.04905900682281384 -0.00098070303414975863 0 -0.049762314852030427 -0.00039179325014636638 0 -0.049897015975720167 -0.0010778097383518125 0 -0.049095372126020255 -0.0001425835505494169 0 -0.04905900682281384 -0.00098070303414975863 0 -0.049762314852030427 -0.00039179325014636638 0 -0.050379788696516672 -0.00065718469997026947 0 -0.050406021478377333 -0.00014279110926368363 0 -0.049762314852030427 -0.00039179325014636638 0 -0.050379788696516672 -0.00065718469997026947 0 -0.049762314852030427 -0.00039179325014636638 0 -0.049897015975720167 -0.0010778097383518125 0 -0.050379788696516672 -0.00065718469997026947 0 -0.050429308058155868 -0.0011631350083007059 0 -0.049897015975720167 -0.0010778097383518125 0 -0.050429308058155868 -0.0011631350083007059 0 -0.050165126921581239 -0.0016429457507026008 0 -0.049897015975720167 -0.0010778097383518125 0 -0.050165126921581239 -0.0016429457507026008 0 -0.04951724769906287 -0.0016991380125656347 0 -0.049897015975720167 -0.0010778097383518125 0 -0.046512619297279983 -0.0022244918569727366 0 -0.04541326194756156 -0.00085085186729692093 0 -0.045163686711958174 -0.0020908067656055999 0 -0.045343000765257359 -0.0032808268327328026 0 -0.046512619297279983 -0.0022244918569727366 0 -0.045163686711958174 -0.0020908067656055999 0 -0.047733741696608802 -0.00286529642744561 0 -0.047977750727789419 -0.0011296476041703883 0 -0.046512619297279983 -0.0022244918569727366 0 -0.047977750727789419 -0.0011296476041703883 0 -0.046512619297279983 -0.0022244918569727366 0 -0.046770988455564377 -0.00057368745671962373 0 -0.047740725386077112 -3.2130404725392901e-05 0 -0.047977750727789419 -0.0011296476041703883 0 -0.046770988455564377 -0.00057368745671962373 0 -0.046512619297279983 -0.0022244918569727366 0 -0.046770988455564377 -0.00057368745671962373 0 -0.04541326194756156 -0.00085085186729692093 0 -0.046119571470286537 0.00015790570150393449 0 -0.046770988455564377 -0.00057368745671962373 0 -0.04541326194756156 -0.00085085186729692093 0 -0.04405083899769778 0.00012944288131973302 0 -0.044165182076286121 -0.00059406457951451206 0 -0.044123874677725709 -6.8991818714643691e-05 0 -0.04541326194756156 -0.00085085186729692093 0 -0.044317135255165778 -0.0017651345831862328 0 -0.04541326194756156 -0.00085085186729692093 0 -0.045163686711958174 -0.0020908067656055999 0 -0.044317135255165778 -0.0017651345831862328 0 -0.045163686711958174 -0.0020908067656055999 0 -0.044317135255165778 -0.0017651345831862328 0 -0.044248103164198707 -0.0023597709127615688 0 -0.044317135255165778 -0.0017651345831862328 0 -0.044248103164198707 -0.0023597709127615688 0 -0.043428041469484563 -0.0019884186189154736 0 -0.045343000765257359 -0.0032808268327328026 0 -0.045163686711958174 -0.0020908067656055999 0 -0.044248103164198707 -0.0023597709127615688 0 -0.044248103164198707 -0.0023597709127615688 0 -0.043428041469484563 -0.0019884186189154736 0 -0.043452476051142393 -0.0035143131398226611 0 -0.044317135255165778 -0.0017651345831862328 0 -0.043428041469484563 -0.0019884186189154736 0 -0.043443279714044478 -0.0012075667455834446 0 -0.043428041469484563 -0.0019884186189154736 0 -0.043443279714044478 -0.0012075667455834446 0 -0.042499780670935246 -0.0018274905268371102 0 -0.044027087619378596 -0.00012512245074382752 0 -0.044317135255165778 -0.0017651345831862328 0 -0.043443279714044478 -0.0012075667455834446 0 -0.044027087619378596 -0.00012512245074382752 0 -0.043443279714044478 -0.0012075667455834446 0 -0.042528414084042697 -0.00071885139016791431 0 -0.042528414084042697 -0.00071885139016791431 0 -0.041131360034022409 -0.00081226336268518768 0 -0.042499780670935246 -0.0018274905268371102 0 -0.043443279714044478 -0.0012075667455834446 0 -0.042528414084042697 -0.00071885139016791431 0 -0.042499780670935246 -0.0018274905268371102 0 -0.039688150471257205 -0.0016091718114491309 0 -0.041131360034022409 -0.00081226336268518768 0 -0.041126747470983487 -0.0021248383165265476 0 -0.041131360034022409 -0.00081226336268518768 0 -0.041126747470983487 -0.0021248383165265476 0 -0.042499780670935246 -0.0018274905268371102 0 -0.041126747470983487 -0.0021248383165265476 0 -0.042499780670935246 -0.0018274905268371102 0 -0.042422082919069355 -0.002959149721167452 0 -0.043428041469484563 -0.0019884186189154736 0 -0.042499780670935246 -0.0018274905268371102 0 -0.042422082919069355 -0.002959149721167452 0 -0.042422082919069355 -0.002959149721167452 0 -0.04107877030305216 -0.0035682988411630395 0 -0.042637204040172828 -0.0047192234485176187 0 -0.039879283849155171 -0.0026450135573423349 0 -0.041126747470983487 -0.0021248383165265476 0 -0.04107877030305216 -0.0035682988411630395 0 -0.041126747470983487 -0.0021248383165265476 0 -0.042422082919069355 -0.002959149721167452 0 -0.04107877030305216 -0.0035682988411630395 0 -0.029008564072749477 0.00057273903842364876 0 -0.030003419339822299 0.0015905229414691915 0 -0.040537598802175119 -0.0050924092866797971 0 -0.04107877030305216 -0.0035682988411630395 0 -0.042637204040172828 -0.0047192234485176187 0 -0.018700144358914213 0.0075160405661750902 0 -0.018060672728436027 0.0078591429001780046 0 -0.019032108506213161 0.0081003683156053337 0 -0.042302690520701527 -0.0050581367789358659 0 -0.0446519595844901 -0.0046621288261539436 0 -0.043259088675046221 -0.0036952620060505732 0 -0.030003419339822299 0.0015905229414691915 0 -0.031785662759467537 0.0020177122269447556 0 -0.030003419339822299 0.0015905229414691915 0 -0.034883529495209391 0.00097828494901193029 0 -0.045343000765257359 -0.0032808268327328026 0 -0.0446519595844901 -0.0046621288261539436 0 -0.044361364641781462 -0.0034731050816703204 0 -0.0446519595844901 -0.0046621288261539436 0 -0.044361364641781462 -0.0034731050816703204 0 -0.043259088675046221 -0.0036952620060505732 0 -0.044248103164198707 -0.0023597709127615688 0 -0.044361364641781462 -0.0034731050816703204 0 -0.043259088675046221 -0.0036952620060505732 0 -0.045343000765257359 -0.0032808268327328026 0 -0.044248103164198707 -0.0023597709127615688 0 -0.044361364641781462 -0.0034731050816703204 0 -0.043428041469484563 -0.0019884186189154736 0 -0.042422082919069355 -0.002959149721167452 0 -0.043452476051142393 -0.0035143131398226611 0 -0.036448312494507619 0.00093013006669838731 0 -0.034883529495209391 0.00097828494901193029 0 -0.042422082919069355 -0.002959149721167452 0 -0.042637204040172828 -0.0047192234485176187 0 -0.043452476051142393 -0.0035143131398226611 0 -0.044645223324448535 -8.1443573954413523e-05 0 -0.046292679379457274 -0.00064891634062073011 0 -0.045559739032552789 -0.00017455476475419169 0 -0.041600746401460061 -0.00055495981400988938 0 -0.043300894352731906 -0.00075032136562539647 0 -0.046292679379457274 -0.00064891634062073011 0 -0.041830201783525138 -1.2760294318071049e-05 0 -0.042489716790253783 -0.00014373409821615734 0 -0.041600746401460061 -0.00055495981400988938 0 -0.043300894352731906 -0.00075032136562539647 0 -0.041451190227349617 -0.00019268111946997918 0 -0.044645223324448535 -8.1443573954413523e-05 0 -0.044029804862597062 -1.0115441103988089e-05 0 -0.045559739032552789 -0.00017455476475419169 0 -0.044573909756386886 -2.0750645908096939e-07 0 -0.044029804862597062 -1.0115441103988089e-05 0 -0.041569434265567938 -1.3478092268201526e-07 0 -0.044573909756386886 -2.0750645908096939e-07 0 -0.044029804862597062 -1.0115441103988089e-05 0 -0.045559739032552789 -0.00017455476475419169 0 -0.044645223324448535 -8.1443573954413523e-05 0 -0.044029804862597062 -1.0115441103988089e-05 0 -0.043068551376463156 -5.7331238315630553e-05 0 -0.041830201783525138 -1.2760294318071049e-05 0 -0.040452134043149165 0.00025168619478424764 0 -0.044029804862597062 -1.0115441103988089e-05 0 -0.043068551376463156 -5.7331238315630553e-05 0 -0.041569434265567938 -1.3478092268201526e-07 0 -0.044645223324448535 -8.1443573954413523e-05 0 -0.043068551376463156 -5.7331238315630553e-05 0 -0.041894882389669728 -0.00018766374690715925 0 -0.043068551376463156 -5.7331238315630553e-05 0 -0.041569434265567938 -1.3478092268201526e-07 0 -0.041894882389669728 -0.00018766374690715925 0 -0.041600746401460061 -0.00055495981400988938 0 -0.040548079044806416 5.423939138300842e-05 0 -0.04101192917790563 -0.00013433839391968603 0 -0.041600746401460061 -0.00055495981400988938 0 -0.040548079044806416 5.423939138300842e-05 0 -0.039875503364881375 0.00027438254610298156 0 -0.04101192917790563 -0.00013433839391968603 0 -0.040639354222825448 7.1603130918265255e-05 0 -0.041451190227349617 -0.00019268111946997918 0 -0.041600746401460061 -0.00055495981400988938 0 -0.04101192917790563 -0.00013433839391968603 0 -0.041451190227349617 -0.00019268111946997918 0 -0.040548079044806416 5.423939138300842e-05 0 -0.04101192917790563 -0.00013433839391968603 0 -0.040639354222825448 7.1603130918265255e-05 0 -0.040639354222825448 7.1603130918265255e-05 0 -0.040858143497031672 -0.00011984582407906897 0 -0.040337481093645003 0.00010940329413560759 0 -0.040639354222825448 7.1603130918265255e-05 0 -0.040858143497031672 -0.00011984582407906897 0 -0.041451190227349617 -0.00019268111946997918 0 -0.040306425065425776 -0.00016846244074626118 0 -0.039950546384314556 0.00013451626604447396 0 -0.040337481093645003 0.00010940329413560759 0 -0.040858143497031672 -0.00011984582407906897 0 -0.040306425065425776 -0.00016846244074626118 0 -0.040337481093645003 0.00010940329413560759 0 -0.040858143497031672 -0.00011984582407906897 0 -0.040306425065425776 -0.00016846244074626118 0 -0.040813702860413019 -0.00063678100130526698 0 -0.040813702860413019 -0.00063678100130526698 0 -0.040475339092092492 -0.0011659632407223239 0 -0.040138080234553723 -0.00075174834393401289 0 -0.040306425065425776 -0.00016846244074626118 0 -0.040813702860413019 -0.00063678100130526698 0 -0.040138080234553723 -0.00075174834393401289 0 -0.040813702860413019 -0.00063678100130526698 0 -0.041558756444080198 -0.00055093409531684306 0 -0.040873159016882571 -0.0018082971734708546 0 -0.043300894352731906 -0.00075032136562539647 0 -0.041558756444080198 -0.00055093409531684306 0 -0.040873159016882571 -0.0018082971734708546 0 -0.040858143497031672 -0.00011984582407906897 0 -0.041451190227349617 -0.00019268111946997918 0 -0.041558756444080198 -0.00055093409531684306 0 -0.043300894352731906 -0.00075032136562539647 0 -0.041451190227349617 -0.00019268111946997918 0 -0.041558756444080198 -0.00055093409531684306 0 -0.040858143497031672 -0.00011984582407906897 0 -0.040813702860413019 -0.00063678100130526698 0 -0.041558756444080198 -0.00055093409531684306 0 -0.043300894352731906 -0.00075032136562539647 0 -0.049107203042821373 -0.0013763978493756847 0 -0.046292679379457274 -0.00064891634062073011 0 -0.045572732943610729 -0.00095568222480076829 0 -0.045838864176876909 -0.0010943442040293016 0 -0.049107203042821373 -0.0013763978493756847 0 -0.048276911279705723 -0.00045771444932660974 0 -0.046292679379457274 -0.00064891634062073011 0 -0.040873159016882571 -0.0018082971734708546 0 -0.040141410617565522 -0.0020020961015148422 0 -0.04017585796923287 -0.0014791492631424012 0 -0.040813702860413019 -0.00063678100130526698 0 -0.040873159016882571 -0.0018082971734708546 0 -0.040475339092092492 -0.0011659632407223239 0 -0.040475339092092492 -0.0011659632407223239 0 -0.04017585796923287 -0.0014791492631424012 0 -0.040138080234553723 -0.00075174834393401289 0 -0.040873159016882571 -0.0018082971734708546 0 -0.040475339092092492 -0.0011659632407223239 0 -0.04017585796923287 -0.0014791492631424012 0 -0.049107203042821373 -0.0013763978493756847 0 -0.049967933017266125 -0.00053592650234815227 0 -0.051840075353203327 -0.00093922011247603266 0 -0.045838864176876909 -0.0010943442040293016 0 -0.046434148543330847 -0.0012085451799412796 0 -0.049967933017266125 -0.00053592650234815227 0 -0.051210998409645429 -0.0002036086762839704 0 -0.051840075353203327 -0.00093922011247603266 0 -0.049967933017266125 -0.00053592650234815227 0 -0.048276911279705723 -0.00045771444932660974 0 -0.049523572946676739 -3.6683797780075129e-05 0 -0.048276911279705723 -0.00045771444932660974 0 -0.04753536286724553 -0.00022886295194933385 0 -0.049523572946676739 -3.6683797780075129e-05 0 -0.049107203042821373 -0.0013763978493756847 0 -0.049967933017266125 -0.00053592650234815227 0 -0.048276911279705723 -0.00045771444932660974 0 -0.048276911279705723 -0.00045771444932660974 0 -0.04753536286724553 -0.00022886295194933385 0 -0.046292679379457274 -0.00064891634062073011 0 -0.04753536286724553 -0.00022886295194933385 0 -0.046292679379457274 -0.00064891634062073011 0 -0.045559739032552789 -0.00017455476475419169 0 -0.044573909756386886 -2.0750645908096939e-07 0 -0.045559739032552789 -0.00017455476475419169 0 -0.04758000381108754 1.6049843241747942e-07 0 -0.04753536286724553 -0.00022886295194933385 0 -0.045559739032552789 -0.00017455476475419169 0 -0.04758000381108754 1.6049843241747942e-07 0 -0.04753536286724553 -0.00022886295194933385 0 -0.04758000381108754 1.6049843241747942e-07 0 -0.049024500654760043 0.00022249558483338736 0 -0.04758000381108754 1.6049843241747942e-07 0 -0.049024500654760043 0.00022249558483338736 0 -0.050578012380034225 2.1306498865491099e-07 0 -0.04753536286724553 -0.00022886295194933385 0 -0.049024500654760043 0.00022249558483338736 0 -0.049523572946676739 -3.6683797780075129e-05 0 -0.049024500654760043 0.00022249558483338736 0 -0.049754352778528618 0.00072819468519164175 0 -0.050244682453987631 0.00028531579296816326 0 -0.050585625093158219 5.2959418844350991e-07 0 -0.051850859951672573 0.00044101478344522459 0 -0.049024500654760043 0.00022249558483338736 0 -0.050578012380034225 2.1306498865491099e-07 0 -0.049754352778528618 0.00072819468519164175 0 -0.054997319228625441 1.2346288257233042e-06 0 -0.054120874080998811 0.00024736494017765993 0 -0.054994201206685141 7.0466637705894704e-07 0 -0.050591128470720843 -1.7851055613373184e-06 0 -0.054997319228625441 1.2346288257233042e-06 0 -0.054120874080998811 0.00024736494017765993 0 -0.053816512219402847 0.00070443399734300307 0 -0.054994201206685141 7.0466637705894704e-07 0 -0.052736739444933269 0.0010670838467670568 0 -0.054998824404750728 6.6540359760661264e-07 0 -0.054387166572252676 0.00043866051323549252 0 -0.054120874080998811 0.00024736494017765993 0 -0.053816512219402847 0.00070443399734300307 0 -0.054994201206685141 7.0466637705894704e-07 0 -0.051850859951672573 0.00044101478344522459 0 -0.052393635468776047 0.0005808075600174169 0 -0.049754352778528618 0.00072819468519164175 0 -0.053816512219402847 0.00070443399734300307 0 -0.052146360760009274 0.00067715215777345466 0 -0.052146360760009274 0.00067715215777345466 0 -0.052487791589221754 0.00056830841524616905 0 -0.052736739444933269 0.0010670838467670568 0 -0.053816512219402847 0.00070443399734300307 0 -0.052146360760009274 0.00067715215777345466 0 -0.052736739444933269 0.0010670838467670568 0 -0.052146360760009274 0.00067715215777345466 0 -0.051652959401721758 0.00034862928462534259 0 -0.052487791589221754 0.00056830841524616905 0 -0.052146360760009274 0.00067715215777345466 0 -0.051652959401721758 0.00034862928462534259 0 -0.050244682453987631 0.00028531579296816326 0 -0.051652959401721758 0.00034862928462534259 0 -0.052475497042517694 2.5317530558043651e-05 0 -0.052487791589221754 0.00056830841524616905 0 -0.049754352778528618 0.00072819468519164175 0 -0.052146360760009274 0.00067715215777345466 0 -0.050244682453987631 0.00028531579296816326 0 -0.051652959401721758 0.00034862928462534259 0 -0.050244682453987631 0.00028531579296816326 0 -0.049523572946676739 -3.6683797780075129e-05 0 -0.049024500654760043 0.00022249558483338736 0 -0.050244682453987631 0.00028531579296816326 0 -0.049523572946676739 -3.6683797780075129e-05 0 -0.049967933017266125 -0.00053592650234815227 0 -0.049523572946676739 -3.6683797780075129e-05 0 -0.051210998409645429 -0.0002036086762839704 0 -0.051652959401721758 0.00034862928462534259 0 -0.049523572946676739 -3.6683797780075129e-05 0 -0.051210998409645429 -0.0002036086762839704 0 -0.051210998409645429 -0.0002036086762839704 0 -0.052475497042517694 2.5317530558043651e-05 0 -0.051840075353203327 -0.00093922011247603266 0 -0.051652959401721758 0.00034862928462534259 0 -0.051210998409645429 -0.0002036086762839704 0 -0.052475497042517694 2.5317530558043651e-05 0 -0.04748848954824917 -0.0010201967601298283 0 -0.046434148543330847 -0.0012085451799412796 0 -0.052475497042517694 2.5317530558043651e-05 0 -0.053919702318386629 -0.00011418702112085497 0 -0.051840075353203327 -0.00093922011247603266 0 -0.052475497042517694 2.5317530558043651e-05 0 -0.053919702318386629 -0.00011418702112085497 0 -0.053773884776714541 0.00031791435806665763 0 -0.039681396694169917 -0.002285560141253739 0 -0.039542000562089202 -0.0020145981796651836 0 -0.040141410617565522 -0.0020020961015148422 0 -0.039681396694169917 -0.002285560141253739 0 -0.039472992809909083 -0.0022754871211393755 0 -0.039542000562089202 -0.0020145981796651836 0 -0.053919702318386629 -0.00011418702112085497 0 -0.054189810430135252 0.00028570225551517237 0 -0.054555600941488036 0.00026283336056161856 0 -0.04748848954824917 -0.0010201967601298283 0 -0.050041259231932325 0.00019988228092594965 0 -0.039681396694169917 -0.002285560141253739 0 -0.039472992809909083 -0.0022754871211393755 0 -0.039334502091823181 -0.0025628389251805043 0 -0.053919702318386629 -0.00011418702112085497 0 -0.053773884776714541 0.00031791435806665763 0 -0.054189810430135252 0.00028570225551517237 0 -0.053773884776714541 0.00031791435806665763 0 -0.054189810430135252 0.00028570225551517237 0 -0.054295320988638839 0.00028092589028871895 0 -0.054189810430135252 0.00028570225551517237 0 -0.054488645921734309 0.00024563111931919472 0 -0.054555600941488036 0.00026283336056161856 0 -0.053773884776714541 0.00031791435806665763 0 -0.054834388365090379 0.00018492818169391073 0 -0.054295320988638839 0.00028092589028871895 0 -0.053773884776714541 0.00031791435806665763 0 -0.052487791589221754 0.00056830841524616905 0 -0.052736739444933269 0.0010670838467670568 0 -0.054299125629202964 0.00036751196979324218 0 -0.054387166572252676 0.00043866051323549252 0 -0.052475497042517694 2.5317530558043651e-05 0 -0.053773884776714541 0.00031791435806665763 0 -0.052487791589221754 0.00056830841524616905 0 -0.054834388365090379 0.00018492818169391073 0 -0.054488645921734309 0.00024563111931919472 0 -0.05482850057618479 9.0845082598676788e-05 0 -0.054834388365090379 0.00018492818169391073 0 -0.054295320988638839 0.00028092589028871895 0 -0.054488645921734309 0.00024563111931919472 0 -0.054189810430135252 0.00028570225551517237 0 -0.054295320988638839 0.00028092589028871895 0 -0.054488645921734309 0.00024563111931919472 0 -0.054488645921734309 0.00024563111931919472 0 -0.054782266775002489 0.00010218292736834182 0 -0.054674183161469235 0.00018567192115265404 0 -0.054488645921734309 0.00024563111931919472 0 -0.054782266775002489 0.00010218292736834182 0 -0.05482850057618479 9.0845082598676788e-05 0 -0.054782266775002489 0.00010218292736834182 0 -0.054999515769110101 9.2396711461997274e-08 0 -0.054999414558456194 1.3409955040602233e-07 0 -0.054782266775002489 0.00010218292736834182 0 -0.054999515769110101 9.2396711461997274e-08 0 -0.05482850057618479 9.0845082598676788e-05 0 -0.05500022377582376 -1.6070124817568086e-08 0 -0.054834388365090379 0.00018492818169391073 0 -0.05482850057618479 9.0845082598676788e-05 0 -0.05500022377582376 -1.6070124817568086e-08 0 -0.054999515769110101 9.2396711461997274e-08 0 -0.05482850057618479 9.0845082598676788e-05 0 -0.054971346999767794 -1.0501112202281783e-05 0 -0.05499997040662951 -7.6885490414593902e-08 0 -0.054999881334854145 8.7211204728836353e-08 0 -0.054971346999767794 -1.0501112202281783e-05 0 -0.054971163011445993 1.7250629693949645e-05 0 -0.054931892190917139 -2.62588707953172e-05 0 -0.054993927411182641 5.0077212405087887e-07 0 -0.052784969136583593 0.00016060628812347339 0 -0.054782266775002489 0.00010218292736834182 0 -0.054999414558456194 1.3409955040602233e-07 0 -0.054674183161469235 0.00018567192115265404 0 -0.054971346999767794 -1.0501112202281783e-05 0 -0.05499997040662951 -7.6885490414593902e-08 0 -0.054987714164430317 7.3289340044315044e-06 0 -0.052784969136583593 0.00016060628812347339 0 -0.050041259231932325 0.00019988228092594965 0 -0.054488645921734309 0.00024563111931919472 0 -0.054674183161469235 0.00018567192115265404 0 -0.054555600941488036 0.00026283336056161856 0 -0.054987714164430317 7.3289340044315044e-06 0 -0.054971163011445993 1.7250629693949645e-05 0 -0.054977586584104614 2.9618049054127388e-05 0 -0.052113866970381457 0.00085005986622428329 0 -0.050041259231932325 0.00019988228092594965 0 -0.054971346999767794 -1.0501112202281783e-05 0 -0.054987714164430317 7.3289340044315044e-06 0 -0.054971163011445993 1.7250629693949645e-05 0 -0.054519064933477059 -0.00020297974173449595 0 -0.054796972885813811 -0.00026347495452220567 0 -0.054931892190917139 -2.62588707953172e-05 0 -0.052113866970381457 0.00085005986622428329 0 -0.05268053797515615 0.00098475149241372901 0 -0.054671879679195699 -0.00039395774232042996 0 -0.054829307664906117 -0.00051660069356541873 0 -0.054796972885813811 -0.00026347495452220567 0 -0.054519064933477059 -0.00020297974173449595 0 -0.054671879679195699 -0.00039395774232042996 0 -0.054796972885813811 -0.00026347495452220567 0 -0.054671879679195699 -0.00039395774232042996 0 -0.05453325318375047 -0.00058609482512223009 0 -0.054829307664906117 -0.00051660069356541873 0 -0.054519064933477059 -0.00020297974173449595 0 -0.054671879679195699 -0.00039395774232042996 0 -0.05453325318375047 -0.00058609482512223009 0 -0.054519064933477059 -0.00020297974173449595 0 -0.05453325318375047 -0.00058609482512223009 0 -0.054138946656727818 -0.00048212315903783167 0 -0.05453325318375047 -0.00058609482512223009 0 -0.054325162980625771 -0.00077462100876070589 0 -0.054505098875747504 -0.00084815207438052867 0 -0.05453325318375047 -0.00058609482512223009 0 -0.054505098875747504 -0.00084815207438052867 0 -0.054770266744059555 -0.00092061479629321425 0 -0.05453325318375047 -0.00058609482512223009 0 -0.054770266744059555 -0.00092061479629321425 0 -0.054829307664906117 -0.00051660069356541873 0 -0.039472992809909083 -0.0022754871211393755 0 -0.039334502091823181 -0.0025628389251805043 0 -0.039334172058212449 -0.0022165357652771532 0 -0.054138946656727818 -0.00048212315903783167 0 -0.054325162980625771 -0.00077462100876070589 0 -0.054084062364100211 -0.00097825229527913077 0 -0.050041259231932325 0.00019988228092594965 0 -0.047528674342553062 -0.0013925769691877548 0 -0.05453325318375047 -0.00058609482512223009 0 -0.054138946656727818 -0.00048212315903783167 0 -0.054325162980625771 -0.00077462100876070589 0 -0.054325162980625771 -0.00077462100876070589 0 -0.054084062364100211 -0.00097825229527913077 0 -0.054383606253467769 -0.0010069816316942259 0 -0.054084062364100211 -0.00097825229527913077 0 -0.054383606253467769 -0.0010069816316942259 0 -0.054229211042359199 -0.0012237567293175884 0 -0.039472992809909083 -0.0022754871211393755 0 -0.039334172058212449 -0.0022165357652771532 0 -0.039542000562089202 -0.0020145981796651836 0 -0.054505098875747504 -0.00084815207438052867 0 -0.054549576978516624 -0.0010073631450479873 0 -0.054770266744059555 -0.00092061479629321425 0 -0.054325162980625771 -0.00077462100876070589 0 -0.054505098875747504 -0.00084815207438052867 0 -0.054383606253467769 -0.0010069816316942259 0 -0.054505098875747504 -0.00084815207438052867 0 -0.054383606253467769 -0.0010069816316942259 0 -0.054549576978516624 -0.0010073631450479873 0 -0.054383606253467769 -0.0010069816316942259 0 -0.054460689755624528 -0.0011435266991803332 0 -0.054417180277378158 -0.0013386198911665181 0 -0.047418984053676713 -0.0014847837836263133 0 -0.046726204041558181 -0.0013517888524572483 0 -0.054383606253467769 -0.0010069816316942259 0 -0.054460689755624528 -0.0011435266991803332 0 -0.054549576978516624 -0.0010073631450479873 0 -0.054549576978516624 -0.0010073631450479873 0 -0.054652437981263353 -0.0011422315825062263 0 -0.054770266744059555 -0.00092061479629321425 0 -0.054460689755624528 -0.0011435266991803332 0 -0.054549576978516624 -0.0010073631450479873 0 -0.054652437981263353 -0.0011422315825062263 0 -0.049040627452748883 -0.0014629667625481659 0 -0.048299025963081776 -0.0010578340394234351 0 -0.054460689755624528 -0.0011435266991803332 0 -0.054614687104560133 -0.0012973070493859393 0 -0.054417180277378158 -0.0013386198911665181 0 -0.054460689755624528 -0.0011435266991803332 0 -0.054652437981263353 -0.0011422315825062263 0 -0.054673664205411449 -0.0013364726508942187 0 -0.054652437981263353 -0.0011422315825062263 0 -0.054673664205411449 -0.0013364726508942187 0 -0.054792681930579158 -0.0013148777156951918 0 -0.048299025963081776 -0.0010578340394234351 0 -0.046726204041558181 -0.0013517888524572483 0 -0.054383606253467769 -0.0010069816316942259 0 -0.054418408389019249 -0.0014214913897684022 0 -0.054229211042359199 -0.0012237567293175884 0 -0.038664555902694672 -0.0017917007416996538 0 -0.038597691127209781 -0.0013378345604454021 0 -0.038833763031212103 -0.0015335122583715422 0 -0.046726204041558181 -0.0013517888524572483 0 -0.045035337309049739 -0.0012223504066549804 0 -0.045861333730884656 -0.0013901408585897494 0 -0.045811937530479928 -0.001337799208345486 0 -0.045842747349218511 -0.0012721289862247084 0 -0.045786282911649934 -0.0014027571375792554 0 -0.045861333730884656 -0.0013901408585897494 0 -0.045811937530479928 -0.001337799208345486 0 -0.045786282911649934 -0.0014027571375792554 0 -0.045811937530479928 -0.001337799208345486 0 -0.045744666265268748 -0.001364961293062149 0 -0.045286757366763034 -0.0012516954694315287 0 -0.047671094117021424 -0.00086983390583544504 0 -0.045811937530479928 -0.001337799208345486 0 -0.045800534517723215 -0.0012270148699656757 0 -0.045744666265268748 -0.001364961293062149 0 -0.045811937530479928 -0.001337799208345486 0 -0.045842747349218511 -0.0012721289862247084 0 -0.045800534517723215 -0.0012270148699656757 0 -0.038597691127209781 -0.0013378345604454021 0 -0.038876637492095537 -0.0011115679272436674 0 -0.038833763031212103 -0.0015335122583715422 0 -0.045842747349218511 -0.0012721289862247084 0 -0.045818686115773534 -0.0012230460809705909 0 -0.045822540144599362 -0.0011558658726554683 0 -0.038597691127209781 -0.0013378345604454021 0 -0.038876637492095537 -0.0011115679272436674 0 -0.038546143868907284 -0.00088048692616760462 0 -0.045035337309049739 -0.0012223504066549804 0 -0.043919465058292882 -0.0012548343214120712 0 -0.042912449782581727 -0.0011715185441483376 0 -0.043044200289398996 -0.00080386191942184921 0 -0.042530064427976286 -0.0012563389733001959 0 -0.04529210033817084 -0.001250749273204131 0 -0.045286757366763034 -0.0012516954694315287 0 -0.045842747349218511 -0.0012721289862247084 0 -0.045818686115773534 -0.0012230460809705909 0 -0.045800534517723215 -0.0012270148699656757 0 -0.038876637492095537 -0.0011115679272436674 0 -0.039075441544451833 -0.0013849994727167339 0 -0.03924560004693959 -0.00091842162267780037 0 -0.038833763031212103 -0.0015335122583715422 0 -0.039075441544451833 -0.0013849994727167339 0 -0.039066961971881954 -0.0017187228313416769 0 -0.038876637492095537 -0.0011115679272436674 0 -0.038833763031212103 -0.0015335122583715422 0 -0.039075441544451833 -0.0013849994727167339 0 -0.044946140374624494 -0.0024821648524638714 0 -0.045275470579589645 -0.0026499385158365485 0 -0.047528674342553062 -0.0013925769691877548 0 -0.045275470579589645 -0.0026499385158365485 0 -0.054084062364100211 -0.00097825229527913077 0 -0.054031731738137717 -0.0014883435808204339 0 -0.054229211042359199 -0.0012237567293175884 0 -0.039334172058212449 -0.0022165357652771532 0 -0.039330714484650121 -0.0018336143758033597 0 -0.039542000562089202 -0.0020145981796651836 0 -0.038664555902694672 -0.0017917007416996538 0 -0.038833763031212103 -0.0015335122583715422 0 -0.039066961971881954 -0.0017187228313416769 0 -0.046726204041558181 -0.0013517888524572483 0 -0.045275470579589645 -0.0026499385158365485 0 -0.054418408389019249 -0.0014214913897684022 0 -0.054031731738137717 -0.0014883435808204339 0 -0.054229211042359199 -0.0012237567293175884 0 -0.039542000562089202 -0.0020145981796651836 0 -0.03967092137325598 -0.0017296752767708256 0 -0.040141410617565522 -0.0020020961015148422 0 -0.039330714484650121 -0.0018336143758033597 0 -0.039542000562089202 -0.0020145981796651836 0 -0.03967092137325598 -0.0017296752767708256 0 -0.039075441544451833 -0.0013849994727167339 0 -0.039052457179680901 -0.0018152182751770395 0 -0.03967092137325598 -0.0017296752767708256 0 -0.045275470579589645 -0.0026499385158365485 0 -0.04311956629244091 -0.0027941167649770072 0 -0.03967092137325598 -0.0017296752767708256 0 -0.040141410617565522 -0.0020020961015148422 0 -0.04017585796923287 -0.0014791492631424012 0 -0.03967092137325598 -0.0017296752767708256 0 -0.04017585796923287 -0.0014791492631424012 0 -0.039724684501403373 -0.0011284962746512957 0 -0.04017585796923287 -0.0014791492631424012 0 -0.039724684501403373 -0.0011284962746512957 0 -0.040138080234553723 -0.00075174834393401289 0 -0.03967092137325598 -0.0017296752767708256 0 -0.039724684501403373 -0.0011284962746512957 0 -0.039428465884138085 -0.0012848444953099086 0 -0.039075441544451833 -0.0013849994727167339 0 -0.03967092137325598 -0.0017296752767708256 0 -0.039428465884138085 -0.0012848444953099086 0 -0.039075441544451833 -0.0013849994727167339 0 -0.039428465884138085 -0.0012848444953099086 0 -0.03924560004693959 -0.00091842162267780037 0 -0.039724684501403373 -0.0011284962746512957 0 -0.039428465884138085 -0.0012848444953099086 0 -0.03924560004693959 -0.00091842162267780037 0 -0.039724684501403373 -0.0011284962746512957 0 -0.03924560004693959 -0.00091842162267780037 0 -0.039697330967991717 -0.00058254960600238707 0 -0.039724684501403373 -0.0011284962746512957 0 -0.039697330967991717 -0.00058254960600238707 0 -0.040138080234553723 -0.00075174834393401289 0 -0.039697330967991717 -0.00058254960600238707 0 -0.040138080234553723 -0.00075174834393401289 0 -0.039946703223819428 -0.00023551868282058126 0 -0.039946703223819428 -0.00023551868282058126 0 -0.039510768612918142 -6.4279094098561895e-05 0 -0.039950546384314556 0.00013451626604447396 0 -0.040306425065425776 -0.00016846244074626118 0 -0.039946703223819428 -0.00023551868282058126 0 -0.039950546384314556 0.00013451626604447396 0 -0.040306425065425776 -0.00016846244074626118 0 -0.040138080234553723 -0.00075174834393401289 0 -0.039946703223819428 -0.00023551868282058126 0 -0.03924560004693959 -0.00091842162267780037 0 -0.039697330967991717 -0.00058254960600238707 0 -0.039510768612918142 -6.4279094098561895e-05 0 -0.039697330967991717 -0.00058254960600238707 0 -0.039946703223819428 -0.00023551868282058126 0 -0.039510768612918142 -6.4279094098561895e-05 0 -0.03963740305090218 -0.00061017105044770033 0 -0.039766315774722463 -0.00041206474395259806 0 -0.03937722032534783 -0.00023821573792845579 0 -0.03878128137175673 -0.00028371477026549935 0 -0.038981133266258586 -0.00062583677638831925 0 -0.03924560004693959 -0.00091842162267780037 0 -0.03937722032534783 -0.00023821573792845579 0 -0.038981133266258586 -0.00062583677638831925 0 -0.042182474325130163 -0.0011000008299274059 0 -0.043919465058292882 -0.0012548343214120712 0 -0.041857521701660745 -0.0012946704890209771 0 -0.043919465058292882 -0.0012548343214120712 0 -0.042017337825783818 -0.001308701265398553 0 -0.041833014733912405 -0.001363302009030038 0 -0.041982062263213625 -0.00097830339655618093 0 -0.03878128137175673 -0.00028371477026549935 0 -0.038546143868907284 -0.00088048692616760462 0 -0.038981133266258586 -0.00062583677638831925 0 -0.042947746290864168 -9.700797524552186e-05 0 -0.043044200289398996 -0.00080386191942184921 0 -0.04243635788410538 -0.00048404804462741965 0 -0.045818686115773534 -0.0012230460809705909 0 -0.045799515640389123 -0.0012272292995819925 0 -0.045822540144599362 -0.0011558658726554683 0 -0.045286757366763034 -0.0012516954694315287 0 -0.043919465058292882 -0.0012548343214120712 0 -0.038876637492095537 -0.0011115679272436674 0 -0.03924560004693959 -0.00091842162267780037 0 -0.038981133266258586 -0.00062583677638831925 0 -0.038876637492095537 -0.0011115679272436674 0 -0.038546143868907284 -0.00088048692616760462 0 -0.038981133266258586 -0.00062583677638831925 0 -0.04175303876989922 -0.00043792696779314439 0 -0.042006214578030235 -0.00069941553401794553 0 -0.042017322867192446 -0.00034133086401411946 0 -0.04175303876989922 -0.00043792696779314439 0 -0.042006214578030235 -0.00069941553401794553 0 -0.041506534258418215 -0.00070795421529041148 0 -0.042006214578030235 -0.00069941553401794553 0 -0.041506534258418215 -0.00070795421529041148 0 -0.042049736535675147 -0.0011917345939488017 0 -0.042006214578030235 -0.00069941553401794553 0 -0.042247308281381998 -0.00084025264376827999 0 -0.042047980672944893 -0.0011852823419793465 0 -0.044773117371132598 -0.00041072329838738662 0 -0.045950611565271242 -0.00097493395461013821 0 -0.042247308281381998 -0.00084025264376827999 0 -0.042409919144102047 -0.00039942086131994125 0 -0.042495719379310397 -0.0010849712477855181 0 -0.043044200289398996 -0.00080386191942184921 0 -0.04243635788410538 -0.00048404804462741965 0 -0.042530064427976286 -0.0012563389733001959 0 -0.042006214578030235 -0.00069941553401794553 0 -0.042409919144102047 -0.00039942086131994125 0 -0.042017322867192446 -0.00034133086401411946 0 -0.042006214578030235 -0.00069941553401794553 0 -0.042247308281381998 -0.00084025264376827999 0 -0.042409919144102047 -0.00039942086131994125 0 -0.042409919144102047 -0.00039942086131994125 0 -0.042139998609216391 -3.0729442938392605e-05 0 -0.042017322867192446 -0.00034133086401411946 0 -0.042409919144102047 -0.00039942086131994125 0 -0.042139998609216391 -3.0729442938392605e-05 0 -0.042342620772320622 0.0002901399377191704 0 -0.044773117371132598 -0.00041072329838738662 0 -0.04440695544652485 -0.00012802587296484411 0 -0.042947746290864168 -9.700797524552186e-05 0 -0.04243635788410538 -0.00048404804462741965 0 -0.042342620772320622 0.0002901399377191704 0 -0.042139998609216391 -3.0729442938392605e-05 0 -0.04178378953344046 -9.7930076142670571e-05 0 -0.042052576641346741 0.00036504324954668915 0 -0.04178378953344046 -9.7930076142670571e-05 0 -0.041302637063152327 0.00011728014775773918 0 -0.042052576641346741 0.00036504324954668915 0 -0.042139998609216391 -3.0729442938392605e-05 0 -0.042017322867192446 -0.00034133086401411946 0 -0.04178378953344046 -9.7930076142670571e-05 0 -0.04175303876989922 -0.00043792696779314439 0 -0.042017322867192446 -0.00034133086401411946 0 -0.04178378953344046 -9.7930076142670571e-05 0 -0.04175303876989922 -0.00043792696779314439 0 -0.04178378953344046 -9.7930076142670571e-05 0 -0.041466570447017972 -0.00027085900423690366 0 -0.04178378953344046 -9.7930076142670571e-05 0 -0.041302637063152327 0.00011728014775773918 0 -0.041466570447017972 -0.00027085900423690366 0 -0.041302637063152327 0.00011728014775773918 0 -0.041466570447017972 -0.00027085900423690366 0 -0.04102409145330347 -0.00020993086328541512 0 -0.040608773809529493 -0.00058001836777113241 0 -0.040702217181764998 -0.00048820834398469507 0 -0.040825690847300374 -0.00017575346638998632 0 -0.041031320329611806 -0.00012425020987804952 0 -0.040334357535621972 -0.00098405388247735457 0 -0.041302637063152327 0.00011728014775773918 0 -0.040825690847300374 -0.00017575346638998632 0 -0.04102409145330347 -0.00020993086328541512 0 -0.040825690847300374 -0.00017575346638998632 0 -0.040996808137151342 -0.00015102400735756316 0 -0.041031320329611806 -0.00012425020987804952 0 -0.040825690847300374 -0.00017575346638998632 0 -0.04102409145330347 -0.00020993086328541512 0 -0.040996808137151342 -0.00015102400735756316 0 -0.04102409145330347 -0.00020993086328541512 0 -0.040996808137151342 -0.00015102400735756316 0 -0.041006203822022844 -0.00016225943066725031 0 -0.040996808137151342 -0.00015102400735756316 0 -0.041006203822022844 -0.00016225943066725031 0 -0.041040828037332784 -0.00015579187315300212 0 -0.041006203822022844 -0.00016225943066725031 0 -0.041040828037332784 -0.00015579187315300212 0 -0.040953401410859666 -0.00010727688928083103 0 -0.041466570447017972 -0.00027085900423690366 0 -0.04102409145330347 -0.00020993086328541512 0 -0.041506534258418215 -0.00070795421529041148 0 -0.04175303876989922 -0.00043792696779314439 0 -0.041466570447017972 -0.00027085900423690366 0 -0.041506534258418215 -0.00070795421529041148 0 -0.04102409145330347 -0.00020993086328541512 0 -0.041006203822022844 -0.00016225943066725031 0 -0.040924155147626803 -0.00015213047725653133 0 -0.043050627649683162 0.00057692874117651327 0 -0.043806166004826015 0.00034392184957896606 0 -0.041006203822022844 -0.00016225943066725031 0 -0.040924155147626803 -0.00015213047725653133 0 -0.040953401410859666 -0.00010727688928083103 0 -0.040953401410859666 -0.00010727688928083103 0 -0.040966409631147886 -1.544793319260432e-05 0 -0.040852003185341497 -8.4891310018023471e-05 0 -0.047326653667118593 -0.00068970296868892231 0 -0.046789938005715737 -0.00083871485657396091 0 -0.041040828037332784 -0.00015579187315300212 0 -0.040953401410859666 -0.00010727688928083103 0 -0.040966409631147886 -1.544793319260432e-05 0 -0.041040828037332784 -0.00015579187315300212 0 -0.040966409631147886 -1.544793319260432e-05 0 -0.041302046373012151 0.00014742126844872095 0 -0.047326653667118593 -0.00068970296868892231 0 -0.04788167735218269 -0.00050348401820018919 0 -0.053650233655542806 -0.0014927702545889251 0 -0.05420310289966853 -0.00072943550985268477 0 -0.054645618442697642 -0.0012139772677531543 0 -0.053650233655542806 -0.0014927702545889251 0 -0.052949115022881715 -0.0013245479160879914 0 -0.053377897201871478 -0.00078104512626208582 0 -0.053650233655542806 -0.0014927702545889251 0 -0.053377897201871478 -0.00078104512626208582 0 -0.05420310289966853 -0.00072943550985268477 0 -0.052949115022881715 -0.0013245479160879914 0 -0.052489496529353259 -0.00091576909759526139 0 -0.053377897201871478 -0.00078104512626208582 0 -0.052949115022881715 -0.0013245479160879914 0 -0.052626542892779161 -0.0017347731701893355 0 -0.052489496529353259 -0.00091576909759526139 0 -0.046789938005715737 -0.00083871485657396091 0 -0.049646833380366642 -0.00064361629308230112 0 -0.049646833380366642 -0.00064361629308230112 0 -0.051417572652520123 -0.00047686751167039698 0 -0.040924155147626803 -0.00015213047725653133 0 -0.040953401410859666 -0.00010727688928083103 0 -0.040852003185341497 -8.4891310018023471e-05 0 -0.053650233655542806 -0.0014927702545889251 0 -0.052949115022881715 -0.0013245479160879914 0 -0.052626542892779161 -0.0017347731701893355 0 -0.046437868450951429 -0.00078474657332771615 0 -0.046789938005715737 -0.00083871485657396091 0 -0.043806166004826015 0.00034392184957896606 0 -0.046789938005715737 -0.00083871485657396091 0 -0.04665404766471247 -0.00036194159550590599 0 -0.047058736240113766 -0.00027292807991703038 0 -0.047116024684804948 -0.00077540539198487073 0 -0.045950611565271242 -0.00097493395461013821 0 -0.047671094117021424 -0.00086983390583544504 0 -0.046792963919781244 -0.00095691724167047535 0 -0.046722266884132113 -0.00097240877763265349 0 -0.046737873511547082 -0.0010884490917289116 0 -0.045286757366763034 -0.0012516954694315287 0 -0.045950611565271242 -0.00097493395461013821 0 -0.042247308281381998 -0.00084025264376827999 0 -0.042047980672944893 -0.0011852823419793465 0 -0.042495719379310397 -0.0010849712477855181 0 -0.046789938005715737 -0.00083871485657396091 0 -0.045950611565271242 -0.00097493395461013821 0 -0.046789938005715737 -0.00083871485657396091 0 -0.047671094117021424 -0.00086983390583544504 0 -0.047866566323207176 -0.0006901701634983244 0 -0.048136967864368385 -0.0011833219426045391 0 -0.047983207701577706 -0.0013615683388437114 0 -0.048340636330867243 -0.0011130122261840184 0 -0.048136967864368385 -0.0011833219426045391 0 -0.048351342497992944 -0.0012070031187366107 0 -0.048299025963081776 -0.0010578340394234351 0 -0.047671094117021424 -0.00086983390583544504 0 -0.048223476813489832 -0.0019313184857631715 0 -0.04772048338382405 -0.0014807169690949328 0 -0.047750851987930908 -0.0017510931028027533 0 -0.047671094117021424 -0.00086983390583544504 0 -0.048232004109138665 -0.00086219466079563733 0 -0.047866566323207176 -0.0006901701634983244 0 -0.048340636330867243 -0.0011130122261840184 0 -0.048136967864368385 -0.0011833219426045391 0 -0.049646833380366642 -0.00064361629308230112 0 -0.048764302962079002 -0.00083983129188702787 0 -0.048136967864368385 -0.0011833219426045391 0 -0.047983207701577706 -0.0013615683388437114 0 -0.048361482171835987 -0.0012963525536487991 0 -0.048299025963081776 -0.0010578340394234351 0 -0.048764302962079002 -0.00083983129188702787 0 -0.048223476813489832 -0.0019313184857631715 0 -0.04777970852207148 -0.0020077486514405974 0 -0.047750851987930908 -0.0017510931028027533 0 -0.048764302962079002 -0.00083983129188702787 0 -0.048232004109138665 -0.00086219466079563733 0 -0.048136967864368385 -0.0011833219426045391 0 -0.048361482171835987 -0.0012963525536487991 0 -0.048351342497992944 -0.0012070031187366107 0 -0.054652437981263353 -0.0011422315825062263 0 -0.054792681930579158 -0.0013148777156951918 0 -0.054770266744059555 -0.00092061479629321425 0 -0.048764302962079002 -0.00083983129188702787 0 -0.04933987759141098 -0.0010507727192296029 0 -0.054800464347342169 -0.0013327433915527197 0 -0.054770266744059555 -0.00092061479629321425 0 -0.055066687789480928 -0.0007640546174651901 0 -0.049646833380366642 -0.00064361629308230112 0 -0.050865982975148646 -0.00015819915486029883 0 -0.049983804783869476 -0.00039662942167559967 0 -0.050080846108510955 -0.00038006006589633704 0 -0.050007304027254243 -0.00055836091370102222 0 -0.048764302962079002 -0.00083983129188702787 0 -0.050865982975148646 -0.00015819915486029883 0 -0.052583835504073577 -0.00091667059763280573 0 -0.052839149582599346 -0.00052843010621115834 0 -0.052496907033937758 -0.00022273110307597242 0 -0.052839149582599346 -0.00052843010621115834 0 -0.053035505482648959 -0.00016164484668794319 0 -0.053377897201871478 -0.00078104512626208582 0 -0.052583835504073577 -0.00091667059763280573 0 -0.052839149582599346 -0.00052843010621115834 0 -0.053377897201871478 -0.00078104512626208582 0 -0.052839149582599346 -0.00052843010621115834 0 -0.053035505482648959 -0.00016164484668794319 0 -0.052496907033937758 -0.00022273110307597242 0 -0.053035505482648959 -0.00016164484668794319 0 -0.052667495267605897 0.00023258540254706087 0 -0.052496907033937758 -0.00022273110307597242 0 -0.053035505482648959 -0.00016164484668794319 0 -0.052667495267605897 0.00023258540254706087 0 -0.05311016767347769 0.00032601108307413825 0 -0.050865982975148646 -0.00015819915486029883 0 -0.052852088581936157 -5.3259739197101925e-06 0 -0.052667495267605897 0.00023258540254706087 0 -0.052496638637729381 -0.00022292880794009875 0 -0.052408280055887352 0.00050736407921696551 0 -0.055066687789480928 -0.0007640546174651901 0 -0.054829307664906117 -0.00051660069356541873 0 -0.055009803188363501 -0.00023359953620612542 0 -0.054770266744059555 -0.00092061479629321425 0 -0.055066687789480928 -0.0007640546174651901 0 -0.054829307664906117 -0.00051660069356541873 0 -0.051037590163276025 -5.734704710919156e-06 0 -0.050865982975148646 -0.00015819915486029883 0 -0.054829307664906117 -0.00051660069356541873 0 -0.054796972885813811 -0.00026347495452220567 0 -0.055009803188363501 -0.00023359953620612542 0 -0.052408280055887352 0.00050736407921696551 0 -0.052895123173841797 0.00072955330441145749 0 -0.05231808107989832 0.00123679899411444 0 -0.054796972885813811 -0.00026347495452220567 0 -0.055009803188363501 -0.00023359953620612542 0 -0.054931892190917139 -2.62588707953172e-05 0 -0.052667495267605897 0.00023258540254706087 0 -0.052408280055887352 0.00050736407921696551 0 -0.052895123173841797 0.00072955330441145749 0 -0.052667495267605897 0.00023258540254706087 0 -0.05311016767347769 0.00032601108307413825 0 -0.052895123173841797 0.00072955330441145749 0 -0.05311016767347769 0.00032601108307413825 0 -0.052895123173841797 0.00072955330441145749 0 -0.0534261356965487 0.00075257140332504952 0 -0.052895123173841797 0.00072955330441145749 0 -0.053043872904216957 0.0013198540450142775 0 -0.0534261356965487 0.00075257140332504952 0 -0.054998380053231752 5.7380394289448206e-06 0 -0.05499999037569913 -7.7607092005552745e-10 0 -0.055000430374608042 4.0900742269229162e-07 0 -0.052895123173841797 0.00072955330441145749 0 -0.053043872904216957 0.0013198540450142775 0 -0.05231808107989832 0.00123679899411444 0 -0.054148302920387026 0.00058326388820302837 0 -0.054532678578575751 9.3299206379899622e-05 0 -0.05499999037569913 -7.7607092005552745e-10 0 -0.055000007239533508 1.5273098871263515e-09 0 -0.055000430374608042 4.0900742269229162e-07 0 -0.055009803188363501 -0.00023359953620612542 0 -0.054976280060474537 2.511924438726743e-05 0 -0.054931892190917139 -2.62588707953172e-05 0 -0.052852088581936157 -5.3259739197101925e-06 0 -0.054532678578575751 9.3299206379899622e-05 0 -0.054971346999767794 -1.0501112202281783e-05 0 -0.054999881334854145 8.7211204728836353e-08 0 -0.054976280060474537 2.511924438726743e-05 0 -0.054995712893531432 1.6678653981340255e-07 0 -0.054532678578575751 9.3299206379899622e-05 0 -0.054971346999767794 -1.0501112202281783e-05 0 -0.054976280060474537 2.511924438726743e-05 0 -0.054931892190917139 -2.62588707953172e-05 0 -0.053978994989735414 0.0010642294448107569 0 -0.054075549019834239 0.0004109277267579533 0 -0.053773202625574688 0.0014026135667744113 0 -0.0534261356965487 0.00075257140332504952 0 -0.054170406797996784 0.0006692959936940862 0 -0.054946787827521625 1.0339150721243474e-06 0 -0.055419800264662068 -0.00267937200732026 0 -0.055266584955016594 -0.0010638378295571155 0 -0.054946787827521625 1.0339150721243474e-06 0 -0.045831313988311875 -0.0014469152258498785 0 -0.055419800264662068 -0.00267937200732026 0 -0.054995578998400733 8.5764692219653516e-06 0 -0.053978994989735414 0.0010642294448107569 0 -0.054148302920387026 0.00058326388820302837 0 -0.053978994989735414 0.0010642294448107569 0 -0.053043872904216957 0.0013198540450142775 0 -0.053773202625574688 0.0014026135667744113 0 -0.0534261356965487 0.00075257140332504952 0 -0.054998380053231752 5.7380394289448206e-06 0 -0.05499999037569913 -7.7607092005552745e-10 0 -0.054921905999049621 7.8802491718382683e-10 0 -0.05311016767347769 0.00032601108307413825 0 -0.0534261356965487 0.00075257140332504952 0 -0.053527815908911834 7.5960324198773876e-05 0 -0.0534261356965487 0.00075257140332504952 0 -0.054170406797996784 0.0006692959936940862 0 -0.053527815908911834 7.5960324198773876e-05 0 -0.054170406797996784 0.0006692959936940862 0 -0.054034213291373576 -0.00014262640279667454 0 -0.054568401048443335 -7.486387887705607e-05 0 -0.054170406797996784 0.0006692959936940862 0 -0.054034213291373576 -0.00014262640279667454 0 -0.053527815908911834 7.5960324198773876e-05 0 -0.053035505482648959 -0.00016164484668794319 0 -0.05311016767347769 0.00032601108307413825 0 -0.053527815908911834 7.5960324198773876e-05 0 -0.053035505482648959 -0.00016164484668794319 0 -0.053527815908911834 7.5960324198773876e-05 0 -0.053377897201871478 -0.00078104512626208582 0 -0.054034213291373576 -0.00014262640279667454 0 -0.053527815908911834 7.5960324198773876e-05 0 -0.053377897201871478 -0.00078104512626208582 0 -0.054034213291373576 -0.00014262640279667454 0 -0.053377897201871478 -0.00078104512626208582 0 -0.05420310289966853 -0.00072943550985268477 0 -0.054034213291373576 -0.00014262640279667454 0 -0.05420310289966853 -0.00072943550985268477 0 -0.054568401048443335 -7.486387887705607e-05 0 -0.054741829638902208 -0.00062786854366037623 0 -0.054601604062497727 -0.00041303277988613064 0 -0.05420310289966853 -0.00072943550985268477 0 -0.054934516222843496 -0.00084637636418373962 0 -0.054568401048443335 -7.486387887705607e-05 0 -0.054934516222843496 -0.00084637636418373962 0 -0.055013663201857306 -0.00089471104853630949 0 -0.055081805522737282 -0.00088989222798938972 0 -0.054934516222843496 -0.00084637636418373962 0 -0.054974775277068198 -0.00092011009129231585 0 -0.055013663201857306 -0.00089471104853630949 0 -0.054934516222843496 -0.00084637636418373962 0 -0.054974775277068198 -0.00092011009129231585 0 -0.055185232423180228 -0.0010457238351454119 0 -0.054974775277068198 -0.00092011009129231585 0 -0.055185232423180228 -0.0010457238351454119 0 -0.055098721667408403 -0.0013221926673194447 0 -0.054075549019834239 0.0004109277267579533 0 -0.054601604062497727 -0.00041303277988613064 0 -0.055419800264662068 -0.00267937200732026 0 -0.055098721667408403 -0.0013221926673194447 0 -0.055266584955016594 -0.0010638378295571155 0 -0.055419800264662068 -0.00267937200732026 0 -0.055185232423180228 -0.0010457238351454119 0 -0.055098721667408403 -0.0013221926673194447 0 -0.054974775277068198 -0.00092011009129231585 0 -0.055098721667408403 -0.0013221926673194447 0 -0.055066015485399078 -0.00074453279383469124 0 -0.055015075885280269 -1.8117342112576181e-06 0 -0.054995702879773831 -2.3430188623795206e-08 0 -0.055066015485399078 -0.00074453279383469124 0 -0.055098721667408403 -0.0013221926673194447 0 -0.055015075885280269 -1.8117342112576181e-06 0 -0.055066015485399078 -0.00074453279383469124 0 -0.055098721667408403 -0.0013221926673194447 0 -0.055015075885280269 -1.8117342112576181e-06 0 -0.055266584955016594 -0.0010638378295571155 0 -0.054946787827521625 1.0339150721243474e-06 0 -0.055015075885280269 -1.8117342112576181e-06 0 -0.055266584955016594 -0.0010638378295571155 0 -0.055173873686986584 -0.00042695232262525851 0 -0.055003035704347676 -4.9762118310414332e-07 0 -0.055066043057983502 -0.00037670082266504199 0 -0.055003035704347676 -4.9762118310414332e-07 0 -0.055066043057983502 -0.00037670082266504199 0 -0.054995702879773831 -2.3430188623795206e-08 0 -0.055066043057983502 -0.00037670082266504199 0 -0.054995702879773831 -2.3430188623795206e-08 0 -0.055066015485399078 -0.00074453279383469124 0 -0.055066043057983502 -0.00037670082266504199 0 -0.055066015485399078 -0.00074453279383469124 0 -0.055051235416018605 -0.00069313372928530659 0 -0.054974775277068198 -0.00092011009129231585 0 -0.055066015485399078 -0.00074453279383469124 0 -0.055051235416018605 -0.00069313372928530659 0 -0.055173873686986584 -0.00042695232262525851 0 -0.055066043057983502 -0.00037670082266504199 0 -0.055051235416018605 -0.00069313372928530659 0 -0.055266301653750426 -0.00081406275913280235 0 -0.055051235416018605 -0.00069313372928530659 0 -0.054999767873849817 -0.00091930930588421237 0 -0.054974775277068198 -0.00092011009129231585 0 -0.055051235416018605 -0.00069313372928530659 0 -0.054999767873849817 -0.00091930930588421237 0 -0.054974775277068198 -0.00092011009129231585 0 -0.055013663201857306 -0.00089471104853630949 0 -0.054999767873849817 -0.00091930930588421237 0 -0.055013663201857306 -0.00089471104853630949 0 -0.054999767873849817 -0.00091930930588421237 0 -0.055081805522737282 -0.00088989222798938972 0 -0.054721625105392697 -0.0007692373184326819 0 -0.054833853275381546 -0.00079869760001287436 0 -0.054999767873849817 -0.00091930930588421237 0 -0.054811835256819035 -0.00075442876273092607 0 -0.055081805522737282 -0.00088989222798938972 0 -0.054429339634488413 -0.0012005548254164034 0 -0.054999767873849817 -0.00091930930588421237 0 -0.054811835256819035 -0.00075442876273092607 0 -0.042415417222588854 0.00045998048864827595 0 -0.042354541195714641 -0.00011086688469860133 0 -0.042046813004295601 4.7906857870572206e-05 0 -0.042354541195714641 -0.00011086688469860133 0 -0.042046813004295601 4.7906857870572206e-05 0 -0.041913260991999775 -0.00043377721101343724 0 -0.042046813004295601 4.7906857870572206e-05 0 -0.041737929539931905 1.0938984405999649e-05 0 -0.041913260991999775 -0.00043377721101343724 0 -0.042046813004295601 4.7906857870572206e-05 0 -0.041822251130044598 0.00030982351917879661 0 -0.041737929539931905 1.0938984405999649e-05 0 -0.048514201396565988 -0.00018330912346383233 0 -0.048301440709786564 -0.00032241580736102064 0 -0.042415417222588854 0.00045998048864827595 0 -0.042046813004295601 4.7906857870572206e-05 0 -0.041822251130044598 0.00030982351917879661 0 -0.054934516222843496 -0.00084637636418373962 0 -0.055081805522737282 -0.00088989222798938972 0 -0.054645618442697642 -0.0012139772677531543 0 -0.041822251130044598 0.00030982351917879661 0 -0.041302046373012151 0.00014742126844872095 0 -0.041737929539931905 1.0938984405999649e-05 0 -0.048301440709786564 -0.00032241580736102064 0 -0.04788167735218269 -0.00050348401820018919 0 -0.05420310289966853 -0.00072943550985268477 0 -0.054934516222843496 -0.00084637636418373962 0 -0.054645618442697642 -0.0012139772677531543 0 -0.041040828037332784 -0.00015579187315300212 0 -0.041302046373012151 0.00014742126844872095 0 -0.041479879075837514 -0.00026752670623755674 0 -0.040007070408974547 -0.0001061414160150418 0 -0.039277050457476814 -0.00065163230515402658 0 -0.041302046373012151 0.00014742126844872095 0 -0.041737929539931905 1.0938984405999649e-05 0 -0.041479879075837514 -0.00026752670623755674 0 -0.041737929539931905 1.0938984405999649e-05 0 -0.041434309413295893 -0.00034991089252955074 0 -0.041913260991999775 -0.00043377721101343724 0 -0.035063403701958824 -0.00031635401371224843 0 -0.03517026501096198 -0.00099249451565290147 0 -0.035869530040663816 -0.00045040076057892856 0 -0.039277050457476814 -0.00065163230515402658 0 -0.039105483391106588 -0.00059197830013637675 0 -0.040996808137151342 -0.00015102400735756316 0 -0.041040828037332784 -0.00015579187315300212 0 -0.040975204680170532 -0.00015758456600805846 0 -0.039277050457476814 -0.00065163230515402658 0 -0.038262297180216405 -0.0010581389561908489 0 -0.040349127596217074 -0.00066689334982550786 0 -0.039277050457476814 -0.00065163230515402658 0 -0.040996808137151342 -0.00015102400735756316 0 -0.040975204680170532 -0.00015758456600805846 0 -0.041031320329611806 -0.00012425020987804952 0 -0.034504750773615915 -0.0010316344022599675 0 -0.03517026501096198 -0.00099249451565290147 0 -0.034550725828119876 -0.0016274075429060315 0 -0.035063403701958824 -0.00031635401371224843 0 -0.034504750773615915 -0.0010316344022599675 0 -0.03517026501096198 -0.00099249451565290147 0 -0.03517026501096198 -0.00099249451565290147 0 -0.035689302950128669 -0.00098721299963720473 0 -0.035869530040663816 -0.00045040076057892856 0 -0.03517026501096198 -0.00099249451565290147 0 -0.035689302950128669 -0.00098721299963720473 0 -0.035616014912000726 -0.0015116332515819418 0 -0.035689302950128669 -0.00098721299963720473 0 -0.036102842736607473 -0.0009913253085317398 0 -0.035616014912000726 -0.0015116332515819418 0 -0.036102842736607473 -0.0009913253085317398 0 -0.036710422291804955 -0.0013501305343993184 0 -0.035616014912000726 -0.0015116332515819418 0 -0.035689302950128669 -0.00098721299963720473 0 -0.036102842736607473 -0.0009913253085317398 0 -0.035869530040663816 -0.00045040076057892856 0 -0.036102842736607473 -0.0009913253085317398 0 -0.036694320951152527 -0.00058982619628388281 0 -0.036710422291804955 -0.0013501305343993184 0 -0.039355737009887801 -0.00065119161956096847 0 -0.039105483391106588 -0.00059197830013637675 0 -0.042354541195714641 -0.00011086688469860133 0 -0.042383734040688757 -0.00051725014576640038 0 -0.041913260991999775 -0.00043377721101343724 0 -0.036102842736607473 -0.0009913253085317398 0 -0.036694320951152527 -0.00058982619628388281 0 -0.035869530040663816 -0.00045040076057892856 0 -0.035136960749144228 -0.0018028102197850085 0 -0.035054548484949634 -0.0020624522128081034 0 -0.034914580025323584 -0.0019525092705314831 0 -0.035136960749144228 -0.0018028102197850085 0 -0.035054548484949634 -0.0020624522128081034 0 -0.03530010075962435 -0.0020173179864721264 0 -0.03530010075962435 -0.0020173179864721264 0 -0.035521479413970221 -0.0018732495032724047 0 -0.035453600273153515 -0.002129955516123177 0 -0.035769486312363069 -0.0021903722926878678 0 -0.035521479413970221 -0.0018732495032724047 0 -0.035453600273153515 -0.002129955516123177 0 -0.035136960749144228 -0.0018028102197850085 0 -0.03530010075962435 -0.0020173179864721264 0 -0.035521479413970221 -0.0018732495032724047 0 -0.035777876575654198 -0.0018518182869605966 0 -0.03634610538431915 -0.0015995527319370255 0 -0.035136960749144228 -0.0018028102197850085 0 -0.035521479413970221 -0.0018732495032724047 0 -0.035562430700285259 -0.0014772889492923283 0 -0.03634610538431915 -0.0015995527319370255 0 -0.035458000291411988 -0.0016307595906927695 0 -0.035136960749144228 -0.0018028102197850085 0 -0.03554714569637802 -0.0014987729450728128 0 -0.035032996408310098 -0.0015815848105967911 0 -0.035458000291411988 -0.0016307595906927695 0 -0.035030460662451544 -0.0016649315079341543 0 -0.03517026501096198 -0.00099249451565290147 0 -0.035616014912000726 -0.0015116332515819418 0 -0.034550725828119876 -0.0016274075429060315 0 -0.035136960749144228 -0.0018028102197850085 0 -0.035032996408310098 -0.0015815848105967911 0 -0.03484536697678469 -0.0017785042153001124 0 -0.035032996408310098 -0.0015815848105967911 0 -0.034550725828119876 -0.0016274075429060315 0 -0.03484536697678469 -0.0017785042153001124 0 -0.034550725828119876 -0.0016274075429060315 0 -0.034647297006037574 -0.0018291233342920235 0 -0.03484536697678469 -0.0017785042153001124 0 -0.034550725828119876 -0.0016274075429060315 0 -0.034647297006037574 -0.0018291233342920235 0 -0.034384993686821283 -0.0018063615967312103 0 -0.034647297006037574 -0.0018291233342920235 0 -0.034448104643685633 -0.0019633695371888251 0 -0.034384993686821283 -0.0018063615967312103 0 -0.034647297006037574 -0.0018291233342920235 0 -0.0346055387780742 -0.0020082653685258517 0 -0.034772564317053736 -0.001903270333129163 0 -0.0346055387780742 -0.0020082653685258517 0 -0.034778588937572776 -0.0020370139775731065 0 -0.034705268417559811 -0.002176067642285021 0 -0.0346055387780742 -0.0020082653685258517 0 -0.034772564317053736 -0.001903270333129163 0 -0.034778588937572776 -0.0020370139775731065 0 -0.0346055387780742 -0.0020082653685258517 0 -0.034505848138019719 -0.0020644548797076937 0 -0.034559739404097359 -0.0021676670923021497 0 -0.034647297006037574 -0.0018291233342920235 0 -0.0346055387780742 -0.0020082653685258517 0 -0.034448104643685633 -0.0019633695371888251 0 -0.0346055387780742 -0.0020082653685258517 0 -0.034505848138019719 -0.0020644548797076937 0 -0.034448104643685633 -0.0019633695371888251 0 -0.034505848138019719 -0.0020644548797076937 0 -0.034448104643685633 -0.0019633695371888251 0 -0.034409345965984467 -0.0021175867804372442 0 -0.035136960749144228 -0.0018028102197850085 0 -0.03484536697678469 -0.0017785042153001124 0 -0.034914580025323584 -0.0019525092705314831 0 -0.034647297006037574 -0.0018291233342920235 0 -0.03484536697678469 -0.0017785042153001124 0 -0.034772564317053736 -0.001903270333129163 0 -0.03484536697678469 -0.0017785042153001124 0 -0.034772564317053736 -0.001903270333129163 0 -0.034914580025323584 -0.0019525092705314831 0 -0.034772564317053736 -0.001903270333129163 0 -0.034778588937572776 -0.0020370139775731065 0 -0.034914580025323584 -0.0019525092705314831 0 -0.034778588937572776 -0.0020370139775731065 0 -0.034914580025323584 -0.0019525092705314831 0 -0.034886258224978137 -0.0021419714131668262 0 -0.035054548484949634 -0.0020624522128081034 0 -0.034914580025323584 -0.0019525092705314831 0 -0.034886258224978137 -0.0021419714131668262 0 -0.035054548484949634 -0.0020624522128081034 0 -0.034886258224978137 -0.0021419714131668262 0 -0.035064153190336601 -0.0023022100884472047 0 -0.034886258224978137 -0.0021419714131668262 0 -0.034790679793540738 -0.0023127824051254907 0 -0.034705268417559811 -0.002176067642285021 0 -0.034778588937572776 -0.0020370139775731065 0 -0.034886258224978137 -0.0021419714131668262 0 -0.034705268417559811 -0.002176067642285021 0 -0.034790679793540738 -0.0023127824051254907 0 -0.034926922260206661 -0.0024705984695973494 0 -0.035064153190336601 -0.0023022100884472047 0 -0.034886258224978137 -0.0021419714131668262 0 -0.034790679793540738 -0.0023127824051254907 0 -0.035064153190336601 -0.0023022100884472047 0 -0.034474884925663467 -0.0022261737182981958 0 -0.034409345965984467 -0.0021175867804372442 0 -0.034343412650421956 -0.0022804498003475828 0 -0.034474884925663467 -0.0022261737182981958 0 -0.034409345965984467 -0.0021175867804372442 0 -0.034559739404097359 -0.0021676670923021497 0 -0.034505848138019719 -0.0020644548797076937 0 -0.034409345965984467 -0.0021175867804372442 0 -0.034559739404097359 -0.0021676670923021497 0 -0.034474884925663467 -0.0022261737182981958 0 -0.034559739404097359 -0.0021676670923021497 0 -0.034539148896970406 -0.0022869646123734543 0 -0.034559739404097359 -0.0021676670923021497 0 -0.034705268417559811 -0.002176067642285021 0 -0.034539148896970406 -0.0022869646123734543 0 -0.0346055387780742 -0.0020082653685258517 0 -0.034559739404097359 -0.0021676670923021497 0 -0.034705268417559811 -0.002176067642285021 0 -0.034790679793540738 -0.0023127824051254907 0 -0.034539148896970406 -0.0022869646123734543 0 -0.034582172366683102 -0.0025048538067544792 0 -0.034790679793540738 -0.0023127824051254907 0 -0.034705268417559811 -0.002176067642285021 0 -0.034539148896970406 -0.0022869646123734543 0 -0.034474884925663467 -0.0022261737182981958 0 -0.034539148896970406 -0.0022869646123734543 0 -0.034343412650421956 -0.0022804498003475828 0 -0.034539148896970406 -0.0022869646123734543 0 -0.034582172366683102 -0.0025048538067544792 0 -0.034302409447577127 -0.0023299812616590131 0 -0.024744845676941584 -0.0021079453728313114 0 -0.025082229560881721 -0.0019057802954730995 0 -0.02511590690054448 -0.0023608134393979289 0 -0.024744845676941584 -0.0021079453728313114 0 -0.024393081444711352 -0.001861005325873105 0 -0.02477970270983482 -0.0016349829150470447 0 -0.024744845676941584 -0.0021079453728313114 0 -0.02477970270983482 -0.0016349829150470447 0 -0.025082229560881721 -0.0019057802954730995 0 -0.029885961290918809 -0.002481540186203242 0 -0.031469272274828021 -0.0025865937279211239 0 -0.034790679793540738 -0.0023127824051254907 0 -0.034582172366683102 -0.0025048538067544792 0 -0.034926922260206661 -0.0024705984695973494 0 -0.034582172366683102 -0.0025048538067544792 0 -0.034926922260206661 -0.0024705984695973494 0 -0.034849390830071221 -0.0026850893398562147 0 -0.029885961290918809 -0.002481540186203242 0 -0.028561438913528574 -0.0025589252591682898 0 -0.028561438913528574 -0.0025589252591682898 0 -0.030096755874033758 -0.002552222704805469 0 -0.034926922260206661 -0.0024705984695973494 0 -0.034849390830071221 -0.0026850893398562147 0 -0.035127510670071506 -0.0025328082725379875 0 -0.027677540517231713 -0.00268121444720582 0 -0.027143184966202397 -0.0029744323459871681 0 -0.027299242209338694 -0.0023556953436831944 0 -0.035127510670071506 -0.0025328082725379875 0 -0.035064153190336601 -0.0023022100884472047 0 -0.035399775859654203 -0.0023813520212140715 0 -0.028212323226523232 -0.0023904446643920447 0 -0.027677540517231713 -0.00268121444720582 0 -0.027728338394586466 -0.0020583081518120881 0 -0.030096755874033758 -0.002552222704805469 0 -0.030586289557217542 -0.0029472659004214112 0 -0.034926922260206661 -0.0024705984695973494 0 -0.035127510670071506 -0.0025328082725379875 0 -0.035064153190336601 -0.0023022100884472047 0 -0.035064153190336601 -0.0023022100884472047 0 -0.035273311348094964 -0.0021846628247941288 0 -0.035399775859654203 -0.0023813520212140715 0 -0.035054548484949634 -0.0020624522128081034 0 -0.03530010075962435 -0.0020173179864721264 0 -0.035273311348094964 -0.0021846628247941288 0 -0.035054548484949634 -0.0020624522128081034 0 -0.035064153190336601 -0.0023022100884472047 0 -0.035273311348094964 -0.0021846628247941288 0 -0.035769486312363069 -0.0021903722926878678 0 -0.035453600273153515 -0.002129955516123177 0 -0.035405514428251017 -0.0023852756849496574 0 -0.033246576290242219 -0.0025063773616266138 0 -0.030586289557217542 -0.0029472659004214112 0 -0.03530010075962435 -0.0020173179864721264 0 -0.035273311348094964 -0.0021846628247941288 0 -0.035453600273153515 -0.002129955516123177 0 -0.035273311348094964 -0.0021846628247941288 0 -0.035453600273153515 -0.002129955516123177 0 -0.035405514428251017 -0.0023852756849496574 0 -0.031045060003045945 -0.0031690318882661946 0 -0.030586289557217542 -0.0029472659004214112 0 -0.02809047166849089 -0.0028366073395386269 0 -0.030586289557217542 -0.0029472659004214112 0 -0.026702847720656866 -0.0023385873116511498 0 -0.027143184966202397 -0.0029744323459871681 0 -0.027299242209338694 -0.0023556953436831944 0 -0.031302420962815915 -0.0039211856848267758 0 -0.03086520508566775 -0.0050002591262033238 0 -0.029906763528121275 -0.0035950907749852114 0 -0.026702847720656866 -0.0023385873116511498 0 -0.027299242209338694 -0.0023556953436831944 0 -0.027242873066677369 -0.0017241409011352754 0 -0.023965388074699195 -0.0016313341299955878 0 -0.023620899083927793 -0.0013940097594193426 0 -0.024248797811223678 -0.001405139742197958 0 -0.027299242209338694 -0.0023556953436831944 0 -0.027728338394586466 -0.0020583081518120881 0 -0.027242873066677369 -0.0017241409011352754 0 -0.027677540517231713 -0.00268121444720582 0 -0.027299242209338694 -0.0023556953436831944 0 -0.027728338394586466 -0.0020583081518120881 0 -0.025925212196124259 -0.0020092501984587344 0 -0.023393209047553452 -0.0015530297606251311 0 -0.013327737405092955 -0.0010359919739932801 0 -0.013546098101952231 -0.00065290514680775764 0 -0.013826259323807363 -0.00097571320419776559 0 -0.023393209047553452 -0.0015530297606251311 0 -0.023739957441121007 -0.0015287625500860036 0 -0.023508507380012283 -0.001394062715884939 0 -0.024248797811223678 -0.001405139742197958 0 -0.024100102008757968 -0.0010941392807566573 0 -0.023256438266521618 -0.0012194788302871476 0 -0.023508507380012283 -0.001394062715884939 0 -0.024100102008757968 -0.0010941392807566573 0 -0.020343536322234446 -0.00084562908090720615 0 -0.019276124461527211 -0.0010980998233183546 0 -0.024512713526614913 -0.0012101642127185154 0 -0.023393209047553452 -0.0015530297606251311 0 -0.023958619090926923 -0.00095503868133150148 0 -0.022034247145439861 -0.0014756281851700868 0 -0.021200327522222361 -0.00091028282498820893 0 -0.020343536322234446 -0.00084562908090720615 0 -0.023393209047553452 -0.0015530297606251311 0 -0.013327737405092955 -0.0010359919739932801 0 -0.01326024441720711 -0.00071698325524656209 0 -0.013546098101952231 -0.00065290514680775764 0 -0.01326024441720711 -0.00071698325524656209 0 -0.013546098101952231 -0.00065290514680775764 0 -0.013253054841868684 -0.00043943729126967265 0 -0.013546098101952231 -0.00065290514680775764 0 -0.013981994942687889 -0.00053939322904787668 0 -0.013826259323807363 -0.00097571320419776559 0 -0.015554542096504913 7.7681168710441753e-05 0 -0.014301015980710275 0.00025425331049691417 0 -0.013546098101952231 -0.00065290514680775764 0 -0.013981994942687889 -0.00053939322904787668 0 -0.013596698362048411 -0.00020871284278755207 0 -0.013546098101952231 -0.00065290514680775764 0 -0.013253054841868684 -0.00043943729126967265 0 -0.013596698362048411 -0.00020871284278755207 0 -0.01360716211813842 -0.0005743606109138024 0 -0.01406547858435084 -0.00050076330969709868 0 -0.013755226970932809 -0.00015671120483405577 0 -0.013981994942687889 -0.00053939322904787668 0 -0.014364696845308283 -0.00089684874929288534 0 -0.013826259323807363 -0.00097571320419776559 0 -0.015554542096504913 7.7681168710441753e-05 0 -0.019355681418706822 -0.0012312780600079916 0 -0.01360716211813842 -0.0005743606109138024 0 -0.013921406971538595 -0.00089416903988078541 0 -0.01406547858435084 -0.00050076330969709868 0 -0.024863590775068049 -0.00099142118167281084 0 -0.024248797811223678 -0.001405139742197958 0 -0.02477970270983482 -0.0016349829150470447 0 -0.024863590775068049 -0.00099142118167281084 0 -0.024248797811223678 -0.001405139742197958 0 -0.024100102008757968 -0.0010941392807566573 0 -0.019355681418706822 -0.0012312780600079916 0 -0.019276124461527211 -0.0010980998233183546 0 -0.024321938220685978 -0.0018816881581052273 0 -0.024248797811223678 -0.001405139742197958 0 -0.02477970270983482 -0.0016349829150470447 0 -0.024321938220685978 -0.0018816881581052273 0 -0.023965388074699195 -0.0016313341299955878 0 -0.024248797811223678 -0.001405139742197958 0 -0.028561438913528574 -0.0025589252591682898 0 -0.025925212196124259 -0.0020092501984587344 0 -0.028561438913528574 -0.0025589252591682898 0 -0.027349763309081572 -0.0028509545124042689 0 -0.02477970270983482 -0.0016349829150470447 0 -0.025364570891871975 -0.0015084204596651394 0 -0.025082229560881721 -0.0019057802954730995 0 -0.025364570891871975 -0.0015084204596651394 0 -0.025486364001874144 -0.001891495163541608 0 -0.025082229560881721 -0.0019057802954730995 0 -0.038947509974163977 -0.0040471294276358347 0 -0.038915437596418211 -0.0033087804497131147 0 -0.039567341866583346 -0.00328267965703463 0 -0.03062973475491166 -0.0018500352105365922 0 -0.031468855565279508 -0.0021114712228529238 0 -0.025364570891871975 -0.0015084204596651394 0 -0.025865349528943607 -0.0014166289149334095 0 -0.025486364001874144 -0.001891495163541608 0 -0.025364570891871975 -0.0015084204596651394 0 -0.025504350528698094 -0.00090944568725599868 0 -0.025865349528943607 -0.0014166289149334095 0 -0.025504350528698094 -0.00090944568725599868 0 -0.025865349528943607 -0.0014166289149334095 0 -0.025923549616367003 -0.0010500699428507348 0 -0.024863590775068049 -0.00099142118167281084 0 -0.02477970270983482 -0.0016349829150470447 0 -0.025364570891871975 -0.0015084204596651394 0 -0.019355681418706822 -0.0012312780600079916 0 -0.021940551468378269 -0.0024536753262758356 0 -0.024835388265585064 -0.0010145892790516065 0 -0.025364570891871975 -0.0015084204596651394 0 -0.025504350528698094 -0.00090944568725599868 0 -0.013921406971538595 -0.00089416903988078541 0 -0.014342506314931492 -0.00083570845213746929 0 -0.01406547858435084 -0.00050076330969709868 0 -0.019355681418706822 -0.0012312780600079916 0 -0.021007114388389574 -0.0012449350940933284 0 -0.014342506314931492 -0.00083570845213746929 0 -0.01406547858435084 -0.00050076330969709868 0 -0.014530901150146141 -0.00043666363318629658 0 -0.016303313392331053 -0.0026443887752799155 0 -0.016852271674456701 -0.0023539087912932467 0 -0.016638552491236497 -0.0028776902956751272 0 -0.016303313392331053 -0.0026443887752799155 0 -0.016852271674456701 -0.0023539087912932467 0 -0.016305160538786542 -0.0020833733037945302 0 -0.019534508966114385 0.00023543747513509109 0 -0.025570424562420632 -0.0010601640122896202 0 -0.016303313392331053 -0.0026443887752799155 0 -0.015521291856446549 -0.0023136227149259717 0 -0.016305160538786542 -0.0020833733037945302 0 -0.016303313392331053 -0.0026443887752799155 0 -0.015521291856446549 -0.0023136227149259717 0 -0.016117304477858984 -0.0031263530939856297 0 -0.021007114388389574 -0.0012449350940933284 0 -0.025570424562420632 -0.0010601640122896202 0 -0.025504350528698094 -0.00090944568725599868 0 -0.0261501200580645 -0.00080988422506288388 0 -0.025923549616367003 -0.0010500699428507348 0 -0.014342506314931492 -0.00083570845213746929 0 -0.014530901150146141 -0.00043666363318629658 0 -0.014792928395603748 -0.00077129339070496333 0 -0.0261501200580645 -0.00080988422506288388 0 -0.026242277327705787 -0.00094163516815037895 0 -0.025923549616367003 -0.0010500699428507348 0 -0.025570424562420632 -0.0010601640122896202 0 -0.028446313002883958 -0.0018271787086913726 0 -0.029587730764672752 -0.0018373011681523113 0 -0.029574747612667613 -0.0018510223317508617 0 -0.029573714645665106 -0.0018135160453848357 0 -0.028069944142807744 -0.0012367265965181823 0 -0.031267796565969612 -0.00282901430258378 0 -0.03846846753379643 -0.00051630670797293853 0 -0.038545738758594218 -0.00096959672461122744 0 -0.038709347089290504 -0.00075510970504745446 0 -0.031339876366525098 -0.0026484678071762163 0 -0.029306710686580945 0.0002967442813637481 0 -0.026277450209347096 -0.0035077201753603232 0 -0.028446313002883958 -0.0018271787086913726 0 -0.028069944142807744 -0.0012367265965181823 0 -0.016303313392331053 -0.0026443887752799155 0 -0.016117304477858984 -0.0031263530939856297 0 -0.016494395407740392 -0.003060563932211434 0 -0.016303313392331053 -0.0026443887752799155 0 -0.016494395407740392 -0.003060563932211434 0 -0.016638552491236497 -0.0028776902956751272 0 -0.025570424562420632 -0.0010601640122896202 0 -0.028069944142807744 -0.0012367265965181823 0 -0.028069944142807744 -0.0012367265965181823 0 -0.027760900434006704 -0.0014784327264224047 0 -0.03846846753379643 -0.00051630670797293853 0 -0.038709347089290504 -0.00075510970504745446 0 -0.038802965000800299 -0.00065284342434949116 0 -0.038545738758594218 -0.00096959672461122744 0 -0.038735249499781091 -0.0009037132778890206 0 -0.038709347089290504 -0.00075510970504745446 0 -0.028446313002883958 -0.0018271787086913726 0 -0.031267796565969612 -0.00282901430258378 0 -0.0386579255117354 -0.0011271328550220717 0 -0.038545738758594218 -0.00096959672461122744 0 -0.038735249499781091 -0.0009037132778890206 0 -0.031520788609174753 -0.0029286278230553301 0 -0.031267796565969612 -0.00282901430258378 0 -0.028446313002883958 -0.0018271787086913726 0 -0.03062973475491166 -0.0018500352105365922 0 -0.026242277327705787 -0.00094163516815037895 0 -0.025865349528943607 -0.0014166289149334095 0 -0.025923549616367003 -0.0010500699428507348 0 -0.037997368572495013 -0.0043094601539647578 0 -0.038947509974163977 -0.0040471294276358347 0 -0.038358377651047729 -0.0037496546992976097 0 -0.038325278709199918 -0.0047971348486498203 0 -0.037997368572495013 -0.0043094601539647578 0 -0.038947509974163977 -0.0040471294276358347 0 -0.038947509974163977 -0.0040471294276358347 0 -0.038358377651047729 -0.0037496546992976097 0 -0.038915437596418211 -0.0033087804497131147 0 -0.031267796565969612 -0.00282901430258378 0 -0.035420124918617277 -0.0026490949439272773 0 -0.037997368572495013 -0.0043094601539647578 0 -0.038358377651047729 -0.0037496546992976097 0 -0.037886310789058089 -0.0032930128791663887 0 -0.0386579255117354 -0.0011271328550220717 0 -0.038534508345871098 -0.00096129715906940116 0 -0.038642767247177322 -0.0016355021150504818 0 -0.038358377651047729 -0.0037496546992976097 0 -0.037886310789058089 -0.0032930128791663887 0 -0.038491727132769951 -0.0028488711831476678 0 -0.037886310789058089 -0.0032930128791663887 0 -0.038491727132769951 -0.0028488711831476678 0 -0.037745314162421224 -0.0022570315608371853 0 -0.035420124918617277 -0.0026490949439272773 0 -0.037995309702693485 -0.0021826697135508867 0 -0.038369211038621218 -0.0022274178510265606 0 -0.038491727132769951 -0.0028488711831476678 0 -0.037745314162421224 -0.0022570315608371853 0 -0.038369211038621218 -0.0022274178510265606 0 -0.038170174760515756 -0.0017601470947206839 0 -0.037745314162421224 -0.0022570315608371853 0 -0.038812252138758101 -0.0022879808155493605 0 -0.038491727132769951 -0.0028488711831476678 0 -0.03921217440780133 -0.0026161833367576311 0 -0.038812252138758101 -0.0022879808155493605 0 -0.03921217440780133 -0.0026161833367576311 0 -0.039147668708128462 -0.0021132927295803455 0 -0.038812252138758101 -0.0022879808155493605 0 -0.038637180462248871 -0.0019406789376908502 0 -0.038937824934717022 -0.0019766871854335166 0 -0.038812252138758101 -0.0022879808155493605 0 -0.039147668708128462 -0.0021132927295803455 0 -0.038937824934717022 -0.0019766871854335166 0 -0.038369211038621218 -0.0022274178510265606 0 -0.038812252138758101 -0.0022879808155493605 0 -0.038637180462248871 -0.0019406789376908502 0 -0.038369211038621218 -0.0022274178510265606 0 -0.038812252138758101 -0.0022879808155493605 0 -0.038491727132769951 -0.0028488711831476678 0 -0.038915437596418211 -0.0033087804497131147 0 -0.038491727132769951 -0.0028488711831476678 0 -0.03921217440780133 -0.0026161833367576311 0 -0.038358377651047729 -0.0037496546992976097 0 -0.038915437596418211 -0.0033087804497131147 0 -0.038491727132769951 -0.0028488711831476678 0 -0.039567341866583346 -0.00328267965703463 0 -0.040146380938512263 -0.0025366163876763968 0 -0.03921217440780133 -0.0026161833367576311 0 -0.038915437596418211 -0.0033087804497131147 0 -0.039567341866583346 -0.00328267965703463 0 -0.03921217440780133 -0.0026161833367576311 0 -0.031468855565279508 -0.0021114712228529238 0 -0.031469272274828021 -0.0025865937279211239 0 -0.025486364001874144 -0.001891495163541608 0 -0.025082229560881721 -0.0019057802954730995 0 -0.02511590690054448 -0.0023608134393979289 0 -0.034343412650421956 -0.0022804498003475828 0 -0.03429864194203263 -0.0023361076925150072 0 -0.034219282914635198 -0.0020133010349398382 0 -0.03429864194203263 -0.0023361076925150072 0 -0.033827754364403675 -0.0020309269244392632 0 -0.034219282914635198 -0.0020133010349398382 0 -0.034539148896970406 -0.0022869646123734543 0 -0.034343412650421956 -0.0022804498003475828 0 -0.034302409447577127 -0.0023299812616590131 0 -0.031497752543021298 -0.0025651625155462317 0 -0.031469272274828021 -0.0025865937279211239 0 -0.034409345965984467 -0.0021175867804372442 0 -0.034343412650421956 -0.0022804498003475828 0 -0.034219282914635198 -0.0020133010349398382 0 -0.031469272274828021 -0.0025865937279211239 0 -0.03677989338011934 -0.0025488186706845682 0 -0.040146380938512263 -0.0025366163876763968 0 -0.03921217440780133 -0.0026161833367576311 0 -0.039290871418443472 -0.001925291467265709 0 -0.03921217440780133 -0.0026161833367576311 0 -0.039147668708128462 -0.0021132927295803455 0 -0.039290871418443472 -0.001925291467265709 0 -0.033827754364403675 -0.0020309269244392632 0 -0.034219282914635198 -0.0020133010349398382 0 -0.034115623248878624 -0.0016344354436518872 0 -0.039147668708128462 -0.0021132927295803455 0 -0.039202204080899784 -0.0017930052869809885 0 -0.03934909414104152 -0.0019115600996724152 0 -0.039442813253651905 -0.0019608310163663593 0 -0.039486546480103767 -0.0013497037867404157 0 -0.040334357535621972 -0.00098405388247735457 0 -0.03677989338011934 -0.0025488186706845682 0 -0.037516158744005927 -0.0016434352521175236 0 -0.036869525100950033 -0.0024759510306281603 0 -0.03677989338011934 -0.0025488186706845682 0 -0.03684158568443209 -0.0025678834290864582 0 -0.03677989338011934 -0.0025488186706845682 0 -0.039202204080899784 -0.0017930052869809885 0 -0.039486546480103767 -0.0013497037867404157 0 -0.039028584568803912 -0.0014228899664243606 0 -0.039202204080899784 -0.0017930052869809885 0 -0.039442813253651905 -0.0019608310163663593 0 -0.039486546480103767 -0.0013497037867404157 0 -0.034219282914635198 -0.0020133010349398382 0 -0.034384993686821283 -0.0018063615967312103 0 -0.034115623248878624 -0.0016344354436518872 0 -0.034448104643685633 -0.0019633695371888251 0 -0.034409345965984467 -0.0021175867804372442 0 -0.034219282914635198 -0.0020133010349398382 0 -0.034448104643685633 -0.0019633695371888251 0 -0.034219282914635198 -0.0020133010349398382 0 -0.034384993686821283 -0.0018063615967312103 0 -0.034504750773615915 -0.0010316344022599675 0 -0.034550725828119876 -0.0016274075429060315 0 -0.034115623248878624 -0.0016344354436518872 0 -0.034550725828119876 -0.0016274075429060315 0 -0.034384993686821283 -0.0018063615967312103 0 -0.034115623248878624 -0.0016344354436518872 0 -0.039661489803066538 -0.00042490705547270009 0 -0.040825690847300374 -0.00017575346638998632 0 -0.040334357535621972 -0.00098405388247735457 0 -0.038262297180216405 -0.0010581389561908489 0 -0.037516158744005927 -0.0016434352521175236 0 -0.039486546480103767 -0.0013497037867404157 0 -0.039736313975040974 -0.00093474662499434065 0 -0.039207127317293235 -0.0010166946881478066 0 -0.039486546480103767 -0.0013497037867404157 0 -0.039207127317293235 -0.0010166946881478066 0 -0.039028584568803912 -0.0014228899664243606 0 -0.039486546480103767 -0.0013497037867404157 0 -0.040334357535621972 -0.00098405388247735457 0 -0.039736313975040974 -0.00093474662499434065 0 -0.039661489803066538 -0.00042490705547270009 0 -0.040334357535621972 -0.00098405388247735457 0 -0.039736313975040974 -0.00093474662499434065 0 -0.039661489803066538 -0.00042490705547270009 0 -0.039736313975040974 -0.00093474662499434065 0 -0.039207127317293235 -0.0010166946881478066 0 -0.039661489803066538 -0.00042490705547270009 0 -0.039207127317293235 -0.0010166946881478066 0 -0.03853601099888837 -0.00079535894656047922 0 -0.040608773809529493 -0.00058001836777113241 0 -0.040493030212154467 -0.0008569354357957882 0 -0.039207127317293235 -0.0010166946881478066 0 -0.038759976920908955 -0.0011746864982546039 0 -0.039028584568803912 -0.0014228899664243606 0 -0.039207127317293235 -0.0010166946881478066 0 -0.038759976920908955 -0.0011746864982546039 0 -0.03853601099888837 -0.00079535894656047922 0 -0.038494053600633085 -0.0011615748368531264 0 -0.038759976920908955 -0.0011746864982546039 0 -0.038594568856797962 -0.0014843208359530248 0 -0.038494053600633085 -0.0011615748368531264 0 -0.038759976920908955 -0.0011746864982546039 0 -0.03853601099888837 -0.00079535894656047922 0 -0.040493030212154467 -0.0008569354357957882 0 -0.040406777561343851 -0.0014067216135815971 0 -0.042052576641346741 0.00036504324954668915 0 -0.042342620772320622 0.0002901399377191704 0 -0.042847108563737801 0.00060224702787297052 0 -0.03853601099888837 -0.00079535894656047922 0 -0.038160506062451929 -0.0012250616850842798 0 -0.037573207633147511 -0.0011280447909954728 0 -0.042947746290864168 -9.700797524552186e-05 0 -0.042342620772320622 0.0002901399377191704 0 -0.042847108563737801 0.00060224702787297052 0 -0.042139998609216391 -3.0729442938392605e-05 0 -0.042052576641346741 0.00036504324954668915 0 -0.042342620772320622 0.0002901399377191704 0 -0.038494053600633085 -0.0011615748368531264 0 -0.038160506062451929 -0.0012250616850842798 0 -0.038594568856797962 -0.0014843208359530248 0 -0.038494053600633085 -0.0011615748368531264 0 -0.03853601099888837 -0.00079535894656047922 0 -0.038160506062451929 -0.0012250616850842798 0 -0.038160506062451929 -0.0012250616850842798 0 -0.038170174760515756 -0.0017601470947206839 0 -0.038594568856797962 -0.0014843208359530248 0 -0.038170174760515756 -0.0017601470947206839 0 -0.037573207633147511 -0.0011280447909954728 0 -0.037745314162421224 -0.0022570315608371853 0 -0.038160506062451929 -0.0012250616850842798 0 -0.038170174760515756 -0.0017601470947206839 0 -0.037573207633147511 -0.0011280447909954728 0 -0.038369211038621218 -0.0022274178510265606 0 -0.038170174760515756 -0.0017601470947206839 0 -0.038637180462248871 -0.0019406789376908502 0 -0.038170174760515756 -0.0017601470947206839 0 -0.038637180462248871 -0.0019406789376908502 0 -0.038594568856797962 -0.0014843208359530248 0 -0.038637180462248871 -0.0019406789376908502 0 -0.038890981336164934 -0.0017222309592273995 0 -0.038594568856797962 -0.0014843208359530248 0 -0.038637180462248871 -0.0019406789376908502 0 -0.038937824934717022 -0.0019766871854335166 0 -0.038890981336164934 -0.0017222309592273995 0 -0.039147668708128462 -0.0021132927295803455 0 -0.039202204080899784 -0.0017930052869809885 0 -0.038937824934717022 -0.0019766871854335166 0 -0.039202204080899784 -0.0017930052869809885 0 -0.038937824934717022 -0.0019766871854335166 0 -0.038890981336164934 -0.0017222309592273995 0 -0.038890981336164934 -0.0017222309592273995 0 -0.039028584568803912 -0.0014228899664243606 0 -0.038594568856797962 -0.0014843208359530248 0 -0.039202204080899784 -0.0017930052869809885 0 -0.038890981336164934 -0.0017222309592273995 0 -0.039028584568803912 -0.0014228899664243606 0 -0.038759976920908955 -0.0011746864982546039 0 -0.039028584568803912 -0.0014228899664243606 0 -0.038594568856797962 -0.0014843208359530248 0 -0.040520901424068327 -0.0013696389662482046 0 -0.040224236185395446 -0.0015160155394135151 0 -0.039366388961829583 -0.0028074208434551665 0 -0.038827645123177427 -0.0029658566644266472 0 -0.03873855586390388 -0.0023031906057993479 0 -0.040406777561343851 -0.0014067216135815971 0 -0.037995309702693485 -0.0021826697135508867 0 -0.042017337825783818 -0.001308701265398553 0 -0.041833014733912405 -0.001363302009030038 0 -0.042055584820685145 -0.0016408226151928169 0 -0.041833014733912405 -0.001363302009030038 0 -0.041687152404890876 -0.0017503645492835675 0 -0.042055584820685145 -0.0016408226151928169 0 -0.040520901424068327 -0.0013696389662482046 0 -0.040406777561343851 -0.0014067216135815971 0 -0.042182474325130163 -0.0011000008299274059 0 -0.040406777561343851 -0.0014067216135815971 0 -0.03937722032534783 -0.00023821573792845579 0 -0.03878128137175673 -0.00028371477026549935 0 -0.03899661118391054 0.00028347867461326362 0 -0.041857521701660745 -0.0012946704890209771 0 -0.040520901424068327 -0.0013696389662482046 0 -0.039510768612918142 -6.4279094098561895e-05 0 -0.039950546384314556 0.00013451626604447396 0 -0.039769011593016247 0.00026854225584188373 0 -0.03937722032534783 -0.00023821573792845579 0 -0.03899661118391054 0.00028347867461326362 0 -0.039514512452825723 0.0004358336120334492 0 -0.039766315774722463 -0.00041206474395259806 0 -0.040022893599215799 -0.00060565683355311042 0 -0.039950546384314556 0.00013451626604447396 0 -0.039769011593016247 0.00026854225584188373 0 -0.039929952241464943 0.00015499473802134471 0 -0.040022893599215799 -0.00060565683355311042 0 -0.040084827296530838 -0.00036832539269064006 0 -0.040233034417346422 -0.00087000505916398261 0 -0.040197551591829181 -0.00087919338643431381 0 -0.040219500364407239 -0.00090690660381680295 0 -0.040520901424068327 -0.0013696389662482046 0 -0.040022893599215799 -0.00060565683355311042 0 -0.040197551591829181 -0.00087919338643431381 0 -0.040187888951319806 -0.00091786111270977355 0 -0.040219500364407239 -0.00090690660381680295 0 -0.040022893599215799 -0.00060565683355311042 0 -0.040128259231914945 -0.0005978698939873374 0 -0.040187888951319806 -0.00091786111270977355 0 -0.040207052051893385 -0.00095033813409444909 0 -0.040219500364407239 -0.00090690660381680295 0 -0.040635589576569292 0.00030015824461036356 0 -0.040511664829873069 -0.00028372505377167084 0 -0.039929952241464943 0.00015499473802134471 0 -0.040511664829873069 -0.00028372505377167084 0 -0.040036570993294038 -0.00054069164534494777 0 -0.039929952241464943 0.00015499473802134471 0 -0.040511664829873069 -0.00028372505377167084 0 -0.040170856988156492 -0.00096654727356743552 0 -0.040036570993294038 -0.00054069164534494777 0 -0.040128259231914945 -0.0005978698939873374 0 -0.04013590047556026 -0.00068184937082679537 0 -0.040170856988156492 -0.00096654727356743552 0 -0.040007959664262342 -0.0010523329241290242 0 -0.040036570993294038 -0.00054069164534494777 0 -0.039787140858950257 -0.0016963835335857584 0 -0.039432327156685952 -0.0018408043922390537 0 -0.039571031589127642 -0.0022563853092029164 0 -0.040187888951319806 -0.00091786111270977355 0 -0.040207052051893385 -0.00095033813409444909 0 -0.040170856988156492 -0.00096654727356743552 0 -0.040157532220593588 -0.0013716097116402513 0 -0.040224236185395446 -0.0015160155394135151 0 -0.039787140858950257 -0.0016963835335857584 0 -0.039432327156685952 -0.0018408043922390537 0 -0.039470069558539204 -0.0014593242684174136 0 -0.039169881766303434 -0.001680041562944691 0 -0.039432327156685952 -0.0018408043922390537 0 -0.039470069558539204 -0.0014593242684174136 0 -0.039169881766303434 -0.001680041562944691 0 -0.039432327156685952 -0.0018408043922390537 0 -0.039165918932625006 -0.0021009543919156535 0 -0.039366388961829583 -0.0028074208434551665 0 -0.039165918932625006 -0.0021009543919156535 0 -0.039571031589127642 -0.0022563853092029164 0 -0.039432327156685952 -0.0018408043922390537 0 -0.039165918932625006 -0.0021009543919156535 0 -0.039571031589127642 -0.0022563853092029164 0 -0.039366388961829583 -0.0028074208434551665 0 -0.039165918932625006 -0.0021009543919156535 0 -0.03873855586390388 -0.0023031906057993479 0 -0.038642767247177322 -0.0016355021150504818 0 -0.039165918932625006 -0.0021009543919156535 0 -0.03873855586390388 -0.0023031906057993479 0 -0.038642767247177322 -0.0016355021150504818 0 -0.039169881766303434 -0.001680041562944691 0 -0.039165918932625006 -0.0021009543919156535 0 -0.0386579255117354 -0.0011271328550220717 0 -0.038642767247177322 -0.0016355021150504818 0 -0.038906223012889221 -0.001404549066905158 0 -0.038642767247177322 -0.0016355021150504818 0 -0.039169881766303434 -0.001680041562944691 0 -0.038906223012889221 -0.001404549066905158 0 -0.039169881766303434 -0.001680041562944691 0 -0.038906223012889221 -0.001404549066905158 0 -0.039198767148560167 -0.0014095995507248332 0 -0.038906223012889221 -0.001404549066905158 0 -0.039038437118604365 -0.0011772437304054476 0 -0.039198767148560167 -0.0014095995507248332 0 -0.0386579255117354 -0.0011271328550220717 0 -0.038906223012889221 -0.001404549066905158 0 -0.039038437118604365 -0.0011772437304054476 0 -0.039169881766303434 -0.001680041562944691 0 -0.039470069558539204 -0.0014593242684174136 0 -0.039198767148560167 -0.0014095995507248332 0 -0.039470069558539204 -0.0014593242684174136 0 -0.039198767148560167 -0.0014095995507248332 0 -0.039435848447013658 -0.0011353445277339754 0 -0.039038437118604365 -0.0011772437304054476 0 -0.039198767148560167 -0.0014095995507248332 0 -0.039435848447013658 -0.0011353445277339754 0 -0.039470069558539204 -0.0014593242684174136 0 -0.039435848447013658 -0.0011353445277339754 0 -0.039678337556467741 -0.0011765165210528635 0 -0.039435848447013658 -0.0011353445277339754 0 -0.039578469015289497 -0.00098194289848586662 0 -0.03941378772153057 -0.00088162533048609252 0 -0.039435848447013658 -0.0011353445277339754 0 -0.039578469015289497 -0.00098194289848586662 0 -0.039678337556467741 -0.0011765165210528635 0 -0.039435848447013658 -0.0011353445277339754 0 -0.039287042427167566 -0.00099858647265278354 0 -0.03941378772153057 -0.00088162533048609252 0 -0.039038437118604365 -0.0011772437304054476 0 -0.039435848447013658 -0.0011353445277339754 0 -0.039287042427167566 -0.00099858647265278354 0 -0.039287042427167566 -0.00099858647265278354 0 -0.039244434130511555 -0.00081984680160309027 0 -0.03941378772153057 -0.00088162533048609252 0 -0.039578469015289497 -0.00098194289848586662 0 -0.03941378772153057 -0.00088162533048609252 0 -0.039610291497443433 -0.00079507048860676967 0 -0.039038437118604365 -0.0011772437304054476 0 -0.039287042427167566 -0.00099858647265278354 0 -0.039244434130511555 -0.00081984680160309027 0 -0.039038437118604365 -0.0011772437304054476 0 -0.039083976771383297 -0.0007769768026792813 0 -0.038899321126484129 -0.00093674537365398243 0 -0.032180352576234902 1.9849466221565744e-05 0 -0.031338638030544236 -0.00015404438086704005 0 -0.0386579255117354 -0.0011271328550220717 0 -0.039038437118604365 -0.0011772437304054476 0 -0.038899321126484129 -0.00093674537365398243 0 -0.0386579255117354 -0.0011271328550220717 0 -0.038899321126484129 -0.00093674537365398243 0 -0.038735249499781091 -0.0009037132778890206 0 -0.039083976771383297 -0.0007769768026792813 0 -0.038896083852050609 -0.00077323532632103654 0 -0.038899321126484129 -0.00093674537365398243 0 -0.038896083852050609 -0.00077323532632103654 0 -0.038899321126484129 -0.00093674537365398243 0 -0.038735249499781091 -0.0009037132778890206 0 -0.038896083852050609 -0.00077323532632103654 0 -0.038735249499781091 -0.0009037132778890206 0 -0.038709347089290504 -0.00075510970504745446 0 -0.028069944142807744 -0.0012367265965181823 0 -0.02846829319676793 -0.0012663213072455759 0 -0.03846846753379643 -0.00051630670797293853 0 -0.038802965000800299 -0.00065284342434949116 0 -0.038918954246593196 -0.00055005734463764379 0 -0.03846846753379643 -0.00051630670797293853 0 -0.038918954246593196 -0.00055005734463764379 0 -0.039175632700511914 -0.00040556933705791038 0 -0.016500643899243227 -0.0030552132557536654 0 -0.016638552491236497 -0.0028776902956751272 0 -0.017741276590439104 -0.0028424297266021162 0 -0.038896083852050609 -0.00077323532632103654 0 -0.038709347089290504 -0.00075510970504745446 0 -0.038802965000800299 -0.00065284342434949116 0 -0.038918954246593196 -0.00055005734463764379 0 -0.038990679822349147 -0.00064924337201356327 0 -0.039175632700511914 -0.00040556933705791038 0 -0.039083976771383297 -0.0007769768026792813 0 -0.038896083852050609 -0.00077323532632103654 0 -0.038990679822349147 -0.00064924337201356327 0 -0.038802965000800299 -0.00065284342434949116 0 -0.038918954246593196 -0.00055005734463764379 0 -0.038990679822349147 -0.00064924337201356327 0 -0.038896083852050609 -0.00077323532632103654 0 -0.038802965000800299 -0.00065284342434949116 0 -0.038990679822349147 -0.00064924337201356327 0 -0.039083976771383297 -0.0007769768026792813 0 -0.038990679822349147 -0.00064924337201356327 0 -0.039175632700511914 -0.00040556933705791038 0 -0.039244434130511555 -0.00081984680160309027 0 -0.039310453291009712 -0.00075971003083918757 0 -0.039305646557616598 -0.00065736258505131673 0 -0.039244434130511555 -0.00081984680160309027 0 -0.03941378772153057 -0.00088162533048609252 0 -0.039310453291009712 -0.00075971003083918757 0 -0.031338638030544236 -0.00015404438086704005 0 -0.02846829319676793 -0.0012663213072455759 0 -0.03941378772153057 -0.00088162533048609252 0 -0.039310453291009712 -0.00075971003083918757 0 -0.039485679520402661 -0.00075285371072762101 0 -0.03941378772153057 -0.00088162533048609252 0 -0.039485679520402661 -0.00075285371072762101 0 -0.039610291497443433 -0.00079507048860676967 0 -0.039485679520402661 -0.00075285371072762101 0 -0.03960900477375142 -0.00057804274005656016 0 -0.039610291497443433 -0.00079507048860676967 0 -0.039310453291009712 -0.00075971003083918757 0 -0.039485679520402661 -0.00075285371072762101 0 -0.03960900477375142 -0.00057804274005656016 0 -0.039310453291009712 -0.00075971003083918757 0 -0.039305646557616598 -0.00065736258505131673 0 -0.039381235374938837 -0.00064498971060280338 0 -0.032172673119877593 0.00023304613291507805 0 -0.029890589894992509 -0.0010448204667179639 0 -0.017741276590439104 -0.0028424297266021162 0 -0.017334193705019877 -0.0020703385006706925 0 -0.017988993220852633 -0.0019054798397799598 0 -0.018047387514422419 -0.0022239331862386295 0 -0.018381700961057644 -0.0018480380268501026 0 -0.018176579390959381 -0.0016469541620002964 0 -0.02846829319676793 -0.0012663213072455759 0 -0.024070673112218631 -0.0025159792698766681 0 -0.02846829319676793 -0.0012663213072455759 0 -0.029890589894992509 -0.0010448204667179639 0 -0.018047387514422419 -0.0022239331862386295 0 -0.018381700961057644 -0.0018480380268501026 0 -0.01833838431926553 -0.0021750470442385814 0 -0.016852271674456701 -0.0023539087912932467 0 -0.017741276590439104 -0.0028424297266021162 0 -0.017334193705019877 -0.0020703385006706925 0 -0.016852271674456701 -0.0023539087912932467 0 -0.016638552491236497 -0.0028776902956751272 0 -0.017741276590439104 -0.0028424297266021162 0 -0.031929129507278838 -0.00084314769803296339 0 -0.030649930084435922 -0.0011190383221055639 0 -0.039885841628326806 -0.00062667934652254882 0 -0.039989817141417021 -0.00076765373248547481 0 -0.040048493167821622 -0.00065644690483511025 0 -0.029095872557490268 -0.00079098006852881125 0 -0.02871619150965073 -0.0008593855064541031 0 -0.029031530986773201 -0.0011783579487304686 0 -0.030649930084435922 -0.0011190383221055639 0 -0.026664917119100368 -0.00062747631435245907 0 -0.031929129507278838 -0.00084314769803296339 0 -0.029890589894992509 -0.0010448204667179639 0 -0.029095872557490268 -0.00079098006852881125 0 -0.029477340931255827 -0.00072328257094474168 0 -0.029031530986773201 -0.0011783579487304686 0 -0.029890589894992509 -0.0010448204667179639 0 -0.026664917119100368 -0.00062747631435245907 0 -0.018381700961057644 -0.0018480380268501026 0 -0.01833838431926553 -0.0021750470442385814 0 -0.018910245757683807 -0.0016186115541488857 0 -0.039885841628326806 -0.00062667934652254882 0 -0.03960900477375142 -0.00057804274005656016 0 -0.039821038387075444 -0.0007567200952704905 0 -0.03960900477375142 -0.00057804274005656016 0 -0.039610291497443433 -0.00079507048860676967 0 -0.039821038387075444 -0.0007567200952704905 0 -0.039610291497443433 -0.00079507048860676967 0 -0.039821038387075444 -0.0007567200952704905 0 -0.039799074076854117 -0.00092136497954665888 0 -0.039821038387075444 -0.0007567200952704905 0 -0.039989817141417021 -0.00076765373248547481 0 -0.039948737623347025 -0.00090142315579230955 0 -0.039885841628326806 -0.00062667934652254882 0 -0.039821038387075444 -0.0007567200952704905 0 -0.039989817141417021 -0.00076765373248547481 0 -0.039989817141417021 -0.00076765373248547481 0 -0.039948737623347025 -0.00090142315579230955 0 -0.0400364540358722 -0.00090564306933248824 0 -0.039948737623347025 -0.00090142315579230955 0 -0.040019473656305503 -0.0010235658934271618 0 -0.0400364540358722 -0.00090564306933248824 0 -0.039948737623347025 -0.00090142315579230955 0 -0.040019473656305503 -0.0010235658934271618 0 -0.040000746498351593 -0.0010559296824399597 0 -0.039578469015289497 -0.00098194289848586662 0 -0.039610291497443433 -0.00079507048860676967 0 -0.039799074076854117 -0.00092136497954665888 0 -0.039821038387075444 -0.0007567200952704905 0 -0.039948737623347025 -0.00090142315579230955 0 -0.039799074076854117 -0.00092136497954665888 0 -0.039948737623347025 -0.00090142315579230955 0 -0.039799074076854117 -0.00092136497954665888 0 -0.040000746498351593 -0.0010559296824399597 0 -0.039799074076854117 -0.00092136497954665888 0 -0.040000746498351593 -0.0010559296824399597 0 -0.039678337556467741 -0.0011765165210528635 0 -0.039578469015289497 -0.00098194289848586662 0 -0.039799074076854117 -0.00092136497954665888 0 -0.039678337556467741 -0.0011765165210528635 0 -0.039787140858950257 -0.0016963835335857584 0 -0.040000746498351593 -0.0010559296824399597 0 -0.039678337556467741 -0.0011765165210528635 0 -0.040207052051893385 -0.00095033813409444909 0 -0.040000746498351593 -0.0010559296824399597 0 -0.040170856988156492 -0.00096654727356743552 0 -0.040157532220593588 -0.0013716097116402513 0 -0.040156037346516765 -0.0012649795760210209 0 -0.039787140858950257 -0.0016963835335857584 0 -0.039470069558539204 -0.0014593242684174136 0 -0.039678337556467741 -0.0011765165210528635 0 -0.040019473656305503 -0.0010235658934271618 0 -0.040170856988156492 -0.00096654727356743552 0 -0.040007959664262342 -0.0010523329241290242 0 -0.040019473656305503 -0.0010235658934271618 0 -0.040000746498351593 -0.0010559296824399597 0 -0.040170856988156492 -0.00096654727356743552 0 -0.040019473656305503 -0.0010235658934271618 0 -0.040007959664262342 -0.0010523329241290242 0 -0.040094153075591006 -0.00097250364535469383 0 -0.039147787362835994 -0.00060362933997699746 0 -0.03832372643231851 -0.00050839355355925811 0 -0.040007959664262342 -0.0010523329241290242 0 -0.040161422588386043 -0.001026037946728424 0 -0.040094153075591006 -0.00097250364535469383 0 -0.040007959664262342 -0.0010523329241290242 0 -0.039039967062227947 -0.0014360537807229089 0 -0.039476075253271271 -0.00046464393013902455 0 -0.040161422588386043 -0.001026037946728424 0 -0.040094153075591006 -0.00097250364535469383 0 -0.040206523689098571 -0.000935233335627626 0 -0.040094153075591006 -0.00097250364535469383 0 -0.040145511655064442 -0.00081926716884003249 0 -0.040206523689098571 -0.000935233335627626 0 -0.040094153075591006 -0.00097250364535469383 0 -0.0400364540358722 -0.00090564306933248824 0 -0.040145511655064442 -0.00081926716884003249 0 -0.040019473656305503 -0.0010235658934271618 0 -0.040094153075591006 -0.00097250364535469383 0 -0.0400364540358722 -0.00090564306933248824 0 -0.039989817141417021 -0.00076765373248547481 0 -0.0400364540358722 -0.00090564306933248824 0 -0.040145511655064442 -0.00081926716884003249 0 -0.039989817141417021 -0.00076765373248547481 0 -0.040145511655064442 -0.00081926716884003249 0 -0.040048493167821622 -0.00065644690483511025 0 -0.032647876154927626 -0.00091470458343330906 0 -0.030649930084435922 -0.0011190383221055639 0 -0.032647876154927626 -0.00091470458343330906 0 -0.033883262475252085 -0.00061840993732195702 0 -0.027273121909609684 0.00010651601946205063 0 -0.02705162471263867 0.00049979772361998377 0 -0.02690372606980181 0.00038760401231898627 0 -0.027273121909609684 0.00010651601946205063 0 -0.02705162471263867 0.00049979772361998377 0 -0.028439240701550555 0.00032253728645600287 0 -0.028924859223748069 -0.0010436297831951671 0 -0.030649930084435922 -0.0011190383221055639 0 -0.02705162471263867 0.00049979772361998377 0 -0.026467957796905677 0.00038785775840452394 0 -0.026503782436388734 0.00058828297199258069 0 -0.027587726829000236 6.443708378366928e-07 0 -0.028439240701550555 0.00032253728645600287 0 -0.02692141486435207 0.00042163177760757198 0 -0.027587726829000236 6.443708378366928e-07 0 -0.028439240701550555 0.00032253728645600287 0 -0.030475895354829485 1.2816030594674956e-06 0 -0.02705162471263867 0.00049979772361998377 0 -0.028439240701550555 0.00032253728645600287 0 -0.02692141486435207 0.00042163177760757198 0 -0.027273121909609684 0.00010651601946205063 0 -0.028439240701550555 0.00032253728645600287 0 -0.028707644842005012 -0.00038238336705462988 0 -0.028439240701550555 0.00032253728645600287 0 -0.030475895354829485 1.2816030594674956e-06 0 -0.030402368305263289 -0.00010383069131681193 0 -0.030475895354829485 1.2816030594674956e-06 0 -0.030402368305263289 -0.00010383069131681193 0 -0.033360392542711031 -3.7645069630649328e-06 0 -0.028439240701550555 0.00032253728645600287 0 -0.030402368305263289 -0.00010383069131681193 0 -0.028707644842005012 -0.00038238336705462988 0 -0.030402368305263289 -0.00010383069131681193 0 -0.028707644842005012 -0.00038238336705462988 0 -0.031090087289783783 -0.00097367528843984549 0 -0.033883262475252085 -0.00061840993732195702 0 -0.034714003699659796 -0.00015764672380858981 0 -0.03832372643231851 -0.00050839355355925811 0 -0.034714003699659796 -0.00015764672380858981 0 -0.039039967062227947 -0.0014360537807229089 0 -0.036691295034983591 -0.0019076057813455386 0 -0.037092117287181862 -0.00048204508592700765 0 -0.040161422588386043 -0.001026037946728424 0 -0.040206523689098571 -0.000935233335627626 0 -0.040258227852777967 -0.0010108327773785553 0 -0.033367220595590906 -9.1144159267856155e-07 0 -0.034714003699659796 -0.00015764672380858981 0 -0.030402368305263289 -0.00010383069131681193 0 -0.033360392542711031 -3.7645069630649328e-06 0 -0.031090087289783783 -0.00097367528843984549 0 -0.036691295034983591 -0.0019076057813455386 0 -0.034648385881043256 -4.1135423711917455e-06 0 -0.037092117287181862 -0.00048204508592700765 0 -0.033368330087538645 5.0175006108955032e-10 0 -0.033432914893769386 7.8435713114777928e-07 0 -0.03464007389158457 1.3500015467293224e-09 0 -0.034714003699659796 -0.00015764672380858981 0 -0.03464365552444866 -2.9302187155487781e-07 0 -0.037092117287181862 -0.00048204508592700765 0 -0.036603604910504205 1.5117884437797463e-06 0 -0.038228783426347675 -0.00019123874670050198 0 -0.034648385881043256 -4.1135423711917455e-06 0 -0.037092117287181862 -0.00048204508592700765 0 -0.036603604910504205 1.5117884437797463e-06 0 -0.036603604910504205 1.5117884437797463e-06 0 -0.038504617576682859 0.0001929315455999277 0 -0.038228783426347675 -0.00019123874670050198 0 -0.036603604910504205 1.5117884437797463e-06 0 -0.038504617576682859 0.0001929315455999277 0 -0.038561534435506681 3.4407275351964732e-07 0 -0.038504617576682859 0.0001929315455999277 0 -0.038228783426347675 -0.00019123874670050198 0 -0.039091371834675336 2.114041710928422e-05 0 -0.038504617576682859 0.0001929315455999277 0 -0.039091371834675336 2.114041710928422e-05 0 -0.039560785193475147 0.00023590375243868689 0 -0.039039967062227947 -0.0014360537807229089 0 -0.037092117287181862 -0.00048204508592700765 0 -0.038228783426347675 -0.00019123874670050198 0 -0.039039967062227947 -0.0014360537807229089 0 -0.038228783426347675 -0.00019123874670050198 0 -0.039476075253271271 -0.00046464393013902455 0 -0.040007959664262342 -0.0010523329241290242 0 -0.039476075253271271 -0.00046464393013902455 0 -0.040036570993294038 -0.00054069164534494777 0 -0.039476075253271271 -0.00046464393013902455 0 -0.040036570993294038 -0.00054069164534494777 0 -0.039929952241464943 0.00015499473802134471 0 -0.039476075253271271 -0.00046464393013902455 0 -0.039929952241464943 0.00015499473802134471 0 -0.039091371834675336 2.114041710928422e-05 0 -0.038228783426347675 -0.00019123874670050198 0 -0.039476075253271271 -0.00046464393013902455 0 -0.039091371834675336 2.114041710928422e-05 0 -0.039560785193475147 0.00023590375243868689 0 -0.040063570226827799 0.00021751768712698346 0 -0.040126711983180074 0.00020816758045961797 0 -0.039929952241464943 0.00015499473802134471 0 -0.039560785193475147 0.00023590375243868689 0 -0.040063570226827799 0.00021751768712698346 0 -0.039929952241464943 0.00015499473802134471 0 -0.039091371834675336 2.114041710928422e-05 0 -0.039560785193475147 0.00023590375243868689 0 -0.039950546384314556 0.00013451626604447396 0 -0.039929952241464943 0.00015499473802134471 0 -0.040063570226827799 0.00021751768712698346 0 -0.039950546384314556 0.00013451626604447396 0 -0.040063570226827799 0.00021751768712698346 0 -0.040337481093645003 0.00010940329413560759 0 -0.040639354222825448 7.1603130918265255e-05 0 -0.040337481093645003 0.00010940329413560759 0 -0.040126711983180074 0.00020816758045961797 0 -0.040063570226827799 0.00021751768712698346 0 -0.040337481093645003 0.00010940329413560759 0 -0.040126711983180074 0.00020816758045961797 0 -0.039942719944584426 0.00019953868443206498 0 -0.039875503364881375 0.00027438254610298156 0 -0.039226117978809774 0.00014808053753474258 0 -0.040639354222825448 7.1603130918265255e-05 0 -0.040126711983180074 0.00020816758045961797 0 -0.039942719944584426 0.00019953868443206498 0 -0.040548079044806416 5.423939138300842e-05 0 -0.040639354222825448 7.1603130918265255e-05 0 -0.039942719944584426 0.00019953868443206498 0 -0.039560785193475147 0.00023590375243868689 0 -0.040126711983180074 0.00020816758045961797 0 -0.039942719944584426 0.00019953868443206498 0 -0.040548079044806416 5.423939138300842e-05 0 -0.039942719944584426 0.00019953868443206498 0 -0.039875503364881375 0.00027438254610298156 0 -0.039875503364881375 0.00027438254610298156 0 -0.038561534435506681 3.4407275351964732e-07 0 -0.039226117978809774 0.00014808053753474258 0 -0.041569434265567938 -1.3478092268201526e-07 0 -0.041894882389669728 -0.00018766374690715925 0 -0.038564522020216839 -8.0453124522422278e-07 0 -0.040452134043149165 0.00025168619478424764 0 -0.038566839951979771 -1.6633880656183461e-08 0 -0.038504617576682859 0.0001929315455999277 0 -0.038561534435506681 3.4407275351964732e-07 0 -0.039226117978809774 0.00014808053753474258 0 -0.038504617576682859 0.0001929315455999277 0 -0.039560785193475147 0.00023590375243868689 0 -0.039226117978809774 0.00014808053753474258 0 -0.039560785193475147 0.00023590375243868689 0 -0.039942719944584426 0.00019953868443206498 0 -0.039226117978809774 0.00014808053753474258 0 -0.013936471907794493 -0.00018083079560792122 0 -0.013486314816558249 -0.00043322084839453795 0 -0.012931158165723345 -0.00018663300417019225 0 -0.013936471907794493 -0.00018083079560792122 0 -0.013486314816558249 -0.00043322084839453795 0 -0.015027648505600897 -0.00031837600423419062 0 -0.013486314816558249 -0.00043322084839453795 0 -0.012931158165723345 -0.00018663300417019225 0 -0.01254786698207905 -0.00049888800747677306 0 -0.013486314816558249 -0.00043322084839453795 0 -0.01254786698207905 -0.00049888800747677306 0 -0.013442849009573129 -0.0011253124923743321 0 -0.013486314816558249 -0.00043322084839453795 0 -0.015027648505600897 -0.00031837600423419062 0 -0.013442849009573129 -0.0011253124923743321 0 -0.013936471907794493 -0.00018083079560792122 0 -0.015027648505600897 -0.00031837600423419062 0 -0.015183852925567691 1.181044398259139e-06 0 -0.015027648505600897 -0.00031837600423419062 0 -0.015183852925567691 1.181044398259139e-06 0 -0.018289486317246223 -4.3748902761719986e-06 0 -0.013936471907794493 -0.00018083079560792122 0 -0.015183852925567691 1.181044398259139e-06 0 -0.012786003658616768 3.1128104055768667e-06 0 -0.015183852925567691 1.181044398259139e-06 0 -0.012786003658616768 3.1128104055768667e-06 0 -0.012199529504040026 7.0156195276127729e-06 0 -0.013936471907794493 -0.00018083079560792122 0 -0.012786003658616768 3.1128104055768667e-06 0 -0.012931158165723345 -0.00018663300417019225 0 -0.012786003658616768 3.1128104055768667e-06 0 -0.012931158165723345 -0.00018663300417019225 0 -0.012274360672071178 -0.00014191848319277008 0 -0.012786003658616768 3.1128104055768667e-06 0 -0.012274360672071178 -0.00014191848319277008 0 -0.011938169379794824 -2.6135939581530604e-05 0 -0.012274360672071178 -0.00014191848319277008 0 -0.011840928852865076 -0.00038755325587939212 0 -0.011775904056529131 -0.00014672099318349311 0 -0.012274360672071178 -0.00014191848319277008 0 -0.011840928852865076 -0.00038755325587939212 0 -0.01254786698207905 -0.00049888800747677306 0 -0.012931158165723345 -0.00018663300417019225 0 -0.012274360672071178 -0.00014191848319277008 0 -0.01254786698207905 -0.00049888800747677306 0 -0.011840928852865076 -0.00038755325587939212 0 -0.011236711638314481 -0.00060710596943718432 0 -0.011277488168303755 -0.00037158289238022659 0 -0.011840928852865076 -0.00038755325587939212 0 -0.011277488168303755 -0.00037158289238022659 0 -0.011775904056529131 -0.00014672099318349311 0 -0.016375736840348699 0.00047062169017605845 0 -0.015114421310905513 0.0012149548997703818 0 -0.011840928852865076 -0.00038755325587939212 0 -0.012126180604138328 -0.00084568471389279446 0 -0.011236711638314481 -0.00060710596943718432 0 -0.016784784561420189 0.00089803601621947927 0 -0.016616977918164921 0.00097932838471478587 0 -0.016656754475793248 0.0011730822120007685 0 -0.016939520854809664 0.0010234373405137182 0 -0.016784784561420189 0.00089803601621947927 0 -0.016656754475793248 0.0011730822120007685 0 -0.016375736840348699 0.00047062169017605845 0 -0.017371214540955575 0.00068469051728302225 0 -0.016017031965875655 0.00024313203392534465 0 -0.016375736840348699 0.00047062169017605845 0 -0.011840928852865076 -0.00038755325587939212 0 -0.01254786698207905 -0.00049888800747677306 0 -0.012126180604138328 -0.00084568471389279446 0 -0.01254786698207905 -0.00049888800747677306 0 -0.012148713566310351 -0.00082852802478079312 0 -0.013442849009573129 -0.0011253124923743321 0 -0.019742946500470288 -0.00014764602721739384 0 -0.019683238860327374 -9.0418262089759537e-05 0 -0.019612790001841546 -0.00010037609543648376 0 -0.016375736840348699 0.00047062169017605845 0 -0.017131877705322384 0.00023444993971422754 0 -0.019726982083363407 -7.58605893489536e-05 0 -0.019805007690633369 -4.8868018468621252e-05 0 -0.019646375450225358 -2.4941063967902062e-05 0 -0.019805007690633369 -4.8868018468621252e-05 0 -0.019878288545507997 -9.6140599045346637e-05 0 -0.019959816019830504 -9.3927400862062888e-05 0 -0.01946542279964129 -5.7887963619472532e-06 0 -0.019243313220010144 3.748228193804528e-06 0 -0.019683238860327374 -9.0418262089759537e-05 0 -0.019726982083363407 -7.58605893489536e-05 0 -0.019646375450225358 -2.4941063967902062e-05 0 -0.019742946500470288 -0.00014764602721739384 0 -0.019683238860327374 -9.0418262089759537e-05 0 -0.019726982083363407 -7.58605893489536e-05 0 -0.019742946500470288 -0.00014764602721739384 0 -0.019726982083363407 -7.58605893489536e-05 0 -0.01981405971820251 -6.4920749622486787e-05 0 -0.01981405971820251 -6.4920749622486787e-05 0 -0.019805007690633369 -4.8868018468621252e-05 0 -0.01978288169061497 -5.6391611339212247e-05 0 -0.019726982083363407 -7.58605893489536e-05 0 -0.01981405971820251 -6.4920749622486787e-05 0 -0.019805007690633369 -4.8868018468621252e-05 0 -0.017371214540955575 0.00068469051728302225 0 -0.017901793147768363 0.00072488282391396986 0 -0.019805007690633369 -4.8868018468621252e-05 0 -0.019748779673849325 -0.0001022615464132617 0 -0.01978288169061497 -5.6391611339212247e-05 0 -0.018795999164862173 -1.9230827015100922e-06 0 -0.017901793147768363 0.00072488282391396986 0 -0.019748779673849325 -0.0001022615464132617 0 -0.019178346150069577 0.0001725392667171454 0 -0.019137587563189212 0.000820496062547251 0 -0.019805007690633369 -4.8868018468621252e-05 0 -0.019878288545507997 -9.6140599045346637e-05 0 -0.019748779673849325 -0.0001022615464132617 0 -0.019878288545507997 -9.6140599045346637e-05 0 -0.01996320581904042 -0.00012420786297306593 0 -0.019959816019830504 -9.3927400862062888e-05 0 -0.019878288545507997 -9.6140599045346637e-05 0 -0.019921601946787246 -0.00014088725151906195 0 -0.019748779673849325 -0.0001022615464132617 0 -0.019878288545507997 -9.6140599045346637e-05 0 -0.01996320581904042 -0.00012420786297306593 0 -0.019921601946787246 -0.00014088725151906195 0 -0.01996320581904042 -0.00012420786297306593 0 -0.020035426750499279 -0.00013126687350425089 0 -0.019921601946787246 -0.00014088725151906195 0 -0.019993793633966802 -0.00016311051145828024 0 -0.01996320581904042 -0.00012420786297306593 0 -0.020035426750499279 -0.00013126687350425089 0 -0.019993793633966802 -0.00016311051145828024 0 -0.01996320581904042 -0.00012420786297306593 0 -0.019959816019830504 -9.3927400862062888e-05 0 -0.019243313220010144 3.748228193804528e-06 0 -0.018328941501909356 4.5834143385648571e-05 0 -0.019646375450225358 -2.4941063967902062e-05 0 -0.019612790001841546 -0.00010037609543648376 0 -0.019447793221464799 -2.2220993995208013e-05 0 -0.019993793633966802 -0.00016311051145828024 0 -0.019959816019830504 -9.3927400862062888e-05 0 -0.020008908976150559 -0.00034863407943328266 0 -0.015027648505600897 -0.00031837600423419062 0 -0.013442849009573129 -0.0011253124923743321 0 -0.01578339598463939 -0.0012294641003956983 0 -0.017131877705322384 0.00023444993971422754 0 -0.018328941501909356 4.5834143385648571e-05 0 -0.019683238860327374 -9.0418262089759537e-05 0 -0.019646375450225358 -2.4941063967902062e-05 0 -0.019612790001841546 -0.00010037609543648376 0 -0.015027648505600897 -0.00031837600423419062 0 -0.01578339598463939 -0.0012294641003956983 0 -0.018289486317246223 -4.3748902761719986e-06 0 -0.018328941501909356 4.5834143385648571e-05 0 -0.018921985497141771 -3.0691355295477083e-07 0 -0.018280372202374818 1.0854326116797736e-06 0 -0.018297969437546326 -1.0871050730535144e-09 0 -0.018919612824697056 2.1661656309238155e-09 0 -0.018328941501909356 4.5834143385648571e-05 0 -0.018293821288739173 1.5763194864583948e-07 0 -0.020008908976150559 -0.00034863407943328266 0 -0.019787240919485735 -0.00011687387447532881 0 -0.018927768034180344 -2.4229491417299471e-06 0 -0.019787240919485735 -0.00011687387447532881 0 -0.018927768034180344 -2.4229491417299471e-06 0 -0.021811856087291706 3.9434728543382876e-07 0 -0.019993793633966802 -0.00016311051145828024 0 -0.019787240919485735 -0.00011687387447532881 0 -0.020035426750499279 -0.00013126687350425089 0 -0.022016217445995512 -0.0003876064258810047 0 -0.022465189402316205 -0.00037723457385275096 0 -0.019993793633966802 -0.00016311051145828024 0 -0.020008908976150559 -0.00034863407943328266 0 -0.019787240919485735 -0.00011687387447532881 0 -0.019787240919485735 -0.00011687387447532881 0 -0.021811856087291706 3.9434728543382876e-07 0 -0.023478081255417914 -0.00051182581796095194 0 -0.021811856087291706 3.9434728543382876e-07 0 -0.023478081255417914 -0.00051182581796095194 0 -0.024505554983948127 0.00020948260136549693 0 -0.022465189402316205 -0.00037723457385275096 0 -0.023211714383352594 -0.00054715504016380155 0 -0.023478081255417914 -0.00051182581796095194 0 -0.024505554983948127 0.00020948260136549693 0 -0.025697829669472493 -6.1834170069552548e-05 0 -0.021811856087291706 3.9434728543382876e-07 0 -0.024505554983948127 0.00020948260136549693 0 -0.024700528903285134 8.2717635314094033e-07 0 -0.024700528903285134 8.2717635314094033e-07 0 -0.025758107179565604 0.00038799310356062925 0 -0.02692141486435207 0.00042163177760757198 0 -0.024505554983948127 0.00020948260136549693 0 -0.024700528903285134 8.2717635314094033e-07 0 -0.025758107179565604 0.00038799310356062925 0 -0.024505554983948127 0.00020948260136549693 0 -0.025758107179565604 0.00038799310356062925 0 -0.025982436778241795 0.00040576643141355771 0 -0.02705162471263867 0.00049979772361998377 0 -0.02692141486435207 0.00042163177760757198 0 -0.0264043449964615 0.0005937320983976426 0 -0.025758107179565604 0.00038799310356062925 0 -0.02692141486435207 0.00042163177760757198 0 -0.0264043449964615 0.0005937320983976426 0 -0.027587726829000236 6.443708378366928e-07 0 -0.024700528903285134 8.2717635314094033e-07 0 -0.02692141486435207 0.00042163177760757198 0 -0.026503782436388734 0.00058828297199258069 0 -0.026486021823672972 0.0004989156007166244 0 -0.026431936136081146 0.000567106695432668 0 -0.026503782436388734 0.00058828297199258069 0 -0.0264043449964615 0.0005937320983976426 0 -0.026486021823672972 0.0004989156007166244 0 -0.026467957796905677 0.00038785775840452394 0 -0.026503782436388734 0.00058828297199258069 0 -0.026431936136081146 0.000567106695432668 0 -0.02705162471263867 0.00049979772361998377 0 -0.026503782436388734 0.00058828297199258069 0 -0.0264043449964615 0.0005937320983976426 0 -0.025758107179565604 0.00038799310356062925 0 -0.0264043449964615 0.0005937320983976426 0 -0.025982436778241795 0.00040576643141355771 0 -0.0264043449964615 0.0005937320983976426 0 -0.025982436778241795 0.00040576643141355771 0 -0.026486021823672972 0.0004989156007166244 0 -0.025982436778241795 0.00040576643141355771 0 -0.026486021823672972 0.0004989156007166244 0 -0.025697829669472493 -6.1834170069552548e-05 0 -0.019507417693470277 -0.001058935941472755 0 -0.019523266145634505 -0.00050283837801551302 0 -0.019209663585138009 -0.00071093813774206324 0 -0.019507417693470277 -0.001058935941472755 0 -0.019523266145634505 -0.00050283837801551302 0 -0.019943586454196159 -0.00046264276114493666 0 -0.024217915244234112 -0.00085947485012523317 0 -0.023211714383352594 -0.00054715504016380155 0 -0.024505554983948127 0.00020948260136549693 0 -0.025982436778241795 0.00040576643141355771 0 -0.025697829669472493 -6.1834170069552548e-05 0 -0.020035426750499279 -0.00013126687350425089 0 -0.019943586454196159 -0.00046264276114493666 0 -0.019921601946787246 -0.00014088725151906195 0 -0.019943586454196159 -0.00046264276114493666 0 -0.019921601946787246 -0.00014088725151906195 0 -0.019748779673849325 -0.0001022615464132617 0 -0.019523266145634505 -0.00050283837801551302 0 -0.019748779673849325 -0.0001022615464132617 0 -0.019178346150069577 0.0001725392667171454 0 -0.019523266145634505 -0.00050283837801551302 0 -0.019943586454196159 -0.00046264276114493666 0 -0.019748779673849325 -0.0001022615464132617 0 -0.018822274774100537 4.6790539419476654e-05 0 -0.018958978191843744 -0.00037438253855932917 0 -0.019178346150069577 0.0001725392667171454 0 -0.019523266145634505 -0.00050283837801551302 0 -0.018958978191843744 -0.00037438253855932917 0 -0.019178346150069577 0.0001725392667171454 0 -0.018822274774100537 4.6790539419476654e-05 0 -0.018552148474342594 -9.4949618197962956e-05 0 -0.018958978191843744 -0.00037438253855932917 0 -0.018552148474342594 -9.4949618197962956e-05 0 -0.017985530084128318 3.1360019076077365e-05 0 -0.018584968275903606 0.00038955601128170549 0 -0.018071131023226362 0.00053629011760198721 0 -0.018145853710607368 0.00067066337081928234 0 -0.018822274774100537 4.6790539419476654e-05 0 -0.018552148474342594 -9.4949618197962956e-05 0 -0.018584968275903606 0.00038955601128170549 0 -0.018552148474342594 -9.4949618197962956e-05 0 -0.0185277870205935 -0.00047181429270290757 0 -0.018958978191843744 -0.00037438253855932917 0 -0.018552148474342594 -9.4949618197962956e-05 0 -0.0185277870205935 -0.00047181429270290757 0 -0.017985530084128318 3.1360019076077365e-05 0 -0.0185277870205935 -0.00047181429270290757 0 -0.018838213989425551 -0.00089821746428987606 0 -0.018241977834999531 -0.00098885366361928088 0 -0.0185277870205935 -0.00047181429270290757 0 -0.018241977834999531 -0.00098885366361928088 0 -0.017985530084128318 3.1360019076077365e-05 0 -0.019523266145634505 -0.00050283837801551302 0 -0.018958978191843744 -0.00037438253855932917 0 -0.019209663585138009 -0.00071093813774206324 0 -0.0185277870205935 -0.00047181429270290757 0 -0.018958978191843744 -0.00037438253855932917 0 -0.018838213989425551 -0.00089821746428987606 0 -0.018958978191843744 -0.00037438253855932917 0 -0.019209663585138009 -0.00071093813774206324 0 -0.018838213989425551 -0.00089821746428987606 0 -0.024217915244234112 -0.00085947485012523317 0 -0.026664917119100368 -0.00062747631435245907 0 -0.019507417693470277 -0.001058935941472755 0 -0.018935380363183346 -0.0012703150003016289 0 -0.018940692887671882 -0.0016461606840001807 0 -0.019507417693470277 -0.001058935941472755 0 -0.019209663585138009 -0.00071093813774206324 0 -0.018838213989425551 -0.00089821746428987606 0 -0.019507417693470277 -0.001058935941472755 0 -0.018935380363183346 -0.0012703150003016289 0 -0.018838213989425551 -0.00089821746428987606 0 -0.018935380363183346 -0.0012703150003016289 0 -0.018838213989425551 -0.00089821746428987606 0 -0.01859331349322578 -0.0012444034444823338 0 -0.018935380363183346 -0.0012703150003016289 0 -0.01859331349322578 -0.0012444034444823338 0 -0.018805334788701524 -0.0015126800684615203 0 -0.018838213989425551 -0.00089821746428987606 0 -0.018241977834999531 -0.00098885366361928088 0 -0.01859331349322578 -0.0012444034444823338 0 -0.018241977834999531 -0.00098885366361928088 0 -0.01859331349322578 -0.0012444034444823338 0 -0.018475429056120277 -0.0015678284128856365 0 -0.018381700961057644 -0.0018480380268501026 0 -0.018475429056120277 -0.0015678284128856365 0 -0.018910245757683807 -0.0016186115541488857 0 -0.018475429056120277 -0.0015678284128856365 0 -0.018910245757683807 -0.0016186115541488857 0 -0.018805334788701524 -0.0015126800684615203 0 -0.018241977834999531 -0.00098885366361928088 0 -0.018475429056120277 -0.0015678284128856365 0 -0.018176579390959381 -0.0016469541620002964 0 -0.01859331349322578 -0.0012444034444823338 0 -0.018475429056120277 -0.0015678284128856365 0 -0.018805334788701524 -0.0015126800684615203 0 -0.018381700961057644 -0.0018480380268501026 0 -0.018475429056120277 -0.0015678284128856365 0 -0.018176579390959381 -0.0016469541620002964 0 -0.018935380363183346 -0.0012703150003016289 0 -0.018940692887671882 -0.0016461606840001807 0 -0.018805334788701524 -0.0015126800684615203 0 -0.026664917119100368 -0.00062747631435245907 0 -0.026460536283863322 -0.00052292600141826899 0 -0.016852271674456701 -0.0023539087912932467 0 -0.017334193705019877 -0.0020703385006706925 0 -0.016789395630267271 -0.0016248383892167027 0 -0.017423514090694692 -0.0015967226866882673 0 -0.017334193705019877 -0.0020703385006706925 0 -0.016789395630267271 -0.0016248383892167027 0 -0.017423514090694692 -0.0015967226866882673 0 -0.017334193705019877 -0.0020703385006706925 0 -0.017988993220852633 -0.0019054798397799598 0 -0.022931316465379041 -0.0024026766664224358 0 -0.024070673112218631 -0.0025159792698766681 0 -0.018241977834999531 -0.00098885366361928088 0 -0.017423514090694692 -0.0015967226866882673 0 -0.017087198173714221 -0.0010121173346343362 0 -0.018241977834999531 -0.00098885366361928088 0 -0.017423514090694692 -0.0015967226866882673 0 -0.017988993220852633 -0.0019054798397799598 0 -0.017423514090694692 -0.0015967226866882673 0 -0.017087198173714221 -0.0010121173346343362 0 -0.016789395630267271 -0.0016248383892167027 0 -0.017087198173714221 -0.0010121173346343362 0 -0.017369747863526974 -0.00036920565556540551 0 -0.016484284547122599 -0.00014450423390351878 0 -0.018241977834999531 -0.00098885366361928088 0 -0.017087198173714221 -0.0010121173346343362 0 -0.017369747863526974 -0.00036920565556540551 0 -0.018241977834999531 -0.00098885366361928088 0 -0.017369747863526974 -0.00036920565556540551 0 -0.017985530084128318 3.1360019076077365e-05 0 -0.017369747863526974 -0.00036920565556540551 0 -0.017985530084128318 3.1360019076077365e-05 0 -0.017161153136677057 0.00034856509378398135 0 -0.017369747863526974 -0.00036920565556540551 0 -0.017161153136677057 0.00034856509378398135 0 -0.016484284547122599 -0.00014450423390351878 0 -0.017161153136677057 0.00034856509378398135 0 -0.017192542069616165 0.001377609172708387 0 -0.017728956006358078 0.000795581713528568 0 -0.017161153136677057 0.00034856509378398135 0 -0.017192542069616165 0.001377609172708387 0 -0.016617871400948517 0.00089519474989662123 0 -0.017192542069616165 0.001377609172708387 0 -0.017964700492389008 0.0013378673083445948 0 -0.017563433215842077 0.00212868775111664 0 -0.017192542069616165 0.001377609172708387 0 -0.017964700492389008 0.0013378673083445948 0 -0.017728956006358078 0.000795581713528568 0 -0.017985530084128318 3.1360019076077365e-05 0 -0.017728956006358078 0.000795581713528568 0 -0.018166691983783425 0.00073727097734063512 0 -0.017985530084128318 3.1360019076077365e-05 0 -0.017161153136677057 0.00034856509378398135 0 -0.017728956006358078 0.000795581713528568 0 -0.017964700492389008 0.0013378673083445948 0 -0.017728956006358078 0.000795581713528568 0 -0.018166691983783425 0.00073727097734063512 0 -0.017985530084128318 3.1360019076077365e-05 0 -0.018576521444249022 0.00056134299160230335 0 -0.018166691983783425 0.00073727097734063512 0 -0.018576521444249022 0.00056134299160230335 0 -0.018571750788921478 0.00095645950770024209 0 -0.018166691983783425 0.00073727097734063512 0 -0.018822274774100537 4.6790539419476654e-05 0 -0.018584968275903606 0.00038955601128170549 0 -0.019178346150069577 0.0001725392667171454 0 -0.018584968275903606 0.00038955601128170549 0 -0.019178346150069577 0.0001725392667171454 0 -0.019137587563189212 0.000820496062547251 0 -0.018145853710607368 0.00067066337081928234 0 -0.017901793147768363 0.00072488282391396986 0 -0.018576521444249022 0.00056134299160230335 0 -0.018571750788921478 0.00095645950770024209 0 -0.01917793447208048 0.0010611391034045427 0 -0.016784784561420189 0.00089803601621947927 0 -0.016629916984848156 0.00077146595254463024 0 -0.016616977918164921 0.00097932838471478587 0 -0.016629916984848156 0.00077146595254463024 0 -0.016396031125435431 0.0010749545669095399 0 -0.016616977918164921 0.00097932838471478587 0 -0.017901793147768363 0.00072488282391396986 0 -0.017160487369600345 0.0016218760312051831 0 -0.018571750788921478 0.00095645950770024209 0 -0.01917793447208048 0.0010611391034045427 0 -0.018472041210366889 0.0019748373879682284 0 -0.017491397808656686 0.0013736789455854961 0 -0.017160487369600345 0.0016218760312051831 0 -0.017964700492389008 0.0013378673083445948 0 -0.018571750788921478 0.00095645950770024209 0 -0.018456592507844032 0.0020393229261395276 0 -0.017964700492389008 0.0013378673083445948 0 -0.018571750788921478 0.00095645950770024209 0 -0.018166691983783425 0.00073727097734063512 0 -0.016396031125435431 0.0010749545669095399 0 -0.016616977918164921 0.00097932838471478587 0 -0.016656754475793248 0.0011730822120007685 0 -0.015114421310905513 0.0012149548997703818 0 -0.015700617738639986 0.0018017265724502569 0 -0.016396031125435431 0.0010749545669095399 0 -0.016656754475793248 0.0011730822120007685 0 -0.016371607238461077 0.0013233546694060268 0 -0.011236711638314481 -0.00060710596943718432 0 -0.010832262413780703 -0.00047315046820534812 0 -0.011277488168303755 -0.00037158289238022659 0 -0.018442161739654191 0.0020057122302620935 0 -0.018370861713424533 0.002826719765298883 0 -0.017781182249943905 0.0028735250444587896 0 -0.017160487369600345 0.0016218760312051831 0 -0.017286543511122406 0.0019083944648597413 0 -0.017160487369600345 0.0016218760312051831 0 -0.015700617738639986 0.0018017265724502569 0 -0.018456592507844032 0.0020393229261395276 0 -0.017781182249943905 0.0028735250444587896 0 -0.017563433215842077 0.00212868775111664 0 -0.017781182249943905 0.0028735250444587896 0 -0.017182636718946372 0.0027995392000878024 0 -0.017563433215842077 0.00212868775111664 0 -0.016793511182029562 0.002318939147952552 0 -0.017182636718946372 0.0027995392000878024 0 -0.016524608877733302 0.0031464611095974055 0 -0.016793511182029562 0.002318939147952552 0 -0.017182636718946372 0.0027995392000878024 0 -0.017563433215842077 0.00212868775111664 0 -0.017192542069616165 0.001377609172708387 0 -0.016793511182029562 0.002318939147952552 0 -0.016291515899290242 0.0016065884273004838 0 -0.017192542069616165 0.001377609172708387 0 -0.016793511182029562 0.002318939147952552 0 -0.017563433215842077 0.00212868775111664 0 -0.017964700492389008 0.0013378673083445948 0 -0.018456592507844032 0.0020393229261395276 0 -0.017563433215842077 0.00212868775111664 0 -0.016035339013692147 0.0024520665710043577 0 -0.015236694200759161 0.0025722258802837309 0 -0.015237259515674529 0.0017804596556492748 0 -0.016035339013692147 0.0024520665710043577 0 -0.015237259515674529 0.0017804596556492748 0 -0.016291515899290242 0.0016065884273004838 0 -0.016793511182029562 0.002318939147952552 0 -0.016035339013692147 0.0024520665710043577 0 -0.016291515899290242 0.0016065884273004838 0 -0.016793511182029562 0.002318939147952552 0 -0.016035339013692147 0.0024520665710043577 0 -0.016524608877733302 0.0031464611095974055 0 -0.016035339013692147 0.0024520665710043577 0 -0.015236694200759161 0.0025722258802837309 0 -0.015718174562742319 0.0032422613945639685 0 -0.015236694200759161 0.0025722258802837309 0 -0.014497049547597271 0.0028709446196128101 0 -0.015058556799220298 0.0032265221437319767 0 -0.015236694200759161 0.0025722258802837309 0 -0.014497049547597271 0.0028709446196128101 0 -0.014287498149415611 0.001894144688385938 0 -0.014497049547597271 0.0028709446196128101 0 -0.014287498149415611 0.001894144688385938 0 -0.01385083156418254 0.0026444703871404858 0 -0.015236694200759161 0.0025722258802837309 0 -0.014287498149415611 0.001894144688385938 0 -0.015237259515674529 0.0017804596556492748 0 -0.015237259515674529 0.0017804596556492748 0 -0.014635577730716297 0.001115964453365305 0 -0.015783230447714649 0.00095402654434196632 0 -0.014287498149415611 0.001894144688385938 0 -0.014635577730716297 0.001115964453365305 0 -0.013618821007125807 0.0011432457659233278 0 -0.014287498149415611 0.001894144688385938 0 -0.015237259515674529 0.0017804596556492748 0 -0.014635577730716297 0.001115964453365305 0 -0.014635577730716297 0.001115964453365305 0 -0.014916500349483115 0.00035149132777731191 0 -0.013833923551798296 0.00030825730248864761 0 -0.014635577730716297 0.001115964453365305 0 -0.015783230447714649 0.00095402654434196632 0 -0.014916500349483115 0.00035149132777731191 0 -0.015237259515674529 0.0017804596556492748 0 -0.015852271246219234 0.0007992899544187372 0 -0.016291515899290242 0.0016065884273004838 0 -0.015615145567681484 0.0012480928611660236 0 -0.015901045981770948 0.00079116954211657156 0 -0.015852271246219234 0.0007992899544187372 0 -0.016291515899290242 0.0016065884273004838 0 -0.016617871400948517 0.00089519474989662123 0 -0.017192542069616165 0.001377609172708387 0 -0.016291515899290242 0.0016065884273004838 0 -0.016617871400948517 0.00089519474989662123 0 -0.017161153136677057 0.00034856509378398135 0 -0.016617871400948517 0.00089519474989662123 0 -0.016484284547122599 -0.00014450423390351878 0 -0.015852271246219234 0.0007992899544187372 0 -0.016617871400948517 0.00089519474989662123 0 -0.016484284547122599 -0.00014450423390351878 0 -0.015901045981770948 0.00079116954211657156 0 -0.016390558297758234 1.7280738951660465e-05 0 -0.015783230447714649 0.00095402654434196632 0 -0.015652436373058232 -3.1081977407106683e-05 0 -0.014916500349483115 0.00035149132777731191 0 -0.015783230447714649 0.00095402654434196632 0 -0.016438053627031542 3.7495749938516668e-05 0 -0.015652436373058232 -3.1081977407106683e-05 0 -0.016438053627031542 3.7495749938516668e-05 0 -0.015652436373058232 -3.1081977407106683e-05 0 -0.015965802445067019 -0.0010632050407092955 0 -0.015652436373058232 -3.1081977407106683e-05 0 -0.015965802445067019 -0.0010632050407092955 0 -0.015162164033212451 -0.00052609598991081876 0 -0.016683943430736963 -0.000450343087491834 0 -0.016390558297758234 1.7280738951660465e-05 0 -0.017087198173714221 -0.0010121173346343362 0 -0.016438053627031542 3.7495749938516668e-05 0 -0.015965802445067019 -0.0010632050407092955 0 -0.017087198173714221 -0.0010121173346343362 0 -0.015965802445067019 -0.0010632050407092955 0 -0.016789395630267271 -0.0016248383892167027 0 -0.015521291856446549 -0.0023136227149259717 0 -0.015965802445067019 -0.0010632050407092955 0 -0.016305160538786542 -0.0020833733037945302 0 -0.015965802445067019 -0.0010632050407092955 0 -0.016305160538786542 -0.0020833733037945302 0 -0.016789395630267271 -0.0016248383892167027 0 -0.016852271674456701 -0.0023539087912932467 0 -0.016305160538786542 -0.0020833733037945302 0 -0.016789395630267271 -0.0016248383892167027 0 -0.01406547858435084 -0.00050076330969709868 0 -0.014268710867242655 -0.00012964797853831059 0 -0.013755226970932809 -0.00015671120483405577 0 -0.015521291856446549 -0.0023136227149259717 0 -0.015965802445067019 -0.0010632050407092955 0 -0.014923973570960463 -0.0014795059585470856 0 -0.019534508966114385 0.00023543747513509109 0 -0.016873047271186051 0.00033976902926575938 0 -0.01406547858435084 -0.00050076330969709868 0 -0.014530901150146141 -0.00043666363318629658 0 -0.014268710867242655 -0.00012964797853831059 0 -0.014923973570960463 -0.0014795059585470856 0 -0.01435910856491077 -0.00061263311526507625 0 -0.015162164033212451 -0.00052609598991081876 0 -0.015965802445067019 -0.0010632050407092955 0 -0.014923973570960463 -0.0014795059585470856 0 -0.015162164033212451 -0.00052609598991081876 0 -0.014268710867242655 -0.00012964797853831059 0 -0.014018088537747404 0.00013597597352044829 0 -0.013755226970932809 -0.00015671120483405577 0 -0.016873047271186051 0.00033976902926575938 0 -0.015600444008533708 0.00044689868119571164 0 -0.01435910856491077 -0.00061263311526507625 0 -0.015162164033212451 -0.00052609598991081876 0 -0.014916500349483115 0.00035149132777731191 0 -0.015652436373058232 -3.1081977407106683e-05 0 -0.015162164033212451 -0.00052609598991081876 0 -0.014916500349483115 0.00035149132777731191 0 -0.01435910856491077 -0.00061263311526507625 0 -0.014916500349483115 0.00035149132777731191 0 -0.013833923551798296 0.00030825730248864761 0 -0.013833923551798296 0.00030825730248864761 0 -0.013272717203141781 0.0003379270030565868 0 -0.013351549174929415 0.0006805235483022204 0 -0.013833923551798296 0.00030825730248864761 0 -0.013656539768005432 0.00012348312681665353 0 -0.013272717203141781 0.0003379270030565868 0 -0.014018088537747404 0.00013597597352044829 0 -0.013833923551798296 0.00030825730248864761 0 -0.013656539768005432 0.00012348312681665353 0 -0.015600444008533708 0.00044689868119571164 0 -0.015171866702669724 0.00056661298819416937 0 -0.014018088537747404 0.00013597597352044829 0 -0.013656539768005432 0.00012348312681665353 0 -0.013755226970932809 -0.00015671120483405577 0 -0.013656539768005432 0.00012348312681665353 0 -0.013755226970932809 -0.00015671120483405577 0 -0.013336339671833198 6.3365763123173567e-05 0 -0.01360716211813842 -0.0005743606109138024 0 -0.013755226970932809 -0.00015671120483405577 0 -0.013314952474368091 -0.00024513114206274698 0 -0.013755226970932809 -0.00015671120483405577 0 -0.013314952474368091 -0.00024513114206274698 0 -0.013336339671833198 6.3365763123173567e-05 0 -0.013253054841868684 -0.00043943729126967265 0 -0.013202444636634659 -0.0001648184330808748 0 -0.013596698362048411 -0.00020871284278755207 0 -0.013202444636634659 -0.0001648184330808748 0 -0.013596698362048411 -0.00020871284278755207 0 -0.013167188199649998 6.1552566034298774e-05 0 -0.014301015980710275 0.00025425331049691417 0 -0.01394000862717841 0.00031461786979300102 0 -0.013314952474368091 -0.00024513114206274698 0 -0.013336339671833198 6.3365763123173567e-05 0 -0.013167188199649998 6.1552566034298774e-05 0 -0.013336339671833198 6.3365763123173567e-05 0 -0.013167188199649998 6.1552566034298774e-05 0 -0.0131068458895237 0.00023394498301142601 0 -0.013272717203141781 0.0003379270030565868 0 -0.012910145885027941 0.00062750544920373973 0 -0.012809870093519998 0.00039368202853547115 0 -0.01311789092125468 0.000358435719377191 0 -0.012950320964548843 0.00032050031661000171 0 -0.013336339671833198 6.3365763123173567e-05 0 -0.013272717203141781 0.0003379270030565868 0 -0.0131068458895237 0.00023394498301142601 0 -0.013656539768005432 0.00012348312681665353 0 -0.013336339671833198 6.3365763123173567e-05 0 -0.013272717203141781 0.0003379270030565868 0 -0.013272717203141781 0.0003379270030565868 0 -0.012910145885027941 0.00062750544920373973 0 -0.013351549174929415 0.0006805235483022204 0 -0.012910145885027941 0.00062750544920373973 0 -0.012911432299256651 0.0010359149737647418 0 -0.012613920190680058 0.00077343103850420307 0 -0.012910145885027941 0.00062750544920373973 0 -0.012911432299256651 0.0010359149737647418 0 -0.013351549174929415 0.0006805235483022204 0 -0.012911432299256651 0.0010359149737647418 0 -0.013618821007125807 0.0011432457659233278 0 -0.013192397501156068 0.0013882729209792504 0 -0.012911432299256651 0.0010359149737647418 0 -0.013351549174929415 0.0006805235483022204 0 -0.013618821007125807 0.0011432457659233278 0 -0.013833923551798296 0.00030825730248864761 0 -0.013351549174929415 0.0006805235483022204 0 -0.013618821007125807 0.0011432457659233278 0 -0.014635577730716297 0.001115964453365305 0 -0.013833923551798296 0.00030825730248864761 0 -0.013618821007125807 0.0011432457659233278 0 -0.012783351124736827 0.0012306350195117994 0 -0.012270060664934477 0.0016568054610377996 0 -0.014287498149415611 0.001894144688385938 0 -0.013618821007125807 0.0011432457659233278 0 -0.013011072618921446 0.0022420245274425467 0 -0.014287498149415611 0.001894144688385938 0 -0.013011072618921446 0.0022420245274425467 0 -0.01385083156418254 0.0026444703871404858 0 -0.014497049547597271 0.0028709446196128101 0 -0.01385083156418254 0.0026444703871404858 0 -0.014000107419246862 0.0032347012386996742 0 -0.013011072618921446 0.0022420245274425467 0 -0.01385083156418254 0.0026444703871404858 0 -0.013398584030897463 0.0031146371893012699 0 -0.013011072618921446 0.0022420245274425467 0 -0.012930989334414975 0.003139585319263896 0 -0.013398584030897463 0.0031146371893012699 0 -0.013011072618921446 0.0022420245274425467 0 -0.012430017371396146 0.0033093266293843975 0 -0.012930989334414975 0.003139585319263896 0 -0.012270060664934477 0.0016568054610377996 0 -0.010504395126886784 0.0030787944503349006 0 -0.012587522462777596 0.0014768682111332145 0 -0.012848256317980214 0.0013391795223634778 0 -0.012839397144253452 0.0017506717015651982 0 -0.013192397501156068 0.0013882729209792504 0 -0.012848256317980214 0.0013391795223634778 0 -0.012839397144253452 0.0017506717015651982 0 -0.012587522462777596 0.0014768682111332145 0 -0.012621982822364793 0.0012889295722138682 0 -0.012848256317980214 0.0013391795223634778 0 -0.012587522462777596 0.0014768682111332145 0 -0.012621982822364793 0.0012889295722138682 0 -0.012447339635118813 0.0014126241459248197 0 -0.012911432299256651 0.0010359149737647418 0 -0.012621982822364793 0.0012889295722138682 0 -0.012848256317980214 0.0013391795223634778 0 -0.012911432299256651 0.0010359149737647418 0 -0.013192397501156068 0.0013882729209792504 0 -0.012848256317980214 0.0013391795223634778 0 -0.0095351212586583609 0.0037256992215340583 0 -0.0096980522401815556 0.0035642272996630896 0 -0.0095360204449214218 0.0030074701217362326 0 -0.0098338627146057726 0.0033463424746185992 0 -0.0097435591771924332 0.0037877179835549739 0 -0.010357345693353906 0.0030249868269950166 0 -0.0098072588663660303 0.0040395378741011189 0 -0.0097435591771924332 0.0037877179835549739 0 -0.010357345693353906 0.0030249868269950166 0 -0.0098338627146057726 0.0033463424746185992 0 -0.0095360204449214218 0.0030074701217362326 0 -0.010357345693353906 0.0030249868269950166 0 -0.0096980522401815556 0.0035642272996630896 0 -0.0098338627146057726 0.0033463424746185992 0 -0.0097435591771924332 0.0037877179835549739 0 -0.0094909097377255634 0.0037666440656217086 0 -0.0094974132000989562 0.0037680767271637576 0 -0.0095351212586583609 0.0037256992215340583 0 -0.0096980522401815556 0.0035642272996630896 0 -0.0097435591771924332 0.0037877179835549739 0 -0.0096980522401815556 0.0035642272996630896 0 -0.0098338627146057726 0.0033463424746185992 0 -0.0095360204449214218 0.0030074701217362326 0 -0.010504395126886784 0.0030787944503349006 0 -0.011110216134750084 0.002135776951144374 0 -0.012371023947238579 0.0013692916764438728 0 -0.012366859128285912 0.001397753399026713 0 -0.012229784753686329 0.0012919453609797895 0 -0.012371023947238579 0.0013692916764438728 0 -0.012465372697362608 0.0014231166275608573 0 -0.012366859128285912 0.001397753399026713 0 -0.012587522462777596 0.0014768682111332145 0 -0.012465372697362608 0.0014231166275608573 0 -0.012447339635118813 0.0014126241459248197 0 -0.012371023947238579 0.0013692916764438728 0 -0.012465372697362608 0.0014231166275608573 0 -0.012447339635118813 0.0014126241459248197 0 -0.012587522462777596 0.0014768682111332145 0 -0.012465372697362608 0.0014231166275608573 0 -0.012366859128285912 0.001397753399026713 0 -0.01075590425246647 0.0029241616753703952 0 -0.010504395126886784 0.0030787944503349006 0 -0.012686490149624472 0.0036064736384624507 0 -0.012430017371396146 0.0033093266293843975 0 -0.012930989334414975 0.003139585319263896 0 -0.0095367602598529517 0.0037246908155327621 0 -0.0098072588663660303 0.0040395378741011189 0 -0.0097435591771924332 0.0037877179835549739 0 -0.0094909097377255634 0.0037666440656217086 0 -0.010504395126886784 0.0030787944503349006 0 -0.012686490149624472 0.0036064736384624507 0 -0.013398584030897463 0.0031146371893012699 0 -0.013778235726602908 0.0039333827901975949 0 -0.012686490149624472 0.0036064736384624507 0 -0.012930989334414975 0.003139585319263896 0 -0.013398584030897463 0.0031146371893012699 0 -0.013398584030897463 0.0031146371893012699 0 -0.014000107419246862 0.0032347012386996742 0 -0.013778235726602908 0.0039333827901975949 0 -0.01385083156418254 0.0026444703871404858 0 -0.013398584030897463 0.0031146371893012699 0 -0.014000107419246862 0.0032347012386996742 0 -0.014000107419246862 0.0032347012386996742 0 -0.013778235726602908 0.0039333827901975949 0 -0.014473028929725957 0.0036098451043920878 0 -0.0095351212586583609 0.0037256992215340583 0 -0.0087697055852631513 0.002841801839089146 0 -0.0095360204449214218 0.0030074701217362326 0 -0.0047231873226848365 0.0053969763492924261 0 -0.0035784650637504774 0.005049678155368686 0 -0.0039618564381192142 0.004547577705407071 0 -0.0094909097377255634 0.0037666440656217086 0 -0.0089268750110933909 0.0040274698023208813 0 -0.0094909097377255634 0.0037666440656217086 0 -0.0069292945777480212 0.0033424770648157551 0 -0.0087697055852631513 0.002841801839089146 0 -0.0091953850519332254 0.0024451131893387388 0 -0.0095360204449214218 0.0030074701217362326 0 -0.0087697055852631513 0.002841801839089146 0 -0.0085683253173197624 0.0021408934999663297 0 -0.0088164626777273609 0.0023684259645832349 0 -0.0087697055852631513 0.002841801839089146 0 -0.0091953850519332254 0.0024451131893387388 0 -0.0088164626777273609 0.0023684259645832349 0 -0.0039618564381192142 0.004547577705407071 0 -0.0032327079029124909 0.004522428922471333 0 -0.0033188062055217776 0.0042776532417286512 0 -0.0069292945777480212 0.0033424770648157551 0 -0.0048725090074052133 0.0028813139255637341 0 -0.0035784650637504774 0.005049678155368686 0 -0.0039618564381192142 0.004547577705407071 0 -0.0032327079029124909 0.004522428922471333 0 -0.0039618564381192142 0.004547577705407071 0 -0.0033188062055217776 0.0042776532417286512 0 -0.0032244311355477994 0.0038437714314527478 0 -0.0039618564381192142 0.004547577705407071 0 -0.0032268236422907637 0.0037839629234348079 0 -0.0032244311355477994 0.0038437714314527478 0 -0.0087697055852631513 0.002841801839089146 0 -0.0085683253173197624 0.0021408934999663297 0 -0.0080100378691236127 0.0019580650271867443 0 -0.0085683253173197624 0.0021408934999663297 0 -0.0086464494593738572 0.0017758676493745231 0 -0.0083711210784168932 0.0017667765309752417 0 -0.0085683253173197624 0.0021408934999663297 0 -0.0083711210784168932 0.0017667765309752417 0 -0.0080100378691236127 0.0019580650271867443 0 -0.0048725090074052133 0.0028813139255637341 0 -0.0048707700590491813 0.0028851463341752941 0 -0.0091953850519332254 0.0024451131893387388 0 -0.0088790069548831917 0.0020542521751474316 0 -0.0093712551955287566 0.0019192750851085038 0 -0.0091953850519332254 0.0024451131893387388 0 -0.0088164626777273609 0.0023684259645832349 0 -0.0088790069548831917 0.0020542521751474316 0 -0.0085683253173197624 0.0021408934999663297 0 -0.0088164626777273609 0.0023684259645832349 0 -0.0088790069548831917 0.0020542521751474316 0 -0.0086464494593738572 0.0017758676493745231 0 -0.0088790069548831917 0.0020542521751474316 0 -0.0089483942878901112 0.0015822973270014896 0 -0.0085683253173197624 0.0021408934999663297 0 -0.0086464494593738572 0.0017758676493745231 0 -0.0088790069548831917 0.0020542521751474316 0 -0.0088790069548831917 0.0020542521751474316 0 -0.0093712551955287566 0.0019192750851085038 0 -0.0089483942878901112 0.0015822973270014896 0 -0.0091953850519332254 0.0024451131893387388 0 -0.0098888955992754452 0.0023496183586006101 0 -0.0093712551955287566 0.0019192750851085038 0 -0.0098888955992754452 0.0023496183586006101 0 -0.0093712551955287566 0.0019192750851085038 0 -0.0099860820124281525 0.0015942264584654158 0 -0.0091953850519332254 0.0024451131893387388 0 -0.0098888955992754452 0.0023496183586006101 0 -0.0095360204449214218 0.0030074701217362326 0 -0.0098888955992754452 0.0023496183586006101 0 -0.0095360204449214218 0.0030074701217362326 0 -0.010357345693353906 0.0030249868269950166 0 -0.011110216134750084 0.002135776951144374 0 -0.011420051022686419 0.0015370555905784521 0 -0.0098888955992754452 0.0023496183586006101 0 -0.010357345693353906 0.0030249868269950166 0 -0.010924888150941453 0.0020121069198696163 0 -0.0098888955992754452 0.0023496183586006101 0 -0.0099860820124281525 0.0015942264584654158 0 -0.010924888150941453 0.0020121069198696163 0 -0.01052998940948684 0.0010285458590220422 0 -0.0099860820124281525 0.0015942264584654158 0 -0.010924888150941453 0.0020121069198696163 0 -0.01052998940948684 0.0010285458590220422 0 -0.0099860820124281525 0.0015942264584654158 0 -0.009777899267722219 0.0007858979027027251 0 -0.0094252954540242021 0.0013853084972722531 0 -0.0099860820124281525 0.0015942264584654158 0 -0.009777899267722219 0.0007858979027027251 0 -0.0094252954540242021 0.0013853084972722531 0 -0.009777899267722219 0.0007858979027027251 0 -0.0089656780841480127 0.0009070814170196481 0 -0.0093712551955287566 0.0019192750851085038 0 -0.0094252954540242021 0.0013853084972722531 0 -0.0099860820124281525 0.0015942264584654158 0 -0.009777899267722219 0.0007858979027027251 0 -0.010369671494139251 0.0002157544796879535 0 -0.0097757303255134563 9.2818146575004986e-05 0 -0.009777899267722219 0.0007858979027027251 0 -0.0097757303255134563 9.2818146575004986e-05 0 -0.0093030464327502112 0.00032837841960679852 0 -0.01052998940948684 0.0010285458590220422 0 -0.009777899267722219 0.0007858979027027251 0 -0.010369671494139251 0.0002157544796879535 0 -0.01052998940948684 0.0010285458590220422 0 -0.010369671494139251 0.0002157544796879535 0 -0.010939533182862346 0.00042569085392870769 0 -0.010369671494139251 0.0002157544796879535 0 -0.010258581925184109 -6.5719524311255245e-05 0 -0.010702639492785283 -2.7713103892767176e-05 0 -0.0085144953951762532 0.00052972675657719413 0 -0.0093373968317684315 0.00050131221964022773 0 -0.010369671494139251 0.0002157544796879535 0 -0.0097757303255134563 9.2818146575004986e-05 0 -0.010149242785221384 -0.00036416054233395128 0 -0.0086607859763665959 0.0005319688891899303 0 -0.0085144953951762532 0.00052972675657719413 0 -0.0097757303255134563 9.2818146575004986e-05 0 -0.0091640672895730163 -0.00049258398397065571 0 -0.0093030464327502112 0.00032837841960679852 0 -0.0097757303255134563 9.2818146575004986e-05 0 -0.010149242785221384 -0.00036416054233395128 0 -0.0091640672895730163 -0.00049258398397065571 0 -0.0071612318613419532 0.0015690117421091085 0 -0.0080829102564569395 0.0024593922535987569 0 -0.0066253702346485361 0.0022771484766902004 0 -0.0085144953951762532 0.00052972675657719413 0 -0.0074679827339506656 0.00068326028905473987 0 -0.0086128800727573816 -0.0011619047334221122 0 -0.0085502328013050514 -0.00024777634787657228 0 -0.008067581040109113 -0.0016706660748273658 0 -0.0071612318613419532 0.0015690117421091085 0 -0.0080829102564569395 0.0024593922535987569 0 -0.0074676336265943168 0.00078041253525867849 0 -0.0085144953951762532 0.00052972675657719413 0 -0.0078037119963822055 -0.00063506529926312674 0 -0.0096036930000754275 -0.00067193477075961955 0 -0.0085502328013050514 -0.00024777634787657228 0 -0.010702639492785283 -2.7713103892767176e-05 0 -0.0086128800727573816 -0.0011619047334221122 0 -0.0096036930000754275 -0.00067193477075961955 0 -0.0087994501385773027 -0.0014894942593995219 0 -0.0086128800727573816 -0.0011619047334221122 0 -0.0096036930000754275 -0.00067193477075961955 0 -0.0085502328013050514 -0.00024777634787657228 0 -0.0051439168268761276 0.0020833106677862739 0 -0.0066253702346485361 0.0022771484766902004 0 -0.0058832514510056989 0.0012260401726394525 0 -0.0054333316897050392 0.00064178810156088472 0 -0.0074679827339506656 0.00068326028905473987 0 -0.0066253702346485361 0.0022771484766902004 0 -0.0066019568995047224 0.0013232943112063578 0 -0.0058832514510056989 0.0012260401726394525 0 -0.0071612318613419532 0.0015690117421091085 0 -0.0066253702346485361 0.0022771484766902004 0 -0.0066019568995047224 0.0013232943112063578 0 -0.0081827875424186295 -0.00061748723474247319 0 -0.0091640672895730163 -0.00049258398397065571 0 -0.0087431352937818278 0.00015835089029356638 0 -0.0091640672895730163 -0.00049258398397065571 0 -0.0093030464327502112 0.00032837841960679852 0 -0.0087431352937818278 0.00015835089029356638 0 -0.0081827875424186295 -0.00061748723474247319 0 -0.0087431352937818278 0.00015835089029356638 0 -0.0081003618116129283 0.00066647385688552358 0 -0.0054333316897050392 0.00064178810156088472 0 -0.0053321554169260569 0.0016990600587928493 0 -0.0087431352937818278 0.00015835089029356638 0 -0.0081003618116129283 0.00066647385688552358 0 -0.0089656780841480127 0.0009070814170196481 0 -0.0081003618116129283 0.00066647385688552358 0 -0.0089656780841480127 0.0009070814170196481 0 -0.0084661646389219015 0.0013373527208027651 0 -0.0093030464327502112 0.00032837841960679852 0 -0.0087431352937818278 0.00015835089029356638 0 -0.0089656780841480127 0.0009070814170196481 0 -0.009777899267722219 0.0007858979027027251 0 -0.0093030464327502112 0.00032837841960679852 0 -0.0089656780841480127 0.0009070814170196481 0 -0.0094252954540242021 0.0013853084972722531 0 -0.0089656780841480127 0.0009070814170196481 0 -0.0089483942878901112 0.0015822973270014896 0 -0.0089656780841480127 0.0009070814170196481 0 -0.0089483942878901112 0.0015822973270014896 0 -0.0084661646389219015 0.0013373527208027651 0 -0.0086464494593738572 0.0017758676493745231 0 -0.0089483942878901112 0.0015822973270014896 0 -0.0084661646389219015 0.0013373527208027651 0 -0.0093712551955287566 0.0019192750851085038 0 -0.0094252954540242021 0.0013853084972722531 0 -0.0089483942878901112 0.0015822973270014896 0 -0.0048725090074052133 0.0028813139255637341 0 -0.0053321554169260569 0.0016990600587928493 0 -0.0080100378691236127 0.0019580650271867443 0 -0.0081003618116129283 0.00066647385688552358 0 -0.0084661646389219015 0.0013373527208027651 0 -0.0086464494593738572 0.0017758676493745231 0 -0.0083711210784168932 0.0017667765309752417 0 -0.0084661646389219015 0.0013373527208027651 0 -0.0083711210784168932 0.0017667765309752417 0 -0.0080100378691236127 0.0019580650271867443 0 -0.0084661646389219015 0.0013373527208027651 0 -0.0033591061191134623 0.0040493899033968188 0 -0.0034454790952187274 0.0027396450069334536 0 -0.0028028064042665986 0.0034101573330809591 0 -0.0048725090074052133 0.0028813139255637341 0 -0.0039551952547250691 0.0027039118665246713 0 -0.0022135357799695945 0.003486168072620725 0 -0.001928169646960336 0.0035216063348515615 0 -0.0019985022822938013 0.0038087667807586915 0 -0.0027403513298651151 0.0032884703554758752 0 -0.0022135357799695945 0.003486168072620725 0 -0.0026774196813051637 0.0038007435083983244 0 -0.0027403513298651151 0.0032884703554758752 0 -0.0022135357799695945 0.003486168072620725 0 -0.0021479694150823283 0.0031492378397378639 0 -0.0027403513298651151 0.0032884703554758752 0 -0.0021479694150823283 0.0031492378397378639 0 -0.0022420699290163887 0.0027626147979382212 0 -0.0022135357799695945 0.003486168072620725 0 -0.0021479694150823283 0.0031492378397378639 0 -0.0018598114874224725 0.0032703180551433993 0 -0.0021479694150823283 0.0031492378397378639 0 -0.0022420699290163887 0.0027626147979382212 0 -0.0017601137206334466 0.003017409134672069 0 -0.0028028064042665986 0.0034101573330809591 0 -0.0022420699290163887 0.0027626147979382212 0 -0.0028088264062521105 0.0027635255897412035 0 -0.0039551952547250691 0.0027039118665246713 0 -0.0036026583732266717 0.0025649888556381743 0 -0.0022420699290163887 0.0027626147979382212 0 -0.0028088264062521105 0.0027635255897412035 0 -0.0021849708384088003 0.0021451059085662453 0 -0.0022420699290163887 0.0027626147979382212 0 -0.0021849708384088003 0.0021451059085662453 0 -0.0018111438035731606 0.0025619197093287062 0 -0.0034454790952187274 0.0027396450069334536 0 -0.0028028064042665986 0.0034101573330809591 0 -0.0028088264062521105 0.0027635255897412035 0 -0.0034454790952187274 0.0027396450069334536 0 -0.0028088264062521105 0.0027635255897412035 0 -0.0028729387791601628 0.0020763719552184946 0 -0.0035471016959385112 0.0013930417677257615 0 -0.0034454790952187274 0.0027396450069334536 0 -0.0028729387791601628 0.0020763719552184946 0 -0.0028729387791601628 0.0020763719552184946 0 -0.0021849708384088003 0.0021451059085662453 0 -0.0022920314267625913 0.0012224102415762622 0 -0.0028088264062521105 0.0027635255897412035 0 -0.0028729387791601628 0.0020763719552184946 0 -0.0021849708384088003 0.0021451059085662453 0 -0.0022920314267625913 0.0012224102415762622 0 -0.0016652151109891012 0.0013201504374872543 0 -0.0017999603435837983 0.00044782440765111153 0 -0.0021849708384088003 0.0021451059085662453 0 -0.0022920314267625913 0.0012224102415762622 0 -0.0016652151109891012 0.0013201504374872543 0 -0.0038389606542848583 0.0014263814118059431 0 -0.0022920314267625913 0.0012224102415762622 0 -0.0029457648377422645 0.00036388114501264532 0 -0.0054333316897050392 0.00064178810156088472 0 -0.0037144800188525671 0.000664106218017331 0 -0.0035471016959385112 0.0013930417677257615 0 -0.0028729387791601628 0.0020763719552184946 0 -0.0022920314267625913 0.0012224102415762622 0 -0.0004586776631508701 0.0012666608253489285 0 0.00027756455784768114 0.0015323352139460912 0 -0.00057475228239903112 0.00047577150154203392 0 -0.0004586776631508701 0.0012666608253489285 0 -0.0010865037611487742 0.002222109937542854 0 0.00027756455784768114 0.0015323352139460912 0 -0.0005219395212830712 0.0015698456926611574 0 -0.00062518177351712637 0.0012637919898024297 0 -0.0016652151109891012 0.0013201504374872543 0 -0.0013294577307414698 0.001898565805669388 0 -0.0010784159541040756 0.0007223628141415151 0 -0.0013188741048300724 0.0021244062950752114 0 -0.0012704065662245 0.001555534617220751 0 -0.0004586776631508701 0.0012666608253489285 0 -0.0010865037611487742 0.002222109937542854 0 -0.0010784159541040756 0.0007223628141415151 0 -0.0021849708384088003 0.0021451059085662453 0 -0.0013294577307414698 0.001898565805669388 0 -0.0018111438035731606 0.0025619197093287062 0 -0.0021849708384088003 0.0021451059085662453 0 -0.0016652151109891012 0.0013201504374872543 0 -0.0013294577307414698 0.001898565805669388 0 -0.0010865037611487742 0.002222109937542854 0 1.1337083014315342e-05 0.00312408120146689 0 0.00027756455784768114 0.0015323352139460912 0 -0.0010865037611487742 0.002222109937542854 0 1.1337083014315342e-05 0.00312408120146689 0 -0.0011253128030275453 0.0036824675154911355 0 -0.0018834761960872131 0.004173915822570793 0 -0.0018055221026098852 0.0039672156522706928 0 -0.0020421192246605877 0.0038495563777928661 0 -0.0012047528343408114 0.0026852959102622968 0 -0.0014303497496485401 0.0030302691506004609 0 -0.0018834761960872131 0.004173915822570793 0 -0.0016164966190395406 0.0040037330694770671 0 -0.0018055221026098852 0.0039672156522706928 0 -0.0013188741048300724 0.0021244062950752114 0 -0.0014303497496485401 0.0030302691506004609 0 -0.0013294577307414698 0.001898565805669388 0 -0.0018111438035731606 0.0025619197093287062 0 -0.0014952605940919165 0.0029129921565024031 0 -0.0014303497496485401 0.0030302691506004609 0 -0.0014406227066253523 0.0030327976403273938 0 -0.0022420699290163887 0.0027626147979382212 0 -0.0018111438035731606 0.0025619197093287062 0 -0.0017601137206334466 0.003017409134672069 0 -0.0018111438035731606 0.0025619197093287062 0 -0.0014952605940919165 0.0029129921565024031 0 -0.0017601137206334466 0.003017409134672069 0 -0.0015700344836003602 0.0029203962174410838 0 -0.0018598114874224725 0.0032703180551433993 0 -0.0016473951734877462 0.0035196812744861211 0 -0.0016164966190395406 0.0040037330694770671 0 -0.0016901508086079426 0.0038242774066446082 0 -0.0016925337366560558 0.0038964863665666076 0 -0.0014303497496485401 0.0030302691506004609 0 -0.0015016430781056962 0.0034637747260936585 0 -0.0015700344836003602 0.0029203962174410838 0 -0.0017601137206334466 0.003017409134672069 0 -0.0018598114874224725 0.0032703180551433993 0 -0.0021479694150823283 0.0031492378397378639 0 -0.0017601137206334466 0.003017409134672069 0 -0.0018598114874224725 0.0032703180551433993 0 -0.0016901508086079426 0.0038242774066446082 0 -0.0016925337366560558 0.0038964863665666076 0 -0.0016674603492201128 0.0038202579867919429 0 -0.0022135357799695945 0.003486168072620725 0 -0.0018598114874224725 0.0032703180551433993 0 -0.001928169646960336 0.0035216063348515615 0 -0.0018598114874224725 0.0032703180551433993 0 -0.0016473951734877462 0.0035196812744861211 0 -0.001928169646960336 0.0035216063348515615 0 -0.0018055221026098852 0.0039672156522706928 0 -0.0017605050684111048 0.0038693541483617215 0 -0.0018668825001594525 0.0038027337018482761 0 -0.0018055221026098852 0.0039672156522706928 0 -0.0018668825001594525 0.0038027337018482761 0 -0.0020421192246605877 0.0038495563777928661 0 -0.0016164966190395406 0.0040037330694770671 0 -0.0018055221026098852 0.0039672156522706928 0 -0.0016925337366560558 0.0038964863665666076 0 -0.0018055221026098852 0.0039672156522706928 0 -0.0016925337366560558 0.0038964863665666076 0 -0.0017605050684111048 0.0038693541483617215 0 -0.0017605050684111048 0.0038693541483617215 0 -0.0016674603492201128 0.0038202579867919429 0 -0.0018668825001594525 0.0038027337018482761 0 -0.0016925337366560558 0.0038964863665666076 0 -0.0017605050684111048 0.0038693541483617215 0 -0.0016674603492201128 0.0038202579867919429 0 -0.0016674603492201128 0.0038202579867919429 0 -0.0018668825001594525 0.0038027337018482761 0 -0.0020693425198518582 0.0034737514401344499 0 -0.0016674603492201128 0.0038202579867919429 0 -0.001614637175842788 0.0040129799278852503 0 -0.0012553857960683232 0.0040901055501910335 0 -0.001614637175842788 0.0040129799278852503 0 -0.0016759016021847602 0.0042922073291168841 0 -0.0012553857960683232 0.0040901055501910335 0 -0.0041201901069260194 0.004492808333938449 0 -0.0075822180559892028 0.0028193406131256336 0 -0.015941170471341439 0.0045653088390257947 0 -0.016767425282661143 0.0043488199034593181 0 -0.016988010905295205 0.0048621430078780638 0 -0.0087402616920064288 0.0038096678853266025 0 -0.0075822180559892028 0.0028193406131256336 0 -0.01628327024782928 0.0041960615631687877 0 -0.015941170471341439 0.0045653088390257947 0 -0.016767425282661143 0.0043488199034593181 0 -0.0016759016021847602 0.0042922073291168841 0 -0.0017451986668364453 0.0041078998292260801 0 -0.0021981379871232631 0.0042475781856931441 0 -0.015941170471341439 0.0045653088390257947 0 -0.014863220120972666 0.0042548767693490882 0 -0.01570618004237271 0.0041337037686982369 0 -0.01628327024782928 0.0041960615631687877 0 -0.015941170471341439 0.0045653088390257947 0 -0.01570618004237271 0.0041337037686982369 0 -0.0016901508086079426 0.0038242774066446082 0 -0.001614637175842788 0.0040129799278852503 0 -0.0017451986668364453 0.0041078998292260801 0 -0.0017451986668364453 0.0041078998292260801 0 -0.0019985022822938013 0.0038087667807586915 0 -0.0021981379871232631 0.0042475781856931441 0 -0.0016473951734877462 0.0035196812744861211 0 -0.0017451986668364453 0.0041078998292260801 0 -0.0019985022822938013 0.0038087667807586915 0 -0.0015016430781056962 0.0034637747260936585 0 -0.0015278767155792799 0.0036343297121564202 0 -0.001614637175842788 0.0040129799278852503 0 -0.0016759016021847602 0.0042922073291168841 0 -0.0017451986668364453 0.0041078998292260801 0 -0.0016901508086079426 0.0038242774066446082 0 -0.0016674603492201128 0.0038202579867919429 0 -0.001614637175842788 0.0040129799278852503 0 -0.0016473951734877462 0.0035196812744861211 0 -0.001928169646960336 0.0035216063348515615 0 -0.0019985022822938013 0.0038087667807586915 0 -0.0026774196813051637 0.0038007435083983244 0 -0.0028716722830999081 0.0041965876933249572 0 -0.0021981379871232631 0.0042475781856931441 0 -0.0019985022822938013 0.0038087667807586915 0 -0.0026774196813051637 0.0038007435083983244 0 -0.0021981379871232631 0.0042475781856931441 0 -0.0022135357799695945 0.003486168072620725 0 -0.0019985022822938013 0.0038087667807586915 0 -0.0026774196813051637 0.0038007435083983244 0 -0.0032260831067375097 0.0037899040809929708 0 -0.0032244311355477994 0.0038437714314527478 0 -0.0026774196813051637 0.0038007435083983244 0 -0.0032260831067375097 0.0037899040809929708 0 -0.0027403513298651151 0.0032884703554758752 0 -0.0026774196813051637 0.0038007435083983244 0 -0.0033188062055217776 0.0042776532417286512 0 -0.0032244311355477994 0.0038437714314527478 0 -0.0028716722830999081 0.0041965876933249572 0 -0.0032244311355477994 0.0038437714314527478 0 -0.0026774196813051637 0.0038007435083983244 0 -0.0028716722830999081 0.0041965876933249572 0 -0.0032327079029124909 0.004522428922471333 0 -0.0028716722830999081 0.0041965876933249572 0 -0.0025272523151678651 0.0046794817982986009 0 -0.0035784650637504774 0.005049678155368686 0 -0.0032327079029124909 0.004522428922471333 0 -0.0025272523151678651 0.0046794817982986009 0 -0.0032327079029124909 0.004522428922471333 0 -0.0033188062055217776 0.0042776532417286512 0 -0.0028716722830999081 0.0041965876933249572 0 -0.0087402616920064288 0.0038096678853266025 0 -0.0088301097939252685 0.0040657033507477047 0 -0.0028716722830999081 0.0041965876933249572 0 -0.0025272523151678651 0.0046794817982986009 0 -0.0021981379871232631 0.0042475781856931441 0 -0.0016759016021847602 0.0042922073291168841 0 -0.0025272523151678651 0.0046794817982986009 0 -0.0021981379871232631 0.0042475781856931441 0 -0.014863220120972666 0.0042548767693490882 0 -0.015330603276987396 0.0037493632883209113 0 -0.01570618004237271 0.0041337037686982369 0 -0.014863220120972666 0.0042548767693490882 0 -0.015330603276987396 0.0037493632883209113 0 -0.014473028929725957 0.0036098451043920878 0 -0.0089268750110933909 0.0040274698023208813 0 -0.0088301097939252685 0.0040657033507477047 0 -0.013778235726602908 0.0039333827901975949 0 -0.014863220120972666 0.0042548767693490882 0 -0.014473028929725957 0.0036098451043920878 0 -0.014497049547597271 0.0028709446196128101 0 -0.014000107419246862 0.0032347012386996742 0 -0.014473028929725957 0.0036098451043920878 0 -0.014497049547597271 0.0028709446196128101 0 -0.014473028929725957 0.0036098451043920878 0 -0.015058556799220298 0.0032265221437319767 0 -0.015236694200759161 0.0025722258802837309 0 -0.015058556799220298 0.0032265221437319767 0 -0.015718174562742319 0.0032422613945639685 0 -0.015330603276987396 0.0037493632883209113 0 -0.014473028929725957 0.0036098451043920878 0 -0.015058556799220298 0.0032265221437319767 0 -0.015330603276987396 0.0037493632883209113 0 -0.015058556799220298 0.0032265221437319767 0 -0.015718174562742319 0.0032422613945639685 0 -0.015718174562742319 0.0032422613945639685 0 -0.016524608877733302 0.0031464611095974055 0 -0.016068707774127982 0.0038161189995551039 0 -0.016035339013692147 0.0024520665710043577 0 -0.015718174562742319 0.0032422613945639685 0 -0.016524608877733302 0.0031464611095974055 0 -0.016524608877733302 0.0031464611095974055 0 -0.016068707774127982 0.0038161189995551039 0 -0.016668001545270875 0.0039266475459353084 0 -0.01628327024782928 0.0041960615631687877 0 -0.016668001545270875 0.0039266475459353084 0 -0.016767425282661143 0.0043488199034593181 0 -0.01628327024782928 0.0041960615631687877 0 -0.016068707774127982 0.0038161189995551039 0 -0.016668001545270875 0.0039266475459353084 0 -0.015330603276987396 0.0037493632883209113 0 -0.016068707774127982 0.0038161189995551039 0 -0.01570618004237271 0.0041337037686982369 0 -0.01628327024782928 0.0041960615631687877 0 -0.016068707774127982 0.0038161189995551039 0 -0.01570618004237271 0.0041337037686982369 0 -0.015330603276987396 0.0037493632883209113 0 -0.015718174562742319 0.0032422613945639685 0 -0.016068707774127982 0.0038161189995551039 0 -0.017564793327283303 0.0038822274495221155 0 -0.017198447421949127 0.0034009259270470727 0 -0.017801733687941731 0.0034500545568733089 0 -0.017564793327283303 0.0038822274495221155 0 -0.017159381162992125 0.004115471101036214 0 -0.017198447421949127 0.0034009259270470727 0 -0.017564793327283303 0.0038822274495221155 0 -0.017801733687941731 0.0034500545568733089 0 -0.018075809273634506 0.0040012706608465462 0 -0.017564793327283303 0.0038822274495221155 0 -0.018075809273634506 0.0040012706608465462 0 -0.017544518497109172 0.0044289002788920635 0 -0.017564793327283303 0.0038822274495221155 0 -0.017159381162992125 0.004115471101036214 0 -0.017544518497109172 0.0044289002788920635 0 -0.016668001545270875 0.0039266475459353084 0 -0.017159381162992125 0.004115471101036214 0 -0.017198447421949127 0.0034009259270470727 0 -0.016668001545270875 0.0039266475459353084 0 -0.017159381162992125 0.004115471101036214 0 -0.016767425282661143 0.0043488199034593181 0 -0.016524608877733302 0.0031464611095974055 0 -0.016668001545270875 0.0039266475459353084 0 -0.017198447421949127 0.0034009259270470727 0 -0.017182636718946372 0.0027995392000878024 0 -0.016524608877733302 0.0031464611095974055 0 -0.017198447421949127 0.0034009259270470727 0 -0.017781182249943905 0.0028735250444587896 0 -0.017182636718946372 0.0027995392000878024 0 -0.017198447421949127 0.0034009259270470727 0 -0.015700617738639986 0.0018017265724502569 0 -0.01663955268231582 0.0020096827537185715 0 -0.018370861713424533 0.002826719765298883 0 -0.017781182249943905 0.0028735250444587896 0 -0.017198447421949127 0.0034009259270470727 0 -0.018167511792803407 0.0028940947574533759 0 -0.017198447421949127 0.0034009259270470727 0 -0.017801733687941731 0.0034500545568733089 0 -0.018167511792803407 0.0028940947574533759 0 -0.017801733687941731 0.0034500545568733089 0 -0.018075809273634506 0.0040012706608465462 0 -0.010832262413780703 -0.00047315046820534812 0 -0.010927719277449711 -0.0003876578926168123 0 -0.010819247712641649 -0.00029643468043480576 0 -0.015700617738639986 0.0018017265724502569 0 -0.011931852690139312 0.00091179972095036053 0 -0.010832262413780703 -0.00047315046820534812 0 -0.010927719277449711 -0.0003876578926168123 0 -0.011277488168303755 -0.00037158289238022659 0 -0.010927719277449711 -0.0003876578926168123 0 -0.0099357675683324417 0.00017173795035454781 0 -0.010869035612772492 0.00018757128066443745 0 -0.010927719277449711 -0.0003876578926168123 0 -0.010869035612772492 0.00018757128066443745 0 -0.011231340859403558 -5.0657224533041736e-05 0 -0.011433560556065604 0.00082602824455060668 0 -0.011931852690139312 0.00091179972095036053 0 -0.010927719277449711 -0.0003876578926168123 0 -0.0099357675683324417 0.00017173795035454781 0 -0.0088821579525809446 -7.1561072956917039e-05 0 -0.0099357675683324417 0.00017173795035454781 0 -0.0088821579525809446 -7.1561072956917039e-05 0 -0.0086225861027181723 0.00040633254332541631 0 -0.011931852690139312 0.00091179972095036053 0 -0.011865561277519138 0.000890980326909097 0 -0.0099357675683324417 0.00017173795035454781 0 -0.0086225861027181723 0.00040633254332541631 0 -0.010161238067991218 0.0010559757454900265 0 -0.0086225861027181723 0.00040633254332541631 0 -0.0083827301353361552 0.000728384483060326 0 -0.010161238067991218 0.0010559757454900265 0 -0.0076060453886432015 0.00051411660542044263 0 -0.0077083868304686515 0.00054353273319988741 0 -0.0083827301353361552 0.000728384483060326 0 -0.010161238067991218 0.0010559757454900265 0 -0.0075211213886543955 0.00093340860803103388 0 -0.0086685235081350384 -0.0001355945805999241 0 -0.0086225861027181723 0.00040633254332541631 0 -0.0076700619699861501 0.00077320223885620799 0 -0.0099357675683324417 0.00017173795035454781 0 -0.010869035612772492 0.00018757128066443745 0 -0.010161238067991218 0.0010559757454900265 0 -0.0032756858576039882 0.0010461621448936151 0 -0.0032596584565815147 0.00035575434606676076 0 -0.003230812676389555 0.00027565741291449758 0 -0.0032756858576039882 0.0010461621448936151 0 -0.0032596584565815147 0.00035575434606676076 0 -0.0035958392476247909 0.0002898157627181494 0 -0.0032596584565815147 0.00035575434606676076 0 -0.003230812676389555 0.00027565741291449758 0 -0.0029882442004801422 8.7307475822440446e-05 0 -0.0032756858576039882 0.0010461621448936151 0 -0.003230812676389555 0.00027565741291449758 0 -0.0038703691492468621 0.00039031230514129025 0 -0.0032756858576039882 0.0010461621448936151 0 -0.0038703691492468621 0.00039031230514129025 0 -0.0052214585570418441 0.0004752710220711956 0 -0.003230812676389555 0.00027565741291449758 0 -0.0036112096525451436 9.1328360019403263e-05 0 -0.0031267023956909334 -0.00025605425053785335 0 -0.003230812676389555 0.00027565741291449758 0 -0.0038703691492468621 0.00039031230514129025 0 -0.0036112096525451436 9.1328360019403263e-05 0 -0.0038703691492468621 0.00039031230514129025 0 -0.0036112096525451436 9.1328360019403263e-05 0 -0.0044183576549508136 -8.6346703511833563e-05 0 -0.0037014013175789189 -0.000295411890812828 0 -0.003709385892955388 -0.0011358422998003447 0 -0.0044183576549508136 -8.6346703511833563e-05 0 -0.0036112096525451436 9.1328360019403263e-05 0 -0.0037014013175789189 -0.000295411890812828 0 -0.0031267023956909334 -0.00025605425053785335 0 -0.0036112096525451436 9.1328360019403263e-05 0 -0.0037014013175789189 -0.000295411890812828 0 -0.0044183576549508136 -8.6346703511833563e-05 0 -0.0037014013175789189 -0.000295411890812828 0 -0.003709385892955388 -0.0011358422998003447 0 -0.0031267023956909334 -0.00025605425053785335 0 -0.003423112016547819 0.0019877048021850999 0 -0.0034452291294012789 0.0019438189616289539 0 -0.0031267023956909334 -0.00025605425053785335 0 -0.0028879597947823791 -8.8427935546625262e-05 0 -0.0025948012040537143 -0.00013940120834680459 0 -0.003043353397846046 -0.00025990543596845106 0 -0.0031267023956909334 -0.00025605425053785335 0 -0.0025948012040537143 -0.00013940120834680459 0 -0.003423112016547819 0.0019877048021850999 0 -0.0033856254352662945 0.0019558964955458053 0 -0.003230812676389555 0.00027565741291449758 0 -0.0031267023956909334 -0.00025605425053785335 0 -0.0028879597947823791 -8.8427935546625262e-05 0 -0.003230812676389555 0.00027565741291449758 0 -0.0028879597947823791 -8.8427935546625262e-05 0 -0.0029882442004801422 8.7307475822440446e-05 0 -0.0028879597947823791 -8.8427935546625262e-05 0 -0.0027494713928191443 -4.0232523562391577e-06 0 -0.0025948012040537143 -0.00013940120834680459 0 -0.0028879597947823791 -8.8427935546625262e-05 0 -0.0027494713928191443 -4.0232523562391577e-06 0 -0.0029882442004801422 8.7307475822440446e-05 0 -0.003709385892955388 -0.0011358422998003447 0 -0.0044183576549508136 -8.6346703511833563e-05 0 -0.0074047893534936408 0.00036221198841953018 0 -0.0052214585570418441 0.0004752710220711956 0 -0.0044183576549508136 -8.6346703511833563e-05 0 -0.0074047893534936408 0.00036221198841953018 0 -0.0027621705978871473 0.0036756823252295347 0 -0.0024135406765739718 0.0035746223213161256 0 -0.0024836930075971767 0.0037643553864907288 0 -0.003423112016547819 0.0019877048021850999 0 -0.0050157436325685388 0.0022137932939341933 0 -0.0032756858576039882 0.0010461621448936151 0 -0.0052214585570418441 0.0004752710220711956 0 -0.0075211213886543955 0.00093340860803103388 0 -0.0052214585570418441 0.0004752710220711956 0 -0.0074047893534936408 0.00036221198841953018 0 -0.0075211213886543955 0.00093340860803103388 0 -0.0038703691492468621 0.00039031230514129025 0 -0.0052214585570418441 0.0004752710220711956 0 -0.0044183576549508136 -8.6346703511833563e-05 0 -0.0024135406765739718 0.0035746223213161256 0 -0.0022031210542379875 0.0036738985781981479 0 -0.0020693425198518582 0.0034737514401344499 0 -0.0074047893534936408 0.00036221198841953018 0 -0.0075211213886543955 0.00093340860803103388 0 -0.0080573497503465662 0.00090334700821587002 0 -0.0050157436325685388 0.0022137932939341933 0 -0.0075822180559892028 0.0028193406131256336 0 -0.0024135406765739718 0.0035746223213161256 0 -0.0022031210542379875 0.0036738985781981479 0 -0.0022854756640001924 0.003798607437894412 0 -0.0075211213886543955 0.00093340860803103388 0 -0.0076700619699861501 0.00077320223885620799 0 -0.0080573497503465662 0.00090334700821587002 0 -0.0083827301353361552 0.000728384483060326 0 -0.0075211213886543955 0.00093340860803103388 0 -0.0076700619699861501 0.00077320223885620799 0 -0.011931852690139312 0.00091179972095036053 0 -0.010525916292701427 0.0016179756731451325 0 -0.0086225861027181723 0.00040633254332541631 0 -0.0083827301353361552 0.000728384483060326 0 -0.0076700619699861501 0.00077320223885620799 0 -0.017544518497109172 0.0044289002788920635 0 -0.016767425282661143 0.0043488199034593181 0 -0.016988010905295205 0.0048621430078780638 0 -0.017159381162992125 0.004115471101036214 0 -0.017544518497109172 0.0044289002788920635 0 -0.016767425282661143 0.0043488199034593181 0 -0.010525916292701427 0.0016179756731451325 0 -0.0075822180559892028 0.0028193406131256336 0 -0.0022031210542379875 0.0036738985781981479 0 -0.0020693425198518582 0.0034737514401344499 0 -0.0020421192246605877 0.0038495563777928661 0 -0.0018668825001594525 0.0038027337018482761 0 -0.0020693425198518582 0.0034737514401344499 0 -0.0020421192246605877 0.0038495563777928661 0 -0.0022031210542379875 0.0036738985781981479 0 -0.0020421192246605877 0.0038495563777928661 0 -0.0022854756640001924 0.003798607437894412 0 -0.0020421192246605877 0.0038495563777928661 0 -0.0022854756640001924 0.003798607437894412 0 -0.0021868660201806002 0.0040434960044714715 0 -0.0022854756640001924 0.003798607437894412 0 -0.0021868660201806002 0.0040434960044714715 0 -0.0024734794257596148 0.0040077819669497574 0 -0.0024135406765739718 0.0035746223213161256 0 -0.0022854756640001924 0.003798607437894412 0 -0.0024836930075971767 0.0037643553864907288 0 -0.0022854756640001924 0.003798607437894412 0 -0.0024734794257596148 0.0040077819669497574 0 -0.0024836930075971767 0.0037643553864907288 0 -0.00083850315845569788 0.0018908272160948901 0 -0.0019763827130759699 0.002122383681419988 0 -0.0021868660201806002 0.0040434960044714715 0 -0.0021873636965926212 0.0043277330511355978 0 -0.0024734794257596148 0.0040077819669497574 0 -0.0018834761960872131 0.004173915822570793 0 -0.0020421192246605877 0.0038495563777928661 0 -0.0021868660201806002 0.0040434960044714715 0 -0.0018834761960872131 0.004173915822570793 0 -0.0021868660201806002 0.0040434960044714715 0 -0.0021873636965926212 0.0043277330511355978 0 -0.0012047528343408114 0.0026852959102622968 0 -0.00083850315845569788 0.0018908272160948901 0 1.1337083014315342e-05 0.00312408120146689 0 0.0011489988170101024 0.0025609302938635692 0 0.00027756455784768114 0.0015323352139460912 0 -0.00083850315845569788 0.0018908272160948901 0 -0.0005219395212830712 0.0015698456926611574 0 -0.00083850315845569788 0.0018908272160948901 0 -0.00028704079439455005 0.0012843494889073451 0 -0.0011016125144926391 0.00064087482064088493 0 -0.0011361669769850971 0.00067033011053756815 0 -0.001179894613078078 0.00057995455637976044 0 0.00077946309566382938 0.00082080673910282385 0 0.00082699697457288776 0.00067163172930146265 0 0.00090588075186285569 0.00079946309952141491 0 0.00071354679305585494 0.001042757635785353 0 0.00077946309566382938 0.00082080673910282385 0 0.00082699697457288776 0.00067163172930146265 0 0.00071354679305585494 0.001042757635785353 0 0.00077946309566382938 0.00082080673910282385 0 0.0003008033189436325 0.00094571530850319171 0 0.00077946309566382938 0.00082080673910282385 0 0.0003008033189436325 0.00094571530850319171 0 0.0002026656895513908 0.00054369400684872629 0 -0.00018649672412807805 0.0011404939376313979 0 -0.00028704079439455005 0.0012843494889073451 0 3.9491835428674094e-05 0.00065697242291949177 0 -0.0011361669769850971 0.00067033011053756815 0 -0.0011211312316495876 0.00074174952663951909 0 3.9491835428674094e-05 0.00065697242291949177 0 0.00082699697457288776 0.00067163172930146265 0 0.00090588075186285569 0.00079946309952141491 0 -0.0011361669769850971 0.00067033011053756815 0 -0.0011211312316495876 0.00074174952663951909 0 -0.001179894613078078 0.00057995455637976044 0 3.9491835428674094e-05 0.00065697242291949177 0 -0.0011211312316495876 0.00074174952663951909 0 -0.0011690204361910364 0.00065780917618303363 0 -0.0011211312316495876 0.00074174952663951909 0 -0.0016455990010838392 0.00055229258759397122 0 -0.0011690204361910364 0.00065780917618303363 0 -0.0016455990010838392 0.00055229258759397122 0 -0.0021833460736495731 0.00034956462462167824 0 -0.0018506598561906294 0.0004949155249866316 0 -0.0011211312316495876 0.00074174952663951909 0 -0.0016455990010838392 0.00055229258759397122 0 -0.001179894613078078 0.00057995455637976044 0 -0.0016455990010838392 0.00055229258759397122 0 -0.001179894613078078 0.00057995455637976044 0 -0.0018282307167527786 0.00028503778472070153 0 -0.0027621705978871473 0.0036756823252295347 0 -0.0024734794257596148 0.0040077819669497574 0 -0.0024836930075971767 0.0037643553864907288 0 -0.0020467273872894591 -0.00024854058799650771 0 -0.001179894613078078 0.00057995455637976044 0 -0.0018282307167527786 0.00028503778472070153 0 -0.003423112016547819 0.0019877048021850999 0 -0.0019763827130759699 0.002122383681419988 0 -0.0022614512093479303 0.0002047870772282922 0 -0.0026394164690865599 0.00016065172132760687 0 -0.0021833460736495731 0.00034956462462167824 0 -0.0016455990010838392 0.00055229258759397122 0 -0.0022614512093479303 0.0002047870772282922 0 -0.0021833460736495731 0.00034956462462167824 0 -0.0016455990010838392 0.00055229258759397122 0 -0.0022614512093479303 0.0002047870772282922 0 -0.0018282307167527786 0.00028503778472070153 0 -0.0022614512093479303 0.0002047870772282922 0 -0.0018282307167527786 0.00028503778472070153 0 -0.0025948012040537143 -0.00013940120834680459 0 -0.0020467273872894591 -0.00024854058799650771 0 -0.0018282307167527786 0.00028503778472070153 0 -0.0025948012040537143 -0.00013940120834680459 0 -0.0027494713928191443 -4.0232523562391577e-06 0 -0.0022614512093479303 0.0002047870772282922 0 -0.0025948012040537143 -0.00013940120834680459 0 -0.0027494713928191443 -4.0232523562391577e-06 0 -0.0022614512093479303 0.0002047870772282922 0 -0.0026394164690865599 0.00016065172132760687 0 -0.0027494713928191443 -4.0232523562391577e-06 0 -0.0026394164690865599 0.00016065172132760687 0 -0.002957417377764488 9.8944334457337957e-05 0 -0.0026394164690865599 0.00016065172132760687 0 -0.0030393006534431811 0.00014451553169615933 0 -0.002957417377764488 9.8944334457337957e-05 0 -0.0026394164690865599 0.00016065172132760687 0 -0.0030393006534431811 0.00014451553169615933 0 -0.0024915220578176807 0.00031478330587972174 0 -0.0026394164690865599 0.00016065172132760687 0 -0.0024915220578176807 0.00031478330587972174 0 -0.0021833460736495731 0.00034956462462167824 0 -0.0030393006534431811 0.00014451553169615933 0 -0.0029635923922234986 0.00030489445370650975 0 -0.0036890988946336827 0.00012911475457760529 0 -0.0030393006534431811 0.00014451553169615933 0 -0.0024915220578176807 0.00031478330587972174 0 -0.0029635923922234986 0.00030489445370650975 0 -0.0029635923922234986 0.00030489445370650975 0 -0.0020448496844215226 0.0005104174080911378 0 -0.0035753117955500883 0.00036653617628807327 0 -0.0024915220578176807 0.00031478330587972174 0 -0.0029635923922234986 0.00030489445370650975 0 -0.0020448496844215226 0.0005104174080911378 0 -0.0020448496844215226 0.0005104174080911378 0 -0.0018506598561906294 0.0004949155249866316 0 -0.0011690204361910364 0.00065780917618303363 0 -0.0024915220578176807 0.00031478330587972174 0 -0.0021833460736495731 0.00034956462462167824 0 -0.0018506598561906294 0.0004949155249866316 0 -0.0024915220578176807 0.00031478330587972174 0 -0.0020448496844215226 0.0005104174080911378 0 -0.0018506598561906294 0.0004949155249866316 0 -0.0016455990010838392 0.00055229258759397122 0 -0.0018506598561906294 0.0004949155249866316 0 -0.0011690204361910364 0.00065780917618303363 0 -0.0020448496844215226 0.0005104174080911378 0 -0.0011690204361910364 0.00065780917618303363 0 -0.00084337326459813205 0.00061862159745759053 0 3.9491835428674094e-05 0.00065697242291949177 0 -0.0011690204361910364 0.00065780917618303363 0 -0.00084337326459813205 0.00061862159745759053 0 -0.0020448496844215226 0.0005104174080911378 0 -0.00084337326459813205 0.00061862159745759053 0 -0.0017608240094516953 0.00037394308463597239 0 -0.00084337326459813205 0.00061862159745759053 0 -0.00025596157246275068 0.00062618613758311497 0 0.00054735787719262935 0.00074117147460199973 0 -0.00084337326459813205 0.00061862159745759053 0 -0.00025596157246275068 0.00062618613758311497 0 -0.0017608240094516953 0.00037394308463597239 0 3.9491835428674094e-05 0.00065697242291949177 0 -0.00084337326459813205 0.00061862159745759053 0 0.00054735787719262935 0.00074117147460199973 0 -0.00025596157246275068 0.00062618613758311497 0 -0.0017608240094516953 0.00037394308463597239 0 0.00096754895796584048 0.00053077222848303229 0 -0.0017608240094516953 0.00037394308463597239 0 -0.0023563671113550014 7.135624054314981e-07 0 0.00096754895796584048 0.00053077222848303229 0 -0.0023563671113550014 7.135624054314981e-07 0 0.00096754895796584048 0.00053077222848303229 0 0.00094630900173044488 6.9391210740465476e-07 0 -0.0017608240094516953 0.00037394308463597239 0 -0.0023563671113550014 7.135624054314981e-07 0 -0.0035753117955500883 0.00036653617628807327 0 -0.0023563671113550014 7.135624054314981e-07 0 -0.0035753117955500883 0.00036653617628807327 0 -0.0056603162081393177 1.839586946169508e-06 0 -0.0020448496844215226 0.0005104174080911378 0 -0.0017608240094516953 0.00037394308463597239 0 -0.0035753117955500883 0.00036653617628807327 0 -0.0035753117955500883 0.00036653617628807327 0 -0.00528273113169914 0.00017618086297165367 0 -0.0036890988946336827 0.00012911475457760529 0 -0.0029635923922234986 0.00030489445370650975 0 -0.0035753117955500883 0.00036653617628807327 0 -0.0036890988946336827 0.00012911475457760529 0 -0.0035753117955500883 0.00036653617628807327 0 -0.0056603162081393177 1.839586946169508e-06 0 -0.00528273113169914 0.00017618086297165367 0 -0.0056603162081393177 1.839586946169508e-06 0 -0.0089578298356412043 -3.8297845519770353e-06 0 -0.00528273113169914 0.00017618086297165367 0 -0.0089578298356412043 -3.8297845519770353e-06 0 -0.0045950726597725972 -0.0010196221094425533 0 -0.00528273113169914 0.00017618086297165367 0 -0.0089692209698514404 1.2398146854383688e-07 0 -0.010801264804174796 0.00097142085822719609 0 -0.011205147746747378 0.00016724627324393918 0 -0.0089625232672429726 9.6439403191367348e-08 0 -0.007586942399682964 -6.7694714203979356e-05 0 -0.0045950726597725972 -0.0010196221094425533 0 -0.0042001863822033782 -0.00030406255504460789 0 -0.00528273113169914 0.00017618086297165367 0 -0.0042001863822033782 -0.00030406255504460789 0 -0.00528273113169914 0.00017618086297165367 0 -0.0036890988946336827 0.00012911475457760529 0 -0.0036890988946336827 0.00012911475457760529 0 -0.0038683909038186907 -7.2500429876717909e-05 0 -0.0034609742353786262 7.0446224807651847e-05 0 -0.0030393006534431811 0.00014451553169615933 0 -0.0036890988946336827 0.00012911475457760529 0 -0.0034609742353786262 7.0446224807651847e-05 0 -0.0038683909038186907 -7.2500429876717909e-05 0 -0.0034609742353786262 7.0446224807651847e-05 0 -0.0038420443360260006 0.00013616970553490196 0 -0.0042001863822033782 -0.00030406255504460789 0 -0.0036890988946336827 0.00012911475457760529 0 -0.0038683909038186907 -7.2500429876717909e-05 0 -0.0042001863822033782 -0.00030406255504460789 0 -0.0038683909038186907 -7.2500429876717909e-05 0 -0.004244110018259372 -0.00017149944023445881 0 -0.0029882442004801422 8.7307475822440446e-05 0 -0.002957417377764488 9.8944334457337957e-05 0 -0.003294489835995612 0.00015712843740821867 0 -0.0027494713928191443 -4.0232523562391577e-06 0 -0.0029882442004801422 8.7307475822440446e-05 0 -0.002957417377764488 9.8944334457337957e-05 0 -0.0030393006534431811 0.00014451553169615933 0 -0.002957417377764488 9.8944334457337957e-05 0 -0.003294489835995612 0.00015712843740821867 0 -0.0030393006534431811 0.00014451553169615933 0 -0.0034609742353786262 7.0446224807651847e-05 0 -0.003294489835995612 0.00015712843740821867 0 -0.0034609742353786262 7.0446224807651847e-05 0 -0.003294489835995612 0.00015712843740821867 0 -0.0038420443360260006 0.00013616970553490196 0 -0.003294489835995612 0.00015712843740821867 0 -0.0034924195306651473 0.00024468318181492974 0 -0.0038420443360260006 0.00013616970553490196 0 -0.0032596584565815147 0.00035575434606676076 0 -0.0029882442004801422 8.7307475822440446e-05 0 -0.003294489835995612 0.00015712843740821867 0 -0.0032596584565815147 0.00035575434606676076 0 -0.003294489835995612 0.00015712843740821867 0 -0.0034924195306651473 0.00024468318181492974 0 -0.010869035612772492 0.00018757128066443745 0 -0.010161238067991218 0.0010559757454900265 0 -0.011737559408369012 0.0001258121396269059 0 -0.0076060453886432015 0.00051411660542044263 0 -0.0080752559686528454 0.00020976886471537221 0 -0.0032756858576039882 0.0010461621448936151 0 -0.0035958392476247909 0.0002898157627181494 0 -0.0040407307091649049 -0.00066745170904568502 0 -0.0035958392476247909 0.0002898157627181494 0 -0.0034924195306651473 0.00024468318181492974 0 -0.0038420443360260006 0.00013616970553490196 0 -0.0032596584565815147 0.00035575434606676076 0 -0.0035958392476247909 0.0002898157627181494 0 -0.0034924195306651473 0.00024468318181492974 0 -0.0035958392476247909 0.0002898157627181494 0 -0.0038420443360260006 0.00013616970553490196 0 -0.0039926464960838163 9.4969313082542752e-05 0 -0.0038420443360260006 0.00013616970553490196 0 -0.0041792510963622369 0.0001404523476407341 0 -0.0039926464960838163 9.4969313082542752e-05 0 -0.0035958392476247909 0.0002898157627181494 0 -0.0039926464960838163 9.4969313082542752e-05 0 -0.0040407307091649049 -0.00066745170904568502 0 -0.0041792510963622369 0.0001404523476407341 0 -0.0039926464960838163 9.4969313082542752e-05 0 -0.0046028071927376934 0.00031354506688059826 0 -0.0039926464960838163 9.4969313082542752e-05 0 -0.0046028071927376934 0.00031354506688059826 0 -0.0040407307091649049 -0.00066745170904568502 0 -0.0045950726597725972 -0.0010196221094425533 0 -0.0042001863822033782 -0.00030406255504460789 0 -0.004244110018259372 -0.00017149944023445881 0 -0.007586942399682964 -6.7694714203979356e-05 0 -0.0066522968993507946 -0.00012003595428789744 0 -0.010801264804174796 0.00097142085822719609 0 -0.0046028071927376934 0.00031354506688059826 0 -0.007871917827010114 3.7469395559442023e-05 0 -0.0045950726597725972 -0.0010196221094425533 0 -0.004244110018259372 -0.00017149944023445881 0 -0.0046028071927376934 0.00031354506688059826 0 -0.0038420443360260006 0.00013616970553490196 0 -0.0041792510963622369 0.0001404523476407341 0 -0.004244110018259372 -0.00017149944023445881 0 -0.0038683909038186907 -7.2500429876717909e-05 0 -0.0038420443360260006 0.00013616970553490196 0 -0.004244110018259372 -0.00017149944023445881 0 -0.0046028071927376934 0.00031354506688059826 0 -0.007871917827010114 3.7469395559442023e-05 0 -0.0040407307091649049 -0.00066745170904568502 0 -0.0041792510963622369 0.0001404523476407341 0 -0.004244110018259372 -0.00017149944023445881 0 -0.0046028071927376934 0.00031354506688059826 0 -0.007871917827010114 3.7469395559442023e-05 0 -0.0040407307091649049 -0.00066745170904568502 0 -0.011106339652295689 -0.00054723022360870935 0 -0.0080752559686528454 0.00020976886471537221 0 -0.0087716855390184804 -4.4626968084328355e-05 0 -0.011708726622595873 -0.00010487747332154453 0 -0.011737559408369012 0.0001258121396269059 0 -0.011106339652295689 -0.00054723022360870935 0 -0.010927719277449711 -0.0003876578926168123 0 -0.011475571416625389 -0.00014486677891198675 0 -0.011231340859403558 -5.0657224533041736e-05 0 -0.010869035612772492 0.00018757128066443745 0 -0.011737559408369012 0.0001258121396269059 0 -0.011231340859403558 -5.0657224533041736e-05 0 -0.011708726622595873 -0.00010487747332154453 0 -0.011737559408369012 0.0001258121396269059 0 -0.011475571416625389 -0.00014486677891198675 0 -0.011737559408369012 0.0001258121396269059 0 -0.011475571416625389 -0.00014486677891198675 0 -0.011231340859403558 -5.0657224533041736e-05 0 -0.010927719277449711 -0.0003876578926168123 0 -0.011475571416625389 -0.00014486677891198675 0 -0.011277488168303755 -0.00037158289238022659 0 -0.011475571416625389 -0.00014486677891198675 0 -0.011277488168303755 -0.00037158289238022659 0 -0.011775904056529131 -0.00014672099318349311 0 -0.011708726622595873 -0.00010487747332154453 0 -0.011938169379794824 -2.6135939581530604e-05 0 -0.011106339652295689 -0.00054723022360870935 0 -0.011708726622595873 -0.00010487747332154453 0 -0.011775904056529131 -0.00014672099318349311 0 -0.011938169379794824 -2.6135939581530604e-05 0 -0.011708726622595873 -0.00010487747332154453 0 -0.011475571416625389 -0.00014486677891198675 0 -0.011775904056529131 -0.00014672099318349311 0 -0.012274360672071178 -0.00014191848319277008 0 -0.011775904056529131 -0.00014672099318349311 0 -0.011938169379794824 -2.6135939581530604e-05 0 -0.012786003658616768 3.1128104055768667e-06 0 -0.011938169379794824 -2.6135939581530604e-05 0 -0.012199529504040026 7.0156195276127729e-06 0 -0.011938169379794824 -2.6135939581530604e-05 0 -0.012199529504040026 7.0156195276127729e-06 0 -0.011106339652295689 -0.00054723022360870935 0 -0.015183852925567691 1.181044398259139e-06 0 -0.012072915308677403 2.2686587286547638e-07 0 -0.012199529504040026 7.0156195276127729e-06 0 -0.012072915308677403 2.2686587286547638e-07 0 -0.012199529504040026 7.0156195276127729e-06 0 -0.011205147746747378 0.00016724627324393918 0 -0.0089692209698514404 1.2398146854383688e-07 0 -0.012072915308677403 2.2686587286547638e-07 0 -0.011205147746747378 0.00016724627324393918 0 -0.010801264804174796 0.00097142085822719609 0 -0.007871917827010114 3.7469395559442023e-05 0 -0.011106339652295689 -0.00054723022360870935 0 -0.010801264804174796 0.00097142085822719609 0 -0.011205147746747378 0.00016724627324393918 0 -0.011106339652295689 -0.00054723022360870935 0 -0.012199529504040026 7.0156195276127729e-06 0 -0.011205147746747378 0.00016724627324393918 0 -0.011106339652295689 -0.00054723022360870935 0 -0.018026755457880444 0.0026191364387781308 0 -0.017984276903882584 0.0033696266355438586 0 -0.017499428080212591 0.0025349118291917092 0 -0.017630690814593526 0.0031555199404846366 0 -0.01818406604247624 0.0034665490169671076 0 -0.017683702652564491 0.0025140197662009687 0 -0.017960697658482905 0.0032828171145950014 0 -0.017583097300953393 0.0025367904518841613 0 -0.018026755457880444 0.0026191364387781308 0 -0.018292306873558258 0.0029943485518353751 0 -0.017984276903882584 0.0033696266355438586 0 -0.018026755457880444 0.0026191364387781308 0 -0.018475920361795049 0.0025794493985259368 0 -0.018292306873558258 0.0029943485518353751 0 -0.018292306873558258 0.0029943485518353751 0 -0.018467248843012811 0.0034790079859768506 0 -0.017984276903882584 0.0033696266355438586 0 -0.018292306873558258 0.0029943485518353751 0 -0.018467248843012811 0.0034790079859768506 0 -0.019065361622037997 0.0035084233223914674 0 -0.018467248843012811 0.0034790079859768506 0 -0.017984276903882584 0.0033696266355438586 0 -0.018569758997044206 0.0042602871476892486 0 -0.018467248843012811 0.0034790079859768506 0 -0.019065361622037997 0.0035084233223914674 0 -0.018788740816380184 0.0037471744786147488 0 -0.017630690814593526 0.0031555199404846366 0 -0.018174304403202404 0.0037007227381352366 0 -0.017004172531590356 0.0033465771912607354 0 -0.017630690814593526 0.0031555199404846366 0 -0.018174304403202404 0.0037007227381352366 0 -0.01818406604247624 0.0034665490169671076 0 -0.018174304403202404 0.0037007227381352366 0 -0.017004172531590356 0.0033465771912607354 0 -0.016988567783416099 0.0042741374493967532 0 -0.017004172531590356 0.0033465771912607354 0 -0.016273948700460922 0.0028506693800850282 0 -0.016109748501905542 0.0034675019183664363 0 -0.017004172531590356 0.0033465771912607354 0 -0.016988567783416099 0.0042741374493967532 0 -0.016109748501905542 0.0034675019183664363 0 -0.016273948700460922 0.0028506693800850282 0 -0.017117903092934632 0.0027410282552843006 0 -0.016607672606233061 0.0024151927251053629 0 -0.017004172531590356 0.0033465771912607354 0 -0.016273948700460922 0.0028506693800850282 0 -0.017117903092934632 0.0027410282552843006 0 -0.017630690814593526 0.0031555199404846366 0 -0.017004172531590356 0.0033465771912607354 0 -0.017117903092934632 0.0027410282552843006 0 -0.017630690814593526 0.0031555199404846366 0 -0.017117903092934632 0.0027410282552843006 0 -0.017683702652564491 0.0025140197662009687 0 -0.017117903092934632 0.0027410282552843006 0 -0.01718326965155164 0.0016321110878545718 0 -0.017683702652564491 0.0025140197662009687 0 -0.017117903092934632 0.0027410282552843006 0 -0.016607672606233061 0.0024151927251053629 0 -0.01718326965155164 0.0016321110878545718 0 -0.017206720201622179 0.0018074768820220545 0 -0.017583097300953393 0.0025367904518841613 0 -0.016607672606233061 0.0024151927251053629 0 -0.016592303394345684 0.0018681048454704499 0 -0.015655679877424791 0.0024614651938662585 0 -0.016607672606233061 0.0024151927251053629 0 -0.016592303394345684 0.0018681048454704499 0 -0.01718326965155164 0.0016321110878545718 0 -0.016592303394345684 0.0018681048454704499 0 -0.016557049321138845 0.001367362689506777 0 -0.016227143537700401 0.0014790725039420221 0 -0.016592303394345684 0.0018681048454704499 0 -0.016557049321138845 0.001367362689506777 0 -0.01718326965155164 0.0016321110878545718 0 -0.017021162430453211 0.0017130076104254911 0 -0.017471314328073664 0.0014569358839233637 0 -0.017722626470318595 0.0019738370081506629 0 -0.017471314328073664 0.0014569358839233637 0 -0.017722626470318595 0.0019738370081506629 0 -0.017921374969815225 0.0014424194050864183 0 -0.018026755457880444 0.0026191364387781308 0 -0.017722626470318595 0.0019738370081506629 0 -0.017499428080212591 0.0025349118291917092 0 -0.017021162430453211 0.0017130076104254911 0 -0.017722626470318595 0.0019738370081506629 0 -0.017499428080212591 0.0025349118291917092 0 -0.018026755457880444 0.0026191364387781308 0 -0.017722626470318595 0.0019738370081506629 0 -0.018185776936420161 0.0022222496659355523 0 -0.018475920361795049 0.0025794493985259368 0 -0.018185776936420161 0.0022222496659355523 0 -0.018646302910241042 0.0022026874181607903 0 -0.018026755457880444 0.0026191364387781308 0 -0.018475920361795049 0.0025794493985259368 0 -0.018185776936420161 0.0022222496659355523 0 -0.017722626470318595 0.0019738370081506629 0 -0.018185776936420161 0.0022222496659355523 0 -0.018234133318120065 0.0018050175981556209 0 -0.018185776936420161 0.0022222496659355523 0 -0.018234133318120065 0.0018050175981556209 0 -0.018646302910241042 0.0022026874181607903 0 -0.017722626470318595 0.0019738370081506629 0 -0.018234133318120065 0.0018050175981556209 0 -0.017921374969815225 0.0014424194050864183 0 -0.018234133318120065 0.0018050175981556209 0 -0.017921374969815225 0.0014424194050864183 0 -0.018374257401554506 0.0013422137756794168 0 -0.018234133318120065 0.0018050175981556209 0 -0.018374257401554506 0.0013422137756794168 0 -0.018703157057562595 0.0016192558991722282 0 -0.018703157057562595 0.0016192558991722282 0 -0.018685354024358489 0.0011144689936109407 0 -0.018978564456230546 0.0012961210432757061 0 -0.018374257401554506 0.0013422137756794168 0 -0.018703157057562595 0.0016192558991722282 0 -0.018685354024358489 0.0011144689936109407 0 -0.018234133318120065 0.0018050175981556209 0 -0.018703157057562595 0.0016192558991722282 0 -0.018646302910241042 0.0022026874181607903 0 -0.018703157057562595 0.0016192558991722282 0 -0.01925819976269676 0.0015545587513111959 0 -0.019092904685761494 0.002049475765134015 0 -0.018703157057562595 0.0016192558991722282 0 -0.01925819976269676 0.0015545587513111959 0 -0.018978564456230546 0.0012961210432757061 0 -0.01925819976269676 0.0015545587513111959 0 -0.019578136883360707 0.0019773403067495639 0 -0.019885763654552888 0.0012332279467832767 0 -0.01925819976269676 0.0015545587513111959 0 -0.019885763654552888 0.0012332279467832767 0 -0.019336430796645203 0.0011346766139686151 0 -0.01925819976269676 0.0015545587513111959 0 -0.019336430796645203 0.0011346766139686151 0 -0.018978564456230546 0.0012961210432757061 0 -0.01925819976269676 0.0015545587513111959 0 -0.019578136883360707 0.0019773403067495639 0 -0.019092904685761494 0.002049475765134015 0 -0.019578136883360707 0.0019773403067495639 0 -0.020001207664198526 0.0023600259769706302 0 -0.019181674985563897 0.0028293809750481813 0 -0.019578136883360707 0.0019773403067495639 0 -0.019092904685761494 0.002049475765134015 0 -0.019181674985563897 0.0028293809750481813 0 -0.018475920361795049 0.0025794493985259368 0 -0.018646302910241042 0.0022026874181607903 0 -0.019181674985563897 0.0028293809750481813 0 -0.018646302910241042 0.0022026874181607903 0 -0.019092904685761494 0.002049475765134015 0 -0.019181674985563897 0.0028293809750481813 0 -0.018703157057562595 0.0016192558991722282 0 -0.018646302910241042 0.0022026874181607903 0 -0.019092904685761494 0.002049475765134015 0 -0.021134224628060014 0.0011294607744061701 0 -0.020351643854109893 0.0014907697454568706 0 -0.019885763654552888 0.0012332279467832767 0 -0.021134224628060014 0.0011294607744061701 0 -0.020782738285627166 0.0015460355243883566 0 -0.020351643854109893 0.0014907697454568706 0 -0.021126636098370517 0.0017548922501346323 0 -0.020782738285627166 0.0015460355243883566 0 -0.02052554655533571 0.001809313625104315 0 -0.021134224628060014 0.0011294607744061701 0 -0.021126636098370517 0.0017548922501346323 0 -0.020782738285627166 0.0015460355243883566 0 -0.020782738285627166 0.0015460355243883566 0 -0.02052554655533571 0.001809313625104315 0 -0.020351643854109893 0.0014907697454568706 0 -0.019578136883360707 0.0019773403067495639 0 -0.02006300612459188 0.0018648957599582453 0 -0.019885763654552888 0.0012332279467832767 0 -0.02052554655533571 0.001809313625104315 0 -0.02006300612459188 0.0018648957599582453 0 -0.020351643854109893 0.0014907697454568706 0 -0.02006300612459188 0.0018648957599582453 0 -0.020351643854109893 0.0014907697454568706 0 -0.019885763654552888 0.0012332279467832767 0 -0.019578136883360707 0.0019773403067495639 0 -0.02006300612459188 0.0018648957599582453 0 -0.020001207664198526 0.0023600259769706302 0 -0.020001207664198526 0.0023600259769706302 0 -0.02029977870826365 0.0023917613629965504 0 -0.020349355649390596 0.0021622801977898955 0 -0.020001207664198526 0.0023600259769706302 0 -0.020282606925739414 0.0026651096987980773 0 -0.020295356114196056 0.0026026616184707204 0 -0.020001207664198526 0.0023600259769706302 0 -0.02029977870826365 0.0023917613629965504 0 -0.020295356114196056 0.0026026616184707204 0 -0.020395984266929783 0.0024989955542163386 0 -0.02029977870826365 0.0023917613629965504 0 -0.020295356114196056 0.0026026616184707204 0 -0.02052554655533571 0.001809313625104315 0 -0.02006300612459188 0.0018648957599582453 0 -0.020349355649390596 0.0021622801977898955 0 -0.02006300612459188 0.0018648957599582453 0 -0.020001207664198526 0.0023600259769706302 0 -0.020349355649390596 0.0021622801977898955 0 -0.021354492927594611 0.0025204547864436737 0 -0.021126636098370517 0.0017548922501346323 0 -0.020769092700441184 0.0021362892739439886 0 -0.021454999877740029 0.0026157986970526824 0 -0.02060444537811015 0.0028085395669511948 0 -0.021354492927594611 0.0025204547864436737 0 -0.020571787437913214 0.0023949741407383548 0 -0.020281654993062621 0.0026760767360058208 0 -0.021354492927594611 0.0025204547864436737 0 -0.020571787437913214 0.0023949741407383548 0 -0.020769092700441184 0.0021362892739439886 0 -0.02052554655533571 0.001809313625104315 0 -0.020349355649390596 0.0021622801977898955 0 -0.020769092700441184 0.0021362892739439886 0 -0.020349355649390596 0.0021622801977898955 0 -0.020571787437913214 0.0023949741407383548 0 -0.020769092700441184 0.0021362892739439886 0 -0.02029977870826365 0.0023917613629965504 0 -0.020349355649390596 0.0021622801977898955 0 -0.020571787437913214 0.0023949741407383548 0 -0.020395984266929783 0.0024989955542163386 0 -0.020571787437913214 0.0023949741407383548 0 -0.020281654993062621 0.0026760767360058208 0 -0.020395984266929783 0.0024989955542163386 0 -0.02029977870826365 0.0023917613629965504 0 -0.020571787437913214 0.0023949741407383548 0 -0.021126636098370517 0.0017548922501346323 0 -0.02052554655533571 0.001809313625104315 0 -0.020769092700441184 0.0021362892739439886 0 -0.021700527083450775 0.0026638033658113488 0 -0.02135466961763113 0.0031657635296916393 0 -0.021107993094059332 0.0029176199044661927 0 -0.02135466961763113 0.0031657635296916393 0 -0.021107993094059332 0.0029176199044661927 0 -0.021193414432316909 0.0032054641234047334 0 -0.020632421182499566 0.0025405893518862534 0 -0.020137360773570347 0.0030456526082436879 0 -0.020435657966542703 0.0035861998986485709 0 -0.020632421182499566 0.0025405893518862534 0 -0.020137360773570347 0.0030456526082436879 0 -0.019541222691122864 0.0027418491078060373 0 -0.020001207664198526 0.0023600259769706302 0 -0.020282606925739414 0.0026651096987980773 0 -0.019181674985563897 0.0028293809750481813 0 -0.02060444537811015 0.0028085395669511948 0 -0.020634697130739517 0.0035412138980500238 0 -0.020395984266929783 0.0024989955542163386 0 -0.020281654993062621 0.0026760767360058208 0 -0.020295356114196056 0.0026026616184707204 0 -0.02060444537811015 0.0028085395669511948 0 -0.020604189451478475 0.002807946311736911 0 -0.021107993094059332 0.0029176199044661927 0 -0.021114058949484101 0.0034035345984669923 0 -0.021193414432316909 0.0032054641234047334 0 -0.020137360773570347 0.0030456526082436879 0 -0.020435657966542703 0.0035861998986485709 0 -0.019839848865025538 0.0034824690264596862 0 -0.021114058949484101 0.0034035345984669923 0 -0.021215475689596641 0.0033155021413093268 0 -0.021307459804518935 0.0034243729374338872 0 -0.021114058949484101 0.0034035345984669923 0 -0.021193414432316909 0.0032054641234047334 0 -0.021215475689596641 0.0033155021413093268 0 -0.021786219289794854 0.0036223424159851437 0 -0.02135466961763113 0.0031657635296916393 0 -0.021437845099106415 0.0042768556499009078 0 -0.021920385520785166 0.0036711460616185086 0 -0.022154035253174862 0.0041041442893621737 0 -0.02135466961763113 0.0031657635296916393 0 -0.021307459804518935 0.0034243729374338872 0 -0.02150880566166254 0.0035321532112564504 0 -0.02135466961763113 0.0031657635296916393 0 -0.021215475689596641 0.0033155021413093268 0 -0.021307459804518935 0.0034243729374338872 0 -0.02135466961763113 0.0031657635296916393 0 -0.021193414432316909 0.0032054641234047334 0 -0.021215475689596641 0.0033155021413093268 0 -0.018292306873558258 0.0029943485518353751 0 -0.019541222691122864 0.0027418491078060373 0 -0.019065361622037997 0.0035084233223914674 0 -0.018475920361795049 0.0025794493985259368 0 -0.018292306873558258 0.0029943485518353751 0 -0.019181674985563897 0.0028293809750481813 0 -0.018951871373699372 0.0029727469484670701 0 -0.019521214534776329 0.0028958686325419925 0 -0.02060444537811015 0.0028085395669511948 0 -0.019521214534776329 0.0028958686325419925 0 -0.020137360773570347 0.0030456526082436879 0 -0.019541222691122864 0.0027418491078060373 0 -0.019839848865025538 0.0034824690264596862 0 -0.019839848865025538 0.0034824690264596862 0 -0.019065361622037997 0.0035084233223914674 0 -0.019521087969876845 0.0040135868161064719 0 -0.019541222691122864 0.0027418491078060373 0 -0.019839848865025538 0.0034824690264596862 0 -0.019065361622037997 0.0035084233223914674 0 -0.020435657966542703 0.0035861998986485709 0 -0.019839848865025538 0.0034824690264596862 0 -0.01995254816051634 0.0040216062191872383 0 -0.019007677175917163 0.0040662118364846178 0 -0.019186677569139651 0.004524637846003896 0 -0.018569758997044206 0.0042602871476892486 0 -0.019065361622037997 0.0035084233223914674 0 -0.019007677175917163 0.0040662118364846178 0 -0.018788740816380184 0.0037471744786147488 0 -0.019007677175917163 0.0040662118364846178 0 -0.019521087969876845 0.0040135868161064719 0 -0.019186677569139651 0.004524637846003896 0 -0.019065361622037997 0.0035084233223914674 0 -0.019007677175917163 0.0040662118364846178 0 -0.019521087969876845 0.0040135868161064719 0 -0.019839848865025538 0.0034824690264596862 0 -0.019521087969876845 0.0040135868161064719 0 -0.01995254816051634 0.0040216062191872383 0 -0.019521087969876845 0.0040135868161064719 0 -0.01995254816051634 0.0040216062191872383 0 -0.019722106662512524 0.0044348709769065709 0 -0.019722106662512524 0.0044348709769065709 0 -0.020241248031724331 0.0045636620366283154 0 -0.019648664492690114 0.0049408471910752779 0 -0.01995254816051634 0.0040216062191872383 0 -0.019722106662512524 0.0044348709769065709 0 -0.020241248031724331 0.0045636620366283154 0 -0.019722106662512524 0.0044348709769065709 0 -0.019186677569139651 0.004524637846003896 0 -0.019648664492690114 0.0049408471910752779 0 -0.019186677569139651 0.004524637846003896 0 -0.019090562576160167 0.0051429132716966156 0 -0.018602825787389095 0.004834878593101717 0 -0.019521087969876845 0.0040135868161064719 0 -0.019722106662512524 0.0044348709769065709 0 -0.019186677569139651 0.004524637846003896 0 -0.022148860346806017 0.0043140249938259691 0 -0.02143223932054646 0.0039684138535261053 0 -0.021943377986708451 0.0036793499663431528 0 -0.021307459804518935 0.0034243729374338872 0 -0.02143223932054646 0.0039684138535261053 0 -0.021943377986708451 0.0036793499663431528 0 -0.021893893393957458 0.0039405544536501415 0 -0.022154035253174862 0.0041041442893621737 0 -0.020634697130739517 0.0035412138980500238 0 -0.020556284962875791 0.0044608219011582724 0 -0.021114058949484101 0.0034035345984669923 0 -0.021307459804518935 0.0034243729374338872 0 -0.02143223932054646 0.0039684138535261053 0 -0.021114058949484101 0.0034035345984669923 0 -0.02143223932054646 0.0039684138535261053 0 -0.020978594483341571 0.0042793440287525802 0 -0.020435657966542703 0.0035861998986485709 0 -0.01995254816051634 0.0040216062191872383 0 -0.020241248031724331 0.0045636620366283154 0 -0.02143223932054646 0.0039684138535261053 0 -0.020978594483341571 0.0042793440287525802 0 -0.021724567372410471 0.0045233930954845626 0 -0.022148860346806017 0.0043140249938259691 0 -0.02143223932054646 0.0039684138535261053 0 -0.021724567372410471 0.0045233930954845626 0 -0.022319999029745404 0.0049351667143198831 0 -0.021724567372410471 0.0045233930954845626 0 -0.021685629722380577 0.0050906570049332267 0 -0.022762556271467151 0.005327407581809664 0 -0.022453344425250713 0.0053283316025751412 0 -0.020978594483341571 0.0042793440287525802 0 -0.021724567372410471 0.0045233930954845626 0 -0.021685629722380577 0.0050906570049332267 0 -0.020556284962875791 0.0044608219011582724 0 -0.020429909931008603 0.0054837217717523812 0 -0.020978594483341571 0.0042793440287525802 0 -0.021685629722380577 0.0050906570049332267 0 -0.020753525149672793 0.0053449857041882104 0 -0.021685629722380577 0.0050906570049332267 0 -0.021288024263647877 0.0059844107957863768 0 -0.020753525149672793 0.0053449857041882104 0 -0.020479719747072748 0.0066397108833740615 0 -0.021288024263647877 0.0059844107957863768 0 -0.020753525149672793 0.0053449857041882104 0 -0.021685629722380577 0.0050906570049332267 0 -0.021288024263647877 0.0059844107957863768 0 -0.022150446844301931 0.0058718232352638032 0 -0.022765176395906656 0.0048382820289202527 0 -0.021685629722380577 0.0050906570049332267 0 -0.022150446844301931 0.0058718232352638032 0 -0.019186677569139651 0.004524637846003896 0 -0.019090562576160167 0.0051429132716966156 0 -0.019648664492690114 0.0049408471910752779 0 -0.019090562576160167 0.0051429132716966156 0 -0.019648664492690114 0.0049408471910752779 0 -0.019555769508564233 0.005591875449850626 0 -0.019648664492690114 0.0049408471910752779 0 -0.020145585219718841 0.0054659434163078589 0 -0.019555769508564233 0.005591875449850626 0 -0.020241248031724331 0.0045636620366283154 0 -0.019648664492690114 0.0049408471910752779 0 -0.020145585219718841 0.0054659434163078589 0 -0.020286944309840731 0.0065452586758084855 0 -0.020429909931008603 0.0054837217717523812 0 -0.020159411386727586 0.006497594838917803 0 -0.020145585219718841 0.0054659434163078589 0 -0.019555769508564233 0.005591875449850626 0 -0.019323237052190939 0.0060482405906449521 0 -0.019555769508564233 0.005591875449850626 0 -0.019043896728920186 0.0056161255858150861 0 -0.019090562576160167 0.0051429132716966156 0 -0.019555769508564233 0.005591875449850626 0 -0.019043896728920186 0.0056161255858150861 0 -0.019323237052190939 0.0060482405906449521 0 -0.019043896728920186 0.0056161255858150861 0 -0.018871178708857361 0.0058943447076007047 0 -0.019090562576160167 0.0051429132716966156 0 -0.019043896728920186 0.0056161255858150861 0 -0.018531358816794661 0.0055176738401533617 0 -0.019043896728920186 0.0056161255858150861 0 -0.018871178708857361 0.0058943447076007047 0 -0.018531358816794661 0.0055176738401533617 0 -0.018556991889764542 0.0059289300861661781 0 -0.018531358816794661 0.0055176738401533617 0 -0.018361230485560532 0.0058271346472118114 0 -0.018556991889764542 0.0059289300861661781 0 -0.018871178708857361 0.0058943447076007047 0 -0.018531358816794661 0.0055176738401533617 0 -0.018531358816794661 0.0055176738401533617 0 -0.018082089491789976 0.0056495885611622977 0 -0.018204972127870769 0.005141232594598772 0 -0.018167206093046111 0.0059322612459660291 0 -0.018082089491789976 0.0056495885611622977 0 -0.018361230485560532 0.0058271346472118114 0 -0.018531358816794661 0.0055176738401533617 0 -0.018082089491789976 0.0056495885611622977 0 -0.018361230485560532 0.0058271346472118114 0 -0.019090562576160167 0.0051429132716966156 0 -0.018531358816794661 0.0055176738401533617 0 -0.018602825787389095 0.004834878593101717 0 -0.018531358816794661 0.0055176738401533617 0 -0.018204972127870769 0.005141232594598772 0 -0.018602825787389095 0.004834878593101717 0 -0.019186677569139651 0.004524637846003896 0 -0.018602825787389095 0.004834878593101717 0 -0.018569758997044206 0.0042602871476892486 0 -0.018602825787389095 0.004834878593101717 0 -0.018109757355975888 0.0044086571066828274 0 -0.018569758997044206 0.0042602871476892486 0 -0.018204972127870769 0.005141232594598772 0 -0.018602825787389095 0.004834878593101717 0 -0.018109757355975888 0.0044086571066828274 0 -0.018204972127870769 0.005141232594598772 0 -0.018109757355975888 0.0044086571066828274 0 -0.017723635389108844 0.0047886335254912768 0 -0.018174304403202404 0.0037007227381352366 0 -0.018109757355975888 0.0044086571066828274 0 -0.018569758997044206 0.0042602871476892486 0 -0.018174304403202404 0.0037007227381352366 0 -0.018109757355975888 0.0044086571066828274 0 -0.017469994592754477 0.0041917821877246828 0 -0.017960697658482905 0.0032828171145950014 0 -0.018160196052944014 0.0036857566604853254 0 -0.018174304403202404 0.0037007227381352366 0 -0.01818406604247624 0.0034665490169671076 0 -0.018569758997044206 0.0042602871476892486 0 -0.018467248843012811 0.0034790079859768506 0 -0.018788740816380184 0.0037471744786147488 0 -0.018569758997044206 0.0042602871476892486 0 -0.019007677175917163 0.0040662118364846178 0 -0.018788740816380184 0.0037471744786147488 0 -0.018569758997044206 0.0042602871476892486 0 -0.017469994592754477 0.0041917821877246828 0 -0.017723635389108844 0.0047886335254912768 0 -0.016450413756935244 0.004660540629811318 0 -0.016988567783416099 0.0042741374493967532 0 -0.01620139929828689 0.0041552689125893558 0 -0.016109748501905542 0.0034675019183664363 0 -0.017688421606144051 0.0039470398298368237 0 -0.017157477434466859 0.0042391205669983466 0 -0.018109757355975888 0.0044086571066828274 0 -0.017469994592754477 0.0041917821877246828 0 -0.017723635389108844 0.0047886335254912768 0 -0.017157477434466859 0.0042391205669983466 0 -0.016258905191562905 0.0047246596000176076 0 -0.016988567783416099 0.0042741374493967532 0 -0.01620139929828689 0.0041552689125893558 0 -0.015996550819447213 0.0047685175642683949 0 -0.017723635389108844 0.0047886335254912768 0 -0.017522955265362735 0.0054006359612690461 0 -0.016450413756935244 0.004660540629811318 0 -0.018082089491789976 0.0056495885611622977 0 -0.018204972127870769 0.005141232594598772 0 -0.017522955265362735 0.0054006359612690461 0 -0.018204972127870769 0.005141232594598772 0 -0.017723635389108844 0.0047886335254912768 0 -0.017522955265362735 0.0054006359612690461 0 -0.017766129670918 0.0059614996357552864 0 -0.018082089491789976 0.0056495885611622977 0 -0.017522955265362735 0.0054006359612690461 0 -0.017766129670918 0.0059614996357552864 0 -0.017522955265362735 0.0054006359612690461 0 -0.017358313248231151 0.0057863766759907427 0 -0.017522955265362735 0.0054006359612690461 0 -0.017358313248231151 0.0057863766759907427 0 -0.017118479978633982 0.0056313491773632342 0 -0.017099973462328846 0.0050104507356153747 0 -0.016941356749966087 0.0048469568125201782 0 -0.017110110858103232 0.0058555667746444939 0 -0.017358313248231151 0.0057863766759907427 0 -0.017118479978633982 0.0056313491773632342 0 -0.017522955265362735 0.0054006359612690461 0 -0.016241291381760004 0.0057568989720201457 0 -0.016450413756935244 0.004660540629811318 0 -0.016241291381760004 0.0057568989720201457 0 -0.015128244466407323 0.0053175145050907069 0 -0.016450413756935244 0.004660540629811318 0 -0.015686888963959193 0.0050386149105583538 0 -0.016258905191562905 0.0047246596000176076 0 -0.016992357006608595 0.00583580098144852 0 -0.017118479978633982 0.0056313491773632342 0 -0.016832113229460457 0.0057281898798112654 0 -0.016241291381760004 0.0057568989720201457 0 -0.01484657954844427 0.006034517358026124 0 -0.015128244466407323 0.0053175145050907069 0 -0.016992357006608595 0.00583580098144852 0 -0.017110110858103232 0.0058555667746444939 0 -0.017118479978633982 0.0056313491773632342 0 -0.016941356749966087 0.0048469568125201782 0 -0.018676827461350846 0.0036821423959844377 0 -0.016795287222864781 0.0021311072896651588 0 -0.017177437889832222 0.0023657193353255239 0 -0.016901719981483133 0.002642634503369639 0 -0.016795287222864781 0.0021311072896651588 0 -0.017337855900122125 0.0020076656765371198 0 -0.017177437889832222 0.0023657193353255239 0 -0.018676827461350846 0.0036821423959844377 0 -0.019652436542406337 0.00207159568400384 0 -0.017177437889832222 0.0023657193353255239 0 -0.017299771734773671 0.0027344997625819972 0 -0.016901719981483133 0.002642634503369639 0 -0.01484657954844427 0.006034517358026124 0 -0.014686018314788293 0.0050973071379482584 0 -0.015128244466407323 0.0053175145050907069 0 -0.014686018314788293 0.0050973071379482584 0 -0.015128244466407323 0.0053175145050907069 0 -0.015187864881436858 0.004598818975258709 0 -0.018676827461350846 0.0036821423959844377 0 -0.016898070906799404 0.0034628259601032991 0 -0.014686018314788293 0.0050973071379482584 0 -0.014511209684932564 0.0043386284562544992 0 -0.015187864881436858 0.004598818975258709 0 -0.014511209684932564 0.0043386284562544992 0 -0.015187864881436858 0.004598818975258709 0 -0.015081756801043679 0.0034311460434127364 0 -0.016898070906799404 0.0034628259601032991 0 -0.015488159427417049 0.0027989795127961077 0 -0.017299771734773671 0.0027344997625819972 0 -0.016901719981483133 0.002642634503369639 0 -0.017007642617518682 0.0031548739614104993 0 -0.015822038244842223 0.0022160634266077525 0 -0.015488159427417049 0.0027989795127961077 0 -0.012036274685207618 0.00032148422159487301 0 -0.011837416653792912 0.00062133149828344904 0 -0.012156556134476174 0.00056851799782215492 0 -0.015488159427417049 0.0027989795127961077 0 -0.0135346663060231 0.001833633574821441 0 -0.011837416653792912 0.00062133149828344904 0 -0.012197624412727022 0.00085790692033683048 0 -0.011944944881225382 0.0011135556878758798 0 -0.011837416653792912 0.00062133149828344904 0 -0.012156556134476174 0.00056851799782215492 0 -0.012197624412727022 0.00085790692033683048 0 -0.015488159427417049 0.0027989795127961077 0 -0.015309885375628241 0.0029698809554843629 0 -0.015722318251779412 0.004092436993995455 0 -0.015187864881436858 0.004598818975258709 0 -0.015081756801043679 0.0034311460434127364 0 -0.01620139929828689 0.0041552689125893558 0 -0.015722318251779412 0.004092436993995455 0 -0.016109748501905542 0.0034675019183664363 0 -0.01620139929828689 0.0041552689125893558 0 -0.015722318251779412 0.004092436993995455 0 -0.015996550819447213 0.0047685175642683949 0 -0.015128244466407323 0.0053175145050907069 0 -0.015996550819447213 0.0047685175642683949 0 -0.015187864881436858 0.004598818975258709 0 -0.015722318251779412 0.004092436993995455 0 -0.015996550819447213 0.0047685175642683949 0 -0.015187864881436858 0.004598818975258709 0 -0.012988691238887646 -1.3438301136736567e-05 0 -0.012769091779229687 0.00020123654126218227 0 -0.0131068458895237 0.00023394498301142601 0 -0.013167188199649998 6.1552566034298774e-05 0 -0.012988691238887646 -1.3438301136736567e-05 0 -0.0131068458895237 0.00023394498301142601 0 -0.013202444636634659 -0.0001648184330808748 0 -0.013167188199649998 6.1552566034298774e-05 0 -0.012988691238887646 -1.3438301136736567e-05 0 -0.013202444636634659 -0.0001648184330808748 0 -0.012988691238887646 -1.3438301136736567e-05 0 -0.013060945348969897 -0.00025539323810263724 0 -0.013253054841868684 -0.00043943729126967265 0 -0.013202444636634659 -0.0001648184330808748 0 -0.013060945348969897 -0.00025539323810263724 0 -0.012938826341087553 -0.00032618137710369738 0 -0.013060945348969897 -0.00025539323810263724 0 -0.012914166800885895 -0.00020179492645895484 0 -0.012988691238887646 -1.3438301136736567e-05 0 -0.013060945348969897 -0.00025539323810263724 0 -0.012914166800885895 -0.00020179492645895484 0 -0.012988691238887646 -1.3438301136736567e-05 0 -0.012914166800885895 -0.00020179492645895484 0 -0.012763881397171351 -0.00011272414596375733 0 -0.012914166800885895 -0.00020179492645895484 0 -0.012817684226261438 -0.00029710534908422142 0 -0.012763881397171351 -0.00011272414596375733 0 -0.012938826341087553 -0.00032618137710369738 0 -0.012914166800885895 -0.00020179492645895484 0 -0.012817684226261438 -0.00029710534908422142 0 -0.012817684226261438 -0.00029710534908422142 0 -0.012692111309581477 -0.00027884818639306591 0 -0.012763881397171351 -0.00011272414596375733 0 -0.012692111309581477 -0.00027884818639306591 0 -0.012763881397171351 -0.00011272414596375733 0 -0.012541835384000593 -0.00016881724362889834 0 -0.012763881397171351 -0.00011272414596375733 0 -0.012769091779229687 0.00020123654126218227 0 -0.012564347339203091 1.6466813261892997e-05 0 -0.012988691238887646 -1.3438301136736567e-05 0 -0.012763881397171351 -0.00011272414596375733 0 -0.012769091779229687 0.00020123654126218227 0 -0.01257288957160594 0.00036833797052769455 0 -0.01227904947972267 0.00016996324635458934 0 -0.012358778190887251 0.00049109779681793706 0 -0.012769091779229687 0.00020123654126218227 0 -0.012564347339203091 1.6466813261892997e-05 0 -0.01227904947972267 0.00016996324635458934 0 -0.012659968156094704 0.00025185195080533186 0 -0.01247199485420197 0.00020195151854009475 0 -0.012564347339203091 1.6466813261892997e-05 0 -0.012404895104084284 5.2369984059061788e-06 0 -0.01227904947972267 0.00016996324635458934 0 -0.018407307248091243 0.0011375985778443935 0 -0.016635387500697495 0.0018003529621815088 0 -0.012763881397171351 -0.00011272414596375733 0 -0.012564347339203091 1.6466813261892997e-05 0 -0.012541835384000593 -0.00016881724362889834 0 -0.01249361180965106 -0.00037562474224760937 0 -0.012541835384000593 -0.00016881724362889834 0 -0.012257121531604855 -3.5135450249300952e-05 0 -0.012603773050540303 -0.00039698858079957242 0 -0.012692111309581477 -0.00027884818639306591 0 -0.012541835384000593 -0.00016881724362889834 0 -0.012541835384000593 -0.00016881724362889834 0 -0.012404895104084284 5.2369984059061788e-06 0 -0.012257121531604855 -3.5135450249300952e-05 0 -0.012564347339203091 1.6466813261892997e-05 0 -0.012541835384000593 -0.00016881724362889834 0 -0.012404895104084284 5.2369984059061788e-06 0 -0.0178851355212367 0.0018831644155984503 0 -0.017337855900122125 0.0020076656765371198 0 -0.017592515988896849 0.002311504638909374 0 -0.017337855900122125 0.0020076656765371198 0 -0.017177437889832222 0.0023657193353255239 0 -0.017592515988896849 0.002311504638909374 0 -0.015822038244842223 0.0022160634266077525 0 -0.016635387500697495 0.0018003529621815088 0 -0.012036274685207618 0.00032148422159487301 0 -0.012257121531604855 -3.5135450249300952e-05 0 -0.01227904947972267 0.00016996324635458934 0 -0.017177437889832222 0.0023657193353255239 0 -0.017299771734773671 0.0027344997625819972 0 -0.017592515988896849 0.002311504638909374 0 -0.012404895104084284 5.2369984059061788e-06 0 -0.012257121531604855 -3.5135450249300952e-05 0 -0.01227904947972267 0.00016996324635458934 0 -0.012036274685207618 0.00032148422159487301 0 -0.01227904947972267 0.00016996324635458934 0 -0.012208534424009251 0.00039129610645409035 0 -0.01227904947972267 0.00016996324635458934 0 -0.012208534424009251 0.00039129610645409035 0 -0.012358778190887251 0.00049109779681793706 0 -0.012036274685207618 0.00032148422159487301 0 -0.012208534424009251 0.00039129610645409035 0 -0.012156556134476174 0.00056851799782215492 0 -0.012208534424009251 0.00039129610645409035 0 -0.012156556134476174 0.00056851799782215492 0 -0.012358778190887251 0.00049109779681793706 0 -0.012156556134476174 0.00056851799782215492 0 -0.012339473667095374 0.00069236102008411293 0 -0.012358778190887251 0.00049109779681793706 0 -0.012156556134476174 0.00056851799782215492 0 -0.012197624412727022 0.00085790692033683048 0 -0.012339473667095374 0.00069236102008411293 0 -0.012197624412727022 0.00085790692033683048 0 -0.012339473667095374 0.00069236102008411293 0 -0.012413654976841968 0.00089660827690233376 0 -0.012339473667095374 0.00069236102008411293 0 -0.01249925740421398 0.00066846505568693697 0 -0.012358778190887251 0.00049109779681793706 0 -0.012339473667095374 0.00069236102008411293 0 -0.01249925740421398 0.00066846505568693697 0 -0.012413654976841968 0.00089660827690233376 0 -0.01249925740421398 0.00066846505568693697 0 -0.012485552806260385 0.00086625365245542789 0 -0.012413654976841968 0.00089660827690233376 0 -0.01257288957160594 0.00036833797052769455 0 -0.01249925740421398 0.00066846505568693697 0 -0.012358778190887251 0.00049109779681793706 0 -0.01257288957160594 0.00036833797052769455 0 -0.01249925740421398 0.00066846505568693697 0 -0.012655851600680001 0.00055057086255134503 0 -0.01249925740421398 0.00066846505568693697 0 -0.012613920190680058 0.00077343103850420307 0 -0.012485552806260385 0.00086625365245542789 0 -0.01249925740421398 0.00066846505568693697 0 -0.012655851600680001 0.00055057086255134503 0 -0.012613920190680058 0.00077343103850420307 0 -0.012910145885027941 0.00062750544920373973 0 -0.012655851600680001 0.00055057086255134503 0 -0.012613920190680058 0.00077343103850420307 0 -0.012910145885027941 0.00062750544920373973 0 -0.012655851600680001 0.00055057086255134503 0 -0.012809870093519998 0.00039368202853547115 0 -0.012659968156094704 0.00025185195080533186 0 -0.012950320964548843 0.00032050031661000171 0 -0.01257288957160594 0.00036833797052769455 0 -0.012655851600680001 0.00055057086255134503 0 -0.012809870093519998 0.00039368202853547115 0 -0.012911432299256651 0.0010359149737647418 0 -0.012613920190680058 0.00077343103850420307 0 -0.012483694189689238 0.0011098199266042846 0 -0.012911432299256651 0.0010359149737647418 0 -0.012621982822364793 0.0012889295722138682 0 -0.012483694189689238 0.0011098199266042846 0 -0.012523277031084964 0.00096728298159990864 0 -0.012498307407261247 0.0010871479281723785 0 -0.012613920190680058 0.00077343103850420307 0 -0.012485552806260385 0.00086625365245542789 0 -0.012564984403872208 0.0010701784375002721 0 -0.012564984403872208 0.0010701784375002721 0 -0.012431945137814916 0.0010162149089437344 0 -0.012396375766743083 0.0011930752503042719 0 -0.012485552806260385 0.00086625365245542789 0 -0.012564984403872208 0.0010701784375002721 0 -0.012431945137814916 0.0010162149089437344 0 -0.012431945137814916 0.0010162149089437344 0 -0.012316416097714663 0.00110457811515227 0 -0.012396375766743083 0.0011930752503042719 0 -0.012431945137814916 0.0010162149089437344 0 -0.012413654976841968 0.00089660827690233376 0 -0.012316416097714663 0.00110457811515227 0 -0.012485552806260385 0.00086625365245542789 0 -0.012431945137814916 0.0010162149089437344 0 -0.012413654976841968 0.00089660827690233376 0 -0.012413654976841968 0.00089660827690233376 0 -0.012237406166411606 0.0013105088722574901 0 -0.012353805310786878 0.0018265859967493609 0 -0.012197624412727022 0.00085790692033683048 0 -0.012413654976841968 0.00089660827690233376 0 -0.012237406166411606 0.0013105088722574901 0 -0.012197624412727022 0.00085790692033683048 0 -0.012237406166411606 0.0013105088722574901 0 -0.011897953398921962 0.0013127702711247977 0 -0.012237406166411606 0.0013105088722574901 0 -0.01223344377525374 0.0016172537155306874 0 -0.011897953398921962 0.0013127702711247977 0 -0.012388084857807003 0.0011898728357431052 0 -0.01236137936534602 0.001346278152568171 0 -0.012237406166411606 0.0013105088722574901 0 -0.01223344377525374 0.0016172537155306874 0 -0.012353805310786878 0.0018265859967493609 0 -0.01223344377525374 0.0016172537155306874 0 -0.012353805310786878 0.0018265859967493609 0 -0.012295942633059621 0.0018777354778744485 0 -0.012353805310786878 0.0018265859967493609 0 -0.012301493609469688 0.0016040147575346433 0 -0.012295942633059621 0.0018777354778744485 0 -0.012316416097714663 0.00110457811515227 0 -0.012335167599024316 0.0013051047258929188 0 -0.012396375766743083 0.0011930752503042719 0 -0.01236137936534602 0.001346278152568171 0 -0.012379350558852122 0.0013493392367406383 0 -0.012335167599024316 0.0013051047258929188 0 -0.012396375766743083 0.0011930752503042719 0 -0.012361691105705262 0.0012961930537545312 0 -0.012564984403872208 0.0010701784375002721 0 -0.012396375766743083 0.0011930752503042719 0 -0.012464315767665032 0.0012521735981562655 0 -0.012498307407261247 0.0010871479281723785 0 -0.012455953236919892 0.0012389931233859691 0 -0.012396375766743083 0.0011930752503042719 0 -0.012464315767665032 0.0012521735981562655 0 -0.012361691105705262 0.0012961930537545312 0 -0.012621982822364793 0.0012889295722138682 0 -0.012412313925118462 0.0013670532750456343 0 -0.012447339635118813 0.0014126241459248197 0 -0.012621982822364793 0.0012889295722138682 0 -0.012483694189689238 0.0011098199266042846 0 -0.012412313925118462 0.0013670532750456343 0 -0.015271817545662163 0.0028162624425128562 0 -0.015195245954473918 0.0022380775243352733 0 -0.015728030297275198 0.0021750569988181171 0 -0.016109748501905542 0.0034675019183664363 0 -0.015081756801043679 0.0034311460434127364 0 -0.015655679877424791 0.0024614651938662585 0 -0.015309885375628241 0.0029698809554843629 0 -0.015701366184942899 0.0023436206315220333 0 -0.016273948700460922 0.0028506693800850282 0 -0.016607672606233061 0.0024151927251053629 0 -0.015655679877424791 0.0024614651938662585 0 -0.016273948700460922 0.0028506693800850282 0 -0.016109748501905542 0.0034675019183664363 0 -0.015655679877424791 0.0024614651938662585 0 -0.015722318251779412 0.004092436993995455 0 -0.016109748501905542 0.0034675019183664363 0 -0.015081756801043679 0.0034311460434127364 0 -0.014841214057272499 0.0034419610802045456 0 -0.015271817545662163 0.0028162624425128562 0 -0.014686870897560645 0.0027462026209120497 0 -0.013251078525224447 0.0017879523737151365 0 -0.0135346663060231 0.001833633574821441 0 -0.01223344377525374 0.0016172537155306874 0 -0.011897953398921962 0.0013127702711247977 0 -0.012295942633059621 0.0018777354778744485 0 -0.0135346663060231 0.001833633574821441 0 -0.013326411878040581 0.0017252157215221114 0 -0.012384618672218415 0.0022959952241399118 0 -0.012295942633059621 0.0018777354778744485 0 -0.012789816715187675 0.0020039501269061284 0 -0.015271817545662163 0.0028162624425128562 0 -0.014686870897560645 0.0027462026209120497 0 -0.015195245954473918 0.0022380775243352733 0 -0.0135346663060231 0.001833633574821441 0 -0.01397379152827421 0.0019067615568348283 0 -0.012789816715187675 0.0020039501269061284 0 -0.012573375088510695 0.0017639399071837992 0 -0.012868177723482931 0.0017728179781746907 0 -0.012295942633059621 0.0018777354778744485 0 -0.012789816715187675 0.0020039501269061284 0 -0.012573375088510695 0.0017639399071837992 0 -0.012301493609469688 0.0016040147575346433 0 -0.012295942633059621 0.0018777354778744485 0 -0.012573375088510695 0.0017639399071837992 0 -0.012301493609469688 0.0016040147575346433 0 -0.012573375088510695 0.0017639399071837992 0 -0.012679001585365651 0.001520288127521575 0 -0.012573375088510695 0.0017639399071837992 0 -0.012868177723482931 0.0017728179781746907 0 -0.012679001585365651 0.001520288127521575 0 -0.012868177723482931 0.0017728179781746907 0 -0.012986121269797684 0.0015425729326255658 0 -0.012679001585365651 0.001520288127521575 0 -0.012868177723482931 0.0017728179781746907 0 -0.013301907228144724 0.0019155779542058052 0 -0.012986121269797684 0.0015425729326255658 0 -0.01397379152827421 0.0019067615568348283 0 -0.014610875348941253 0.001606192134174396 0 -0.015195245954473918 0.0022380775243352733 0 -0.015732730710247042 0.0016954417097261767 0 -0.015728030297275198 0.0021750569988181171 0 -0.012789816715187675 0.0020039501269061284 0 -0.012868177723482931 0.0017728179781746907 0 -0.013301907228144724 0.0019155779542058052 0 -0.01597958417695957 0.001914990036228813 0 -0.015701366184942899 0.0023436206315220333 0 -0.016592303394345684 0.0018681048454704499 0 -0.016227143537700401 0.0014790725039420221 0 -0.015655679877424791 0.0024614651938662585 0 -0.014610875348941253 0.001606192134174396 0 -0.015377115002753213 0.0010821834775277287 0 -0.016227143537700401 0.0014790725039420221 0 -0.015732730710247042 0.0016954417097261767 0 -0.016313354683696438 0.0011088377251663403 0 -0.016227143537700401 0.0014790725039420221 0 -0.015732730710247042 0.0016954417097261767 0 -0.015728030297275198 0.0021750569988181171 0 -0.013301907228144724 0.0019155779542058052 0 -0.013809084695243765 0.0014269539911386164 0 -0.013291879885776802 0.0013132391525839636 0 -0.013301907228144724 0.0019155779542058052 0 -0.013809084695243765 0.0014269539911386164 0 -0.014373779944870458 0.0016589543018016898 0 -0.013809084695243765 0.0014269539911386164 0 -0.013894631639728721 0.00092015558183455664 0 -0.013291879885776802 0.0013132391525839636 0 -0.013809084695243765 0.0014269539911386164 0 -0.013894631639728721 0.00092015558183455664 0 -0.014439291632164271 0.000969926568094966 0 -0.013894631639728721 0.00092015558183455664 0 -0.013130018910444146 0.00065487324984880217 0 -0.014851187214259426 1.2548693704884398e-05 0 -0.013894631639728721 0.00092015558183455664 0 -0.013291879885776802 0.0013132391525839636 0 -0.013130018910444146 0.00065487324984880217 0 -0.012864030627517092 0.0011561619314329301 0 -0.012823494021173087 0.00087135329779932833 0 -0.013130018910444146 0.00065487324984880217 0 -0.013291879885776802 0.0013132391525839636 0 -0.012864030627517092 0.0011561619314329301 0 -0.013130018910444146 0.00065487324984880217 0 -0.013301907228144724 0.0019155779542058052 0 -0.013291879885776802 0.0013132391525839636 0 -0.012986121269797684 0.0015425729326255658 0 -0.013291879885776802 0.0013132391525839636 0 -0.012986121269797684 0.0015425729326255658 0 -0.012864030627517092 0.0011561619314329301 0 -0.012679001585365651 0.001520288127521575 0 -0.012476471974571333 0.0010341766038808439 0 -0.012864030627517092 0.0011561619314329301 0 -0.012986121269797684 0.0015425729326255658 0 -0.012679001585365651 0.001520288127521575 0 -0.012864030627517092 0.0011561619314329301 0 -0.012301493609469688 0.0016040147575346433 0 -0.012679001585365651 0.001520288127521575 0 -0.012476471974571333 0.0010341766038808439 0 -0.012476471974571333 0.0010341766038808439 0 -0.012864030627517092 0.0011561619314329301 0 -0.012823494021173087 0.00087135329779932833 0 -0.012823494021173087 0.00087135329779932833 0 -0.012638397146872687 0.00086943133720207468 0 -0.012871985764266779 0.00079961544355169217 0 -0.012476471974571333 0.0010341766038808439 0 -0.012823494021173087 0.00087135329779932833 0 -0.012638397146872687 0.00086943133720207468 0 -0.012458375357222858 0.0011593130691006338 0 -0.012514662125796132 0.0010159216689172425 0 -0.012638397146872687 0.00086943133720207468 0 -0.012871985764266779 0.00079961544355169217 0 -0.012811614206987778 0.00072365559509472396 0 -0.012871985764266779 0.00079961544355169217 0 -0.012922299309083118 0.00076576484750078781 0 -0.012811614206987778 0.00072365559509472396 0 -0.012871985764266779 0.00079961544355169217 0 -0.012922299309083118 0.00076576484750078781 0 -0.012959022207817248 0.00078401347876114137 0 -0.012871985764266779 0.00079961544355169217 0 -0.012959022207817248 0.00078401347876114137 0 -0.012979639313578517 0.0007712456435951875 0 -0.012959022207817248 0.00078401347876114137 0 -0.012974003187602615 0.00079691865693114368 0 -0.012983940904719892 0.00076894384335941509 0 -0.012922299309083118 0.00076576484750078781 0 -0.012959022207817248 0.00078401347876114137 0 -0.012974003187602615 0.00079691865693114368 0 -0.012922299309083118 0.00076576484750078781 0 -0.012974003187602615 0.00079691865693114368 0 -0.012891983746284072 0.00070209925432268268 0 -0.0061047732485019204 0.0036870493373300246 0 -0.0074621528889799371 0.0031759694858887288 0 -0.01283827909669783 0.0010652415200258999 0 -0.012821331127485538 0.00073248775446646888 0 -0.012732752536266838 0.00093722598829405345 0 -0.01283827909669783 0.0010652415200258999 0 -0.012774840638348106 0.0011085677928103835 0 -0.012732752536266838 0.00093722598829405345 0 -0.012821331127485538 0.00073248775446646888 0 -0.013130018910444146 0.00065487324984880217 0 -0.012647229522912421 0.00063412457330108349 0 -0.012974003187602615 0.00079691865693114368 0 -0.012983940904719892 0.00076894384335941509 0 -0.012821331127485538 0.00073248775446646888 0 -0.013279846101001041 0.0009960995360904063 0 -0.012966225512366409 0.0011087876113833597 0 -0.012983940904719892 0.00076894384335941509 0 -0.012821331127485538 0.00073248775446646888 0 -0.013130018910444146 0.00065487324984880217 0 -0.012823494021173087 0.00087135329779932833 0 -0.013130018910444146 0.00065487324984880217 0 -0.012979639313578517 0.0007712456435951875 0 -0.012823494021173087 0.00087135329779932833 0 -0.012871985764266779 0.00079961544355169217 0 -0.012979639313578517 0.0007712456435951875 0 -0.012959022207817248 0.00078401347876114137 0 -0.012983940904719892 0.00076894384335941509 0 -0.012979639313578517 0.0007712456435951875 0 -0.012983940904719892 0.00076894384335941509 0 -0.013130018910444146 0.00065487324984880217 0 -0.012979639313578517 0.0007712456435951875 0 -0.012371023947238579 0.0013692916764438728 0 -0.012325078799281821 0.001337558107849777 0 -0.012192945652392378 0.0012671945425826046 0 -0.012371023947238579 0.0013692916764438728 0 -0.012229784753686329 0.0012919453609797895 0 -0.012192945652392378 0.0012671945425826046 0 -0.012412313925118462 0.0013670532750456343 0 -0.012447339635118813 0.0014126241459248197 0 -0.012325078799281821 0.001337558107849777 0 -0.012371023947238579 0.0013692916764438728 0 -0.012447339635118813 0.0014126241459248197 0 -0.012325078799281821 0.001337558107849777 0 -0.012455953236919892 0.0012389931233859691 0 -0.012432508956859534 0.0012906492989438315 0 -0.012464315767665032 0.0012521735981562655 0 -0.012325078799281821 0.001337558107849777 0 -0.012361691105705262 0.0012961930537545312 0 -0.012325078799281821 0.001337558107849777 0 -0.012322117038266809 0.0012974953267281954 0 -0.012192945652392378 0.0012671945425826046 0 -0.012325078799281821 0.001337558107849777 0 -0.012322117038266809 0.0012974953267281954 0 -0.012361691105705262 0.0012961930537545312 0 -0.012335167599024316 0.0013051047258929188 0 -0.012322117038266809 0.0012974953267281954 0 -0.012361691105705262 0.0012961930537545312 0 -0.012379350558852122 0.0013493392367406383 0 -0.012458375357222858 0.0011593130691006338 0 -0.012335167599024316 0.0013051047258929188 0 -0.012465550831163586 0.0012751556081647885 0 -0.012322117038266809 0.0012974953267281954 0 -0.012465550831163586 0.0012751556081647885 0 -0.012638397146872687 0.00086943133720207468 0 -0.012225917957189069 0.0011273548053205183 0 -0.012638397146872687 0.00086943133720207468 0 -0.012225917957189069 0.0011273548053205183 0 -0.012453089657041859 0.00080755806030043782 0 -0.012465550831163586 0.0012751556081647885 0 -0.012322117038266809 0.0012974953267281954 0 -0.012225917957189069 0.0011273548053205183 0 -0.012225917957189069 0.0011273548053205183 0 -0.012022488634535672 0.00093652241989350567 0 -0.012453089657041859 0.00080755806030043782 0 -0.012322117038266809 0.0012974953267281954 0 -0.012225917957189069 0.0011273548053205183 0 -0.012192945652392378 0.0012671945425826046 0 -0.012225917957189069 0.0011273548053205183 0 -0.011951177503485002 0.0011377205701851908 0 -0.012192945652392378 0.0012671945425826046 0 -0.012225917957189069 0.0011273548053205183 0 -0.011951177503485002 0.0011377205701851908 0 -0.012022488634535672 0.00093652241989350567 0 -0.012229784753686329 0.0012919453609797895 0 -0.011951177503485002 0.0011377205701851908 0 -0.012192945652392378 0.0012671945425826046 0 -0.010939533182862346 0.00042569085392870769 0 -0.011582067316902924 0.00086832221775362854 0 -0.011499391145322634 0.00022073753099996853 0 -0.01052998940948684 0.0010285458590220422 0 -0.010939533182862346 0.00042569085392870769 0 -0.011582067316902924 0.00086832221775362854 0 -0.01052998940948684 0.0010285458590220422 0 -0.010924888150941453 0.0020121069198696163 0 -0.011582067316902924 0.00086832221775362854 0 -0.011420051022686419 0.0015370555905784521 0 -0.011564749693942059 0.0012155770715939775 0 -0.011951177503485002 0.0011377205701851908 0 -0.011582067316902924 0.00086832221775362854 0 -0.012022488634535672 0.00093652241989350567 0 -0.011582067316902924 0.00086832221775362854 0 -0.012014964799338593 0.00054277452125178966 0 -0.011499391145322634 0.00022073753099996853 0 -0.011582067316902924 0.00086832221775362854 0 -0.012014964799338593 0.00054277452125178966 0 -0.012022488634535672 0.00093652241989350567 0 -0.012014964799338593 0.00054277452125178966 0 -0.012022488634535672 0.00093652241989350567 0 -0.012298093378288737 0.0006479685053764968 0 -0.012014964799338593 0.00054277452125178966 0 -0.012298093378288737 0.0006479685053764968 0 -0.012377761468236511 0.00039505482096434353 0 -0.012022488634535672 0.00093652241989350567 0 -0.012453089657041859 0.00080755806030043782 0 -0.012298093378288737 0.0006479685053764968 0 -0.012453089657041859 0.00080755806030043782 0 -0.012538176982380918 0.00054990924498374315 0 -0.012298093378288737 0.0006479685053764968 0 -0.012538176982380918 0.00054990924498374315 0 -0.012377761468236511 0.00039505482096434353 0 -0.012633832134159417 0.00034630832044580084 0 -0.012538176982380918 0.00054990924498374315 0 -0.012298093378288737 0.0006479685053764968 0 -0.012377761468236511 0.00039505482096434353 0 -0.0089704281331283407 0.00073308200311177248 0 -0.0076282813346522519 0.0024182081495365756 0 -0.012377761468236511 0.00039505482096434353 0 -0.012238909048768428 -4.3975604639008341e-05 0 -0.012633832134159417 0.00034630832044580084 0 -0.0074500905213133123 -0.001354897847510039 0 -0.0073253152735999107 -0.0014425521820956902 0 -0.0074266202450582845 -0.001323477419429333 0 -0.0074500905213133123 -0.001354897847510039 0 -0.007605593791985059 -0.0013219317155085755 0 -0.0073801227759201496 -0.0013010774769871502 0 -0.0074500905213133123 -0.001354897847510039 0 -0.007605593791985059 -0.0013219317155085755 0 -0.0073124949792288925 -0.0014012953321968615 0 -0.007605593791985059 -0.0013219317155085755 0 -0.0073124949792288925 -0.0014012953321968615 0 -0.0069933883135449466 -0.0015931517804229757 0 -0.0074500905213133123 -0.001354897847510039 0 -0.0073124949792288925 -0.0014012953321968615 0 -0.0073253152735999107 -0.0014425521820956902 0 -0.0073755830282486437 -0.0015175808358696944 0 -0.0073253152735999107 -0.0014425521820956902 0 -0.0078348985639056477 -0.0016974213739730198 0 -0.0073124949792288925 -0.0014012953321968615 0 -0.0073755830282486437 -0.0015175808358696944 0 -0.0073253152735999107 -0.0014425521820956902 0 -0.0073124949792288925 -0.0014012953321968615 0 -0.0073755830282486437 -0.0015175808358696944 0 -0.0069933883135449466 -0.0015931517804229757 0 -0.012014964799338593 0.00054277452125178966 0 -0.012238909048768428 -4.3975604639008341e-05 0 -0.011499391145322634 0.00022073753099996853 0 -0.012014964799338593 0.00054277452125178966 0 -0.012377761468236511 0.00039505482096434353 0 -0.012238909048768428 -4.3975604639008341e-05 0 -0.012238909048768428 -4.3975604639008341e-05 0 -0.011499391145322634 0.00022073753099996853 0 -0.011308375945371183 -0.00072468911800279649 0 -0.0089704281331283407 0.00073308200311177248 0 -0.0091352568163396292 -0.00021039806311212876 0 -0.0073755830282486437 -0.0015175808358696944 0 -0.0078348985639056477 -0.0016974213739730198 0 -0.0075870940815351545 -0.001414254172467949 0 -0.0078348985639056477 -0.0016974213739730198 0 -0.0084364253131944122 -0.0014536234270053666 0 -0.0087994501385773027 -0.0014894942593995219 0 -0.0091352568163396292 -0.00021039806311212876 0 -0.0089715883134284385 -0.00055919461778376203 0 -0.0096036930000754275 -0.00067193477075961955 0 -0.011308375945371183 -0.00072468911800279649 0 -0.010702639492785283 -2.7713103892767176e-05 0 -0.0096036930000754275 -0.00067193477075961955 0 -0.011308375945371183 -0.00072468911800279649 0 -0.0087994501385773027 -0.0014894942593995219 0 -0.011499391145322634 0.00022073753099996853 0 -0.011308375945371183 -0.00072468911800279649 0 -0.010702639492785283 -2.7713103892767176e-05 0 -0.010369671494139251 0.0002157544796879535 0 -0.010939533182862346 0.00042569085392870769 0 -0.010702639492785283 -2.7713103892767176e-05 0 -0.010939533182862346 0.00042569085392870769 0 -0.011499391145322634 0.00022073753099996853 0 -0.010702639492785283 -2.7713103892767176e-05 0 0.010266911767183404 0.018758746137227892 0 0.010342706910925275 0.015275751740877567 0 0.0077788862641057334 0.013055688431331491 0 0.010266911767183404 0.018758746137227892 0 0.010342706910925275 0.015275751740877567 0 0.012263653666377822 0.014625879980496295 0 0.010051259321080494 0.019354409598412604 0 0.011548238082673837 0.017704858290633015 0 0.012199934690062173 0.014950468190395751 0 0.00024367860192036901 0.0036906108015234917 0 -5.9587531070214582e-05 0.0035789928959647109 0 -0.00012805838363104662 0.0028285335077791397 0 -0.00060012004130698875 0.0050054449688430244 0 0.0028833635008639977 0.0084830873309653873 0 -0.00060012004130698875 0.0050054449688430244 0 0.0060006037328226222 0.0068019122910057224 0 -0.00060012004130698875 0.0050054449688430244 0 -0.0013671854672565958 0.0047178992300490217 0 -0.01292945921452102 0.00061093831513625682 0 -0.012846942148502892 0.00063019771475885192 0 -0.012858576891914173 0.0005302572628156628 0 0.010051259321080494 0.019354409598412604 0 0.011548238082673837 0.017704858290633015 0 0.012594208326207617 0.017304415417252444 0 0.011548238082673837 0.017704858290633015 0 0.012603515249740509 0.017316485132331763 0 0.012199934690062173 0.014950468190395751 0 -0.00112209001514189 0.0047506079426540074 0 -0.0013671854672565958 0.0047178992300490217 0 -0.00038870589662357881 0.0034285784463835302 0 -5.9587531070214582e-05 0.0035789928959647109 0 -0.00012805838363104662 0.0028285335077791397 0 -0.00038870589662357881 0.0034285784463835302 0 -0.00048395034935772008 0.003096676721696123 0 -0.0006510045635108807 0.0033203375182916054 0 -0.00038870589662357881 0.0034285784463835302 0 -0.00032758339011825833 0.0038104223168020659 0 -0.00080883249626413059 0.0037804573421737851 0 -0.00038870589662357881 0.0034285784463835302 0 -5.9587531070214582e-05 0.0035789928959647109 0 -0.00032758339011825833 0.0038104223168020659 0 0.00024367860192036901 0.0036906108015234917 0 -5.9587531070214582e-05 0.0035789928959647109 0 -0.00032758339011825833 0.0038104223168020659 0 -0.01283827909669783 0.0010652415200258999 0 -0.012836541813904694 0.0012324695967063221 0 -0.012774840638348106 0.0011085677928103835 0 -0.00060012004130698875 0.0050054449688430244 0 -0.0048995981281322798 0.0038368074996646155 0 0.00024367860192036901 0.0036906108015234917 0 -0.00032758339011825833 0.0038104223168020659 0 -0.00047176526062406646 0.0043599464885308139 0 -0.00032758339011825833 0.0038104223168020659 0 -0.00047176526062406646 0.0043599464885308139 0 -0.00080883249626413059 0.0037804573421737851 0 -0.012974003187602615 0.00079691865693114368 0 -0.012903945441895631 0.00064972933267506787 0 -0.012891983746284072 0.00070209925432268268 0 -0.0061047732485019204 0.0036870493373300246 0 -0.00060012004130698875 0.0050054449688430244 0 -0.00060012004130698875 0.0050054449688430244 0 -0.0015941002906971664 0.0038163914831434551 0 -0.01292945921452102 0.00061093831513625682 0 -0.012891983746284072 0.00070209925432268268 0 -0.012846942148502892 0.00063019771475885192 0 -0.012922299309083118 0.00076576484750078781 0 -0.012891983746284072 0.00070209925432268268 0 -0.012811614206987778 0.00072365559509472396 0 -0.012811614206987778 0.00072365559509472396 0 -0.012654325750245025 0.00067743714504050329 0 -0.012774324506854322 0.00061257889719407101 0 -0.012891983746284072 0.00070209925432268268 0 -0.012811614206987778 0.00072365559509472396 0 -0.012846942148502892 0.00063019771475885192 0 -0.012811614206987778 0.00072365559509472396 0 -0.012846942148502892 0.00063019771475885192 0 -0.012774324506854322 0.00061257889719407101 0 -0.012638397146872687 0.00086943133720207468 0 -0.012453089657041859 0.00080755806030043782 0 -0.012654325750245025 0.00067743714504050329 0 -0.012638397146872687 0.00086943133720207468 0 -0.012811614206987778 0.00072365559509472396 0 -0.012654325750245025 0.00067743714504050329 0 -0.012453089657041859 0.00080755806030043782 0 -0.012538176982380918 0.00054990924498374315 0 -0.012654325750245025 0.00067743714504050329 0 -0.012538176982380918 0.00054990924498374315 0 -0.012654325750245025 0.00067743714504050329 0 -0.012700890383116578 0.00054082616908231727 0 -0.012654325750245025 0.00067743714504050329 0 -0.012700890383116578 0.00054082616908231727 0 -0.012774324506854322 0.00061257889719407101 0 -0.012538176982380918 0.00054990924498374315 0 -0.012700890383116578 0.00054082616908231727 0 -0.012633832134159417 0.00034630832044580084 0 -0.012700890383116578 0.00054082616908231727 0 -0.012858576891914173 0.0005302572628156628 0 -0.012633832134159417 0.00034630832044580084 0 -0.0013671854672565958 0.0047178992300490217 0 -0.0076282813346522519 0.0024182081495365756 0 -0.012700890383116578 0.00054082616908231727 0 -0.012774324506854322 0.00061257889719407101 0 -0.012858576891914173 0.0005302572628156628 0 -0.012846942148502892 0.00063019771475885192 0 -0.012774324506854322 0.00061257889719407101 0 -0.012858576891914173 0.0005302572628156628 0 0.017935628406676171 0.01267754174721257 0 0.014378477966364722 0.010476190846173095 0 0.012199934690062173 0.014950468190395751 0 0.0044260960623706226 0.0085293119127679458 0 0.0028833635008639977 0.0084830873309653873 0 -0.0013671854672565958 0.0047178992300490217 0 0.0036735613772231335 0.0039291694623698045 0 0.012603515249740509 0.017316485132331763 0 0.017935628406676171 0.01267754174721257 0 0.012199934690062173 0.014950468190395751 0 -0.0074500905213133123 -0.001354897847510039 0 -0.0073801227759201496 -0.0013010774769871502 0 -0.0074266202450582845 -0.001323477419429333 0 -0.007228315014861931 -0.001340903200786918 0 -0.0073801227759201496 -0.0013010774769871502 0 -0.0074266202450582845 -0.001323477419429333 0 0.017935628406676171 0.01267754174721257 0 0.014378477966364722 0.010476190846173095 0 0.018313228327092777 0.0074646637542110147 0 0.023396211780645271 0.0080320410614812977 0 0.017935628406676171 0.01267754174721257 0 0.018313228327092777 0.0074646637542110147 0 0.0075082646283319739 0.002266307786564684 0 0.0036735613772231335 0.0039291694623698045 0 0.014378477966364722 0.010476190846173095 0 0.012398491981643306 0.0071517046015135118 0 0.018313228327092777 0.0074646637542110147 0 0.010831091439901307 0.011579638682165379 0 0.0071281250158003349 0.011666320156282529 0 0.012398491981643306 0.0071517046015135118 0 0.015220787831283554 0.0092889214966783498 0 0.019043228586245128 0.0060877881460574372 0 0.016401540233648218 0.0042542466351832417 0 0.014378477966364722 0.010476190846173095 0 0.010831091439901307 0.011579638682165379 0 0.012398491981643306 0.0071517046015135118 0 0.0067605560945850499 0.0062985311618942866 0 0.013958982475610469 0.0045902945828593944 0 0.010831091439901307 0.011579638682165379 0 0.010522177380118135 0.013507377226682179 0 0.012263653666377822 0.014625879980496295 0 0.014378477966364722 0.010476190846173095 0 0.010831091439901307 0.011579638682165379 0 0.012263653666377822 0.014625879980496295 0 0.010831091439901307 0.011579638682165379 0 0.010522177380118135 0.013507377226682179 0 0.007757135003894724 0.013074651846346768 0 0.010831091439901307 0.011579638682165379 0 0.007757135003894724 0.013074651846346768 0 0.0071281250158003349 0.011666320156282529 0 0.0072759691395109455 0.0082408331437287454 0 0.0060006037328226222 0.0068019122910057224 0 0.010522177380118135 0.013507377226682179 0 0.010342706910925275 0.015275751740877567 0 0.007757135003894724 0.013074651846346768 0 0.010522177380118135 0.013507377226682179 0 0.010342706910925275 0.015275751740877567 0 0.012263653666377822 0.014625879980496295 0 -0.00048395034935772008 0.003096676721696123 0 -0.00029446614687535228 0.002684581350994079 0 -0.000957164044966306 0.0032226256368247329 0 -0.00038870589662357881 0.0034285784463835302 0 -0.00048395034935772008 0.003096676721696123 0 -0.00012805838363104662 0.0028285335077791397 0 0.0060596011982541557 0.0053967465998298464 0 0.0070542315321516173 0.0076769630296302785 0 0.0078834079168463387 0.0069767181057610273 0 0.0060006037328226222 0.0068019122910057224 0 0.0067605560945850499 0.0062985311618942866 0 0.0060006037328226222 0.0068019122910057224 0 0.0059236357640736394 0.0061711459857686874 0 0.0067605560945850499 0.0062985311618942866 0 0.0059236357640736394 0.0061711459857686874 0 -0.00048395034935772008 0.003096676721696123 0 -0.00012805838363104662 0.0028285335077791397 0 -0.00029446614687535228 0.002684581350994079 0 0.0057930395968030018 0.0034469583056884038 0 0.0058008997305745132 0.0034401045562578799 0 0.0058520444504235247 0.0034833623848128949 0 0.0057930395968030018 0.0034469583056884038 0 0.0058520444504235247 0.0034833623848128949 0 0.00582913791850149 0.0035345355134920316 0 0.0059236357640736394 0.0061711459857686874 0 0.0039141078037495929 0.0018207807720607054 0 0.0067605560945850499 0.0062985311618942866 0 0.0065370041973717543 0.0034838784647010994 0 -0.0048376919026704894 -0.004478826251643921 0 -0.0053691911784568532 -0.004527700902483469 0 -0.0051597333398548896 -0.0035897311380229547 0 -0.00024853302446927898 0.0026559577579352307 0 -0.00081385330948165386 0.002165854225515735 0 -0.00078495373505028791 0.0027231255655028297 0 -0.0053691911784568532 -0.004527700902483469 0 -0.0056849009305558551 -0.0041221228266809162 0 -0.0062003708078377179 -0.0048344503988864002 0 -0.0048376919026704894 -0.004478826251643921 0 -0.0053691911784568532 -0.004527700902483469 0 -0.0054749561247739486 -0.0049794650792592127 0 -0.0053691911784568532 -0.004527700902483469 0 -0.0056849009305558551 -0.0041221228266809162 0 -0.0051597333398548896 -0.0035897311380229547 0 -0.0056849009305558551 -0.0041221228266809162 0 -0.0058027051508034375 -0.0035750806481665443 0 -0.0051597333398548896 -0.0035897311380229547 0 -0.00081385330948165386 0.002165854225515735 0 -0.0012089056517720703 0.0030458446354573606 0 -0.00078495373505028791 0.0027231255655028297 0 -0.00024853302446927898 0.0026559577579352307 0 -0.00078495373505028791 0.0027231255655028297 0 -0.000957164044966306 0.0032226256368247329 0 -0.0012089056517720703 0.0030458446354573606 0 -0.00078495373505028791 0.0027231255655028297 0 -0.000957164044966306 0.0032226256368247329 0 0.0039141078037495929 0.0018207807720607054 0 -0.00023042352125005009 0.0011118540132030036 0 0.0059236357640736394 0.0061711459857686874 0 0.0038998593643288404 0.0062957997497046772 0 -0.0072947267665943857 -0.0046892600751992711 0 -0.0065288031730203634 -0.0043337643186574064 0 -0.0072081704062442412 -0.0040014098909473455 0 -0.0072947267665943857 -0.0046892600751992711 0 -0.0065288031730203634 -0.0043337643186574064 0 -0.006587671435571962 -0.0049640957472804597 0 -0.0056849009305558551 -0.0041221228266809162 0 -0.0065288031730203634 -0.0043337643186574064 0 -0.0065848855831243747 -0.0051928137499968746 0 -0.0039808044752694697 -0.0049235080075608947 0 -0.0026004035461610047 -0.0041339694689054903 0 -0.003001238674176657 -0.004343874222503959 0 -0.0026004035461610047 -0.0041339694689054903 0 -0.0058027051508034375 -0.0035750806481665443 0 -0.0065288031730203634 -0.0043337643186574064 0 -0.0064613528217354515 -0.0033567818067963724 0 -0.0056849009305558551 -0.0041221228266809162 0 -0.0058027051508034375 -0.0035750806481665443 0 -0.0065288031730203634 -0.0043337643186574064 0 -0.0072081704062442412 -0.0040014098909473455 0 -0.0071598255233292774 -0.0034183151076321284 0 -0.0077591558818936417 -0.0036205644121451398 0 -0.0072081704062442412 -0.0040014098909473455 0 -0.0071598255233292774 -0.0034183151076321284 0 -0.0064613528217354515 -0.0033567818067963724 0 -0.0065288031730203634 -0.0043337643186574064 0 -0.0072081704062442412 -0.0040014098909473455 0 -0.0064613528217354515 -0.0033567818067963724 0 -0.0074220242701696238 -0.0027474030289786904 0 -0.0064613528217354515 -0.0033567818067963724 0 -0.0064986642696116311 -0.0020161610348850847 0 -0.0074220242701696238 -0.0027474030289786904 0 -0.0071598255233292774 -0.0034183151076321284 0 -0.0077591558818936417 -0.0036205644121451398 0 -0.0074220242701696238 -0.0027474030289786904 0 -0.0071598255233292774 -0.0034183151076321284 0 -0.0064613528217354515 -0.0033567818067963724 0 -0.0058027051508034375 -0.0035750806481665443 0 -0.0064613528217354515 -0.0033567818067963724 0 -0.0055189308234996808 -0.0023888282282865437 0 -0.0064613528217354515 -0.0033567818067963724 0 -0.0064986642696116311 -0.0020161610348850847 0 -0.0055189308234996808 -0.0023888282282865437 0 -0.0064986642696116311 -0.0020161610348850847 0 -0.0055189308234996808 -0.0023888282282865437 0 -0.0060106871608800704 -0.00083220665893540564 0 -0.0074220242701696238 -0.0027474030289786904 0 -0.0064986642696116311 -0.0020161610348850847 0 -0.0076504919424463065 -0.0014961005936003173 0 -0.000957164044966306 0.0032226256368247329 0 -0.001609971709387501 0.0038930607776784024 0 -0.00080883249626413059 0.0037804573421737851 0 -0.00038870589662357881 0.0034285784463835302 0 -0.0006510045635108807 0.0033203375182916054 0 -0.00080883249626413059 0.0037804573421737851 0 -0.00048395034935772008 0.003096676721696123 0 -0.0006510045635108807 0.0033203375182916054 0 -0.000957164044966306 0.0032226256368247329 0 -0.0006510045635108807 0.0033203375182916054 0 -0.000957164044966306 0.0032226256368247329 0 -0.00080883249626413059 0.0037804573421737851 0 -0.0058027051508034375 -0.0035750806481665443 0 -0.0051597333398548896 -0.0035897311380229547 0 -0.0055189308234996808 -0.0023888282282865437 0 -0.00023042352125005009 0.0011118540132030036 0 -0.0028763905497213487 0.0011787128221008374 0 -0.0012089056517720703 0.0030458446354573606 0 -0.000957164044966306 0.0032226256368247329 0 -0.001609971709387501 0.0038930607776784024 0 -0.0028763905497213487 0.0011787128221008374 0 -0.0051835548600766557 0.0015037560452721788 0 -0.001609971709387501 0.0038930607776784024 0 -0.0012026638433442762 0.0043618083438314017 0 -0.0020189111479246282 0.0047545068777100595 0 -0.00047176526062406646 0.0043599464885308139 0 -0.0012026638433442762 0.0043618083438314017 0 -0.00080883249626413059 0.0037804573421737851 0 -0.001609971709387501 0.0038930607776784024 0 -0.0012026638433442762 0.0043618083438314017 0 -0.00080883249626413059 0.0037804573421737851 0 -0.00047176526062406646 0.0043599464885308139 0 -0.0012026638433442762 0.0043618083438314017 0 -0.0011811813726739064 0.0049889322915311661 0 -0.0048995981281322798 0.0038368074996646155 0 -0.0072603533435579371 0.0026703910508649627 0 -0.012774840638348106 0.0011085677928103835 0 -0.012732752536266838 0.00093722598829405345 0 -0.012533597258950398 0.00091229542142044545 0 -0.012821331127485538 0.00073248775446646888 0 -0.012732752536266838 0.00093722598829405345 0 -0.012680669489718122 0.00081747183636503274 0 -0.012680669489718122 0.00081747183636503274 0 -0.012533597258950398 0.00091229542142044545 0 -0.012647229522912421 0.00063412457330108349 0 -0.012732752536266838 0.00093722598829405345 0 -0.012680669489718122 0.00081747183636503274 0 -0.012533597258950398 0.00091229542142044545 0 -0.012821331127485538 0.00073248775446646888 0 -0.012680669489718122 0.00081747183636503274 0 -0.012647229522912421 0.00063412457330108349 0 -0.0011811813726739064 0.0049889322915311661 0 -0.0020189111479246282 0.0047545068777100595 0 -0.0019064590436092769 0.0056275118013937022 0 -0.012533597258950398 0.00091229542142044545 0 -0.012198321632741815 0.00062899046573860139 0 -0.012647229522912421 0.00063412457330108349 0 -0.0072603533435579371 0.0026703910508649627 0 -0.010041148598187657 0.0015560954772567521 0 -0.0012026638433442762 0.0043618083438314017 0 -0.0011811813726739064 0.0049889322915311661 0 -0.0020189111479246282 0.0047545068777100595 0 -0.0064986642696116311 -0.0020161610348850847 0 -0.0060106871608800704 -0.00083220665893540564 0 -0.0076504919424463065 -0.0014961005936003173 0 -0.0060106871608800704 -0.00083220665893540564 0 -0.0076504919424463065 -0.0014961005936003173 0 -0.0074003395381588202 -0.00025919667829632644 0 -0.0076504919424463065 -0.0014961005936003173 0 -0.0074003395381588202 -0.00025919667829632644 0 -0.0087211499672939941 -0.00073635813960100502 0 -0.0074003395381588202 -0.00025919667829632644 0 -0.0067046175115983561 0.00086786184305413295 0 -0.0079681296188954288 0.00090549133331856537 0 -0.0060106871608800704 -0.00083220665893540564 0 -0.0074003395381588202 -0.00025919667829632644 0 -0.0067046175115983561 0.00086786184305413295 0 -0.0020189111479246282 0.0047545068777100595 0 -0.0019064590436092769 0.0056275118013937022 0 -0.002426056894573746 0.0056367202665312567 0 -0.0051835548600766557 0.0015037560452721788 0 -0.0080723059029882242 0.001552075809139689 0 -0.0099543558483662746 0.0010748605280658883 0 -0.010062358493297525 0.0011522454291030125 0 -0.010084160751124029 0.00119346720919037 0 -0.0099543558483662746 0.0010748605280658883 0 -0.010030008675133826 0.0010768209170848209 0 -0.010062358493297525 0.0011522454291030125 0 -0.010041148598187657 0.0015560954772567521 0 -0.0080723059029882242 0.001552075809139689 0 -0.017216325777043975 8.3876699656858987e-05 0 -0.018123393937291492 0.0009759767921206406 0 -0.017230718238410332 0.00087288690391545151 0 -0.010041148598187657 0.0015560954772567521 0 -0.012018520597610815 0.0012770502919846188 0 -0.0080723059029882242 0.001552075809139689 0 -0.011343783836842564 1.5382010146641349e-05 0 -0.010031499547433383 0.0010867250910704669 0 -0.010126947561547769 0.0010864909465935712 0 -0.010062358493297525 0.0011522454291030125 0 -0.018469001799914782 0.00014180642500574486 0 -0.018149269767696964 0.00089893675370468821 0 -0.018590829790393462 0.00064468109961837358 0 -0.010126947561547769 0.0010864909465935712 0 -0.010062358493297525 0.0011522454291030125 0 -0.010084160751124029 0.00119346720919037 0 -0.011343783836842564 1.5382010146641349e-05 0 -0.012018520597610815 0.0012770502919846188 0 -0.0080723059029882242 0.001552075809139689 0 -0.0082395059192748449 0.0015864391058182143 0 -0.018477929413172597 0.00085290596607422847 0 -0.018238517983426194 0.00097921991079490274 0 -0.018149269767696964 0.00089893675370468821 0 -0.018477929413172597 0.00085290596607422847 0 -0.018149269767696964 0.00089893675370468821 0 -0.018590829790393462 0.00064468109961837358 0 -0.018477929413172597 0.00085290596607422847 0 -0.018238517983426194 0.00097921991079490274 0 -0.018444729163837929 0.0010713971215517626 0 -0.012075637442136827 0.0013073276317551391 0 -0.012018520597610815 0.0012770502919846188 0 -0.012609351185328443 0.00089130745848174403 0 -0.012018520597610815 0.0012770502919846188 0 -0.017921374969815225 0.0014424194050864183 0 -0.018123393937291492 0.0009759767921206406 0 -0.017675392730507528 0.0011943015093758712 0 -0.017921374969815225 0.0014424194050864183 0 -0.018238517983426194 0.00097921991079490274 0 -0.01814032741134395 0.00089191540537485528 0 -0.017921374969815225 0.0014424194050864183 0 -0.018374257401554506 0.0013422137756794168 0 -0.018238517983426194 0.00097921991079490274 0 -0.018374257401554506 0.0013422137756794168 0 -0.018238517983426194 0.00097921991079490274 0 -0.018444729163837929 0.0010713971215517626 0 -0.017021162430453211 0.0017130076104254911 0 -0.017471314328073664 0.0014569358839233637 0 -0.017230718238410332 0.00087288690391545151 0 -0.018123393937291492 0.0009759767921206406 0 -0.017230718238410332 0.00087288690391545151 0 -0.017675392730507528 0.0011943015093758712 0 -0.017471314328073664 0.0014569358839233637 0 -0.017230718238410332 0.00087288690391545151 0 -0.017675392730507528 0.0011943015093758712 0 -0.017471314328073664 0.0014569358839233637 0 -0.017921374969815225 0.0014424194050864183 0 -0.017675392730507528 0.0011943015093758712 0 -0.016557049321138845 0.001367362689506777 0 -0.01718326965155164 0.0016321110878545718 0 -0.01653966763742578 0.00086730993374859583 0 -0.017021162430453211 0.0017130076104254911 0 -0.017230718238410332 0.00087288690391545151 0 -0.01653966763742578 0.00086730993374859583 0 -0.017206720201622179 0.0018074768820220545 0 -0.017004106020549793 0.0014178974701337772 0 -0.017230718238410332 0.00087288690391545151 0 -0.01653966763742578 0.00086730993374859583 0 -0.016799075119499046 0.00067656437302703422 0 -0.016557049321138845 0.001367362689506777 0 -0.01653966763742578 0.00086730993374859583 0 -0.016313354683696438 0.0011088377251663403 0 -0.016557049321138845 0.001367362689506777 0 -0.016227143537700401 0.0014790725039420221 0 -0.016313354683696438 0.0011088377251663403 0 -0.013809084695243765 0.0014269539911386164 0 -0.014373779944870458 0.0016589543018016898 0 -0.014439291632164271 0.000969926568094966 0 -0.015040403160453379 0.00076142255085039523 0 -0.014851187214259426 1.2548693704884398e-05 0 -0.016497867768247246 0.00032699467182447061 0 -0.01653966763742578 0.00086730993374859583 0 -0.016313354683696438 0.0011088377251663403 0 -0.016497867768247246 0.00032699467182447061 0 -0.014373779944870458 0.0016589543018016898 0 -0.015040403160453379 0.00076142255085039523 0 -0.016497867768247246 0.00032699467182447061 0 -0.015377115002753213 0.0010821834775277287 0 -0.015913403461040143 0.00063566441755813421 0 -0.014373779944870458 0.0016589543018016898 0 -0.015040403160453379 0.00076142255085039523 0 -0.014439291632164271 0.000969926568094966 0 -0.013894631639728721 0.00092015558183455664 0 -0.014439291632164271 0.000969926568094966 0 -0.014851187214259426 1.2548693704884398e-05 0 -0.015040403160453379 0.00076142255085039523 0 -0.014439291632164271 0.000969926568094966 0 -0.014851187214259426 1.2548693704884398e-05 0 -0.017216325777043975 8.3876699656858987e-05 0 -0.017230718238410332 0.00087288690391545151 0 -0.016799075119499046 0.00067656437302703422 0 -0.010041148598187657 0.0015560954772567521 0 -0.012966225512366409 0.0011087876113833597 0 -0.017216325777043975 8.3876699656858987e-05 0 -0.014851187214259426 1.2548693704884398e-05 0 -0.016497867768247246 0.00032699467182447061 0 -0.017216325777043975 8.3876699656858987e-05 0 -0.016497867768247246 0.00032699467182447061 0 -0.016799075119499046 0.00067656437302703422 0 -0.01653966763742578 0.00086730993374859583 0 -0.016497867768247246 0.00032699467182447061 0 -0.016799075119499046 0.00067656437302703422 0 -0.011349308947976039 -0.0016603219145078832 0 -0.011897269988888449 -0.0020380870828417747 0 -0.01152102729413034 -0.00069269209737773713 0 -0.011349308947976039 -0.0016603219145078832 0 -0.01152102729413034 -0.00069269209737773713 0 -0.010834426738121421 -0.0016575046453613333 0 -0.020251692638175278 0.00083273610109789789 0 -0.019575939566727239 0.00086764400731896096 0 -0.019639198951669014 0.00038967990292826301 0 -0.016613949757379978 0.00019090120779529331 0 -0.015025369944220816 -0.00024923266445908026 0 -0.011349308947976039 -0.0016603219145078832 0 -0.010834426738121421 -0.0016575046453613333 0 -0.011226604255432791 -0.0021694865617406414 0 -0.011349308947976039 -0.0016603219145078832 0 -0.011897269988888449 -0.0020380870828417747 0 -0.011226604255432791 -0.0021694865617406414 0 -0.01286594085587783 -0.0017217476453449906 0 -0.011897269988888449 -0.0020380870828417747 0 -0.012531768505738521 -0.0024413063560994341 0 -0.01286594085587783 -0.0017217476453449906 0 -0.011897269988888449 -0.0020380870828417747 0 -0.01152102729413034 -0.00069269209737773713 0 -0.01881482472182152 0.00091486777334725926 0 -0.019790452647685874 0.00099503389229619482 0 -0.020816507225490315 0.0012312013299768233 0 -0.020251692638175278 0.00083273610109789789 0 -0.019885763654552888 0.0012332279467832767 0 -0.01881482472182152 0.00091486777334725926 0 -0.016613949757379978 0.00019090120779529331 0 -0.013457612469049543 0.0013452955049196172 0 -0.01286594085587783 -0.0017217476453449906 0 -0.01152102729413034 -0.00069269209737773713 0 -0.020251692638175278 0.00083273610109789789 0 -0.019885763654552888 0.0012332279467832767 0 -0.019575939566727239 0.00086764400731896096 0 -0.019885763654552888 0.0012332279467832767 0 -0.019336430796645203 0.0011346766139686151 0 -0.019575939566727239 0.00086764400731896096 0 -0.019336430796645203 0.0011346766139686151 0 -0.018978564456230546 0.0012961210432757061 0 -0.019060290576428114 0.00092535073827030689 0 -0.019575939566727239 0.00086764400731896096 0 -0.019060290576428114 0.00092535073827030689 0 -0.019328887633848636 0.00058208837264345985 0 -0.019336430796645203 0.0011346766139686151 0 -0.019575939566727239 0.00086764400731896096 0 -0.019060290576428114 0.00092535073827030689 0 -0.018374257401554506 0.0013422137756794168 0 -0.018444729163837929 0.0010713971215517626 0 -0.018685354024358489 0.0011144689936109407 0 -0.018685354024358489 0.0011144689936109407 0 -0.018978564456230546 0.0012961210432757061 0 -0.019060290576428114 0.00092535073827030689 0 -0.019060290576428114 0.00092535073827030689 0 -0.018791521538048882 0.00082513882036618753 0 -0.018965540396574606 0.00053627021745687091 0 -0.018685354024358489 0.0011144689936109407 0 -0.019060290576428114 0.00092535073827030689 0 -0.018791521538048882 0.00082513882036618753 0 -0.018477929413172597 0.00085290596607422847 0 -0.018685354024358489 0.0011144689936109407 0 -0.018791521538048882 0.00082513882036618753 0 -0.018477929413172597 0.00085290596607422847 0 -0.018791521538048882 0.00082513882036618753 0 -0.018590829790393462 0.00064468109961837358 0 -0.018477929413172597 0.00085290596607422847 0 -0.018444729163837929 0.0010713971215517626 0 -0.018685354024358489 0.0011144689936109407 0 -0.018469001799914782 0.00014180642500574486 0 -0.018965540396574606 0.00053627021745687091 0 -0.019308918945554667 0.0001541800229951881 0 -0.011343783836842564 1.5382010146641349e-05 0 -0.014217320843769331 -0.0004253805772876388 0 -0.018791521538048882 0.00082513882036618753 0 -0.018590829790393462 0.00064468109961837358 0 -0.018965540396574606 0.00053627021745687091 0 -0.018469001799914782 0.00014180642500574486 0 -0.018590829790393462 0.00064468109961837358 0 -0.018965540396574606 0.00053627021745687091 0 -0.019575939566727239 0.00086764400731896096 0 -0.019328887633848636 0.00058208837264345985 0 -0.019639198951669014 0.00038967990292826301 0 -0.018965540396574606 0.00053627021745687091 0 -0.019328887633848636 0.00058208837264345985 0 -0.019308918945554667 0.0001541800229951881 0 -0.019060290576428114 0.00092535073827030689 0 -0.018965540396574606 0.00053627021745687091 0 -0.019328887633848636 0.00058208837264345985 0 -0.010520192163619683 -0.0019613865464088334 0 -0.010834426738121421 -0.0016575046453613333 0 -0.010730482059002004 -0.0022686307944147178 0 -0.019328887633848636 0.00058208837264345985 0 -0.019308918945554667 0.0001541800229951881 0 -0.019639198951669014 0.00038967990292826301 0 -0.014217320843769331 -0.0004253805772876388 0 -0.015025369944220816 -0.00024923266445908026 0 -0.010834426738121421 -0.0016575046453613333 0 -0.010730482059002004 -0.0022686307944147178 0 -0.011226604255432791 -0.0021694865617406414 0 -0.010730482059002004 -0.0022686307944147178 0 -0.010963902331216212 -0.0026022856903933364 0 -0.011226604255432791 -0.0021694865617406414 0 -0.010730482059002004 -0.0022686307944147178 0 -0.010467398069841278 -0.0026537365631900765 0 -0.010191421709111009 -0.0022194381562282484 0 -0.010520192163619683 -0.0019613865464088334 0 -0.010730482059002004 -0.0022686307944147178 0 -0.010191421709111009 -0.0022194381562282484 0 -0.014217320843769331 -0.0004253805772876388 0 -0.01370130771861644 -0.0007438667574758077 0 -0.010730482059002004 -0.0022686307944147178 0 -0.010467398069841278 -0.0026537365631900765 0 -0.010963902331216212 -0.0026022856903933364 0 -0.0096274276351840556 -0.0019784726401261932 0 -0.010191421709111009 -0.0022194381562282484 0 -0.01005018152099991 -0.0029666731627432251 0 -0.0096274276351840556 -0.0019784726401261932 0 -0.010553148808725299 -0.0019704946609651404 0 -0.010191421709111009 -0.0022194381562282484 0 -0.011343783836842564 1.5382010146641349e-05 0 -0.010640093492813163 -0.0014511424340940527 0 -0.0074003395381588202 -0.00025919667829632644 0 -0.0079681296188954288 0.00090549133331856537 0 -0.0087211499672939941 -0.00073635813960100502 0 -0.010467398069841278 -0.0026537365631900765 0 -0.010191421709111009 -0.0022194381562282484 0 -0.01005018152099991 -0.0029666731627432251 0 -0.010467398069841278 -0.0026537365631900765 0 -0.01005018152099991 -0.0029666731627432251 0 -0.010752794759387682 -0.0032527948998672825 0 -0.01005018152099991 -0.0029666731627432251 0 -0.010752794759387682 -0.0032527948998672825 0 -0.010465071732632341 -0.003920009471314571 0 -0.010467398069841278 -0.0026537365631900765 0 -0.010963902331216212 -0.0026022856903933364 0 -0.010752794759387682 -0.0032527948998672825 0 -0.010963902331216212 -0.0026022856903933364 0 -0.010752794759387682 -0.0032527948998672825 0 -0.011235702593409927 -0.0031035664659302513 0 -0.011235702593409927 -0.0031035664659302513 0 -0.011781380353429375 -0.0028484119996013894 0 -0.011443418898235783 -0.003674986790791757 0 -0.010752794759387682 -0.0032527948998672825 0 -0.011235702593409927 -0.0031035664659302513 0 -0.011443418898235783 -0.003674986790791757 0 -0.010963902331216212 -0.0026022856903933364 0 -0.011235702593409927 -0.0031035664659302513 0 -0.011781380353429375 -0.0028484119996013894 0 -0.010963902331216212 -0.0026022856903933364 0 -0.011226604255432791 -0.0021694865617406414 0 -0.011781380353429375 -0.0028484119996013894 0 -0.011897269988888449 -0.0020380870828417747 0 -0.011226604255432791 -0.0021694865617406414 0 -0.011781380353429375 -0.0028484119996013894 0 -0.011897269988888449 -0.0020380870828417747 0 -0.012531768505738521 -0.0024413063560994341 0 -0.011781380353429375 -0.0028484119996013894 0 -0.011781380353429375 -0.0028484119996013894 0 -0.01240990957270331 -0.0032755502633466538 0 -0.011443418898235783 -0.003674986790791757 0 -0.012531768505738521 -0.0024413063560994341 0 -0.011781380353429375 -0.0028484119996013894 0 -0.01240990957270331 -0.0032755502633466538 0 -0.012403234565070139 -0.0041179565163882237 0 -0.01240990957270331 -0.0032755502633466538 0 -0.011443418898235783 -0.003674986790791757 0 -0.011443418898235783 -0.003674986790791757 0 -0.011042741562411668 -0.0042346340725628517 0 -0.010465071732632341 -0.003920009471314571 0 -0.011443418898235783 -0.003674986790791757 0 -0.011637798017348313 -0.0046112329942615245 0 -0.011042741562411668 -0.0042346340725628517 0 -0.011637798017348313 -0.0046112329942615245 0 -0.011042741562411668 -0.0042346340725628517 0 -0.010689322390377743 -0.0047586008708476769 0 -0.012403234565070139 -0.0041179565163882237 0 -0.011443418898235783 -0.003674986790791757 0 -0.011637798017348313 -0.0046112329942615245 0 -0.012403234565070139 -0.0041179565163882237 0 -0.012715300899131757 -0.0048874864889565323 0 -0.011637798017348313 -0.0046112329942615245 0 -0.0076504919424463065 -0.0014961005936003173 0 -0.0087211499672939941 -0.00073635813960100502 0 -0.0096780774774406012 -0.0025366987925660263 0 -0.0074220242701696238 -0.0027474030289786904 0 -0.0076504919424463065 -0.0014961005936003173 0 -0.0096780774774406012 -0.0025366987925660263 0 -0.010640093492813163 -0.0014511424340940527 0 -0.010658429136087803 -0.002848083693277124 0 -0.010752794759387682 -0.0032527948998672825 0 -0.011443418898235783 -0.003674986790791757 0 -0.010465071732632341 -0.003920009471314571 0 -0.010658429136087803 -0.002848083693277124 0 -0.010813841372155372 -0.0035985199495864352 0 -0.011042741562411668 -0.0042346340725628517 0 -0.010465071732632341 -0.003920009471314571 0 -0.010689322390377743 -0.0047586008708476769 0 -0.0096780774774406012 -0.0025366987925660263 0 -0.0089005160044658381 -0.0045666412941416335 0 -0.010689322390377743 -0.0047586008708476769 0 -0.0080532782642738551 -0.003537996025424186 0 -0.0084779347563377558 -0.0040469517169418219 0 -0.0074220242701696238 -0.0027474030289786904 0 -0.0096780774774406012 -0.0025366987925660263 0 -0.0089005160044658381 -0.0045666412941416335 0 -0.0077591558818936417 -0.0036205644121451398 0 -0.008158889777739247 -0.0043173980104506751 0 -0.0076944136610863191 -0.0043449780317474998 0 -0.0072081704062442412 -0.0040014098909473455 0 -0.0077591558818936417 -0.0036205644121451398 0 -0.0076944136610863191 -0.0043449780317474998 0 -0.0084779347563377558 -0.0040469517169418219 0 -0.0092470637486390221 -0.0049044304030433066 0 -0.010689322390377743 -0.0047586008708476769 0 -0.010357517408202564 -0.00583955172073346 0 -0.011300077990507709 -0.0051565239600076364 0 -0.0089005160044658381 -0.0045666412941416335 0 -0.010689322390377743 -0.0047586008708476769 0 -0.010357517408202564 -0.00583955172073346 0 -0.0092470637486390221 -0.0049044304030433066 0 -0.010040628548150594 -0.0057172430904937777 0 -0.008158889777739247 -0.0043173980104506751 0 -0.0079437577841336756 -0.0045818909700339056 0 -0.0082129900289529198 -0.0048993454199972664 0 -0.008158889777739247 -0.0043173980104506751 0 -0.0079437577841336756 -0.0045818909700339056 0 -0.0076944136610863191 -0.0043449780317474998 0 -0.0072947267665943857 -0.0046892600751992711 0 -0.0072081704062442412 -0.0040014098909473455 0 -0.0076944136610863191 -0.0043449780317474998 0 -0.0079437577841336756 -0.0045818909700339056 0 -0.0076944136610863191 -0.0043449780317474998 0 -0.0077151204985841113 -0.0047714165668625878 0 -0.0072947267665943857 -0.0046892600751992711 0 -0.0076944136610863191 -0.0043449780317474998 0 -0.0077151204985841113 -0.0047714165668625878 0 -0.012715300899131757 -0.0048874864889565323 0 -0.011637798017348313 -0.0046112329942615245 0 -0.011871461834690554 -0.0054244800023249837 0 -0.011637798017348313 -0.0046112329942615245 0 -0.010689322390377743 -0.0047586008708476769 0 -0.011300077990507709 -0.0051565239600076364 0 -0.011637798017348313 -0.0046112329942615245 0 -0.011871461834690554 -0.0054244800023249837 0 -0.011300077990507709 -0.0051565239600076364 0 -0.010357517408202564 -0.00583955172073346 0 -0.011300077990507709 -0.0051565239600076364 0 -0.011246973068912347 -0.005865892135692349 0 -0.011871461834690554 -0.0054244800023249837 0 -0.011300077990507709 -0.0051565239600076364 0 -0.011246973068912347 -0.005865892135692349 0 -0.010357517408202564 -0.00583955172073346 0 -0.011246973068912347 -0.005865892135692349 0 -0.011177653503080203 -0.0065913830543827467 0 -0.012493044600388657 -0.0057205886255971422 0 -0.011871461834690554 -0.0054244800023249837 0 -0.011874408777846074 -0.006253141233048003 0 -0.012493044600388657 -0.0057205886255971422 0 -0.011874408777846074 -0.006253141233048003 0 -0.012597601003756467 -0.0065105673106672073 0 -0.011871461834690554 -0.0054244800023249837 0 -0.011246973068912347 -0.005865892135692349 0 -0.011874408777846074 -0.006253141233048003 0 -0.011874408777846074 -0.006253141233048003 0 -0.011177653503080203 -0.0065913830543827467 0 -0.011875733737920483 -0.0074275900620300759 0 -0.011874408777846074 -0.006253141233048003 0 -0.011875733737920483 -0.0074275900620300759 0 -0.012597601003756467 -0.0065105673106672073 0 -0.011246973068912347 -0.005865892135692349 0 -0.011874408777846074 -0.006253141233048003 0 -0.011177653503080203 -0.0065913830543827467 0 -0.0087791367569581471 -0.005039111642015261 0 -0.0086737049664375107 -0.0060142567378140659 0 -0.0082242522608970432 -0.0055109411056895015 0 -0.0086737049664375107 -0.0060142567378140659 0 -0.0096557720818136617 -0.0060779771563889357 0 -0.0090654802952798534 -0.0068269091027899831 0 -0.0087791367569581471 -0.005039111642015261 0 -0.0086737049664375107 -0.0060142567378140659 0 -0.0096557720818136617 -0.0060779771563889357 0 -0.010040628548150594 -0.0057172430904937777 0 -0.010797754183453566 -0.0063952277553441812 0 -0.010797754183453566 -0.0063952277553441812 0 -0.01180659871621746 -0.005958540950582604 0 -0.0037734058823837391 -0.003644309090060869 0 -0.0060277979705491034 -0.0035056715407875434 0 -0.0072947267665943857 -0.0046892600751992711 0 -0.0073708565731336337 -0.0051993795283733135 0 -0.0077151204985841113 -0.0047714165668625878 0 -0.0073708565731336337 -0.0051993795283733135 0 -0.0077151204985841113 -0.0047714165668625878 0 -0.0082129900289529198 -0.0048993454199972664 0 -0.0065987187406364419 -0.0054212626150606817 0 -0.0082129900289529198 -0.0048993454199972664 0 -0.0075962225477134698 -0.0055588339320059759 0 -0.008158889777739247 -0.0043173980104506751 0 -0.0087791367569581471 -0.005039111642015261 0 -0.0082129900289529198 -0.0048993454199972664 0 -0.0079437577841336756 -0.0045818909700339056 0 -0.0077151204985841113 -0.0047714165668625878 0 -0.0082129900289529198 -0.0048993454199972664 0 -0.0082129900289529198 -0.0048993454199972664 0 -0.0082242522608970432 -0.0055109411056895015 0 -0.0075962225477134698 -0.0055588339320059759 0 -0.0087791367569581471 -0.005039111642015261 0 -0.0082129900289529198 -0.0048993454199972664 0 -0.0082242522608970432 -0.0055109411056895015 0 -0.0086737049664375107 -0.0060142567378140659 0 -0.0082242522608970432 -0.0055109411056895015 0 -0.0079235214269397624 -0.0060954166924766535 0 -0.0086737049664375107 -0.0060142567378140659 0 -0.0079235214269397624 -0.0060954166924766535 0 -0.0081441840091282715 -0.0068204872790859749 0 -0.0082242522608970432 -0.0055109411056895015 0 -0.0079235214269397624 -0.0060954166924766535 0 -0.0075962225477134698 -0.0055588339320059759 0 -0.0079235214269397624 -0.0060954166924766535 0 -0.0075962225477134698 -0.0055588339320059759 0 -0.0070406363237576928 -0.005855668238142501 0 -0.0065987187406364419 -0.0054212626150606817 0 -0.0075962225477134698 -0.0055588339320059759 0 -0.0070406363237576928 -0.005855668238142501 0 -0.0065987187406364419 -0.0054212626150606817 0 -0.0070406363237576928 -0.005855668238142501 0 -0.0067309574385254383 -0.0063679182260687767 0 -0.0037734058823837391 -0.003644309090060869 0 -0.0029127755871926719 -0.0039397092679512693 0 -0.0070406363237576928 -0.005855668238142501 0 -0.0067309574385254383 -0.0063679182260687767 0 -0.007461679519371882 -0.0064983558370505182 0 -0.0079235214269397624 -0.0060954166924766535 0 -0.0070406363237576928 -0.005855668238142501 0 -0.007461679519371882 -0.0064983558370505182 0 -0.0067309574385254383 -0.0063679182260687767 0 -0.007461679519371882 -0.0064983558370505182 0 -0.0074784427883105983 -0.0073503300366508321 0 -0.0029127755871926719 -0.0039397092679512693 0 -0.0012723038554891834 -0.0035459595919158982 0 -0.0015016945121187871 -0.0031096657910339807 0 -0.0014740378301233365 -0.0028883276725957439 0 -0.0016195869583447793 -0.0031449736774215678 0 0.00057181007305834634 0.0011384739214770113 0 -0.0024071893645975285 -0.0024393124205339097 0 8.5052215430789701e-05 -0.0026076065741696903 0 -0.0029127755871926719 -0.0039397092679512693 0 -0.0046284453800245458 -0.0054309847472347531 0 -0.0081441840091282715 -0.0068204872790859749 0 -0.0074784427883105983 -0.0073503300366508321 0 -0.0084383101871793424 -0.0076063880714078045 0 -0.007461679519371882 -0.0064983558370505182 0 -0.0081441840091282715 -0.0068204872790859749 0 -0.0074784427883105983 -0.0073503300366508321 0 -0.0079235214269397624 -0.0060954166924766535 0 -0.007461679519371882 -0.0064983558370505182 0 -0.0081441840091282715 -0.0068204872790859749 0 -0.0035332471488967111 -0.0057661706229060281 0 -0.0024071893645975285 -0.0024393124205339097 0 -0.0055277724860410453 -0.0061386463066156272 0 -0.0046284453800245458 -0.0054309847472347531 0 -0.0063445554664835636 -0.0072863999359738391 0 -0.0074784427883105983 -0.0073503300366508321 0 -0.0084383101871793424 -0.0076063880714078045 0 -0.0082222826815623404 -0.00854849311955529 0 -0.0034328136399535115 -0.0057041764811821818 0 0.000367480740375088 -0.0024145370075866731 0 -0.00036130137064167796 -0.0080148573684874075 0 -0.0012723038554891834 -0.0035459595919158982 0 -0.00099565006220591972 -0.007195190643923142 0 -0.0033042515191349475 -0.0054232132025630727 0 -0.0012723038554891834 -0.0035459595919158982 0 -0.0035332471488967111 -0.0057661706229060281 0 -0.0024071893645975285 -0.0024393124205339097 0 8.5052215430789701e-05 -0.0026076065741696903 0 0.0011856101231509457 -0.0014955659776065837 0 0.00037057961243899297 -0.0071354145043878584 0 0.0032209831532928937 -0.0044678078049445015 0 -0.010332759181716259 -0.0068089740777959968 0 -0.009317849144748553 -0.0065559976686912387 0 -0.0094958792779991814 -0.0076523646670680137 0 -0.010332759181716259 -0.0068089740777959968 0 -0.011006755910689442 -0.0072892197821125184 0 -0.011447255902486476 -0.006893830395267463 0 -0.010797754183453566 -0.0063952277553441812 0 -0.010926750675110532 -0.0065101215655702311 0 -0.010268373606727185 -0.0053474259851325982 0 -0.010332759181716259 -0.0068089740777959968 0 -0.011447255902486476 -0.006893830395267463 0 -0.010268373606727185 -0.0053474259851325982 0 -0.010332759181716259 -0.0068089740777959968 0 -0.009317849144748553 -0.0065559976686912387 0 -0.010797754183453566 -0.0063952277553441812 0 -0.010086960585065237 -0.0068674917121257766 0 -0.0086737049664375107 -0.0060142567378140659 0 -0.0081441840091282715 -0.0068204872790859749 0 -0.0090654802952798534 -0.0068269091027899831 0 -0.010086960585065237 -0.0068674917121257766 0 -0.0097715610120314225 -0.0071314258683499972 0 -0.0081441840091282715 -0.0068204872790859749 0 -0.0090654802952798534 -0.0068269091027899831 0 -0.0084383101871793424 -0.0076063880714078045 0 -0.009317849144748553 -0.0065559976686912387 0 -0.0094958792779991814 -0.0076523646670680137 0 -0.0084383101871793424 -0.0076063880714078045 0 -0.0084383101871793424 -0.0076063880714078045 0 -0.0089092484236137637 -0.0084335735100855083 0 -0.0082222826815623404 -0.00854849311955529 0 -0.0094958792779991814 -0.0076523646670680137 0 -0.0089092484236137637 -0.0084335735100855083 0 -0.0096277551174258971 -0.0086345520442449517 0 -0.0094958792779991814 -0.0076523646670680137 0 -0.0084383101871793424 -0.0076063880714078045 0 -0.0089092484236137637 -0.0084335735100855083 0 -0.010478920315450502 -0.0079213989355235506 0 -0.010784385566838006 -0.0095325083780096777 0 -0.011655810816055143 -0.0074762793703324918 0 -0.0094958792779991814 -0.0076523646670680137 0 -0.010478920315450502 -0.0079213989355235506 0 -0.0096277551174258971 -0.0086345520442449517 0 -0.010332759181716259 -0.0068089740777959968 0 -0.0094958792779991814 -0.0076523646670680137 0 -0.010478920315450502 -0.0079213989355235506 0 -0.011006755910689442 -0.0072892197821125184 0 -0.010478920315450502 -0.0079213989355235506 0 -0.011655810816055143 -0.0074762793703324918 0 -0.010332759181716259 -0.0068089740777959968 0 -0.011006755910689442 -0.0072892197821125184 0 -0.010478920315450502 -0.0079213989355235506 0 -0.010784385566838006 -0.0095325083780096777 0 -0.0096277551174258971 -0.0086345520442449517 0 -0.0087438929892707171 -0.010252763645104204 0 -0.010478920315450502 -0.0079213989355235506 0 -0.010784385566838006 -0.0095325083780096777 0 -0.0096277551174258971 -0.0086345520442449517 0 -0.0084825985936895689 -0.0087817134020239714 0 -0.0051511024624013848 -0.010627496695922211 0 -0.01093631243665104 -0.0085920056316592455 0 -0.010227615084813388 -0.0098417988397046016 0 -0.011370127429430592 -0.0096876612137356752 0 -0.010784385566838006 -0.0095325083780096777 0 -0.0087438929892707171 -0.010252763645104204 0 -0.0090816503304086277 -0.014310663263243522 0 -0.0065757113381918423 -0.011655227335590466 0 -0.0087438929892707171 -0.010252763645104204 0 -0.0090816503304086277 -0.014310663263243522 0 -0.0065757113381918423 -0.011655227335590466 0 -0.0087438929892707171 -0.010252763645104204 0 -0.0073492868126805834 -0.0092260651292197775 0 -0.0065757113381918423 -0.011655227335590466 0 -0.0073492868126805834 -0.0092260651292197775 0 -0.0053572054713713893 -0.010331431872308609 0 -0.0087438929892707171 -0.010252763645104204 0 -0.0073492868126805834 -0.0092260651292197775 0 -0.0055277724860410453 -0.0061386463066156272 0 -0.0089092484236137637 -0.0084335735100855083 0 -0.0096277551174258971 -0.0086345520442449517 0 -0.0087438929892707171 -0.010252763645104204 0 -0.0072604089786505758 -0.0083709425872348555 0 -0.0063445554664835636 -0.0072863999359738391 0 -0.0089092484236137637 -0.0084335735100855083 0 -0.0087438929892707171 -0.010252763645104204 0 -0.0082222826815623404 -0.00854849311955529 0 -0.0033042515191349475 -0.0054232132025630727 0 -0.0047536053073699014 -0.00672189223308287 0 -0.0034328136399535115 -0.0057041764811821818 0 -0.0073492868126805834 -0.0092260651292197775 0 -0.0039705044891527553 -0.0089725836463523233 0 -0.0035332471488967111 -0.0057661706229060281 0 -0.0073492868126805834 -0.0092260651292197775 0 -0.0055277724860410453 -0.0061386463066156272 0 -0.0034328136399535115 -0.0057041764811821818 0 -0.0039705044891527553 -0.0089725836463523233 0 -0.00036130137064167796 -0.0080148573684874075 0 -0.00036130137064167796 -0.0080148573684874075 0 -0.0035126858196671907 -0.011491465141849174 0 -0.00084758206313447979 -0.013370360698715991 0 -0.00099565006220591972 -0.007195190643923142 0 -0.0011224781000943789 -0.009736277648430422 0 0.00037057961243899297 -0.0071354145043878584 0 -0.00084758206313447979 -0.013370360698715991 0 0.0037050588712228489 -0.011273333874156683 0 -0.0039705044891527553 -0.0089725836463523233 0 -0.00036130137064167796 -0.0080148573684874075 0 -0.0035126858196671907 -0.011491465141849174 0 -0.0039705044891527553 -0.0089725836463523233 0 -0.0053572054713713893 -0.010331431872308609 0 -0.0035126858196671907 -0.011491465141849174 0 -0.0073492868126805834 -0.0092260651292197775 0 -0.0039705044891527553 -0.0089725836463523233 0 -0.0053572054713713893 -0.010331431872308609 0 -0.0065757113381918423 -0.011655227335590466 0 -0.0035126858196671907 -0.011491465141849174 0 -0.0053713600657955586 -0.013848416019101395 0 -0.0065757113381918423 -0.011655227335590466 0 -0.0053572054713713893 -0.010331431872308609 0 -0.0035126858196671907 -0.011491465141849174 0 -0.0053713600657955586 -0.013848416019101395 0 -0.0031128494711589018 -0.013902100592739521 0 -0.0038404653973302741 -0.015748634239524852 0 -0.0035126858196671907 -0.011491465141849174 0 -0.0053713600657955586 -0.013848416019101395 0 -0.0031128494711589018 -0.013902100592739521 0 -0.0035126858196671907 -0.011491465141849174 0 -0.0031128494711589018 -0.013902100592739521 0 -0.00084758206313447979 -0.013370360698715991 0 -0.0031128494711589018 -0.013902100592739521 0 -0.0019261089922188229 -0.015118112982668051 0 -0.00084758206313447979 -0.013370360698715991 0 -0.0019261089922188229 -0.015118112982668051 0 -0.0021913991077032917 -0.016445113928322971 0 -0.0038404653973302741 -0.015748634239524852 0 -0.0031128494711589018 -0.013902100592739521 0 -0.0019261089922188229 -0.015118112982668051 0 -0.0038404653973302741 -0.015748634239524852 0 -0.0053713600657955586 -0.013848416019101395 0 -0.0038404653973302741 -0.015748634239524852 0 -0.0060425614605508493 -0.016085765180554122 0 -0.0038404653973302741 -0.015748634239524852 0 -0.004317692449603421 -0.017471477332149207 0 -0.0060425614605508493 -0.016085765180554122 0 0.00071674354567546211 -0.014527382078629664 0 0.0014675138359181081 -0.016322861526989623 0 0.0037050588712228489 -0.011273333874156683 0 0.00071674354567546211 -0.014527382078629664 0 -0.00084758206313447979 -0.013370360698715991 0 0.0037050588712228489 -0.011273333874156683 0 0.00071674354567546211 -0.014527382078629664 0 -0.00084758206313447979 -0.013370360698715991 0 -0.00052653096136858976 -0.015200525836168096 0 -0.0019261089922188229 -0.015118112982668051 0 -0.00084758206313447979 -0.013370360698715991 0 -0.00052653096136858976 -0.015200525836168096 0 -0.0019261089922188229 -0.015118112982668051 0 -0.00127030409192177 -0.016255612717165531 0 -0.00052653096136858976 -0.015200525836168096 0 -0.0019261089922188229 -0.015118112982668051 0 -0.0021913991077032917 -0.016445113928322971 0 -0.00127030409192177 -0.016255612717165531 0 -0.00127030409192177 -0.016255612717165531 0 -0.00052653096136858976 -0.015200525836168096 0 0.00024270849646499429 -0.016393615031977046 0 0.00071674354567546211 -0.014527382078629664 0 -0.00052653096136858976 -0.015200525836168096 0 0.00024270849646499429 -0.016393615031977046 0 0.00071674354567546211 -0.014527382078629664 0 0.00024270849646499429 -0.016393615031977046 0 0.0014675138359181081 -0.016322861526989623 0 0.0053278522151644784 -0.015164840362997131 0 0.0072866164230583532 -0.014154297117366104 0 0.00024270849646499429 -0.016393615031977046 0 0.0014675138359181081 -0.016322861526989623 0 -0.00045177947542692393 -0.020863058707894278 0 0.0026411961755711103 -0.014769767470077468 0 0.003493226732349941 -0.017190240109172149 0 0.001362408639014598 -0.01820594907688191 0 0.00024270849646499429 -0.016393615031977046 0 -0.0022442995158007085 -0.018072000738670543 0 -0.00045177947542692393 -0.020863058707894278 0 0.0040352162411995338 -0.015315909972126774 0 0.005100798803502637 -0.014692890322321605 0 -0.00127030409192177 -0.016255612717165531 0 0.00024270849646499429 -0.016393615031977046 0 -0.0023833272089072871 -0.017967057961537709 0 0.005100798803502637 -0.014692890322321605 0 0.0072866164230583532 -0.014154297117366104 0 0.012771417701833652 -0.0095671811608327422 0 0.011747759301262803 -0.010246510318357825 0 0.012515620888583368 -0.010464452689397953 0 -0.004317692449603421 -0.017471477332149207 0 -0.0023818210652734231 -0.017913037061642691 0 -0.006337597637203372 -0.020531080453507093 0 -0.004317692449603421 -0.017471477332149207 0 -0.0060425614605508493 -0.016085765180554122 0 -0.006337597637203372 -0.020531080453507093 0 0.005100798803502637 -0.014692890322321605 0 0.0018320843585819481 -0.012465065498866378 0 -0.0021913991077032917 -0.016445113928322971 0 -0.0038404653973302741 -0.015748634239524852 0 -0.0027356587560789206 -0.017391029191307309 0 -0.004317692449603421 -0.017471477332149207 0 -0.0027356587560789206 -0.017391029191307309 0 -0.0023818210652734231 -0.017913037061642691 0 -0.0038404653973302741 -0.015748634239524852 0 -0.004317692449603421 -0.017471477332149207 0 -0.0027356587560789206 -0.017391029191307309 0 -0.0021913991077032917 -0.016445113928322971 0 -0.00127030409192177 -0.016255612717165531 0 -0.0023833272089072871 -0.017967057961537709 0 -0.0021913991077032917 -0.016445113928322971 0 -0.0027356587560789206 -0.017391029191307309 0 -0.0023833272089072871 -0.017967057961537709 0 0.0050701019081469375 -0.014689111960696354 0 0.005100798803502637 -0.014692890322321605 0 0.012771417701833652 -0.0095671811608327422 0 0.012515620888583368 -0.010464452689397953 0 0.013232372958129101 -0.010263252224246178 0 -0.010678714525630233 -0.010732131553192798 0 -0.010227615084813388 -0.0098417988397046016 0 -0.0095775928292650778 -0.011134710666478564 0 -0.0051511024624013848 -0.010627496695922211 0 0.0018320843585819481 -0.012465065498866378 0 -0.0090816503304086277 -0.014310663263243522 0 -0.0060425614605508493 -0.016085765180554122 0 -0.006337597637203372 -0.020531080453507093 0 -0.010678714525630233 -0.010732131553192798 0 -0.010227615084813388 -0.0098417988397046016 0 -0.011370127429430592 -0.0096876612137356752 0 -0.0065757113381918423 -0.011655227335590466 0 -0.0053713600657955586 -0.013848416019101395 0 -0.0090816503304086277 -0.014310663263243522 0 -0.0053713600657955586 -0.013848416019101395 0 -0.0090816503304086277 -0.014310663263243522 0 -0.0060425614605508493 -0.016085765180554122 0 0.012067473016845213 -0.013459091667939172 0 0.0095978838417701412 -0.016674605481022124 0 0.009191744431709151 -0.012586362435768352 0 0.012086081429641736 -0.013012108743419116 0 0.014537911482605687 -0.011507127618470834 0 0.015979498890455187 -0.015117411213265588 0 0.013968286839807656 -0.017524380710640032 0 0.015979498890455187 -0.015117411213265588 0 0.015417075767872311 -0.020782685315872181 0 0.012086081429641736 -0.013012108743419116 0 0.013968286839807656 -0.017524380710640032 0 0.015979498890455187 -0.015117411213265588 0 0.011817879529726098 -0.012553703493440543 0 0.012671503605320992 -0.014513905378965129 0 0.012067473016845213 -0.013459091667939172 0 0.013968286839807656 -0.017524380710640032 0 0.0095978838417701412 -0.016674605481022124 0 0.0095978838417701412 -0.016674605481022124 0 0.0068062884827811343 -0.014621622366642911 0 0.0055557064754129656 -0.018240247648919079 0 0.0044706983726990231 -0.015600753191305727 0 0.0068062884827811343 -0.014621622366642911 0 0.0055557064754129656 -0.018240247648919079 0 0.003493226732349941 -0.017190240109172149 0 0.0044706983726990231 -0.015600753191305727 0 0.0055557064754129656 -0.018240247648919079 0 0.0026411961755711103 -0.014769767470077468 0 0.003493226732349941 -0.017190240109172149 0 0.0044706983726990231 -0.015600753191305727 0 0.0053278522151644784 -0.015164840362997131 0 0.0052057612408204466 -0.014328318132640365 0 0.0045447167420415704 -0.013489892491147079 0 0.0068062884827811343 -0.014621622366642911 0 0.0068151898270404892 -0.011159963219895151 0 0.0026411961755711103 -0.014769767470077468 0 0.0045447167420415704 -0.013489892491147079 0 0.0037050588712228489 -0.011273333874156683 0 0.0026411961755711103 -0.014769767470077468 0 0.0044706983726990231 -0.015600753191305727 0 0.0045447167420415704 -0.013489892491147079 0 0.0044706983726990231 -0.015600753191305727 0 0.0045447167420415704 -0.013489892491147079 0 0.0068062884827811343 -0.014621622366642911 0 0.0095978838417701412 -0.016674605481022124 0 0.009191744431709151 -0.012586362435768352 0 0.0068062884827811343 -0.014621622366642911 0 0.009191744431709151 -0.012586362435768352 0 0.0068062884827811343 -0.014621622366642911 0 0.0068151898270404892 -0.011159963219895151 0 0.009191744431709151 -0.012586362435768352 0 0.0068151898270404892 -0.011159963219895151 0 0.010287091721568385 -0.0091718071482169376 0 0.0068151898270404892 -0.011159963219895151 0 0.0055450709294779738 -0.007180940953001428 0 0.010287091721568385 -0.0091718071482169376 0 0.0068151898270404892 -0.011159963219895151 0 0.0037050588712228489 -0.011273333874156683 0 0.0055450709294779738 -0.007180940953001428 0 0.0045447167420415704 -0.013489892491147079 0 0.0068151898270404892 -0.011159963219895151 0 0.0037050588712228489 -0.011273333874156683 0 0.00037057961243899297 -0.0071354145043878584 0 0.0037050588712228489 -0.011273333874156683 0 0.0055450709294779738 -0.007180940953001428 0 0.00037057961243899297 -0.0071354145043878584 0 0.0055450709294779738 -0.007180940953001428 0 0.0032209831532928937 -0.0044678078049445015 0 0.0055450709294779738 -0.007180940953001428 0 0.010287091721568385 -0.0091718071482169376 0 0.0083392287091335771 -0.0046985315398159746 0 0.011856746159966826 -0.0064614399353061609 0 0.011023114483734112 -0.0044223843168521943 0 0.008390806718084412 -0.004452272387990697 0 0.010242245001276726 -0.0089236685732426105 0 0.0086793262699026638 -0.0053446850769481276 0 0.011856746159966826 -0.0064614399353061609 0 0.010253550263026098 -0.0086304252428726375 0 0.013621471402797193 -0.0087783898154639717 0 0.011856746159966826 -0.0064614399353061609 0 0.010253550263026098 -0.0086304252428726375 0 0.008390806718084412 -0.004452272387990697 0 0.011856746159966826 -0.0064614399353061609 0 0.01252658162150622 -0.005366735547295551 0 0.011023114483734112 -0.0044223843168521943 0 0.012086081429641736 -0.013012108743419116 0 0.010253550263026098 -0.0086304252428726375 0 0.013621471402797193 -0.0087783898154639717 0 0.011817879529726098 -0.012553703493440543 0 0.010242245001276726 -0.0089236685732426105 0 0.012067473016845213 -0.013459091667939172 0 0.009191744431709151 -0.012586362435768352 0 0.010287091721568385 -0.0091718071482169376 0 0.012086081429641736 -0.013012108743419116 0 0.014537911482605687 -0.011507127618470834 0 0.013621471402797193 -0.0087783898154639717 0 0.014537911482605687 -0.011507127618470834 0 0.013621471402797193 -0.0087783898154639717 0 0.016523163890799497 -0.009158026241349343 0 0.013621471402797193 -0.0087783898154639717 0 0.015276016432196457 -0.0068455147522521629 0 0.016523163890799497 -0.009158026241349343 0 0.013621471402797193 -0.0087783898154639717 0 0.015276016432196457 -0.0068455147522521629 0 0.013565899185562018 -0.0061949350202240858 0 0.011856746159966826 -0.0064614399353061609 0 0.013621471402797193 -0.0087783898154639717 0 0.013565899185562018 -0.0061949350202240858 0 0.013565899185562018 -0.0061949350202240858 0 0.01252658162150622 -0.005366735547295551 0 0.013674092353870682 -0.0043866592948997724 0 0.011856746159966826 -0.0064614399353061609 0 0.013565899185562018 -0.0061949350202240858 0 0.01252658162150622 -0.005366735547295551 0 0.015276016432196457 -0.0068455147522521629 0 0.013565899185562018 -0.0061949350202240858 0 0.013674092353870682 -0.0043866592948997724 0 0.013602337883515473 -0.0036744952411598302 0 0.010790498493769205 -0.0021593315285162464 0 0.012449878715949615 -0.0018427266735735247 0 0.014474453100833461 -0.0039703141322951609 0 0.013248529583164147 -0.0045416405719464871 0 0.0094199707425130525 -0.0021798528541070827 0 0.013602337883515473 -0.0036744952411598302 0 0.013768240665488672 -0.0023099825892800392 0 0.012449878715949615 -0.0018427266735735247 0 0.014452343542867764 -0.0040278103131624853 0 0.012013584571871053 -0.0031569362630020862 0 0.013602337883515473 -0.0036744952411598302 0 0.0094199707425130525 -0.0021798528541070827 0 0.010790498493769205 -0.0021593315285162464 0 0.013674092353870682 -0.0043866592948997724 0 0.011023114483734112 -0.0044223843168521943 0 0.0090197340154693859 -0.0023898963676780688 0 0.01252658162150622 -0.005366735547295551 0 0.013674092353870682 -0.0043866592948997724 0 0.011023114483734112 -0.0044223843168521943 0 0.013248529583164147 -0.0045416405719464871 0 0.0094199707425130525 -0.0021798528541070827 0 0.0090197340154693859 -0.0023898963676780688 0 0.013975917926645402 -0.0047752772668680638 0 0.011921719475728277 -0.0037566287432268838 0 0.011023114483734112 -0.0044223843168521943 0 0.008390806718084412 -0.004452272387990697 0 0.0090197340154693859 -0.0023898963676780688 0 0.010790498493769205 -0.0021593315285162464 0 0.011237212191374213 0.00029012967482497165 0 0.012449878715949615 -0.0018427266735735247 0 0.010790498493769205 -0.0021593315285162464 0 0.010016283640562017 -0.00094044430917176037 0 0.011237212191374213 0.00029012967482497165 0 0.0094199707425130525 -0.0021798528541070827 0 0.010790498493769205 -0.0021593315285162464 0 0.0099041674861758133 -0.001708502257617837 0 0.0093784284874910747 -0.0015415727475892316 0 0.010016283640562017 -0.00094044430917176037 0 0.0086469323469190434 -0.00098062801029193385 0 0.0094199707425130525 -0.0021798528541070827 0 0.0093784284874910747 -0.0015415727475892316 0 0.0086677202121417732 -0.0015488665768902629 0 0.0094199707425130525 -0.0021798528541070827 0 0.0093784284874910747 -0.0015415727475892316 0 0.0099041674861758133 -0.001708502257617837 0 0.010790498493769205 -0.0021593315285162464 0 0.0099041674861758133 -0.001708502257617837 0 0.010016283640562017 -0.00094044430917176037 0 0.0093784284874910747 -0.0015415727475892316 0 0.0099041674861758133 -0.001708502257617837 0 0.010016283640562017 -0.00094044430917176037 0 0.010016283640562017 -0.00094044430917176037 0 0.0086469323469190434 -0.00098062801029193385 0 0.0088750458566163194 4.442469117135893e-05 0 0.010016283640562017 -0.00094044430917176037 0 0.011237212191374213 0.00029012967482497165 0 0.0088750458566163194 4.442469117135893e-05 0 0.011237212191374213 0.00029012967482497165 0 0.012449878715949615 -0.0018427266735735247 0 0.014550939803216614 -0.0011175824945643591 0 0.0098809675468268486 0.00055035994215174989 0 0.012310580900117848 0.0014151958809623863 0 0.013914832752340508 -0.00098284622433335734 0 0.0084641915671263557 -0.0018816793019396257 0 0.012695180696560528 -0.0023242188408027806 0 0.013768240665488672 -0.0023099825892800392 0 0.012449878715949615 -0.0018427266735735247 0 0.014550939803216614 -0.0011175824945643591 0 0.0055450709294779738 -0.007180940953001428 0 0.005827917834014997 -0.0021050502296452596 0 0.0032209831532928937 -0.0044678078049445015 0 0.0031425864908881463 -0.0041353568538672111 0 0.0027313675411484578 -0.0027620225982757859 0 0.0011856101231509457 -0.0014955659776065837 0 0.005827917834014997 -0.0021050502296452596 0 0.0032209831532928937 -0.0044678078049445015 0 0.008390806718084412 -0.004452272387990697 0 0.0090197340154693859 -0.0023898963676780688 0 0.0066219687747557723 -0.00069784706950572596 0 0.0060498100312891077 -0.0029957868711184199 0 0.0083392287091335771 -0.0046985315398159746 0 0.0066219687747557723 -0.00069784706950572596 0 0.0086793262699026638 -0.0053446850769481276 0 0.0078640822657308849 -0.0034884448441726184 0 0.0055450709294779738 -0.007180940953001428 0 0.0060498100312891077 -0.0029957868711184199 0 0.0083392287091335771 -0.0046985315398159746 0 0.0060498100312891077 -0.0029957868711184199 0 0.0066219687747557723 -0.00069784706950572596 0 0.0064460469896202152 0.00092716246662599765 0 0.0086677202121417732 -0.0015488665768902629 0 0.0086469323469190434 -0.00098062801029193385 0 0.0066219687747557723 -0.00069784706950572596 0 0.0090197340154693859 -0.0023898963676780688 0 0.0086677202121417732 -0.0015488665768902629 0 0.0066219687747557723 -0.00069784706950572596 0 0.0094199707425130525 -0.0021798528541070827 0 0.0090197340154693859 -0.0023898963676780688 0 0.0086677202121417732 -0.0015488665768902629 0 0.0093784284874910747 -0.0015415727475892316 0 0.0086677202121417732 -0.0015488665768902629 0 0.0086469323469190434 -0.00098062801029193385 0 0.0086469323469190434 -0.00098062801029193385 0 0.0088750458566163194 4.442469117135893e-05 0 0.0077317714005692133 -0.00012680910104148884 0 0.0088750458566163194 4.442469117135893e-05 0 0.0077317714005692133 -0.00012680910104148884 0 0.0076739176873404629 0.00067629605250538692 0 0.0086469323469190434 -0.00098062801029193385 0 0.0077317714005692133 -0.00012680910104148884 0 0.0066219687747557723 -0.00069784706950572596 0 0.0077317714005692133 -0.00012680910104148884 0 0.0066219687747557723 -0.00069784706950572596 0 0.0064460469896202152 0.00092716246662599765 0 0.0077317714005692133 -0.00012680910104148884 0 0.0064460469896202152 0.00092716246662599765 0 0.0076739176873404629 0.00067629605250538692 0 -0.0014740378301233365 -0.0028883276725957439 0 -0.0016195869583447793 -0.0031449736774215678 0 -0.0017404495129348129 -0.0031218771099563634 0 0.0011856101231509457 -0.0014955659776065837 0 0.005827917834014997 -0.0021050502296452596 0 0.0061694453259082726 0.0028101145977344815 0 0.0027313675411484578 -0.0027620225982757859 0 0.0010462230703476706 -0.0019614442236383953 0 -0.0012723038554891834 -0.0035459595919158982 0 0.0010462230703476706 -0.0019614442236383953 0 -0.0032548525950694194 -0.0043110199569570563 0 -0.0031160506097731027 -0.0032526747918965519 0 -0.0038105280257025023 -0.0040953731866018844 0 -0.0037734058823837391 -0.003644309090060869 0 -0.0025335064407140196 -0.003300217932670632 0 -0.0029127755871926719 -0.0039397092679512693 0 -0.0025335064407140196 -0.003300217932670632 0 -0.0015016945121187871 -0.0031096657910339807 0 -0.0016317840325784177 -0.003269897088540696 0 -0.0016195869583447793 -0.0031449736774215678 0 -0.0016195869583447793 -0.0031449736774215678 0 -0.0017480111491925438 -0.0032237417662781165 0 -0.0017404495129348129 -0.0031218771099563634 0 -0.0016317840325784177 -0.003269897088540696 0 -0.0016195869583447793 -0.0031449736774215678 0 -0.0017480111491925438 -0.0032237417662781165 0 -0.0025335064407140196 -0.003300217932670632 0 -6.288609822640415e-05 -0.0023747133941285016 0 0.0014851692180720293 -0.0017750391986246419 0 0.0023426493644253649 -0.00016824603932698868 0 -0.0062173336481687481 -0.00536240131817635 0 -0.0060266421118009604 -0.0054355907828752817 0 -0.0060163462442520731 -0.0051149524545986329 0 -6.288609822640415e-05 -0.0023747133941285016 0 0.0014851692180720293 -0.0017750391986246419 0 0.00036669897051704422 -0.0032236614219534592 0 0.00048108824579366891 -0.0016406095693811869 0 -0.00081546708280363217 -0.0027651230147218249 0 -6.288609822640415e-05 -0.0023747133941285016 0 0.0010462230703476706 -0.0019614442236383953 0 0.0064460469896202152 0.00092716246662599765 0 0.0076739176873404629 0.00067629605250538692 0 0.0076227138177852056 0.0018608162305917113 0 0.0010462230703476706 -0.0019614442236383953 0 0.0014851692180720293 -0.0017750391986246419 0 0.0088750458566163194 4.442469117135893e-05 0 0.0076739176873404629 0.00067629605250538692 0 0.0076227138177852056 0.0018608162305917113 0 -0.0060266421118009604 -0.0054355907828752817 0 -0.0060163462442520731 -0.0051149524545986329 0 -0.0054749561247739486 -0.0049794650792592127 0 -0.0062003708078377179 -0.0048344503988864002 0 -0.0060163462442520731 -0.0051149524545986329 0 -0.0054749561247739486 -0.0049794650792592127 0 -6.288609822640415e-05 -0.0023747133941285016 0 -0.0026004035461610047 -0.0041339694689054903 0 -0.0062173336481687481 -0.00536240131817635 0 -0.0062003708078377179 -0.0048344503988864002 0 -0.0060163462442520731 -0.0051149524545986329 0 -0.0041608201757351608 -0.0041371017759809165 0 -0.0037734058823837391 -0.003644309090060869 0 -0.0072947267665943857 -0.0046892600751992711 0 -0.007368289768282822 -0.0053500312198912501 0 -0.0070629522231817387 -0.0050817218408367604 0 -0.00034230508150365923 -0.0023533830856138165 0 -0.0012676883273487058 -0.0019940258251125004 0 -0.0013867651401986009 -0.0036229404315201792 0 -0.0072947267665943857 -0.0046892600751992711 0 -0.006587671435571962 -0.0049640957472804597 0 -0.0070629522231817387 -0.0050817218408367604 0 -0.0070226902950303819 -0.0054823008239406569 0 -0.006587671435571962 -0.0049640957472804597 0 -0.0070629522231817387 -0.0050817218408367604 0 -0.0025335064407140196 -0.003300217932670632 0 -0.0026004035461610047 -0.0041339694689054903 0 -0.007368289768282822 -0.0053500312198912501 0 -0.0070226902950303819 -0.0054823008239406569 0 -0.0070629522231817387 -0.0050817218408367604 0 0.010654601259957708 0.0028961880141156067 0 0.012477630491558525 0.0033010878420156654 0 0.012310580900117848 0.0014151958809623863 0 0.012477630491558525 0.0033010878420156654 0 0.012310580900117848 0.0014151958809623863 0 0.014906139721520988 0.0012849235073367888 0 0.0098809675468268486 0.00055035994215174989 0 0.010654601259957708 0.0028961880141156067 0 0.012310580900117848 0.0014151958809623863 0 0.011237212191374213 0.00029012967482497165 0 0.0088750458566163194 4.442469117135893e-05 0 0.0076227138177852056 0.0018608162305917113 0 0.0058857915351960268 0.0020905121391111814 0 0.0087954827349244116 0.0025898056385418402 0 0.0090233050119103483 0.0047928236838843449 0 0.0084641915671263557 -0.0018816793019396257 0 0.0014851692180720293 -0.0017750391986246419 0 0.0098809675468268486 0.00055035994215174989 0 0.0058857915351960268 0.0020905121391111814 0 0.0087954827349244116 0.0025898056385418402 0 0.0098809675468268486 0.00055035994215174989 0 0.010654601259957708 0.0028961880141156067 0 0.0087954827349244116 0.0025898056385418402 0 0.010654601259957708 0.0028961880141156067 0 0.0087954827349244116 0.0025898056385418402 0 0.0090233050119103483 0.0047928236838843449 0 -0.0053691911784568532 -0.004527700902483469 0 -0.0062003708078377179 -0.0048344503988864002 0 -0.0054749561247739486 -0.0049794650792592127 0 0.010654601259957708 0.0028961880141156067 0 0.0090233050119103483 0.0047928236838843449 0 0.011444851550401666 0.0046966371146995598 0 0.0039141078037495929 0.0018207807720607054 0 0.0023426493644253649 -0.00016824603932698868 0 0.012122910255624873 0.0074589248296626403 0 0.0090233050119103483 0.0047928236838843449 0 0.011444851550401666 0.0046966371146995598 0 0.010654601259957708 0.0028961880141156067 0 0.012477630491558525 0.0033010878420156654 0 0.011444851550401666 0.0046966371146995598 0 0.0069008506424813347 0.0037750118177662041 0 0.0065370041973717543 0.0034838784647010994 0 0.012477630491558525 0.0033010878420156654 0 0.011444851550401666 0.0046966371146995598 0 0.013196689245279419 0.004997189460862141 0 0.012122910255624873 0.0074589248296626403 0 0.011444851550401666 0.0046966371146995598 0 0.013196689245279419 0.004997189460862141 0 0.0039141078037495929 0.0018207807720607054 0 0.0065370041973717543 0.0034838784647010994 0 0.015220787831283554 0.0092889214966783498 0 0.013326901764671405 0.0049299417142937285 0 0.016401540233648218 0.0042542466351832417 0 0.012477630491558525 0.0033010878420156654 0 0.013225819156117338 0.0050396171544866853 0 0.014906139721520988 0.0012849235073367888 0 0.0065370041973717543 0.0034838784647010994 0 0.0083917152260198254 0.0020838473210690999 0 0.013326901764671405 0.0049299417142937285 0 0.014906139721520988 0.0012849235073367888 0 0.016401540233648218 0.0042542466351832417 0 0.014906139721520988 0.0012849235073367888 0 0.018514980832284023 0.0015287457807915421 0 0.016329795621471486 -0.00014599952340068448 0 0.014906139721520988 0.0012849235073367888 0 0.018514980832284023 0.0015287457807915421 0 0.016401540233648218 0.0042542466351832417 0 0.018514980832284023 0.0015287457807915421 0 0.019043228586245128 0.0060877881460574372 0 0.016401540233648218 0.0042542466351832417 0 0.012398491981643306 0.0071517046015135118 0 0.018313228327092777 0.0074646637542110147 0 0.018030034859103941 0.002353553901755687 0 0.013958982475610469 0.0045902945828593944 0 0.019754399357263534 0.001750449418339603 0 0.018313228327092777 0.0074646637542110147 0 0.018030034859103941 0.002353553901755687 0 0.023616216189475767 0.0027867354888736636 0 0.019754399357263534 0.001750449418339603 0 0.025107147404763261 -0.0016695998359999658 0 0.018514980832284023 0.0015287457807915421 0 0.019043228586245128 0.0060877881460574372 0 0.022853163326041665 0.0028769010684359308 0 0.018514980832284023 0.0015287457807915421 0 0.022853163326041665 0.0028769010684359308 0 0.021959074175727438 -0.00057323612302831255 0 0.018514980832284023 0.0015287457807915421 0 0.021959074175727438 -0.00057323612302831255 0 0.017948491744276349 -0.0024342773171927134 0 0.022853163326041665 0.0028769010684359308 0 0.021959074175727438 -0.00057323612302831255 0 0.026629095461395077 -0.00030094973851940905 0 0.021959074175727438 -0.00057323612302831255 0 0.023812350431184386 -0.0033559093445977932 0 0.026629095461395077 -0.00030094973851940905 0 0.023812350431184386 -0.0033559093445977932 0 0.020941514389486462 -0.0037770012433261868 0 0.022722258129200062 -0.0071728237564292847 0 0.021959074175727438 -0.00057323612302831255 0 0.023812350431184386 -0.0033559093445977932 0 0.020941514389486462 -0.0037770012433261868 0 0.021959074175727438 -0.00057323612302831255 0 0.020941514389486462 -0.0037770012433261868 0 0.017948491744276349 -0.0024342773171927134 0 0.017948491744276349 -0.0024342773171927134 0 0.016068003692352964 -0.0035491384109282041 0 0.017915895881781392 -0.0053894713573304194 0 0.020941514389486462 -0.0037770012433261868 0 0.017948491744276349 -0.0024342773171927134 0 0.017915895881781392 -0.0053894713573304194 0 0.017948491744276349 -0.0024342773171927134 0 0.016068003692352964 -0.0035491384109282041 0 0.014934297581035967 -0.0026618676103641399 0 0.014474453100833461 -0.0039703141322951609 0 0.013248529583164147 -0.0045416405719464871 0 0.017421143739058779 -0.0066228604834593389 0 0.013602337883515473 -0.0036744952411598302 0 0.016068003692352964 -0.0035491384109282041 0 0.017915895881781392 -0.0053894713573304194 0 0.014452343542867764 -0.0040278103131624853 0 0.018754406382883716 -0.0055801952111630129 0 0.013602337883515473 -0.0036744952411598302 0 0.013768240665488672 -0.0023099825892800392 0 0.014934297581035967 -0.0026618676103641399 0 0.013602337883515473 -0.0036744952411598302 0 0.016068003692352964 -0.0035491384109282041 0 0.014934297581035967 -0.0026618676103641399 0 0.014608425269592733 -0.002715958421307397 0 0.012695180696560528 -0.0023242188408027806 0 0.017948491744276349 -0.0024342773171927134 0 0.013914832752340508 -0.00098284622433335734 0 0.016329795621471486 -0.00014599952340068448 0 0.017948491744276349 -0.0024342773171927134 0 0.014934297581035967 -0.0026618676103641399 0 0.014550939803216614 -0.0011175824945643591 0 0.013768240665488672 -0.0023099825892800392 0 0.014934297581035967 -0.0026618676103641399 0 0.014550939803216614 -0.0011175824945643591 0 0.012310580900117848 0.0014151958809623863 0 0.014906139721520988 0.0012849235073367888 0 0.013914832752340508 -0.00098284622433335734 0 0.014906139721520988 0.0012849235073367888 0 0.013914832752340508 -0.00098284622433335734 0 0.016329795621471486 -0.00014599952340068448 0 0.018514980832284023 0.0015287457807915421 0 0.017948491744276349 -0.0024342773171927134 0 0.016329795621471486 -0.00014599952340068448 0 -0.0046104438200059925 -0.0029125807598696044 0 -0.0037347308299647401 -0.0047508486201397028 0 -0.001155843211024604 -0.0050899148358711406 0 -0.0082536430960465732 -0.00093475330078190446 0 -0.0077843215604558929 -0.00086112333913850839 0 -0.0084358651111436384 -0.00071126410682796463 0 -0.0077843215604558929 -0.00086112333913850839 0 -0.0084358651111436384 -0.00071126410682796463 0 -0.0084550926169207376 -0.00048035143244554059 0 -0.0054656490301548512 -0.00165470252824103 0 -0.0036603769920582909 -0.002162786176959398 0 -0.0082536430960465732 -0.00093475330078190446 0 -0.0079987713378797485 -0.0012470198650065684 0 -0.0077843215604558929 -0.00086112333913850839 0 -0.0082536430960465732 -0.00093475330078190446 0 -0.0083374621355961232 -0.0011084658859220632 0 -0.0079987713378797485 -0.0012470198650065684 0 -0.0083374621355961232 -0.0011084658859220632 0 -0.0084364253131944122 -0.0014536234270053666 0 -0.0079987713378797485 -0.0012470198650065684 0 -0.0078348985639056477 -0.0016974213739730198 0 -0.0084364253131944122 -0.0014536234270053666 0 -0.0079987713378797485 -0.0012470198650065684 0 -0.0079987713378797485 -0.0012470198650065684 0 -0.0075870940815351545 -0.001414254172467949 0 -0.0077843215604558929 -0.00086112333913850839 0 -0.0075870940815351545 -0.001414254172467949 0 -0.0077843215604558929 -0.00086112333913850839 0 -0.0069933883135449466 -0.0015931517804229757 0 -0.0078348985639056477 -0.0016974213739730198 0 -0.0079987713378797485 -0.0012470198650065684 0 -0.0075870940815351545 -0.001414254172467949 0 0.029064988159779936 0.0032472908211676828 0 0.029343480340268881 -0.0021270149298159504 0 0.03489508649163222 -0.0017048551888467686 0 -0.0046104438200059925 -0.0029125807598696044 0 -0.0061393819635031854 -0.0025591636328880008 0 -0.0037347308299647401 -0.0047508486201397028 0 0.011372843233670901 -0.0003231038847195996 0 0.015531789534638676 -0.0036305498732056378 0 0.023616216189475767 0.0027867354888736636 0 0.023882426003980158 -0.0025925527569920165 0 0.029343480340268881 -0.0021270149298159504 0 0.029064988159779936 0.0032472908211676828 0 0.023616216189475767 0.0027867354888736636 0 0.029343480340268881 -0.0021270149298159504 0 -0.0054656490301548512 -0.00165470252824103 0 -0.0061119034622117135 -0.001433200061807162 0 -0.0073755830282486437 -0.0015175808358696944 0 -0.0075870940815351545 -0.001414254172467949 0 -0.0069933883135449466 -0.0015931517804229757 0 0.0075082646283319739 0.002266307786564684 0 0.011372843233670901 -0.0003231038847195996 0 -0.007605593791985059 -0.0013219317155085755 0 -0.0061393819635031854 -0.0025591636328880008 0 -0.0069933883135449466 -0.0015931517804229757 0 -0.0046104438200059925 -0.0029125807598696044 0 -0.0061393819635031854 -0.0025591636328880008 0 -0.0069933883135449466 -0.0015931517804229757 0 0.023396211780645271 0.0080320410614812977 0 0.029064988159779936 0.0032472908211676828 0 0.023616216189475767 0.0027867354888736636 0 0.023396211780645271 0.0080320410614812977 0 0.018313228327092777 0.0074646637542110147 0 0.023616216189475767 0.0027867354888736636 0 0.018030034859103941 0.002353553901755687 0 0.023616216189475767 0.0027867354888736636 0 0.023882426003980158 -0.0025925527569920165 0 0.023812350431184386 -0.0033559093445977932 0 0.026629095461395077 -0.00030094973851940905 0 0.026820639572327446 -0.0049626609651522218 0 0.026629095461395077 -0.00030094973851940905 0 0.030409844311940274 -0.0034916905401793062 0 0.026820639572327446 -0.0049626609651522218 0 0.025107147404763261 -0.0016695998359999658 0 0.030381932194524307 -0.0052567946917229788 0 0.023882426003980158 -0.0025925527569920165 0 0.029969292535819134 -0.0076626194764841098 0 0.029343480340268881 -0.0021270149298159504 0 0.029969292535819134 -0.0076626194764841098 0 0.029343480340268881 -0.0021270149298159504 0 0.03489508649163222 -0.0017048551888467686 0 0.029969292535819134 -0.0076626194764841098 0 0.036330136000218824 -0.0078352916425459569 0 0.03489508649163222 -0.0017048551888467686 0 0.029969292535819134 -0.0076626194764841098 0 0.036330136000218824 -0.0078352916425459569 0 0.036244856663157625 -0.012678872577125229 0 0.036330136000218824 -0.0078352916425459569 0 0.03489508649163222 -0.0017048551888467686 0 0.040811716370104036 -0.0068335002293301731 0 0.036330136000218824 -0.0078352916425459569 0 0.040811716370104036 -0.0068335002293301731 0 0.039754388241383984 -0.010237578097603447 0 -0.0037347308299647401 -0.0047508486201397028 0 -0.001155843211024604 -0.0050899148358711406 0 -0.00063034094945227099 -0.0076298905687955101 0 0.015531789534638676 -0.0036305498732056378 0 0.019773115117847993 -0.0072780795204326256 0 0.034075463436052542 -0.0067007624716414688 0 0.032504899646519494 -0.010424902092979691 0 0.037460943293025108 -0.0096859976665804089 0 0.035745531222979868 -0.0086063960185752322 0 0.041282936319175637 -0.011066446814220494 0 0.036330136000218824 -0.0078352916425459569 0 0.036244856663157625 -0.012678872577125229 0 0.039754388241383984 -0.010237578097603447 0 0.036244856663157625 -0.012678872577125229 0 0.039754388241383984 -0.010237578097603447 0 0.040239641801960609 -0.013171940381014812 0 0.030381932194524307 -0.0052567946917229788 0 0.035745531222979868 -0.0086063960185752322 0 0.030409844311940274 -0.0034916905401793062 0 0.034075463436052542 -0.0067007624716414688 0 0.030819928877692665 -0.0075003417936221981 0 0.034075463436052542 -0.0067007624716414688 0 0.030819928877692665 -0.0075003417936221981 0 0.032504899646519494 -0.010424902092979691 0 0.028403161390257725 -0.0090010950591276739 0 0.030360358013007505 -0.011579980674477618 0 0.032504899646519494 -0.010424902092979691 0 0.027567372631414219 -0.0087262847073683106 0 0.029941059952173079 -0.0095532127549108146 0 0.030819928877692665 -0.0075003417936221981 0 0.027624807815334995 -0.0088702937757843513 0 0.032504899646519494 -0.010424902092979691 0 0.030819928877692665 -0.0075003417936221981 0 0.026820639572327446 -0.0049626609651522218 0 0.027624807815334995 -0.0088702937757843513 0 0.030409844311940274 -0.0034916905401793062 0 0.030819928877692665 -0.0075003417936221981 0 0.026820639572327446 -0.0049626609651522218 0 0.026820639572327446 -0.0049626609651522218 0 0.027624807815334995 -0.0088702937757843513 0 0.022722258129200062 -0.0071728237564292847 0 0.027567372631414219 -0.0087262847073683106 0 0.023313060215911997 -0.0072193366632658674 0 0.028403161390257725 -0.0090010950591276739 0 0.026768314518137711 -0.011728332756799263 0 0.025280868739009598 -0.010425689175106645 0 0.028403161390257725 -0.0090010950591276739 0 0.026768314518137711 -0.011728332756799263 0 0.028555544807169032 -0.011824346886568936 0 0.026768314518137711 -0.011728332756799263 0 0.027879177414958489 -0.013074558814986379 0 0.028555544807169032 -0.011824346886568936 0 0.026768314518137711 -0.011728332756799263 0 0.026391284602297484 -0.013482255382860258 0 0.027879177414958489 -0.013074558814986379 0 0.026768314518137711 -0.011728332756799263 0 0.026391284602297484 -0.013482255382860258 0 0.024849381909520074 -0.012305532572137913 0 0.038380425487375892 -0.01293178057846037 0 0.039004924520063315 -0.013336111766602855 0 0.026391284602297484 -0.013482255382860258 0 0.027055554717460139 -0.014720141885765725 0 0.025196458180422779 -0.014499594874127402 0 0.027088205667670846 -0.014701767349086636 0 0.028340707403971478 -0.014465257152670167 0 0.028069623363631217 -0.016442185579664852 0 0.026391284602297484 -0.013482255382860258 0 0.027088205667670846 -0.014701767349086636 0 0.028340707403971478 -0.014465257152670167 0 0.026391284602297484 -0.013482255382860258 0 0.028340707403971478 -0.014465257152670167 0 0.027879177414958489 -0.013074558814986379 0 0.028340707403971478 -0.014465257152670167 0 0.027879177414958489 -0.013074558814986379 0 0.029556324366766779 -0.013696295060051766 0 0.028340707403971478 -0.014465257152670167 0 0.029556324366766779 -0.013696295060051766 0 0.029791549457076693 -0.015626510581961527 0 0.029556324366766779 -0.013696295060051766 0 0.031807666702724738 -0.015876012109303669 0 0.029791549457076693 -0.015626510581961527 0 0.029556324366766779 -0.013696295060051766 0 0.030360358013007505 -0.011579980674477618 0 0.032287562556360012 -0.013237908526663962 0 0.028403161390257725 -0.0090010950591276739 0 0.028555544807169032 -0.011824346886568936 0 0.030360358013007505 -0.011579980674477618 0 0.027879177414958489 -0.013074558814986379 0 0.029556324366766779 -0.013696295060051766 0 0.028555544807169032 -0.011824346886568936 0 0.029556324366766779 -0.013696295060051766 0 0.028555544807169032 -0.011824346886568936 0 0.030360358013007505 -0.011579980674477618 0 0.030360358013007505 -0.011579980674477618 0 0.032504899646519494 -0.010424902092979691 0 0.032287562556360012 -0.013237908526663962 0 0.029556324366766779 -0.013696295060051766 0 0.032287562556360012 -0.013237908526663962 0 0.031807666702724738 -0.015876012109303669 0 0.032287562556360012 -0.013237908526663962 0 0.031807666702724738 -0.015876012109303669 0 0.036046248065654346 -0.013927126783901683 0 0.032504899646519494 -0.010424902092979691 0 0.037460943293025108 -0.0096859976665804089 0 0.036046248065654346 -0.013927126783901683 0 0.032504899646519494 -0.010424902092979691 0 0.032287562556360012 -0.013237908526663962 0 0.036046248065654346 -0.013927126783901683 0 0.01922374797481944 -0.0093246720463997981 0 0.018156258114179907 -0.0067233884334719262 0 0.021813490487369549 -0.0087122347807119735 0 0.01922374797481944 -0.0093246720463997981 0 0.021813490487369549 -0.0087122347807119735 0 0.020508099110703715 -0.011232937088791349 0 0.01922374797481944 -0.0093246720463997981 0 0.016523163890799497 -0.009158026241349343 0 0.018631067604372688 -0.011271298851293302 0 0.01922374797481944 -0.0093246720463997981 0 0.016523163890799497 -0.009158026241349343 0 0.018156258114179907 -0.0067233884334719262 0 0.015276016432196457 -0.0068455147522521629 0 0.013674092353870682 -0.0043866592948997724 0 0.018156258114179907 -0.0067233884334719262 0 0.013975917926645402 -0.0047752772668680638 0 0.017610590686591088 -0.0065973644065206423 0 0.014474453100833461 -0.0039703141322951609 0 0.017421143739058779 -0.0066228604834593389 0 0.019394850166359431 -0.0057216530234780556 0 0.015276016432196457 -0.0068455147522521629 0 0.016523163890799497 -0.009158026241349343 0 0.018156258114179907 -0.0067233884334719262 0 0.017610590686591088 -0.0065973644065206423 0 0.021050191145676272 -0.0083279701498039874 0 0.017421143739058779 -0.0066228604834593389 0 0.019394850166359431 -0.0057216530234780556 0 0.02144921862674876 -0.008593361619347404 0 0.020941514389486462 -0.0037770012433261868 0 0.017915895881781392 -0.0053894713573304194 0 0.022722258129200062 -0.0071728237564292847 0 0.019394850166359431 -0.0057216530234780556 0 0.024066375313884388 -0.0074125015151407124 0 0.02144921862674876 -0.008593361619347404 0 0.018754406382883716 -0.0055801952111630129 0 0.023313060215911997 -0.0072193366632658674 0 0.023812350431184386 -0.0033559093445977932 0 0.026820639572327446 -0.0049626609651522218 0 0.022722258129200062 -0.0071728237564292847 0 0.024066375313884388 -0.0074125015151407124 0 0.025280868739009598 -0.010425689175106645 0 0.02144921862674876 -0.008593361619347404 0 0.028403161390257725 -0.0090010950591276739 0 0.024066375313884388 -0.0074125015151407124 0 0.025280868739009598 -0.010425689175106645 0 0.025280868739009598 -0.010425689175106645 0 0.021813490487369549 -0.0087122347807119735 0 0.022918063164473684 -0.011761853614981107 0 0.022868216665317027 -0.009237878337009342 0 0.021050191145676272 -0.0083279701498039874 0 0.021813490487369549 -0.0087122347807119735 0 0.022918063164473684 -0.011761853614981107 0 0.020508099110703715 -0.011232937088791349 0 0.022918063164473684 -0.011761853614981107 0 0.021208564717762925 -0.01296985916667732 0 0.020508099110703715 -0.011232937088791349 0 0.026768314518137711 -0.011728332756799263 0 0.025280868739009598 -0.010425689175106645 0 0.024849381909520074 -0.012305532572137913 0 0.025280868739009598 -0.010425689175106645 0 0.022918063164473684 -0.011761853614981107 0 0.024849381909520074 -0.012305532572137913 0 0.022918063164473684 -0.011761853614981107 0 0.024849381909520074 -0.012305532572137913 0 0.023993132784036333 -0.013684548917544762 0 0.026391284602297484 -0.013482255382860258 0 0.025111600330811484 -0.013518114133118278 0 0.025196458180422779 -0.014499594874127402 0 0.026391284602297484 -0.013482255382860258 0 0.024849381909520074 -0.012305532572137913 0 0.025111600330811484 -0.013518114133118278 0 0.024849381909520074 -0.012305532572137913 0 0.025111600330811484 -0.013518114133118278 0 0.023993132784036333 -0.013684548917544762 0 0.025111600330811484 -0.013518114133118278 0 0.023993132784036333 -0.013684548917544762 0 0.025196458180422779 -0.014499594874127402 0 0.023993132784036333 -0.013684548917544762 0 0.02382979787083472 -0.015016562298991027 0 0.025196458180422779 -0.014499594874127402 0 0.02382979787083472 -0.015016562298991027 0 0.025196458180422779 -0.014499594874127402 0 0.02469223239525329 -0.01633197564316928 0 0.027055554717460139 -0.014720141885765725 0 0.025196458180422779 -0.014499594874127402 0 0.02469223239525329 -0.01633197564316928 0 0.022918063164473684 -0.011761853614981107 0 0.023993132784036333 -0.013684548917544762 0 0.02230574934832771 -0.014310603658950023 0 0.022918063164473684 -0.011761853614981107 0 0.021208564717762925 -0.01296985916667732 0 0.02230574934832771 -0.014310603658950023 0 0.021208564717762925 -0.01296985916667732 0 0.02230574934832771 -0.014310603658950023 0 0.020880778528020245 -0.014764288979400415 0 0.023993132784036333 -0.013684548917544762 0 0.02382979787083472 -0.015016562298991027 0 0.02230574934832771 -0.014310603658950023 0 0.02382979787083472 -0.015016562298991027 0 0.02230574934832771 -0.014310603658950023 0 0.022603678013776923 -0.015896113661353128 0 0.02230574934832771 -0.014310603658950023 0 0.020880778528020245 -0.014764288979400415 0 0.022603678013776923 -0.015896113661353128 0 0.020880778528020245 -0.014764288979400415 0 0.01906839903780878 -0.015131268366573815 0 0.019437973476064865 -0.01318939744611566 0 0.021208564717762925 -0.01296985916667732 0 0.020880778528020245 -0.014764288979400415 0 0.019437973476064865 -0.01318939744611566 0 0.021208564717762925 -0.01296985916667732 0 0.019437973476064865 -0.01318939744611566 0 0.020508099110703715 -0.011232937088791349 0 0.019437973476064865 -0.01318939744611566 0 0.018631067604372688 -0.011271298851293302 0 0.020508099110703715 -0.011232937088791349 0 0.01922374797481944 -0.0093246720463997981 0 0.018631067604372688 -0.011271298851293302 0 0.020508099110703715 -0.011232937088791349 0 0.01892448873427429 -0.012081171499149213 0 0.019623314212082143 -0.014520748563788655 0 0.014537911482605687 -0.011507127618470834 0 0.016523163890799497 -0.009158026241349343 0 0.015979498890455187 -0.015117411213265588 0 0.016523163890799497 -0.009158026241349343 0 0.018631067604372688 -0.011271298851293302 0 0.01656203661005453 -0.013370574309485425 0 0.019437973476064865 -0.01318939744611566 0 0.018631067604372688 -0.011271298851293302 0 0.01656203661005453 -0.013370574309485425 0 0.01906839903780878 -0.015131268366573815 0 0.019437973476064865 -0.01318939744611566 0 0.01656203661005453 -0.013370574309485425 0 0.01906839903780878 -0.015131268366573815 0 0.01656203661005453 -0.013370574309485425 0 0.018193710522371277 -0.016681716163827621 0 0.01656203661005453 -0.013370574309485425 0 0.018193710522371277 -0.016681716163827621 0 0.01637466372258772 -0.017526191723109846 0 0.019623314212082143 -0.014520748563788655 0 0.02261043134820602 -0.017647342886409907 0 0.018193710522371277 -0.016681716163827621 0 0.018701913583469669 -0.018762865616890667 0 0.01637466372258772 -0.017526191723109846 0 0.018701913583469669 -0.018762865616890667 0 0.01637466372258772 -0.017526191723109846 0 0.016109014429265468 -0.021641758534272904 0 0.018701913583469669 -0.018762865616890667 0 0.021076281498949315 -0.018999700609218795 0 0.01966170718734388 -0.021054775970377367 0 0.018701913583469669 -0.018762865616890667 0 0.021076281498949315 -0.018999700609218795 0 0.020666744767700737 -0.017061132793758871 0 0.01906839903780878 -0.015131268366573815 0 0.018193710522371277 -0.016681716163827621 0 0.020666744767700737 -0.017061132793758871 0 0.018193710522371277 -0.016681716163827621 0 0.018701913583469669 -0.018762865616890667 0 0.020666744767700737 -0.017061132793758871 0 0.020880778528020245 -0.014764288979400415 0 0.01906839903780878 -0.015131268366573815 0 0.020666744767700737 -0.017061132793758871 0 0.020880778528020245 -0.014764288979400415 0 0.020666744767700737 -0.017061132793758871 0 0.022603678013776923 -0.015896113661353128 0 0.020666744767700737 -0.017061132793758871 0 0.022603678013776923 -0.015896113661353128 0 0.02308582599525244 -0.017648032582144358 0 0.022603678013776923 -0.015896113661353128 0 0.02308582599525244 -0.017648032582144358 0 0.02469223239525329 -0.01633197564316928 0 0.027055554717460139 -0.014720141885765725 0 0.02469223239525329 -0.01633197564316928 0 0.024975303365026593 -0.017909562134124511 0 0.02382979787083472 -0.015016562298991027 0 0.022603678013776923 -0.015896113661353128 0 0.02469223239525329 -0.01633197564316928 0 0.02308582599525244 -0.017648032582144358 0 0.02469223239525329 -0.01633197564316928 0 0.024948252519394965 -0.017867748845036835 0 0.039110567995414368 -0.01350444245305259 0 0.039712042526624233 -0.013241971419919337 0 0.041027325166449892 -0.01141573918217215 0 0.041574591379343342 -0.010545836476739793 0 0.040900590619660664 -0.010663440919568315 0 0.039712042526624233 -0.013241971419919337 0 0.041505017509725732 -0.011574066630796243 0 0.02308582599525244 -0.017648032582144358 0 0.024948252519394965 -0.017867748845036835 0 0.02328618506297913 -0.020461025409139875 0 0.041214996334150461 -0.012309334543894906 0 0.041250441509739638 -0.012521634043049427 0 0.041356922231924775 -0.01238923910748343 0 0.039712042526624233 -0.013241971419919337 0 0.043456272018408869 -0.010710406135428377 0 0.021076281498949315 -0.018999700609218795 0 0.02308582599525244 -0.017648032582144358 0 0.02328618506297913 -0.020461025409139875 0 0.021076281498949315 -0.018999700609218795 0 0.020666744767700737 -0.017061132793758871 0 0.02308582599525244 -0.017648032582144358 0 0.021076281498949315 -0.018999700609218795 0 0.02328618506297913 -0.020461025409139875 0 0.01966170718734388 -0.021054775970377367 0 0.050648821979107667 -0.0081209817818131656 0 0.052145745966984576 -0.005837154168724103 0 0.052895457316495004 -0.0077059296635477621 0 0.041505017509725732 -0.011574066630796243 0 0.036077847815271319 -0.012679343311432415 0 0.041505017509725732 -0.011574066630796243 0 0.049184253952576841 -0.0051163934012041805 0 0.052246405356234933 -0.0060015502041751148 0 0.051588163815351917 -0.0061180797611785692 0 0.052085357225379353 -0.0052764362020273183 0 0.043456272018408869 -0.010710406135428377 0 0.046751841105129005 -0.0070582806975776511 0 0.051588163815351917 -0.0061180797611785692 0 0.052085357225379353 -0.0052764362020273183 0 0.051435671796513267 -0.0050614007791225614 0 0.041505017509725732 -0.011574066630796243 0 0.043456272018408869 -0.010710406135428377 0 0.052085357225379353 -0.0052764362020273183 0 0.051435671796513267 -0.0050614007791225614 0 0.052148320987815515 -0.0044044107998061814 0 0.052246405356234933 -0.0060015502041751148 0 0.052085357225379353 -0.0052764362020273183 0 0.052999842827762884 -0.0048073417959976503 0 0.052085357225379353 -0.0052764362020273183 0 0.052999842827762884 -0.0048073417959976503 0 0.052148320987815515 -0.0044044107998061814 0 0.052145745966984576 -0.005837154168724103 0 0.05390768242567056 -0.0059798587547427494 0 0.052895457316495004 -0.0077059296635477621 0 0.05390768242567056 -0.0059798587547427494 0 0.055190995175977094 -0.0048813963625749281 0 0.0550365392411084 -0.0072851946179342689 0 0.036077847815271319 -0.012679343311432415 0 0.03076237119813597 -0.012885457579381011 0 0.018701913583469669 -0.018762865616890667 0 0.01966170718734388 -0.021054775970377367 0 0.016109014429265468 -0.021641758534272904 0 0.05390768242567056 -0.0059798587547427494 0 0.052895457316495004 -0.0077059296635477621 0 0.0550365392411084 -0.0072851946179342689 0 0.041125444106046148 -0.012773998263266884 0 0.04139691195035259 -0.011050528164629703 0 0.041125444106046148 -0.012773998263266884 0 0.041288042249456945 -0.012121491788018553 0 0.034724069204608972 -0.017981427723072315 0 0.031807666702724738 -0.015876012109303669 0 0.036046248065654346 -0.013927126783901683 0 0.034724069204608972 -0.017981427723072315 0 0.031807666702724738 -0.015876012109303669 0 0.031533535981766767 -0.017931866397620372 0 0.031807666702724738 -0.015876012109303669 0 0.031533535981766767 -0.017931866397620372 0 0.029814802276900466 -0.017452730116627596 0 0.034724069204608972 -0.017981427723072315 0 0.031533535981766767 -0.017931866397620372 0 0.033460813055899007 -0.022003267111179906 0 0.031533535981766767 -0.017931866397620372 0 0.030268681162200592 -0.019328129407054622 0 0.033460813055899007 -0.022003267111179906 0 0.042804961468207316 -0.011498326661177406 0 0.039672056946787632 -0.012657140479117134 0 0.029735318743087796 -0.019409178188333202 0 0.029814802276900466 -0.017452730116627596 0 0.028069623363631217 -0.016442185579664852 0 0.030268681162200592 -0.019328129407054622 0 0.029735318743087796 -0.019409178188333202 0 0.030413711344531923 -0.018399704347721618 0 0.042545112450709965 -0.011566317696478144 0 0.042804961468207316 -0.011498326661177406 0 0.029735318743087796 -0.019409178188333202 0 0.030413711344531923 -0.018399704347721618 0 0.029814802276900466 -0.017452730116627596 0 0.031533535981766767 -0.017931866397620372 0 0.030268681162200592 -0.019328129407054622 0 0.030413711344531923 -0.018399704347721618 0 0.031533535981766767 -0.017931866397620372 0 0.030413711344531923 -0.018399704347721618 0 0.029814802276900466 -0.017452730116627596 0 0.031807666702724738 -0.015876012109303669 0 0.029814802276900466 -0.017452730116627596 0 0.029791549457076693 -0.015626510581961527 0 0.028340707403971478 -0.014465257152670167 0 0.029791549457076693 -0.015626510581961527 0 0.028069623363631217 -0.016442185579664852 0 0.029814802276900466 -0.017452730116627596 0 0.029791549457076693 -0.015626510581961527 0 0.028069623363631217 -0.016442185579664852 0 0.041396025517114861 -0.012032221651904956 0 0.041478108459853211 -0.012183803284817048 0 0.041362054146143919 -0.012259064001666087 0 0.041396025517114861 -0.012032221651904956 0 0.041214996334150461 -0.012309334543894906 0 0.041362054146143919 -0.012259064001666087 0 0.039004924520063315 -0.013336111766602855 0 0.039712042526624233 -0.013241971419919337 0 0.039004924520063315 -0.013336111766602855 0 0.039672056946787632 -0.012657140479117134 0 0.041250441509739638 -0.012521634043049427 0 0.04164640048736578 -0.012452357520889563 0 0.041356922231924775 -0.01238923910748343 0 0.041214996334150461 -0.012309334543894906 0 0.041362054146143919 -0.012259064001666087 0 0.041356922231924775 -0.01238923910748343 0 0.04164640048736578 -0.012452357520889563 0 0.041362054146143919 -0.012259064001666087 0 0.041356922231924775 -0.01238923910748343 0 0.043456272018408869 -0.010710406135428377 0 0.042804961468207316 -0.011498326661177406 0 0.041618426505244305 -0.012435829654056447 0 0.041478108459853211 -0.012183803284817048 0 0.041362054146143919 -0.012259064001666087 0 0.042804961468207316 -0.011498326661177406 0 0.042352462340183972 -0.011526520740412204 0 0.05193589433219728 -0.0071964778776386915 0 0.051729469219165755 -0.0058592151429594673 0 0.050635623638209379 -0.0063108585148354025 0 0.05193589433219728 -0.0071964778776386915 0 0.050236694183200169 -0.0074917656229941329 0 0.050635623638209379 -0.0063108585148354025 0 0.051729469219165755 -0.0058592151429594673 0 0.05057388635717195 -0.0052943915313577432 0 0.050635623638209379 -0.0063108585148354025 0 0.05057388635717195 -0.0052943915313577432 0 0.049926759538493973 -0.0056420853084140866 0 0.050635623638209379 -0.0063108585148354025 0 0.049926759538493973 -0.0056420853084140866 0 0.050635623638209379 -0.0063108585148354025 0 0.049656419531313542 -0.0063761870535529192 0 0.042804961468207316 -0.011498326661177406 0 0.045322074551618283 -0.0090280877302284061 0 0.050236694183200169 -0.0074917656229941329 0 0.050635623638209379 -0.0063108585148354025 0 0.049656419531313542 -0.0063761870535529192 0 0.042804961468207316 -0.011498326661177406 0 0.04139691195035259 -0.011050528164629703 0 0.050436580155438664 -0.0082971090546411306 0 0.0497936263819488 -0.007050236862115135 0 0.048779410917775212 -0.0071000814090510121 0 0.030268681162200592 -0.019328129407054622 0 0.029738716868520469 -0.019406879623420328 0 0.033460813055899007 -0.022003267111179906 0 0.0497936263819488 -0.007050236862115135 0 0.048872069521026892 -0.0068050474526330038 0 0.048779410917775212 -0.0071000814090510121 0 0.049926759538493973 -0.0056420853084140866 0 0.049656419531313542 -0.0063761870535529192 0 0.049088139656086285 -0.0052799058559174442 0 0.0497936263819488 -0.007050236862115135 0 0.049169208716985893 -0.0057474465465827684 0 0.048872069521026892 -0.0068050474526330038 0 0.045322074551618283 -0.0090280877302284061 0 0.046285747539793913 -0.0073317372475527193 0 0.04139691195035259 -0.011050528164629703 0 0.043903548209687435 -0.010318383012843178 0 0.048319821629027773 -0.0061346404853550958 0 0.048774799478010035 -0.007116061127423111 0 0.047030219084640869 -0.0058850844151449927 0 0.048872069521026892 -0.0068050474526330038 0 0.048319821629027773 -0.0061346404853550958 0 0.048774799478010035 -0.007116061127423111 0 0.049169208716985893 -0.0057474465465827684 0 0.048872069521026892 -0.0068050474526330038 0 0.048319821629027773 -0.0061346404853550958 0 0.047995526057669893 -0.0090054500504477969 0 0.048642240430974662 -0.0071155575069471472 0 0.04713958075007485 -0.0075163152410441646 0 0.041495473601432208 -0.010885934771804513 0 0.04139691195035259 -0.011050528164629703 0 0.048474477288390376 -0.0042962941751896796 0 0.0490771181362811 -0.0029210296886251191 0 0.04768377097686359 -0.0036395724254859904 0 0.048474477288390376 -0.0042962941751896796 0 0.047743997634305937 -0.0043768873210780421 0 0.04768377097686359 -0.0036395724254859904 0 0.048474477288390376 -0.0042962941751896796 0 0.047743997634305937 -0.0043768873210780421 0 0.047799412780885356 -0.0051076320928577197 0 0.049169208716985893 -0.0057474465465827684 0 0.048319821629027773 -0.0061346404853550958 0 0.047799412780885356 -0.0051076320928577197 0 0.046285747539793913 -0.0073317372475527193 0 0.046458591008516313 -0.006609020444219715 0 0.048319821629027773 -0.0061346404853550958 0 0.047799412780885356 -0.0051076320928577197 0 0.047030219084640869 -0.0058850844151449927 0 0.049169208716985893 -0.0057474465465827684 0 0.048474477288390376 -0.0042962941751896796 0 0.047799412780885356 -0.0051076320928577197 0 0.049088139656086285 -0.0052799058559174442 0 0.048474477288390376 -0.0042962941751896796 0 0.049279675560566685 -0.0044659137320337229 0 0.049926759538493973 -0.0056420853084140866 0 0.049088139656086285 -0.0052799058559174442 0 0.04989814340124394 -0.0048540565329072988 0 0.049088139656086285 -0.0052799058559174442 0 0.049279675560566685 -0.0044659137320337229 0 0.04989814340124394 -0.0048540565329072988 0 0.049279675560566685 -0.0044659137320337229 0 0.04989343028892735 -0.0039320677411800505 0 0.04989814340124394 -0.0048540565329072988 0 0.048474477288390376 -0.0042962941751896796 0 0.049258796845548417 -0.0037985654881536098 0 0.0490771181362811 -0.0029210296886251191 0 0.049279675560566685 -0.0044659137320337229 0 0.049258796845548417 -0.0037985654881536098 0 0.04989343028892735 -0.0039320677411800505 0 0.048474477288390376 -0.0042962941751896796 0 0.049279675560566685 -0.0044659137320337229 0 0.049258796845548417 -0.0037985654881536098 0 0.049258796845548417 -0.0037985654881536098 0 0.04989343028892735 -0.0039320677411800505 0 0.049579512564169634 -0.0031128118011426271 0 0.050659992204904206 -0.0036927804807201682 0 0.04989343028892735 -0.0039320677411800505 0 0.05023038348303329 -0.002915572825182176 0 0.04989343028892735 -0.0039320677411800505 0 0.05023038348303329 -0.002915572825182176 0 0.049579512564169634 -0.0031128118011426271 0 0.050659992204904206 -0.0036927804807201682 0 0.04989343028892735 -0.0039320677411800505 0 0.050601704846478621 -0.0044613191818740298 0 0.04989343028892735 -0.0039320677411800505 0 0.04989814340124394 -0.0048540565329072988 0 0.050601704846478621 -0.0044613191818740298 0 0.05057388635717195 -0.0052943915313577432 0 0.049926759538493973 -0.0056420853084140866 0 0.04989814340124394 -0.0048540565329072988 0 0.05057388635717195 -0.0052943915313577432 0 0.04989814340124394 -0.0048540565329072988 0 0.050601704846478621 -0.0044613191818740298 0 0.05057388635717195 -0.0052943915313577432 0 0.050601704846478621 -0.0044613191818740298 0 0.051528635289203747 -0.0044903858929999027 0 0.046751841105129005 -0.0070582806975776511 0 0.048309420473058869 -0.0052516832906282394 0 0.051729469219165755 -0.0058592151429594673 0 0.05057388635717195 -0.0052943915313577432 0 0.051528635289203747 -0.0044903858929999027 0 0.050659992204904206 -0.0036927804807201682 0 0.051528635289203747 -0.0044903858929999027 0 0.051217524379955394 -0.0030291911324880957 0 0.048309420473058869 -0.0052516832906282394 0 0.048738189834021256 -0.0045432038444679895 0 0.050659992204904206 -0.0036927804807201682 0 0.050601704846478621 -0.0044613191818740298 0 0.051528635289203747 -0.0044903858929999027 0 0.051217524379955394 -0.0030291911324880957 0 0.051292837882536267 -0.0019630706691113955 0 0.050710847573615346 -0.0024279546732680784 0 0.051217524379955394 -0.0030291911324880957 0 0.051292837882536267 -0.0019630706691113955 0 0.051890723890588866 -0.0025240372981187877 0 0.051608490870215303 -0.0016828740623944668 0 0.050890309986042243 -0.0017197168206711951 0 0.052020272620245181 -0.0015064711865800543 0 0.050060706422545405 -0.0018234293686206304 0 0.051477572880241192 -0.00080463701276271317 0 0.051292837882536267 -0.0019630706691113955 0 0.050060706422545405 -0.0018234293686206304 0 0.050710847573615346 -0.0024279546732680784 0 0.050060706422545405 -0.0018234293686206304 0 0.050304084785961531 -0.00088153104198327554 0 0.051477572880241192 -0.00080463701276271317 0 0.050060706422545405 -0.0018234293686206304 0 0.05023038348303329 -0.002915572825182176 0 0.049719702943227903 -0.002541944241224987 0 0.050659992204904206 -0.0036927804807201682 0 0.051217524379955394 -0.0030291911324880957 0 0.05023038348303329 -0.002915572825182176 0 0.051217524379955394 -0.0030291911324880957 0 0.050710847573615346 -0.0024279546732680784 0 0.05023038348303329 -0.002915572825182176 0 0.050060706422545405 -0.0018234293686206304 0 0.050710847573615346 -0.0024279546732680784 0 0.05023038348303329 -0.002915572825182176 0 0.05023038348303329 -0.002915572825182176 0 0.049579512564169634 -0.0031128118011426271 0 0.049719702943227903 -0.002541944241224987 0 0.049579512564169634 -0.0031128118011426271 0 0.0490771181362811 -0.0029210296886251191 0 0.049235045574526508 -0.002565824917444272 0 0.049258796845548417 -0.0037985654881536098 0 0.049579512564169634 -0.0031128118011426271 0 0.0490771181362811 -0.0029210296886251191 0 0.049235045574526508 -0.002565824917444272 0 0.048915001842679266 -0.0023085997657807996 0 0.049649693811485276 -0.0020460933741454201 0 0.049235045574526508 -0.002565824917444272 0 0.048915001842679266 -0.0023085997657807996 0 0.048760925144190871 -0.0028403650212405125 0 0.0490771181362811 -0.0029210296886251191 0 0.049235045574526508 -0.002565824917444272 0 0.048760925144190871 -0.0028403650212405125 0 0.049235045574526508 -0.002565824917444272 0 0.049719702943227903 -0.002541944241224987 0 0.049649693811485276 -0.0020460933741454201 0 0.049579512564169634 -0.0031128118011426271 0 0.049235045574526508 -0.002565824917444272 0 0.049719702943227903 -0.002541944241224987 0 0.050060706422545405 -0.0018234293686206304 0 0.049719702943227903 -0.002541944241224987 0 0.049649693811485276 -0.0020460933741454201 0 0.050060706422545405 -0.0018234293686206304 0 0.049649693811485276 -0.0020460933741454201 0 0.050304084785961531 -0.00088153104198327554 0 0.051235557067869107 -0.0010104980433220194 0 0.051226371339849912 -0.00034241380073235517 0 0.051626587588377147 -0.00011158164726532681 0 0.048915001842679266 -0.0023085997657807996 0 0.049649693811485276 -0.0020460933741454201 0 0.050304084785961531 -0.00088153104198327554 0 0.04979683695997715 -0.0017948554332846054 0 0.050730794381203523 -0.00079691130440792484 0 0.051226371339849912 -0.00034241380073235517 0 0.05108369813160956 -0.00077264729923363484 0 0.051022441575287299 -0.00041072031026183071 0 0.051235557067869107 -0.0010104980433220194 0 0.051226371339849912 -0.00034241380073235517 0 0.05108369813160956 -0.00077264729923363484 0 0.051235557067869107 -0.0010104980433220194 0 0.05108958001497766 -0.00094748832147228078 0 0.051091587398631975 -0.0010508457524381243 0 0.05108958001497766 -0.00094748832147228078 0 0.050805160683537458 -0.00093213380388284758 0 0.051091587398631975 -0.0010508457524381243 0 0.050805160683537458 -0.00093213380388284758 0 0.05108369813160956 -0.00077264729923363484 0 0.050747376212281682 -0.00048786551811948192 0 0.05108958001497766 -0.00094748832147228078 0 0.050805160683537458 -0.00093213380388284758 0 0.05108369813160956 -0.00077264729923363484 0 0.051235557067869107 -0.0010104980433220194 0 0.05108958001497766 -0.00094748832147228078 0 0.05108369813160956 -0.00077264729923363484 0 0.050747376212281682 -0.00048786551811948192 0 0.051022441575287299 -0.00041072031026183071 0 0.050940549532697707 -9.4936815142526829e-05 0 0.05108369813160956 -0.00077264729923363484 0 0.050747376212281682 -0.00048786551811948192 0 0.051022441575287299 -0.00041072031026183071 0 0.050747376212281682 -0.00048786551811948192 0 0.050314022702178891 -0.00076651239302160095 0 0.05026347051436799 -6.0062082728249437e-06 0 0.050805160683537458 -0.00093213380388284758 0 0.050747376212281682 -0.00048786551811948192 0 0.050314022702178891 -0.00076651239302160095 0 0.050805160683537458 -0.00093213380388284758 0 0.05010233720268116 -0.0013033794219779815 0 0.050314022702178891 -0.00076651239302160095 0 0.051091587398631975 -0.0010508457524381243 0 0.049225627039415597 -0.0023611075671928629 0 0.049951283133048863 -0.0025494289104071718 0 0.051235557067869107 -0.0010104980433220194 0 0.051091587398631975 -0.0010508457524381243 0 0.049951283133048863 -0.0025494289104071718 0 0.04979683695997715 -0.0017948554332846054 0 0.048440716057557835 -0.0031794812423135742 0 0.048529997430150087 -0.0031455154980370437 0 0.048440716057557835 -0.0031794812423135742 0 0.048915001842679266 -0.0023085997657807996 0 0.048760925144190871 -0.0028403650212405125 0 0.047844477057379445 -0.0035664189893614097 0 0.051091587398631975 -0.0010508457524381243 0 0.049829432677859671 -0.0023995114738717301 0 0.05010233720268116 -0.0013033794219779815 0 0.050805160683537458 -0.00093213380388284758 0 0.051091587398631975 -0.0010508457524381243 0 0.05010233720268116 -0.0013033794219779815 0 0.050162628518664744 -0.0018552496261289215 0 0.049213245692199412 -0.0025415506661155443 0 0.0490771181362811 -0.0029210296886251191 0 0.048760925144190871 -0.0028403650212405125 0 0.047844477057379445 -0.0035664189893614097 0 0.053738933484468003 -0.0037117560621095949 0 0.052881278189873364 -0.0038462096329874781 0 0.05314182740025946 -0.0025220521238158056 0 0.053738933484468003 -0.0037117560621095949 0 0.054282541792472438 -0.0024210119821892243 0 0.055229267805063417 -0.0028970698821686874 0 0.053738933484468003 -0.0037117560621095949 0 0.055229267805063417 -0.0028970698821686874 0 0.055190995175977094 -0.0048813963625749281 0 0.05390768242567056 -0.0059798587547427494 0 0.053738933484468003 -0.0037117560621095949 0 0.055190995175977094 -0.0048813963625749281 0 0.049184253952576841 -0.0051163934012041805 0 0.0509777421804673 -0.00382503005617606 0 0.052145745966984576 -0.005837154168724103 0 0.05390768242567056 -0.0059798587547427494 0 0.053738933484468003 -0.0037117560621095949 0 0.052999842827762884 -0.0048073417959976503 0 0.053738933484468003 -0.0037117560621095949 0 0.052881278189873364 -0.0038462096329874781 0 0.052999842827762884 -0.0048073417959976503 0 0.052148320987815515 -0.0044044107998061814 0 0.052881278189873364 -0.0038462096329874781 0 0.052148320987815515 -0.0044044107998061814 0 0.052241733600413981 -0.0033474790354515215 0 0.052881278189873364 -0.0038462096329874781 0 0.051306758638024433 -0.004009315641422085 0 0.052148320987815515 -0.0044044107998061814 0 0.052241733600413981 -0.0033474790354515215 0 0.051435671796513267 -0.0050614007791225614 0 0.051306758638024433 -0.004009315641422085 0 0.052148320987815515 -0.0044044107998061814 0 0.051306758638024433 -0.004009315641422085 0 0.051217524379955394 -0.0030291911324880957 0 0.052241733600413981 -0.0033474790354515215 0 0.052241733600413981 -0.0033474790354515215 0 0.052881278189873364 -0.0038462096329874781 0 0.05314182740025946 -0.0025220521238158056 0 0.051890723890588866 -0.0025240372981187877 0 0.052472421340176101 -0.0018327482824366951 0 0.05314182740025946 -0.0025220521238158056 0 0.052241733600413981 -0.0033474790354515215 0 0.051890723890588866 -0.0025240372981187877 0 0.05314182740025946 -0.0025220521238158056 0 0.051217524379955394 -0.0030291911324880957 0 0.052241733600413981 -0.0033474790354515215 0 0.051890723890588866 -0.0025240372981187877 0 0.051608490870215303 -0.0016828740623944668 0 0.052682993006541196 -0.0016153110352421771 0 0.052020272620245181 -0.0015064711865800543 0 0.053017021239716321 -0.0012896657857168479 0 0.052426524395832674 -0.00051776657345483962 0 0.051292837882536267 -0.0019630706691113955 0 0.051890723890588866 -0.0025240372981187877 0 0.052472421340176101 -0.0018327482824366951 0 0.052682993006541196 -0.0016153110352421771 0 0.053302354313427239 -0.0015806061783766403 0 0.053017021239716321 -0.0012896657857168479 0 0.053912372547763182 -0.0014813079018555048 0 0.053439560100771222 -0.00083477931420146694 0 0.05314182740025946 -0.0025220521238158056 0 0.054164965047877628 -0.0019043666666391981 0 0.053912372547763182 -0.0014813079018555048 0 0.052472421340176101 -0.0018327482824366951 0 0.05314182740025946 -0.0025220521238158056 0 0.053912372547763182 -0.0014813079018555048 0 0.053738933484468003 -0.0037117560621095949 0 0.05314182740025946 -0.0025220521238158056 0 0.054282541792472438 -0.0024210119821892243 0 0.054282541792472438 -0.0024210119821892243 0 0.054464831719613832 -0.0014249588958526709 0 0.055229267805063417 -0.0028970698821686874 0 0.05314182740025946 -0.0025220521238158056 0 0.054282541792472438 -0.0024210119821892243 0 0.054164965047877628 -0.0019043666666391981 0 0.054282541792472438 -0.0024210119821892243 0 0.054164965047877628 -0.0019043666666391981 0 0.054464831719613832 -0.0014249588958526709 0 0.054164965047877628 -0.0019043666666391981 0 0.053912372547763182 -0.0014813079018555048 0 0.054464831719613832 -0.0014249588958526709 0 0.041132174077219134 -0.0043403569719855338 0 0.040765827409413931 -0.0048822241416419917 0 0.040858883703274548 -0.0038006711798645558 0 0.053973027053744876 -0.00076352250132269005 0 0.054204623587736887 -0.00090393419600414001 0 0.05424365069454111 -0.00054406417401497704 0 0.044982053378311314 -0.0038729005188621363 0 0.046584969080610751 -0.0033829954503029115 0 0.040765827409413931 -0.0048822241416419917 0 0.041211776368073744 -0.0047060169109699457 0 0.041369240217153096 -0.0050256625176810614 0 0.041132174077219134 -0.0043403569719855338 0 0.040765827409413931 -0.0048822241416419917 0 0.041211776368073744 -0.0047060169109699457 0 0.041402229065831672 -0.0039975884826508115 0 0.041650286631862578 -0.004636439419257064 0 0.042017609966405675 -0.0037326313774989988 0 0.038383315328825988 -0.0059598133117714858 0 0.042225947782593559 -0.0032737104054009719 0 0.041402229065831672 -0.0039975884826508115 0 0.042017609966405675 -0.0037326313774989988 0 0.041745837866062827 -0.0033929759700758286 0 0.042846327061531707 -0.0043176501140735702 0 0.045007997894776462 -0.0025342698616362506 0 0.041132174077219134 -0.0043403569719855338 0 0.041596549248921567 -0.0046321495937012144 0 0.04123851945409944 -0.0037163869250462812 0 0.042846327061531707 -0.0043176501140735702 0 0.046000195855692511 -0.0029386496490622538 0 0.041132174077219134 -0.0043403569719855338 0 0.041211776368073744 -0.0047060169109699457 0 0.041596549248921567 -0.0046321495937012144 0 0.041369240217153096 -0.0050256625176810614 0 0.041587349497859999 -0.0046376745201742496 0 0.041913922079463845 -0.0054694640006709636 0 0.041211776368073744 -0.0047060169109699457 0 0.041369240217153096 -0.0050256625176810614 0 0.041596549248921567 -0.0046321495937012144 0 0.042782375860279574 -0.0043912724952397345 0 0.042846327061531707 -0.0043176501140735702 0 0.042846327061531707 -0.0043176501140735702 0 0.038383315328825988 -0.0059598133117714858 0 0.041369240217153096 -0.0050256625176810614 0 0.041913922079463845 -0.0054694640006709636 0 0.041188002532146932 -0.0057032538775025864 0 0.044982053378311314 -0.0038729005188621363 0 0.042652726668690681 -0.0056950311938199589 0 0.040765827409413931 -0.0048822241416419917 0 0.040671488563905102 -0.0059577871885325246 0 0.041188002532146932 -0.0057032538775025864 0 0.053973027053744876 -0.00076352250132269005 0 0.054204623587736887 -0.00090393419600414001 0 0.054140877116008589 -0.0012781974600492446 0 0.048052421283998184 -0.0037632856933889109 0 0.042652726668690681 -0.0056950311938199589 0 0.040765827409413931 -0.0048822241416419917 0 0.041369240217153096 -0.0050256625176810614 0 0.041188002532146932 -0.0057032538775025864 0 0.036964512565478308 -0.0061602420059414477 0 0.03800963701642996 -0.0084654109709664267 0 0.036702381345523567 -0.0092345778408570098 0 0.042652726668690681 -0.0056950311938199589 0 0.034851264760818637 -0.0092262543496251376 0 0.042652726668690681 -0.0056950311938199589 0 0.038995762645599043 -0.0076018394531604458 0 0.040671488563905102 -0.0059577871885325246 0 0.041188002532146932 -0.0057032538775025864 0 0.04121859540978149 -0.0071818586735314131 0 0.041913922079463845 -0.0054694640006709636 0 0.041188002532146932 -0.0057032538775025864 0 0.04121859540978149 -0.0071818586735314131 0 0.029681495581540891 -0.0093229464673043778 0 0.029690696304747796 -0.0092516466253912428 0 0.029617243347897806 -0.0092570269815126852 0 0.038383315328825988 -0.0059598133117714858 0 0.034851264760818637 -0.0092262543496251376 0 0.030491048075752328 -0.012017446021941276 0 0.030068736604908452 -0.013070905036994871 0 0.030909487798499339 -0.012951753292782274 0 0.029690696304747796 -0.0092516466253912428 0 0.029617243347897806 -0.0092570269815126852 0 0.029657445237216768 -0.0092086541014527734 0 0.034851264760818637 -0.0092262543496251376 0 0.028804257412559067 -0.011769448594062764 0 0.03800963701642996 -0.0084654109709664267 0 0.036702381345523567 -0.0092345778408570098 0 0.037257389527437318 -0.010340593511632763 0 0.034851264760818637 -0.0092262543496251376 0 0.032934151040297642 -0.011159054868713984 0 0.032364701675652384 -0.0052030503233655911 0 0.033253741232896657 -0.0056640077437961362 0 0.032546900843019012 -0.0068328903095149565 0 0.032364701675652384 -0.0052030503233655911 0 0.032546900843019012 -0.0068328903095149565 0 0.031648032150898182 -0.0057684232967717981 0 0.032364701675652384 -0.0052030503233655911 0 0.033253741232896657 -0.0056640077437961362 0 0.032706460450941832 -0.0043674597041838915 0 0.031085618744262987 -0.0078687351949960557 0 0.023900224206150605 -0.010999475810995096 0 0.029617243347897806 -0.0092570269815126852 0 0.029657445237216768 -0.0092086541014527734 0 0.029585855221388888 -0.0091848707505073537 0 0.033800758623587585 -0.0069574560207607541 0 0.033253741232896657 -0.0056640077437961362 0 0.032546900843019012 -0.0068328903095149565 0 0.038383315328825988 -0.0059598133117714858 0 0.031085618744262987 -0.0078687351949960557 0 0.037343743074046878 -0.0041217101226532545 0 0.033289794823607693 -0.0049248446478076238 0 0.033800758623587585 -0.0069574560207607541 0 0.032546900843019012 -0.0068328903095149565 0 0.033441556744136444 -0.0078896218127038672 0 0.037343743074046878 -0.0041217101226532545 0 0.042225947782593559 -0.0032737104054009719 0 0.040529912986653552 -0.002442600597346608 0 0.041590100468360598 -0.0037250599789224611 0 0.040493315742618018 -0.003806998262088595 0 0.040529912986653552 -0.002442600597346608 0 0.040493315742618018 -0.003806998262088595 0 0.0393746462856212 -0.0036641760192346832 0 0.045770619415559266 -0.0006393373187612583 0 0.042946056006297403 -0.0010347427364058061 0 0.051808573480061848 0.0014943237691549868 0 0.051539400665812245 0.0014221021346893395 0 0.051627830599223462 0.0020198935472429888 0 0.050599615341336369 0.0012117041762560296 0 0.050828037099350042 0.0016404666178893017 0 0.051539400665812245 0.0014221021346893395 0 0.051627830599223462 0.0020198935472429888 0 0.051120390870823998 0.001938743240234698 0 0.051627830599223462 0.0020198935472429888 0 0.051120390870823998 0.001938743240234698 0 0.051314818847923327 0.0022145654657204838 0 0.040529912986653552 -0.002442600597346608 0 0.0393746462856212 -0.0036641760192346832 0 0.038839613896528825 -0.0024369132857801554 0 0.051222645232907225 0.0022205424507737619 0 0.05126136419594203 0.0021169947630851299 0 0.051109704496466866 0.0021825166995154549 0 0.051222645232907225 0.0022205424507737619 0 0.051347146964321945 0.0020929891626333477 0 0.05126136419594203 0.0021169947630851299 0 0.051502997019367627 0.0021211538494367386 0 0.051391101986893908 0.0021331508688369433 0 0.051347225545482579 0.0022774327009331061 0 0.051222645232907225 0.0022205424507737619 0 0.051391101986893908 0.0021331508688369433 0 0.051347146964321945 0.0020929891626333477 0 0.051222645232907225 0.0022205424507737619 0 0.051391101986893908 0.0021331508688369433 0 0.051347225545482579 0.0022774327009331061 0 0.051120390870823998 0.001938743240234698 0 0.050987207743607807 0.0023108125319757783 0 0.051314818847923327 0.0022145654657204838 0 0.050828037099350042 0.0016404666178893017 0 0.050846015009952693 0.0018172458671530313 0 0.051347225545482579 0.0022774327009331061 0 0.051136182659645736 0.0023103584325071462 0 0.051026951160841168 0.0023553476897598185 0 0.051222645232907225 0.0022205424507737619 0 0.051136182659645736 0.0023103584325071462 0 0.051087623169780147 0.0022877206288531991 0 0.051222645232907225 0.0022205424507737619 0 0.051347225545482579 0.0022774327009331061 0 0.051136182659645736 0.0023103584325071462 0 0.051026951160841168 0.0023553476897598185 0 0.050987207743607807 0.0023108125319757783 0 0.0510653015588182 0.0023939977488560099 0 0.050987207743607807 0.0023108125319757783 0 0.049972304538727592 0.0030909361502364273 0 0.048558514843213274 0.0025078640742343368 0 0.049363660137629953 0.0011059593966411198 0 0.047289389076851387 0.00098530766876553225 0 0.051136182659645736 0.0023103584325071462 0 0.051026951160841168 0.0023553476897598185 0 0.051078579091488253 0.0023495337321347239 0 0.051120390870823998 0.001938743240234698 0 0.051026951160841168 0.0023553476897598185 0 0.050987207743607807 0.0023108125319757783 0 0.050987207743607807 0.0023108125319757783 0 0.050957371100324535 0.0030525562119383285 0 0.049972304538727592 0.0030909361502364273 0 0.050987207743607807 0.0023108125319757783 0 0.051314818847923327 0.0022145654657204838 0 0.051570931527973395 0.0027115520755326811 0 0.050987207743607807 0.0023108125319757783 0 0.050957371100324535 0.0030525562119383285 0 0.051570931527973395 0.0027115520755326811 0 0.050957371100324535 0.0030525562119383285 0 0.051570931527973395 0.0027115520755326811 0 0.051193422409035814 0.0041938345218064058 0 0.050957371100324535 0.0030525562119383285 0 0.049972304538727592 0.0030909361502364273 0 0.051193422409035814 0.0041938345218064058 0 0.049972304538727592 0.0030909361502364273 0 0.048558514843213274 0.0025078640742343368 0 0.048949550338534271 0.0040139049257043825 0 0.049972304538727592 0.0030909361502364273 0 0.051193422409035814 0.0041938345218064058 0 0.048949550338534271 0.0040139049257043825 0 0.040529912986653552 -0.002442600597346608 0 0.038839613896528825 -0.0024369132857801554 0 0.039455382656547196 -0.001147451921774767 0 0.042946056006297403 -0.0010347427364058061 0 0.039086287235620243 -0.0017265841707319585 0 0.051627830599223462 0.0020198935472429888 0 0.051314818847923327 0.0022145654657204838 0 0.051570931527973395 0.0027115520755326811 0 0.038839613896528825 -0.0024369132857801554 0 0.039455382656547196 -0.001147451921774767 0 0.038289516457588581 -0.0011954384309261941 0 0.038289516457588581 -0.0011954384309261941 0 0.038357116001821442 0.00017766165223435522 0 0.037739281394496449 7.1990829973073741e-05 0 0.039455382656547196 -0.001147451921774767 0 0.038289516457588581 -0.0011954384309261941 0 0.038357116001821442 0.00017766165223435522 0 0.033289794823607693 -0.0049248446478076238 0 0.026990928629863863 -0.0059672192182826838 0 0.039086287235620243 -0.0017265841707319585 0 0.032838143911388652 -0.0039217474432511092 0 0.031648032150898182 -0.0057684232967717981 0 0.031734879858004647 -0.004526861486762246 0 0.03075221452455864 -0.0046921529562938833 0 0.032364701675652384 -0.0052030503233655911 0 0.031648032150898182 -0.0057684232967717981 0 0.031734879858004647 -0.004526861486762246 0 0.024276057305056498 -0.0087231939448505508 0 0.026990928629863863 -0.0059672192182826838 0 0.014007446269745582 -0.013853954974320825 0 0.012445530756714888 -0.01408889545283136 0 0.01239009148418233 -0.012689563998737727 0 0.026990928629863863 -0.0059672192182826838 0 0.032838143911388652 -0.0039217474432511092 0 0.012445530756714888 -0.01408889545283136 0 0.01239009148418233 -0.012689563998737727 0 0.011239530451948821 -0.012565766498692541 0 0.014007446269745582 -0.013853954974320825 0 0.01239009148418233 -0.012689563998737727 0 0.013695438208277743 -0.012366547159106652 0 0.014007446269745582 -0.013853954974320825 0 0.013695438208277743 -0.012366547159106652 0 0.014697238825627131 -0.012904974597393528 0 0.013695438208277743 -0.012366547159106652 0 0.014811925049483973 -0.011638351211264053 0 0.014697238825627131 -0.012904974597393528 0 0.017464780033444746 -0.004486588715100109 0 0.015582888020598335 -0.0049303033844617476 0 0.015598712944246317 -0.0067434538230799271 0 0.032838143911388652 -0.0039217474432511092 0 0.032441122070773806 -0.0016085131095429797 0 0.019579256511406323 -0.0061239211312039245 0 0.017464780033444746 -0.004486588715100109 0 0.015598712944246317 -0.0067434538230799271 0 0.02101529877630905 -0.0059238951606490333 0 0.018975059242495044 -0.0046914050488042012 0 0.018725466015342938 -0.0031749998463283264 0 0.026990928629863863 -0.0059672192182826838 0 0.016276300002776502 -0.0067843562858805918 0 0.018975059242495044 -0.0046914050488042012 0 0.019579256511406323 -0.0061239211312039245 0 0.017464780033444746 -0.004486588715100109 0 0.031943491263750123 -0.003488654174413605 0 0.032838143911388652 -0.0039217474432511092 0 0.02101529877630905 -0.0059238951606490333 0 0.018975059242495044 -0.0046914050488042012 0 0.019598359654605432 -0.0061741065512717856 0 0.01239009148418233 -0.012689563998737727 0 0.011239530451948821 -0.012565766498692541 0 0.011944789116497078 -0.011763112290831131 0 0.018975059242495044 -0.0046914050488042012 0 0.018725466015342938 -0.0031749998463283264 0 0.017464780033444746 -0.004486588715100109 0 0.018725466015342938 -0.0031749998463283264 0 0.017464780033444746 -0.004486588715100109 0 0.017275671295405009 -0.0027398686463093089 0 0.017464780033444746 -0.004486588715100109 0 0.017275671295405009 -0.0027398686463093089 0 0.016075118471015219 -0.003293523625781621 0 0.017275671295405009 -0.0027398686463093089 0 0.016075118471015219 -0.003293523625781621 0 0.016296207850106957 -0.0021840265350836696 0 0.017464780033444746 -0.004486588715100109 0 0.016075118471015219 -0.003293523625781621 0 0.015582888020598335 -0.0049303033844617476 0 0.016276300002776502 -0.0067843562858805918 0 0.0061732769466630814 -0.006816367790248674 0 0.017275671295405009 -0.0027398686463093089 0 0.016511842255788192 -0.0005249632985957288 0 0.016296207850106957 -0.0021840265350836696 0 0.016511842255788192 -0.0005249632985957288 0 0.016296207850106957 -0.0021840265350836696 0 0.015054472311775091 -0.0027224371329706075 0 0.018725466015342938 -0.0031749998463283264 0 0.017275671295405009 -0.0027398686463093089 0 0.016511842255788192 -0.0005249632985957288 0 0.011239530451948821 -0.012565766498692541 0 0.010141038532772552 -0.011203509084772252 0 0.011335022117726379 -0.011286167346363389 0 0.011239530451948821 -0.012565766498692541 0 0.011335022117726379 -0.011286167346363389 0 0.011944789116497078 -0.011763112290831131 0 0.011335022117726379 -0.011286167346363389 0 0.011944789116497078 -0.011763112290831131 0 0.012037485217363721 -0.010857881722129344 0 0.011335022117726379 -0.011286167346363389 0 0.011710806510885411 -0.010167645019469269 0 0.012037485217363721 -0.010857881722129344 0 0.010141038532772552 -0.011203509084772252 0 0.011335022117726379 -0.011286167346363389 0 0.011710806510885411 -0.010167645019469269 0 -0.010656632139405564 -0.011859362081313959 0 -0.0095775928292650778 -0.011134710666478564 0 -0.010204268089882512 -0.011403927586555012 0 0.0061732769466630814 -0.006816367790248674 0 0.0018320843585819481 -0.012465065498866378 0 -0.010678714525630233 -0.010732131553192798 0 -0.0095775928292650778 -0.011134710666478564 0 -0.010204268089882512 -0.011403927586555012 0 0.0018320843585819481 -0.012465065498866378 0 0.0024487503482624401 -0.012674285368220396 0 -0.010678714525630233 -0.010732131553192798 0 -0.010204268089882512 -0.011403927586555012 0 -0.010934841194571613 -0.011675474816462318 0 -2.9034541910872509e-05 -0.0080821764189122122 0 0.0040321221713394565 -0.0066473993862958703 0 -0.010656632139405564 -0.011859362081313959 0 -0.010204268089882512 -0.011403927586555012 0 -0.010824936287873347 -0.011636011835997452 0 0.0061732769466630814 -0.006816367790248674 0 0.0040321221713394565 -0.0066473993862958703 0 0.013695438208277743 -0.012366547159106652 0 0.012996465024116525 -0.011230129469835875 0 0.014811925049483973 -0.011638351211264053 0 0.012996465024116525 -0.011230129469835875 0 0.013584945036952446 -0.00978758763496714 0 0.014811925049483973 -0.011638351211264053 0 0.01239009148418233 -0.012689563998737727 0 0.011944789116497078 -0.011763112290831131 0 0.012803542702549936 -0.011419466669223268 0 0.01239009148418233 -0.012689563998737727 0 0.013695438208277743 -0.012366547159106652 0 0.012996465024116525 -0.011230129469835875 0 0.010174076715447481 -0.011714199629878654 0 0.0096796477215621273 -0.011855753193347141 0 0.011944789116497078 -0.011763112290831131 0 0.012803542702549936 -0.011419466669223268 0 0.012037485217363721 -0.010857881722129344 0 0.012803542702549936 -0.011419466669223268 0 0.012515620888583368 -0.010464452689397953 0 0.013232372958129101 -0.010263252224246178 0 0.012803542702549936 -0.011419466669223268 0 0.012037485217363721 -0.010857881722129344 0 0.012515620888583368 -0.010464452689397953 0 0.011747759301262803 -0.010246510318357825 0 0.012037485217363721 -0.010857881722129344 0 0.012515620888583368 -0.010464452689397953 0 0.001362408639014598 -0.01820594907688191 0 0.0036500789404035673 -0.019009805009169857 0 0.0041957070907929824 -0.022357057548506035 0 0.0096796477215621273 -0.011855753193347141 0 0.0072866164230583532 -0.014154297117366104 0 0.0072866164230583532 -0.014154297117366104 0 0.013078778895451008 -0.014461767256090635 0 0.003493226732349941 -0.017190240109172149 0 0.001362408639014598 -0.01820594907688191 0 0.0036500789404035673 -0.019009805009169857 0 0.0036500789404035673 -0.019009805009169857 0 0.0055557064754129656 -0.018240247648919079 0 0.0041957070907929824 -0.022357057548506035 0 0.003493226732349941 -0.017190240109172149 0 0.0036500789404035673 -0.019009805009169857 0 0.0055557064754129656 -0.018240247648919079 0 0.0055557064754129656 -0.018240247648919079 0 0.0041957070907929824 -0.022357057548506035 0 0.007386754639410447 -0.022136406749061546 0 0.0095978838417701412 -0.016674605481022124 0 0.0055557064754129656 -0.018240247648919079 0 0.0085467322087393934 -0.019549599271968733 0 0.0076865473887778547 -0.022692093154891652 0 0.0085467322087393934 -0.019549599271968733 0 0.011328741974175277 -0.020601390191965944 0 0.013585198192731116 -0.017321615178282436 0 0.016052490422871275 -0.017787429852130134 0 0.0055557064754129656 -0.018240247648919079 0 0.0076865473887778547 -0.022692093154891652 0 0.0085467322087393934 -0.019549599271968733 0 0.013968286839807656 -0.017524380710640032 0 0.0095978838417701412 -0.016674605481022124 0 0.011328741974175277 -0.020601390191965944 0 0.0095978838417701412 -0.016674605481022124 0 0.0085467322087393934 -0.019549599271968733 0 0.011328741974175277 -0.020601390191965944 0 0.013968286839807656 -0.017524380710640032 0 0.011328741974175277 -0.020601390191965944 0 0.015417075767872311 -0.020782685315872181 0 0.015417075767872311 -0.020782685315872181 0 0.013128542804385499 -0.022882537424314793 0 0.01498390856370202 -0.026174488834249107 0 0.02261043134820602 -0.017647342886409907 0 0.03076237119813597 -0.012885457579381011 0 0.011328741974175277 -0.020601390191965944 0 0.015417075767872311 -0.020782685315872181 0 0.013128542804385499 -0.022882537424314793 0 0.0076865473887778547 -0.022692093154891652 0 0.011328741974175277 -0.020601390191965944 0 0.010773479039511509 -0.023950178200268787 0 0.011328741974175277 -0.020601390191965944 0 0.013128542804385499 -0.022882537424314793 0 0.010773479039511509 -0.023950178200268787 0 0.010773479039511509 -0.023950178200268787 0 0.0097761543828203314 -0.027073412985427425 0 0.01498390856370202 -0.026174488834249107 0 0.022456163556077154 -0.014457710855469656 0 0.03076237119813597 -0.012885457579381011 0 0.0076865473887778547 -0.022692093154891652 0 0.010773479039511509 -0.023950178200268787 0 0.0097761543828203314 -0.027073412985427425 0 0.013128542804385499 -0.022882537424314793 0 0.010773479039511509 -0.023950178200268787 0 0.01498390856370202 -0.026174488834249107 0 0.03076237119813597 -0.012885457579381011 0 0.032934151040297642 -0.011159054868713984 0 0.031327403629952628 -0.013883077324164246 0 0.029620811966588039 -0.014179216411541481 0 0.030068736604908452 -0.013070905036994871 0 0.038995762645599043 -0.0076018394531604458 0 0.03076237119813597 -0.012885457579381011 0 0.036702381345523567 -0.0092345778408570098 0 0.036434350282506404 -0.012331541718690829 0 0.037257389527437318 -0.010340593511632763 0 0.031327403629952628 -0.013883077324164246 0 0.030068736604908452 -0.013070905036994871 0 0.030909487798499339 -0.012951753292782274 0 0.029619403352955494 -0.0091603459621194382 0 0.029657445237216768 -0.0092086541014527734 0 0.029585855221388888 -0.0091848707505073537 0 0.022456163556077154 -0.014457710855469656 0 0.028804257412559067 -0.011769448594062764 0 0.029617243347897806 -0.0092570269815126852 0 0.029585855221388888 -0.0091848707505073537 0 0.029540592915445207 -0.009168922459943548 0 0.022456163556077154 -0.014457710855469656 0 0.021074509750700847 -0.012480062569410446 0 0.029619403352955494 -0.0091603459621194382 0 0.029585855221388888 -0.0091848707505073537 0 0.029567409290607912 -0.0091677090657965449 0 0.029585855221388888 -0.0091848707505073537 0 0.029565874774046697 -0.0091620889457904742 0 0.029540592915445207 -0.009168922459943548 0 0.021074509750700847 -0.012480062569410446 0 0.023900224206150605 -0.010999475810995096 0 0.021264394516709768 -0.012498560685943684 0 0.021074509750700847 -0.012480062569410446 0 0.024276057305056498 -0.0087231939448505508 0 0.023900224206150605 -0.010999475810995096 0 0.032364701675652384 -0.0052030503233655911 0 0.031734879858004647 -0.004526861486762246 0 0.032706460450941832 -0.0043674597041838915 0 0.014007446269745582 -0.013853954974320825 0 0.015596794229085624 -0.013597022896401544 0 0.014697238825627131 -0.012904974597393528 0 0.016064315775872143 -0.013518075739860115 0 0.015600181655595069 -0.013601157170195843 0 0.015380555205604661 -0.01307035876071775 0 0.014811925049483973 -0.011638351211264053 0 0.015380555205604661 -0.01307035876071775 0 0.014697238825627131 -0.012904974597393528 0 0.015596794229085624 -0.013597022896401544 0 0.015380555205604661 -0.01307035876071775 0 0.014697238825627131 -0.012904974597393528 0 0.014811925049483973 -0.011638351211264053 0 0.016064315775872143 -0.013518075739860115 0 0.015380555205604661 -0.01307035876071775 0 0.023900224206150605 -0.010999475810995096 0 0.023709292735816578 -0.010988753386507602 0 0.013078778895451008 -0.014461767256090635 0 0.021074509750700847 -0.012480062569410446 0 0.016052490422871275 -0.017787429852130134 0 0.022456163556077154 -0.014457710855469656 0 0.007386754639410447 -0.022136406749061546 0 0.0092161288484362697 -0.025981914419620344 0 0.0069003096014935697 -0.0263882721275818 0 0.0041957070907929824 -0.022357057548506035 0 0.007386754639410447 -0.022136406749061546 0 0.0069003096014935697 -0.0263882721275818 0 0.0072678935597462893 -0.00021329304632046071 0 0.010857027449056932 1.6469947004959885e-06 0 0.0090166918351859606 -0.0016494372382621072 0 0.010857027449056932 1.6469947004959885e-06 0 0.0090166918351859606 -0.0016494372382621072 0 0.014152904794866054 -6.9066941812009131e-06 0 0.013101474566755233 -0.0012431270797930798 0 0.01080122494095191 -0.0021112021286923814 0 0.0072678935597462893 -0.00021329304632046071 0 0.0090166918351859606 -0.0016494372382621072 0 0.0060178875937094154 -0.001537943721495088 0 0.013101474566755233 -0.0012431270797930798 0 0.015157766175010459 -0.0033979661560114495 0 0.011905598735242981 -0.0036019175135198209 0 0.01318883432091235 -0.0041640053070113843 0 0.013580878748416647 -0.0038621704112106713 0 0.01080122494095191 -0.0021112021286923814 0 0.0106227830571816 -0.0033517299144906133 0 0.01318883432091235 -0.0041640053070113843 0 0.013580878748416647 -0.0038621704112106713 0 0.014473371836594539 -0.0047221140225692081 0 0.0060178875937094154 -0.001537943721495088 0 0.0052708568411651262 -0.00059887806067686615 0 0.0046747938247321333 -0.0010040628916618932 0 0.0072678935597462893 -0.00021329304632046071 0 0.0060178875937094154 -0.001537943721495088 0 0.0052708568411651262 -0.00059887806067686615 0 0.0072678935597462893 -0.00021329304632046071 0 0.0045550721921701837 -0.00027652535982519575 0 0.0052838697910985652 8.8369133453634083e-05 0 0.0072678935597462893 -0.00021329304632046071 0 0.0052708568411651262 -0.00059887806067686615 0 0.0045550721921701837 -0.00027652535982519575 0 0.0052708568411651262 -0.00059887806067686615 0 0.0045550721921701837 -0.00027652535982519575 0 0.0045265003219813202 -0.00037070194620357136 0 0.0048705535129758898 -0.0026450122781999175 0 0.0050901348478584749 -0.0032603385379515984 0 0.0045550721921701837 -0.00027652535982519575 0 0.0027702899020471791 0.00035023359753557173 0 0.0020613913177286469 -4.7624803334256094e-05 0 0.0045550721921701837 -0.00027652535982519575 0 0.0052838697910985652 8.8369133453634083e-05 0 0.0034365433607107814 0.00043720362651603219 0 0.0072678935597462893 -0.00021329304632046071 0 0.0052838697910985652 8.8369133453634083e-05 0 0.0075523401010157204 2.3296361468655911e-07 0 0.0072678935597462893 -0.00021329304632046071 0 0.010857027449056932 1.6469947004959885e-06 0 0.0075523401010157204 2.3296361468655911e-07 0 0.0075523401010157204 2.3296361468655911e-07 0 0.0037744283852524083 0.0004117700860957179 0 0.0042496161807658766 8.7305272308543638e-07 0 0.0052838697910985652 8.8369133453634083e-05 0 0.0075523401010157204 2.3296361468655911e-07 0 0.0037744283852524083 0.0004117700860957179 0 0.0042496161807658766 8.7305272308543638e-07 0 0.00096754895796584048 0.00053077222848303229 0 0.00094630900173044488 6.9391210740465476e-07 0 0.0037744283852524083 0.0004117700860957179 0 0.0042496161807658766 8.7305272308543638e-07 0 0.00096754895796584048 0.00053077222848303229 0 0.0037744283852524083 0.0004117700860957179 0 0.00096754895796584048 0.00053077222848303229 0 0.0020628309917235165 0.00071862025496349249 0 3.9491835428674094e-05 0.00065697242291949177 0 0.00054735787719262935 0.00074117147460199973 0 0.0007691562681205144 0.00083745268811223563 0 0.00054735787719262935 0.00074117147460199973 0 0.0014343410641226217 0.00081376118270206537 0 0.0007691562681205144 0.00083745268811223563 0 -0.00025596157246275068 0.00062618613758311497 0 0.00096754895796584048 0.00053077222848303229 0 0.00054735787719262935 0.00074117147460199973 0 0.00096754895796584048 0.00053077222848303229 0 0.00054735787719262935 0.00074117147460199973 0 0.0020628309917235165 0.00071862025496349249 0 0.0020628309917235165 0.00071862025496349249 0 0.0014343410641226217 0.00081376118270206537 0 0.0021366059229273406 0.00068464073941681915 0 0.00054735787719262935 0.00074117147460199973 0 0.0020628309917235165 0.00071862025496349249 0 0.0014343410641226217 0.00081376118270206537 0 0.0020628309917235165 0.00071862025496349249 0 0.0021366059229273406 0.00068464073941681915 0 0.0034365433607107814 0.00043720362651603219 0 0.0037744283852524083 0.0004117700860957179 0 0.0020628309917235165 0.00071862025496349249 0 0.0034365433607107814 0.00043720362651603219 0 0.0052838697910985652 8.8369133453634083e-05 0 0.0037744283852524083 0.0004117700860957179 0 0.0034365433607107814 0.00043720362651603219 0 0.0021366059229273406 0.00068464073941681915 0 0.0034365433607107814 0.00043720362651603219 0 0.0027702899020471791 0.00035023359753557173 0 0.0045550721921701837 -0.00027652535982519575 0 0.0034365433607107814 0.00043720362651603219 0 0.0027702899020471791 0.00035023359753557173 0 0.0027702899020471791 0.00035023359753557173 0 0.0017230239570655674 0.00059025879624113897 0 0.0020613913177286469 -4.7624803334256094e-05 0 0.0014651668859905823 0.00026662191695924381 0 0.0012735500250375346 -0.00017697041810244157 0 0.0020613913177286469 -4.7624803334256094e-05 0 0.0014651668859905823 0.00026662191695924381 0 0.0017230239570655674 0.00059025879624113897 0 0.0011599824924565228 0.0005446915082012397 0 0.0014651668859905823 0.00026662191695924381 0 0.0017230239570655674 0.00059025879624113897 0 0.0020613913177286469 -4.7624803334256094e-05 0 0.0014651668859905823 0.00026662191695924381 0 0.0011212402600726521 0.0002706331462294302 0 0.0012735500250375346 -0.00017697041810244157 0 0.0014651668859905823 0.00026662191695924381 0 0.0011599824924565228 0.0005446915082012397 0 0.0011212402600726521 0.0002706331462294302 0 0.0011849512693961632 0.00074541788052827449 0 0.0017230239570655674 0.00059025879624113897 0 0.0011599824924565228 0.0005446915082012397 0 0.0011849512693961632 0.00074541788052827449 0 0.0017230239570655674 0.00059025879624113897 0 0.0013851042665872098 0.00081026356622457176 0 0.0021366059229273406 0.00068464073941681915 0 0.0027702899020471791 0.00035023359753557173 0 0.0017230239570655674 0.00059025879624113897 0 0.0021366059229273406 0.00068464073941681915 0 0.0017230239570655674 0.00059025879624113897 0 0.0013851042665872098 0.00081026356622457176 0 0.0014343410641226217 0.00081376118270206537 0 0.0021366059229273406 0.00068464073941681915 0 0.0013851042665872098 0.00081026356622457176 0 0.0014343410641226217 0.00081376118270206537 0 0.0013851042665872098 0.00081026356622457176 0 0.0007691562681205144 0.00083745268811223563 0 0.0013851042665872098 0.00081026356622457176 0 0.0010631029082274906 0.00083786355334858613 0 0.0007691562681205144 0.00083745268811223563 0 0.0011849512693961632 0.00074541788052827449 0 0.0013851042665872098 0.00081026356622457176 0 0.0010631029082274906 0.00083786355334858613 0 0.0011849512693961632 0.00074541788052827449 0 0.0010631029082274906 0.00083786355334858613 0 0.00095537684221884249 0.00076177309228254617 0 0.0010631029082274906 0.00083786355334858613 0 0.00090588075186285569 0.00079946309952141491 0 0.00095537684221884249 0.00076177309228254617 0 0.0010631029082274906 0.00083786355334858613 0 0.00090588075186285569 0.00079946309952141491 0 0.0007691562681205144 0.00083745268811223563 0 3.9491835428674094e-05 0.00065697242291949177 0 0.00090588075186285569 0.00079946309952141491 0 0.0007691562681205144 0.00083745268811223563 0 0.00077946309566382938 0.00082080673910282385 0 0.0002026656895513908 0.00054369400684872629 0 0.00085696173902585272 0.00062404052396830003 0 0.0002026656895513908 0.00054369400684872629 0 0.00085696173902585272 0.00062404052396830003 0 0.00022497294335820903 1.2389888680148148e-06 0 0.0002026656895513908 0.00054369400684872629 0 0.00022497294335820903 1.2389888680148148e-06 0 -0.00019200372907470333 7.6563898514595333e-05 0 0.00077946309566382938 0.00082080673910282385 0 0.00090588075186285569 0.00079946309952141491 0 0.00085696173902585272 0.00062404052396830003 0 0.00090588075186285569 0.00079946309952141491 0 0.00085696173902585272 0.00062404052396830003 0 0.00095537684221884249 0.00076177309228254617 0 0.00085696173902585272 0.00062404052396830003 0 0.00095537684221884249 0.00076177309228254617 0 0.0008433646700842448 0.00072040707708089392 0 0.0011849512693961632 0.00074541788052827449 0 0.00095537684221884249 0.00076177309228254617 0 0.00094144454212330159 0.0006664867873236352 0 0.00095537684221884249 0.00076177309228254617 0 0.0008433646700842448 0.00072040707708089392 0 0.00094144454212330159 0.0006664867873236352 0 0.00085696173902585272 0.00062404052396830003 0 0.0008433646700842448 0.00072040707708089392 0 0.00077858029580731806 0.00074148235577476535 0 0.00022497294335820903 1.2389888680148148e-06 0 0.00052902084270774262 -0.00094339577491670944 0 -0.00016164667342537952 -0.00042540888364148984 0 0.00085696173902585272 0.00062404052396830003 0 0.00022497294335820903 1.2389888680148148e-06 0 0.00052902084270774262 -0.00094339577491670944 0 0.0010905753142397404 -0.00025563415832049509 0 0.00095415271741195427 -0.0010311615255992896 0 0.0008433646700842448 0.00072040707708089392 0 0.00077887452996446927 0.00073518437559764375 0 0.00077858029580731806 0.00074148235577476535 0 0.0008433646700842448 0.00072040707708089392 0 0.00077887452996446927 0.00073518437559764375 0 0.00084157872580240814 0.0006989892767689628 0 0.00067596693293424327 0.00073233140239339011 0 0.00077024708584127132 0.00055692941204116384 0 0.0002384631225657367 0.00014321176869959833 0 0.00095415271741195427 -0.0010311615255992896 0 0.0014651786789034353 -0.0018267711457564696 0 0.00095480447999819794 -0.0010259970989991887 0 0.00095415271741195427 -0.0010311615255992896 0 0.00077887452996446927 0.00073518437559764375 0 0.00077024708584127132 0.00055692941204116384 0 0.00084157872580240814 0.0006989892767689628 0 0.00077887452996446927 0.00073518437559764375 0 0.00067596693293424327 0.00073233140239339011 0 0.00077024708584127132 0.00055692941204116384 0 0.0011849512693961632 0.00074541788052827449 0 0.00094144454212330159 0.0006664867873236352 0 0.0011599824924565228 0.0005446915082012397 0 0.00077024708584127132 0.00055692941204116384 0 0.00094144454212330159 0.0006664867873236352 0 0.00084157872580240814 0.0006989892767689628 0 0.0008433646700842448 0.00072040707708089392 0 0.00094144454212330159 0.0006664867873236352 0 0.00084157872580240814 0.0006989892767689628 0 0.00077024708584127132 0.00055692941204116384 0 0.00094144454212330159 0.0006664867873236352 0 0.00095188493887134174 0.00047633732709712149 0 0.00077024708584127132 0.00055692941204116384 0 0.00095188493887134174 0.00047633732709712149 0 0.00076282584203085321 0.00026505133678035402 0 0.00095188493887134174 0.00047633732709712149 0 0.0011599824924565228 0.0005446915082012397 0 0.0011212402600726521 0.0002706331462294302 0 0.00094144454212330159 0.0006664867873236352 0 0.00095188493887134174 0.00047633732709712149 0 0.0011599824924565228 0.0005446915082012397 0 0.0011212402600726521 0.0002706331462294302 0 0.00069076718938243628 -0.00022122146747018752 0 0.0012735500250375346 -0.00017697041810244157 0 0.00095188493887134174 0.00047633732709712149 0 0.0011212402600726521 0.0002706331462294302 0 0.00076282584203085321 0.00026505133678035402 0 0.0011212402600726521 0.0002706331462294302 0 0.00076282584203085321 0.00026505133678035402 0 0.00069076718938243628 -0.00022122146747018752 0 0.00076282584203085321 0.00026505133678035402 0 0.00069076718938243628 -0.00022122146747018752 0 0.0002384631225657367 0.00014321176869959833 0 0.00077024708584127132 0.00055692941204116384 0 0.00076282584203085321 0.00026505133678035402 0 0.0002384631225657367 0.00014321176869959833 0 0.00069076718938243628 -0.00022122146747018752 0 0.00031976526717860477 -0.00039842025165821545 0 0.0002384631225657367 0.00014321176869959833 0 0.00069076718938243628 -0.00022122146747018752 0 0.00031976526717860477 -0.00039842025165821545 0 0.0004916892837426095 -0.00092631715297659685 0 0.00069076718938243628 -0.00022122146747018752 0 0.0004916892837426095 -0.00092631715297659685 0 0.00098293694872918897 -0.00069593897859361598 0 0.0078776723886554781 -0.0077762247711081357 0 0.010673228338767948 -0.0089907396802571225 0 0.0066051725234104568 -0.010330766384423162 0 0.0078776723886554781 -0.0077762247711081357 0 0.0066051725234104568 -0.010330766384423162 0 0.0059208351289730433 -0.0085349630600469791 0 0.0047789502331477074 -0.0040724629343373772 0 0.0081118095581500255 -0.004705556843569156 0 0.0004916892837426095 -0.00092631715297659685 0 0.0011373384264216347 -0.0013332192407062191 0 0.00098293694872918897 -0.00069593897859361598 0 0.0011373384264216347 -0.0013332192407062191 0 0.00098293694872918897 -0.00069593897859361598 0 0.0015130926942262112 -0.00071072097052655232 0 0.00069076718938243628 -0.00022122146747018752 0 0.00098293694872918897 -0.00069593897859361598 0 0.0012735500250375346 -0.00017697041810244157 0 0.00098293694872918897 -0.00069593897859361598 0 0.0012735500250375346 -0.00017697041810244157 0 0.0015130926942262112 -0.00071072097052655232 0 0.0012735500250375346 -0.00017697041810244157 0 0.0015130926942262112 -0.00071072097052655232 0 0.0020613913177286469 -4.7624803334256094e-05 0 0.0015130926942262112 -0.00071072097052655232 0 0.0020613913177286469 -4.7624803334256094e-05 0 0.0023072698086108357 -0.0011905388797598213 0 0.0045550721921701837 -0.00027652535982519575 0 0.0020613913177286469 -4.7624803334256094e-05 0 0.0023072698086108357 -0.0011905388797598213 0 0.0081118095581500255 -0.004705556843569156 0 0.0050901348478584749 -0.0032603385379515984 0 0.0011373384264216347 -0.0013332192407062191 0 0.0015130926942262112 -0.00071072097052655232 0 0.0023072698086108357 -0.0011905388797598213 0 0.0038684160392470838 -0.00061116779976002277 0 0.0045265003219813202 -0.00037070194620357136 0 0.0041016040008969978 -0.00070732313080108984 0 0.01296456447206948 -0.0057232774580095328 0 0.0106227830571816 -0.0033517299144906133 0 0.017605108808507807 -0.008032330748017796 0 0.017096880100345799 -0.0068295373956770372 0 0.01839519864101374 -0.0070230876119476296 0 0.015750922182957892 -0.0052826520758702516 0 0.014473371836594539 -0.0047221140225692081 0 0.015257364608649095 -0.0041208766447614498 0 0.01296456447206948 -0.0057232774580095328 0 0.019522778525432164 -0.0067508331420920581 0 0.0045265003219813202 -0.00037070194620357136 0 0.0041016040008969978 -0.00070732313080108984 0 0.0046747938247321333 -0.0010040628916618932 0 0.0052708568411651262 -0.00059887806067686615 0 0.0045265003219813202 -0.00037070194620357136 0 0.0046747938247321333 -0.0010040628916618932 0 0.015157766175010459 -0.0033979661560114495 0 0.019522778525432164 -0.0067508331420920581 0 0.013580878748416647 -0.0038621704112106713 0 0.014473371836594539 -0.0047221140225692081 0 0.015257364608649095 -0.0041208766447614498 0 0.019522778525432164 -0.0067508331420920581 0 0.024403181562003277 -0.0084451588213469066 0 0.034367901136032622 -0.012558767486022956 0 0.036373088838156778 -0.011322399412905922 0 0.034576380222238148 -0.010931542364074117 0 0.031835404000090051 -0.012252770454021995 0 0.034367901136032622 -0.012558767486022956 0 0.034576380222238148 -0.010931542364074117 0 0.024403181562003277 -0.0084451588213469066 0 0.025340209817503206 -0.0091352050398320148 0 0.034367901136032622 -0.012558767486022956 0 0.036812667531025439 -0.012764637240677208 0 0.036373088838156778 -0.011322399412905922 0 0.010781466713903658 -0.0089752629006055601 0 0.0078814304502397483 -0.010307324144065891 0 0.0066051725234104568 -0.010330766384423162 0 0.01839519864101374 -0.0070230876119476296 0 0.01969688803224413 -0.0072099261451545439 0 0.019307011716938324 -0.0077197488465944111 0 0.0081118095581500255 -0.004705556843569156 0 0.0073738170117517562 -0.0063180002525958998 0 0.010781466713903658 -0.0089752629006055601 0 0.012108821344676748 -0.009531376014721149 0 0.0078814304502397483 -0.010307324144065891 0 0.01296456447206948 -0.0057232774580095328 0 0.014565379205585139 -0.0079887260120974184 0 0.017605108808507807 -0.008032330748017796 0 0.01839519864101374 -0.0070230876119476296 0 0.019307011716938324 -0.0077197488465944111 0 0.0081118095581500255 -0.004705556843569156 0 0.01296456447206948 -0.0057232774580095328 0 0.02072732265152382 -0.008818559299364476 0 0.018478297030956044 -0.0082146331673458896 0 0.0037025163248339934 -0.011084002961752267 0 0.0026620085519748721 -0.0095176329030594899 0 0.0041193194776798789 -0.0086602897739777116 0 0.021417610983095112 -0.0088641157053946738 0 0.021140645296216599 -0.0089052664620146247 0 0.020894524535290341 -0.0087661004883452277 0 0.0037025163248339934 -0.011084002961752267 0 0.0026620085519748721 -0.0095176329030594899 0 0.0012306063738929292 -0.01070223094943484 0 0.02072732265152382 -0.008818559299364476 0 0.022772491966132638 -0.0091846534818304706 0 0.022772491966132638 -0.0091846534818304706 0 0.023412121104450095 -0.0094635816993687664 0 0.039108547642472284 -0.012915630246427497 0 0.040025409634355955 -0.012704354324565922 0 0.039540640236120778 -0.012449395255523948 0 0.0037025163248339934 -0.011084002961752267 0 0.0050874489529105452 -0.0096527471977336573 0 0.0041193194776798789 -0.0086602897739777116 0 0.025340209817503206 -0.0091352050398320148 0 0.02072732265152382 -0.008818559299364476 0 0.01969688803224413 -0.0072099261451545439 0 0.019307011716938324 -0.0077197488465944111 0 0.02100066713546074 -0.0073928074288116914 0 0.0037025163248339934 -0.011084002961752267 0 0.0050874489529105452 -0.0096527471977336573 0 0.0066051725234104568 -0.010330766384423162 0 0.014565379205585139 -0.0079887260120974184 0 0.02072732265152382 -0.008818559299364476 0 0.0078814304502397483 -0.010307324144065891 0 0.0037025163248339934 -0.011084002961752267 0 0.0066051725234104568 -0.010330766384423162 0 0.0050874489529105452 -0.0096527471977336573 0 0.0066051725234104568 -0.010330766384423162 0 0.0059208351289730433 -0.0085349630600469791 0 0.036373088838156778 -0.011322399412905922 0 0.03834871450435743 -0.011802312853406537 0 0.038123400474012768 -0.010235874894327562 0 0.036812667531025439 -0.012764637240677208 0 0.039108547642472284 -0.012915630246427497 0 0.03834871450435743 -0.011802312853406537 0 0.036812667531025439 -0.012764637240677208 0 0.036373088838156778 -0.011322399412905922 0 0.03834871450435743 -0.011802312853406537 0 0.03834871450435743 -0.011802312853406537 0 0.039483406754175096 -0.011145328869677873 0 0.038123400474012768 -0.010235874894327562 0 0.039108547642472284 -0.012915630246427497 0 0.03834871450435743 -0.011802312853406537 0 0.039540640236120778 -0.012449395255523948 0 0.03834871450435743 -0.011802312853406537 0 0.039483406754175096 -0.011145328869677873 0 0.039540640236120778 -0.012449395255523948 0 0.040022096492639311 -0.012638014311904366 0 0.039540640236120778 -0.012449395255523948 0 0.04020233362572203 -0.01173420269901052 0 0.039483406754175096 -0.011145328869677873 0 0.039540640236120778 -0.012449395255523948 0 0.04020233362572203 -0.01173420269901052 0 0.039483406754175096 -0.011145328869677873 0 0.04020233362572203 -0.01173420269901052 0 0.040769444584661189 -0.010768271489238033 0 0.040022096492639311 -0.012638014311904366 0 0.041000680257762157 -0.011595865243341125 0 0.041970224666860928 -0.01201409598245635 0 0.022772491966132638 -0.0091846534818304706 0 0.027674058673349367 -0.0087384149622812737 0 0.04020233362572203 -0.01173420269901052 0 0.041000680257762157 -0.011595865243341125 0 0.040769444584661189 -0.010768271489238033 0 0.041000680257762157 -0.011595865243341125 0 0.042002029296691785 -0.010863424899624311 0 0.040769444584661189 -0.010768271489238033 0 0.041000680257762157 -0.011595865243341125 0 0.042002029296691785 -0.010863424899624311 0 0.041970224666860928 -0.01201409598245635 0 0.040022096492639311 -0.012638014311904366 0 0.04020233362572203 -0.01173420269901052 0 0.041000680257762157 -0.011595865243341125 0 0.027674058673349367 -0.0087384149622812737 0 0.027416993359272234 -0.0083005326492283042 0 0.020618194900822447 -0.0096252462045013209 0 0.020450245648161849 -0.0095739031723807277 0 0.020286226979839835 -0.0096551021032392076 0 0.043114373986994255 -0.010910846872617539 0 0.041970224666860928 -0.01201409598245635 0 0.043696569369508428 -0.011342895270522546 0 0.043114373986994255 -0.010910846872617539 0 0.042002029296691785 -0.010863424899624311 0 0.042860083794299571 -0.010364113114168098 0 0.043114373986994255 -0.010910846872617539 0 0.042002029296691785 -0.010863424899624311 0 0.041970224666860928 -0.01201409598245635 0 0.018478297030956044 -0.0082146331673458896 0 0.011769440679354492 -0.0068080238788780049 0 0.020949136888832518 -0.0094501747881000249 0 0.020689143061362467 -0.0093929771156610678 0 0.020255908364505505 -0.0090161011361021906 0 0.020468508340955205 -0.0093950337431849048 0 0.020689143061362467 -0.0093929771156610678 0 0.020255908364505505 -0.0090161011361021906 0 0.020450245648161849 -0.0095739031723807277 0 0.020468508340955205 -0.0093950337431849048 0 0.020301758607206555 -0.0093117569447985164 0 0.020450245648161849 -0.0095739031723807277 0 0.020301758607206555 -0.0093117569447985164 0 0.01999310847338763 -0.0092471879376747109 0 0.020618194900822447 -0.0096252462045013209 0 0.020450245648161849 -0.0095739031723807277 0 0.020468508340955205 -0.0093950337431849048 0 0.020618194900822447 -0.0096252462045013209 0 0.020468508340955205 -0.0093950337431849048 0 0.020689143061362467 -0.0093929771156610678 0 0.020468508340955205 -0.0093950337431849048 0 0.020301758607206555 -0.0093117569447985164 0 0.020255908364505505 -0.0090161011361021906 0 0.0026620085519748721 -0.0095176329030594899 0 0.0012306063738929292 -0.01070223094943484 0 0.001425854715016311 -0.0079523311901755558 0 0.021156524502316074 -0.0095546447278726989 0 0.020618194900822447 -0.0096252462045013209 0 0.020947183089505297 -0.0094356066737765251 0 0.022772491966132638 -0.0091846534818304706 0 0.018478297030956044 -0.0082146331673458896 0 0.020618194900822447 -0.0096252462045013209 0 0.020947183089505297 -0.0094356066737765251 0 0.020689143061362467 -0.0093929771156610678 0 0.018478297030956044 -0.0082146331673458896 0 0.018824873713697385 -0.0083006239279199596 0 0.0012306063738929292 -0.01070223094943484 0 0.001425854715016311 -0.0079523311901755558 0 -0.0027753928633724484 -0.0085638497925731877 0 0.001425854715016311 -0.0079523311901755558 0 -0.0027753928633724484 -0.0085638497925731877 0 -0.0007860421244910643 -0.0061711239729055536 0 -0.0007860421244910643 -0.0061711239729055536 0 -0.0011155329895905627 -0.0039904624014333416 0 -0.0033774291935731028 -0.005085526430935715 0 -0.0027753928633724484 -0.0085638497925731877 0 -0.0007860421244910643 -0.0061711239729055536 0 -0.0033774291935731028 -0.005085526430935715 0 0.00081504339240384271 -0.0034832805101869444 0 -0.0009827784186317043 -0.0030109498880841398 0 0.001425854715016311 -0.0079523311901755558 0 -0.0007860421244910643 -0.0061711239729055536 0 0.001955387734006022 -0.0052525212262970397 0 -0.0007860421244910643 -0.0061711239729055536 0 0.001955387734006022 -0.0052525212262970397 0 -0.0011155329895905627 -0.0039904624014333416 0 0.001955387734006022 -0.0052525212262970397 0 0.0030744006696861192 -0.0073123085048223948 0 0.0050052213370784214 -0.006554894706274187 0 0.00081504339240384271 -0.0034832805101869444 0 0.0021579749560924331 -0.0035590820410406551 0 -0.00018597200590532233 -0.0027383774409465511 0 0.00055512152157336111 -0.0030593156779040931 0 0.00029841019907434293 -0.0024002241877424356 0 0.001425854715016311 -0.0079523311901755558 0 0.001955387734006022 -0.0052525212262970397 0 0.0030744006696861192 -0.0073123085048223948 0 0.0030744006696861192 -0.0073123085048223948 0 0.0041193194776798789 -0.0086602897739777116 0 0.0050052213370784214 -0.006554894706274187 0 0.0026620085519748721 -0.0095176329030594899 0 0.0030744006696861192 -0.0073123085048223948 0 0.0041193194776798789 -0.0086602897739777116 0 0.0026620085519748721 -0.0095176329030594899 0 0.001425854715016311 -0.0079523311901755558 0 0.0030744006696861192 -0.0073123085048223948 0 0.0078776723886554781 -0.0077762247711081357 0 0.0059208351289730433 -0.0085349630600469791 0 0.0050406321183005557 -0.0065240134810818588 0 0.0047789502331477074 -0.0040724629343373772 0 0.0021579749560924331 -0.0035590820410406551 0 0.0050874489529105452 -0.0096527471977336573 0 0.0041193194776798789 -0.0086602897739777116 0 0.0059208351289730433 -0.0085349630600469791 0 0.0041193194776798789 -0.0086602897739777116 0 0.0059208351289730433 -0.0085349630600469791 0 0.0050406321183005557 -0.0065240134810818588 0 0.0020939803280139529 -0.0045461658346017076 0 0.0021579749560924331 -0.0035590820410406551 0 0.00055512152157336111 -0.0030593156779040931 0 0.00089554076869179957 -0.0022590915124523184 0 0.00029841019907434293 -0.0024002241877424356 0 0.00031976526717860477 -0.00039842025165821545 0 0.0004916892837426095 -0.00092631715297659685 0 -0.00013437732048306519 -0.00061452354819755176 0 0.00031976526717860477 -0.00039842025165821545 0 -0.00013437732048306519 -0.00061452354819755176 0 0.0002384631225657367 0.00014321176869959833 0 0.0021579749560924331 -0.0035590820410406551 0 0.0014651786789034353 -0.0018267711457564696 0 0.00089554076869179957 -0.0022590915124523184 0 0.00029841019907434293 -0.0024002241877424356 0 0.00027124954920559327 -0.0016714646152227676 0 -0.00018597200590532233 -0.0027383774409465511 0 0.00029841019907434293 -0.0024002241877424356 0 -0.00013729160104262189 -0.0021271964328666666 0 0.00029841019907434293 -0.0024002241877424356 0 -0.00013729160104262189 -0.0021271964328666666 0 0.00027124954920559327 -0.0016714646152227676 0 -0.00097871346304608778 -0.0014390494492472529 0 -0.00056145067445104266 -0.00093274116468617231 0 -0.002324441870470356 -0.00066537707032437651 0 -0.00013729160104262189 -0.0021271964328666666 0 0.00027124954920559327 -0.0016714646152227676 0 -0.00070162788527405493 -0.0018799823286060465 0 0.00052902084270774262 -0.00094339577491670944 0 -0.00097871346304608778 -0.0014390494492472529 0 -0.00056145067445104266 -0.00093274116468617231 0 0.0012370339310123729 -0.0014614454487610964 0 0.00089554076869179957 -0.0022590915124523184 0 0.00027124954920559327 -0.0016714646152227676 0 0.00095415271741195427 -0.0010311615255992896 0 -0.00040402435543370553 -0.0015225935622058696 0 0.00052902084270774262 -0.00094339577491670944 0 -0.00056145067445104266 -0.00093274116468617231 0 -0.00016164667342537952 -0.00042540888364148984 0 0.00022497294335820903 1.2389888680148148e-06 0 -0.00016164667342537952 -0.00042540888364148984 0 -0.00019200372907470333 7.6563898514595333e-05 0 -0.00016164667342537952 -0.00042540888364148984 0 -0.00060601193747065974 -0.00019179900276428258 0 -0.00019200372907470333 7.6563898514595333e-05 0 -0.00056145067445104266 -0.00093274116468617231 0 -0.00060601193747065974 -0.00019179900276428258 0 -0.0013033949946779223 -0.00022350929765273532 0 -0.00056145067445104266 -0.00093274116468617231 0 -0.00016164667342537952 -0.00042540888364148984 0 -0.00060601193747065974 -0.00019179900276428258 0 -0.0015230203152254689 -0.00073690375001204272 0 -0.002555459188867004 -0.00052335147644859122 0 -0.00056145067445104266 -0.00093274116468617231 0 -0.0013033949946779223 -0.00022350929765273532 0 -0.0022988832795591933 -0.00057653479368823196 0 -0.00060601193747065974 -0.00019179900276428258 0 -0.0013033949946779223 -0.00022350929765273532 0 -0.0010750819817131718 0.00022775807581536912 0 -0.0010750819817131718 0.00022775807581536912 0 -0.0010784159541040756 0.0007223628141415151 0 -0.00057475228239903112 0.00047577150154203392 0 -0.0016652151109891012 0.0013201504374872543 0 -0.0017999603435837983 0.00044782440765111153 0 -0.0010784159541040756 0.0007223628141415151 0 -0.0010750819817131718 0.00022775807581536912 0 -0.0017999603435837983 0.00044782440765111153 0 -0.0010784159541040756 0.0007223628141415151 0 -0.0013033949946779223 -0.00022350929765273532 0 -0.0010750819817131718 0.00022775807581536912 0 -0.0017999603435837983 0.00044782440765111153 0 -0.0004586776631508701 0.0012666608253489285 0 -0.0010784159541040756 0.0007223628141415151 0 -0.00057475228239903112 0.00047577150154203392 0 0.0003008033189436325 0.00094571530850319171 0 0.0002026656895513908 0.00054369400684872629 0 -0.00057475228239903112 0.00047577150154203392 0 0.0002026656895513908 0.00054369400684872629 0 -0.00057475228239903112 0.00047577150154203392 0 -0.00019200372907470333 7.6563898514595333e-05 0 -0.00060601193747065974 -0.00019179900276428258 0 -0.00057475228239903112 0.00047577150154203392 0 -0.00019200372907470333 7.6563898514595333e-05 0 -0.00060601193747065974 -0.00019179900276428258 0 -0.0010750819817131718 0.00022775807581536912 0 -0.00057475228239903112 0.00047577150154203392 0 -0.0038389606542848583 0.0014263814118059431 0 -0.0029457648377422645 0.00036388114501264532 0 -0.0039482796463521314 -0.00023713683162899225 0 -0.0022920314267625913 0.0012224102415762622 0 -0.0017999603435837983 0.00044782440765111153 0 -0.0029457648377422645 0.00036388114501264532 0 -0.0017999603435837983 0.00044782440765111153 0 -0.0029457648377422645 0.00036388114501264532 0 -0.0022988832795591933 -0.00057653479368823196 0 -0.0013033949946779223 -0.00022350929765273532 0 -0.0017999603435837983 0.00044782440765111153 0 -0.0022988832795591933 -0.00057653479368823196 0 -0.002555459188867004 -0.00052335147644859122 0 -0.004763993427528453 -4.5640743709601359e-05 0 -0.002324441870470356 -0.00066537707032437651 0 -0.0037401456394268993 -0.0013345011163063253 0 -0.0044799843621075534 -0.00016502100379281025 0 -0.0029457648377422645 0.00036388114501264532 0 -0.0022988832795591933 -0.00057653479368823196 0 -0.0039482796463521314 -0.00023713683162899225 0 -0.0037401456394268993 -0.0013345011163063253 0 -0.0026300325868588155 -0.0020113840234246487 0 -0.0046306003339132091 -0.0027241148234398572 0 -0.002324441870470356 -0.00066537707032437651 0 -0.0037401456394268993 -0.0013345011163063253 0 -0.0026300325868588155 -0.0020113840234246487 0 -0.00097871346304608778 -0.0014390494492472529 0 -0.002324441870470356 -0.00066537707032437651 0 -0.0026300325868588155 -0.0020113840234246487 0 -0.00040402435543370553 -0.0015225935622058696 0 -0.0017132767444986258 -0.0019733370645532871 0 -0.00018597200590532233 -0.0027383774409465511 0 -0.00013729160104262189 -0.0021271964328666666 0 -0.00093208661253910466 -0.0024162991346517006 0 -0.00013729160104262189 -0.0021271964328666666 0 -0.00070162788527405493 -0.0018799823286060465 0 -0.00093208661253910466 -0.0024162991346517006 0 -0.0017132767444986258 -0.0019733370645532871 0 -0.0028898570875165604 -0.0024028163333364889 0 -0.00070162788527405493 -0.0018799823286060465 0 -0.00093208661253910466 -0.0024162991346517006 0 -0.0016824832116505938 -0.0020906731796495751 0 -0.0009827784186317043 -0.0030109498880841398 0 -0.0028898570875165604 -0.0024028163333364889 0 -0.0011155329895905627 -0.0039904624014333416 0 -0.0041317575938027854 -0.0028247774553220128 0 -0.0033774291935731028 -0.005085526430935715 0 -0.0045676585143010805 -0.0040742405295312312 0 -0.0041317575938027854 -0.0028247774553220128 0 -0.0033774291935731028 -0.005085526430935715 0 -0.0051788525404718533 -0.0026147753642928734 0 -0.0043671713668662765 -0.0029666053959721975 0 -0.0054698577253969698 -0.0032411632667610898 0 -0.0045676585143010805 -0.0040742405295312312 0 -0.0041317575938027854 -0.0028247774553220128 0 -0.0054698577253969698 -0.0032411632667610898 0 -0.0028898570875165604 -0.0024028163333364889 0 -0.0031748945566332592 -0.0024736998580436238 0 -0.0030340003322613376 -0.0023642616189144439 0 -0.0028898570875165604 -0.0024028163333364889 0 -0.0054698577253969698 -0.0032411632667610898 0 -0.0067054679858656397 -0.0014539395509364558 0 -0.0057818641334995572 -0.0045934596307489993 0 -0.0072932763613338209 -0.0024734262656918426 0 -0.0073855318757712236 -0.0033212235964303217 0 -0.0057818641334995572 -0.0045934596307489993 0 -0.0070284848836596808 -0.0022361327801178285 0 -0.0065106957250828622 -0.0034097623293943176 0 -0.0073855318757712236 -0.0033212235964303217 0 -0.0075972274504620945 -0.0038331329867532186 0 -0.0057818641334995572 -0.0045934596307489993 0 -0.0045676585143010805 -0.0040742405295312312 0 -0.0054698577253969698 -0.0032411632667610898 0 -0.0057818641334995572 -0.0045934596307489993 0 -0.0051788525404718533 -0.0026147753642928734 0 -0.005419514263293965 -0.0014571596619499861 0 -0.0067054679858656397 -0.0014539395509364558 0 -0.0051788525404718533 -0.0026147753642928734 0 -0.0054698577253969698 -0.0032411632667610898 0 -0.0067054679858656397 -0.0014539395509364558 0 -0.005419514263293965 -0.0014571596619499861 0 -0.0067054679858656397 -0.0014539395509364558 0 -0.0054092569989940883 -0.00068609033842009846 0 -0.0037401456394268993 -0.0013345011163063253 0 -0.0046306003339132091 -0.0027241148234398572 0 -0.0046480462978827266 -0.0018006462492965696 0 -0.0051788525404718533 -0.0026147753642928734 0 -0.0046306003339132091 -0.0027241148234398572 0 -0.0046480462978827266 -0.0018006462492965696 0 -0.0051788525404718533 -0.0026147753642928734 0 -0.005419514263293965 -0.0014571596619499861 0 -0.0046480462978827266 -0.0018006462492965696 0 -0.005419514263293965 -0.0014571596619499861 0 -0.0046480462978827266 -0.0018006462492965696 0 -0.0045357428715727607 -0.00082543497925693379 0 -0.0037401456394268993 -0.0013345011163063253 0 -0.0046480462978827266 -0.0018006462492965696 0 -0.0045357428715727607 -0.00082543497925693379 0 -0.0037401456394268993 -0.0013345011163063253 0 -0.0045357428715727607 -0.00082543497925693379 0 -0.0044799843621075534 -0.00016502100379281025 0 -0.004759491508068054 -0.00010671005519226359 0 -0.004763993427528453 -4.5640743709601359e-05 0 -0.0044936085754334557 2.4192630943327822e-05 0 -0.0054092569989940883 -0.00068609033842009846 0 -0.0059151509147769557 0.00029770165312895927 0 -0.004763993427528453 -4.5640743709601359e-05 0 -0.0055845671503253645 0.0001415913641391557 0 -0.005419514263293965 -0.0014571596619499861 0 -0.0045357428715727607 -0.00082543497925693379 0 -0.0054092569989940883 -0.00068609033842009846 0 -0.0045357428715727607 -0.00082543497925693379 0 -0.0044936085754334557 2.4192630943327822e-05 0 -0.0054092569989940883 -0.00068609033842009846 0 -0.0067054679858656397 -0.0014539395509364558 0 -0.0059151509147769557 0.00029770165312895927 0 -0.0072411027091670698 0.00053440981654708463 0 -0.0067054679858656397 -0.0014539395509364558 0 -0.0054092569989940883 -0.00068609033842009846 0 -0.0059151509147769557 0.00029770165312895927 0 -0.0062551773374719425 0.00036057813906590811 0 -0.0070121980427038247 0.00098750214734652747 0 -0.0072411027091670698 0.00053440981654708463 0 -0.0055845671503253645 0.0001415913641391557 0 -0.0059708333220132659 0.00022529610261011435 0 -0.0062551773374719425 0.00036057813906590811 0 -0.0066019568995047224 0.0013232943112063578 0 -0.0070121980427038247 0.00098750214734652747 0 -0.0062551773374719425 0.00036057813906590811 0 -0.0066019568995047224 0.0013232943112063578 0 -0.0058832514510056989 0.0012260401726394525 0 -0.0052662962165523361 0.00016263769447387593 0 -0.0062551773374719425 0.00036057813906590811 0 -0.0058832514510056989 0.0012260401726394525 0 -0.0054333316897050392 0.00064178810156088472 0 -0.004763993427528453 -4.5640743709601359e-05 0 -0.0051439168268761276 0.0020833106677862739 0 -0.0052662962165523361 0.00016263769447387593 0 -0.0058832514510056989 0.0012260401726394525 0 -0.0083374621355961232 -0.0011084658859220632 0 -0.0084364253131944122 -0.0014536234270053666 0 -0.0086609615057530176 -0.00067943017388623892 0 -0.0084364253131944122 -0.0014536234270053666 0 -0.0085427680944432025 -0.0016751454549632768 0 -0.0085639778540516596 -0.002044052878712867 0 -0.0061615567623876169 -0.00059373411998200031 0 -0.0050852232982832009 -0.00067104653974189561 0 -0.0085427680944432025 -0.0016751454549632768 0 -0.0084935540268329633 -0.0015146852476579486 0 -0.0082987893512908081 -0.0017204644713203784 0 -0.0084364253131944122 -0.0014536234270053666 0 -0.0085427680944432025 -0.0016751454549632768 0 -0.0087994501385773027 -0.0014894942593995219 0 -0.0085427680944432025 -0.0016751454549632768 0 -0.0087994501385773027 -0.0014894942593995219 0 -0.0084935540268329633 -0.0015146852476579486 0 -0.0086128800727573816 -0.0011619047334221122 0 -0.0087994501385773027 -0.0014894942593995219 0 -0.0084935540268329633 -0.0015146852476579486 0 -0.0086128800727573816 -0.0011619047334221122 0 -0.0084935540268329633 -0.0015146852476579486 0 -0.008067581040109113 -0.0016706660748273658 0 -0.0071612318613419532 0.0015690117421091085 0 -0.0070121980427038247 0.00098750214734652747 0 -0.0074676336265943168 0.00078041253525867849 0 -0.0071612318613419532 0.0015690117421091085 0 -0.0066019568995047224 0.0013232943112063578 0 -0.0070121980427038247 0.00098750214734652747 0 -0.0070121980427038247 0.00098750214734652747 0 -0.0072411027091670698 0.00053440981654708463 0 -0.0074676336265943168 0.00078041253525867849 0 -0.008067581040109113 -0.0016706660748273658 0 -0.0082987893512908081 -0.0017204644713203784 0 -0.0081434107257346549 -0.001982159611703688 0 -0.0084935540268329633 -0.0015146852476579486 0 -0.008067581040109113 -0.0016706660748273658 0 -0.0082987893512908081 -0.0017204644713203784 0 -0.0072932763613338209 -0.0024734262656918426 0 -0.008067581040109113 -0.0016706660748273658 0 -0.0081434107257346549 -0.001982159611703688 0 -0.0085427680944432025 -0.0016751454549632768 0 -0.0082987893512908081 -0.0017204644713203784 0 -0.0081434107257346549 -0.001982159611703688 0 -0.0067054679858656397 -0.0014539395509364558 0 -0.0072411027091670698 0.00053440981654708463 0 -0.0074676336265943168 0.00078041253525867849 0 -0.0070284848836596808 -0.0022361327801178285 0 -0.0078037119963822055 -0.00063506529926312674 0 -0.0072932763613338209 -0.0024734262656918426 0 -0.0081434107257346549 -0.001982159611703688 0 -0.0079374419002647967 -0.0023572427568307268 0 -0.0081434107257346549 -0.001982159611703688 0 -0.0085639778540516596 -0.002044052878712867 0 -0.0079374419002647967 -0.0023572427568307268 0 -0.0082536430960465732 -0.00093475330078190446 0 -0.0083374621355961232 -0.0011084658859220632 0 -0.0086609615057530176 -0.00067943017388623892 0 -0.0082536430960465732 -0.00093475330078190446 0 -0.0086609615057530176 -0.00067943017388623892 0 -0.0084358651111436384 -0.00071126410682796463 0 -0.0085427680944432025 -0.0016751454549632768 0 -0.0081434107257346549 -0.001982159611703688 0 -0.0085639778540516596 -0.002044052878712867 0 -0.0086609615057530176 -0.00067943017388623892 0 -0.0084358651111436384 -0.00071126410682796463 0 -0.0084550926169207376 -0.00048035143244554059 0 -0.0086609615057530176 -0.00067943017388623892 0 -0.0084550926169207376 -0.00048035143244554059 0 -0.0088639956173030277 -0.00019022757271102238 0 -0.0036603769920582909 -0.002162786176959398 0 0.00012207953623471831 -0.0030841710011973822 0 -0.0085639778540516596 -0.002044052878712867 0 -0.0078111767507781059 -0.0027610637107040445 0 -0.0078025392504698365 -0.0036299996223558648 0 -0.0050852232982832009 -0.00067104653974189561 0 0.00012207953623471831 -0.0030841710011973822 0 -0.0072932763613338209 -0.0024734262656918426 0 -0.0079374419002647967 -0.0023572427568307268 0 -0.0078111767507781059 -0.0027610637107040445 0 -0.0085639778540516596 -0.002044052878712867 0 -0.0079374419002647967 -0.0023572427568307268 0 -0.0078111767507781059 -0.0027610637107040445 0 -0.0078111767507781059 -0.0027610637107040445 0 -0.0073855318757712236 -0.0033212235964303217 0 -0.0078025392504698365 -0.0036299996223558648 0 -0.0072932763613338209 -0.0024734262656918426 0 -0.0078111767507781059 -0.0027610637107040445 0 -0.0073855318757712236 -0.0033212235964303217 0 0.0028031296034237486 -0.0078076973380742922 0 -0.00063034094945227099 -0.0076298905687955101 0 0.0028023126135340898 -0.010761130714975574 0 -0.007897502144106892 -0.0035958214978302526 0 -0.0075972274504620945 -0.0038331329867532186 0 -0.0065991687063060699 -0.0063739407157862192 0 -0.0073855318757712236 -0.0033212235964303217 0 -0.0078025392504698365 -0.0036299996223558648 0 -0.0075972274504620945 -0.0038331329867532186 0 0.00012207953623471831 -0.0030841710011973822 0 2.2408457914372192e-05 -0.0030410263699308842 0 0.019773115117847993 -0.0072780795204326256 0 0.023181098740300537 -0.010364811970362589 0 -0.001155843211024604 -0.0050899148358711406 0 0.0028031296034237486 -0.0078076973380742922 0 -0.00063034094945227099 -0.0076298905687955101 0 0.040811716370104036 -0.0068335002293301731 0 0.042782773015365469 -0.010110711676650421 0 0.046762354657334686 -0.012264127350037912 0 0.040811716370104036 -0.0068335002293301731 0 0.042782773015365469 -0.010110711676650421 0 0.039754388241383984 -0.010237578097603447 0 0.041924387143670402 -0.012183811495434288 0 0.042244069539600117 -0.01739994992111658 0 0.043883982787693315 -0.010904883817149467 0 0.039754388241383984 -0.010237578097603447 0 0.041924387143670402 -0.012183811495434288 0 0.040239641801960609 -0.013171940381014812 0 0.042782773015365469 -0.010110711676650421 0 0.039754388241383984 -0.010237578097603447 0 0.041924387143670402 -0.012183811495434288 0 0.042782773015365469 -0.010110711676650421 0 0.041924387143670402 -0.012183811495434288 0 0.043883982787693315 -0.010904883817149467 0 0.041924387143670402 -0.012183811495434288 0 0.040239641801960609 -0.013171940381014812 0 0.042244069539600117 -0.01739994992111658 0 0.036244856663157625 -0.012678872577125229 0 0.040239641801960609 -0.013171940381014812 0 0.042244069539600117 -0.01739994992111658 0 0.041282936319175637 -0.011066446814220494 0 0.041757102903868581 -0.011314985483837407 0 0.044551534533069627 -0.011970478591703792 0 0.044995017088682289 -0.011855924612484605 0 0.043883982787693315 -0.010904883817149467 0 0.044995017088682289 -0.011855924612484605 0 0.044958674152944127 -0.011222763730910228 0 0.04502064780196742 -0.011951718651342333 0 0.044995017088682289 -0.011855924612484605 0 0.045035662380300691 -0.011868664620639943 0 0.045390440508751378 -0.011939760477751636 0 0.044551534533069627 -0.011970478591703792 0 0.044995017088682289 -0.011855924612484605 0 0.045390440508751378 -0.011939760477751636 0 0.044995017088682289 -0.011855924612484605 0 0.043883982787693315 -0.010904883817149467 0 0.044958674152944127 -0.011222763730910228 0 0.0028031296034237486 -0.0078076973380742922 0 0.0028023126135340898 -0.010761130714975574 0 0.0050380876369150538 -0.011947114566681138 0 0.00012207953623471831 -0.0030841710011973822 0 0.014549231353081556 -0.0075645517580276269 0 0.023181098740300537 -0.010364811970362589 0 0.014549231353081556 -0.0075645517580276269 0 0.028211149381318707 -0.012144558336611214 0 0.023181098740300537 -0.010364811970362589 0 0.042782773015365469 -0.010110711676650421 0 0.043883982787693315 -0.010904883817149467 0 0.044958674152944127 -0.011222763730910228 0 0.023181098740300537 -0.010364811970362589 0 0.020991083150915583 -0.010411037487961466 0 0.020876627157354166 -0.0089240455805821052 0 0.019754989798514807 -0.0083586260168578858 0 0.019324440939252653 -0.0075865712798209471 0 -0.0057818641334995572 -0.0045934596307489993 0 -0.0065991687063060699 -0.0063739407157862192 0 -0.0033774291935731028 -0.005085526430935715 0 -0.0075972274504620945 -0.0038331329867532186 0 -0.0057818641334995572 -0.0045934596307489993 0 -0.0065991687063060699 -0.0063739407157862192 0 -0.0027753928633724484 -0.0085638497925731877 0 -0.0065991687063060699 -0.0063739407157862192 0 -0.0033774291935731028 -0.005085526430935715 0 -0.0045676585143010805 -0.0040742405295312312 0 -0.0057818641334995572 -0.0045934596307489993 0 -0.0033774291935731028 -0.005085526430935715 0 0.020255908364505505 -0.0090161011361021906 0 0.019359463166157956 -0.0085031131824155632 0 0.019522875938670498 -0.0088226645758021811 0 0.011769440679354492 -0.0068080238788780049 0 0.014549231353081556 -0.0075645517580276269 0 0.020255908364505505 -0.0090161011361021906 0 0.019522875938670498 -0.0088226645758021811 0 0.01999310847338763 -0.0092471879376747109 0 0.020991083150915583 -0.010411037487961466 0 0.020431213594533395 -0.0098166867560701265 0 0.044995017088682289 -0.011855924612484605 0 0.04502064780196742 -0.011951718651342333 0 0.045035662380300691 -0.011868664620639943 0 0.014549231353081556 -0.0075645517580276269 0 0.020991083150915583 -0.010411037487961466 0 0.04502064780196742 -0.011951718651342333 0 0.045035662380300691 -0.011868664620639943 0 0.044463803894368159 -0.011725769965360093 0 0.020991083150915583 -0.010411037487961466 0 0.025640481265542536 -0.010530170339295351 0 0.045035662380300691 -0.011868664620639943 0 0.044978761450267093 -0.011416137844056878 0 0.044463803894368159 -0.011725769965360093 0 0.044978761450267093 -0.011416137844056878 0 0.044463803894368159 -0.011725769965360093 0 0.044449795185112634 -0.011334262689168843 0 0.020301758607206555 -0.0093117569447985164 0 0.020255908364505505 -0.0090161011361021906 0 0.01999310847338763 -0.0092471879376747109 0 0.02019771212674033 -0.0093743063971709964 0 0.020276815932286269 -0.009450643353967841 0 0.020236507175602988 -0.0094733641256381299 0 0.020276815932286269 -0.009450643353967841 0 0.020236507175602988 -0.0094733641256381299 0 0.020307705730812371 -0.009537009271455078 0 0.044463803894368159 -0.011725769965360093 0 0.043921059620026778 -0.011098255247716078 0 0.044449795185112634 -0.011334262689168843 0 0.025640481265542536 -0.010530170339295351 0 0.027416993359272234 -0.0083005326492283042 0 0.020450245648161849 -0.0095739031723807277 0 0.020276815932286269 -0.009450643353967841 0 0.020307705730812371 -0.009537009271455078 0 0.020236507175602988 -0.0094733641256381299 0 0.020307705730812371 -0.009537009271455078 0 0.020286226979839835 -0.0096551021032392076 0 0.020361032431078358 -0.0097238260189823431 0 0.020431213594533395 -0.0098166867560701265 0 0.020450245648161849 -0.0095739031723807277 0 0.020307705730812371 -0.009537009271455078 0 0.020286226979839835 -0.0096551021032392076 0 0.043696569369508428 -0.011342895270522546 0 0.044188975678721668 -0.011055321602327313 0 0.04380597017153777 -0.011056338702880183 0 0.043921059620026778 -0.011098255247716078 0 0.044449795185112634 -0.011334262689168843 0 0.044188975678721668 -0.011055321602327313 0 0.044449795185112634 -0.011334262689168843 0 0.044188975678721668 -0.011055321602327313 0 0.044668256423920819 -0.01096422759447486 0 0.027416993359272234 -0.0083005326492283042 0 0.028310959119965427 -0.008223908270755172 0 0.044188975678721668 -0.011055321602327313 0 0.044323036626637322 -0.010646026851111103 0 0.044668256423920819 -0.01096422759447486 0 0.044323036626637322 -0.010646026851111103 0 0.043988145643943211 -0.010818474829515793 0 0.043888325853313356 -0.010549726285886036 0 0.044188975678721668 -0.011055321602327313 0 0.044323036626637322 -0.010646026851111103 0 0.043988145643943211 -0.010818474829515793 0 0.044188975678721668 -0.011055321602327313 0 0.043988145643943211 -0.010818474829515793 0 0.04380597017153777 -0.011056338702880183 0 0.043988145643943211 -0.010818474829515793 0 0.04380597017153777 -0.011056338702880183 0 0.043671841870588535 -0.010822007400538399 0 0.043696569369508428 -0.011342895270522546 0 0.04380597017153777 -0.011056338702880183 0 0.043560860629374372 -0.011012083623453373 0 0.04380597017153777 -0.011056338702880183 0 0.043671841870588535 -0.010822007400538399 0 0.043560860629374372 -0.011012083623453373 0 0.043888325853313356 -0.010549726285886036 0 0.043671841870588535 -0.010822007400538399 0 0.043565844157561484 -0.010590445809948199 0 0.043988145643943211 -0.010818474829515793 0 0.043888325853313356 -0.010549726285886036 0 0.043671841870588535 -0.010822007400538399 0 0.043114373986994255 -0.010910846872617539 0 0.043565844157561484 -0.010590445809948199 0 0.043508280827046233 -0.01022235869196176 0 0.043114373986994255 -0.010910846872617539 0 0.043671841870588535 -0.010822007400538399 0 0.043565844157561484 -0.010590445809948199 0 0.043114373986994255 -0.010910846872617539 0 0.043696569369508428 -0.011342895270522546 0 0.043560860629374372 -0.011012083623453373 0 0.043114373986994255 -0.010910846872617539 0 0.043671841870588535 -0.010822007400538399 0 0.043560860629374372 -0.011012083623453373 0 0.044978761450267093 -0.011416137844056878 0 0.044668256423920819 -0.01096422759447486 0 0.04532112665831517 -0.010607772211097972 0 0.044978761450267093 -0.011416137844056878 0 0.044449795185112634 -0.011334262689168843 0 0.044668256423920819 -0.01096422759447486 0 0.044323036626637322 -0.010646026851111103 0 0.044668256423920819 -0.01096422759447486 0 0.044837326475155891 -0.010320054180862867 0 0.044668256423920819 -0.01096422759447486 0 0.04532112665831517 -0.010607772211097972 0 0.044837326475155891 -0.010320054180862867 0 0.044978761450267093 -0.011416137844056878 0 0.04532112665831517 -0.010607772211097972 0 0.045782978756550755 -0.010974142702282301 0 0.04532112665831517 -0.010607772211097972 0 0.045782978756550755 -0.010974142702282301 0 0.046283889724454887 -0.010058071662683646 0 0.045782978756550755 -0.010974142702282301 0 0.047224466994577455 -0.010847367654912433 0 0.045390440508751378 -0.011939760477751636 0 0.045782978756550755 -0.010974142702282301 0 0.047224466994577455 -0.010847367654912433 0 0.046283889724454887 -0.010058071662683646 0 0.041282936319175637 -0.011066446814220494 0 0.041288042249456945 -0.012121491788018553 0 0.046382271767661992 -0.012789575819993973 0 0.047224466994577455 -0.010847367654912433 0 0.045390440508751378 -0.011939760477751636 0 0.041282936319175637 -0.011066446814220494 0 0.042260337809192555 -0.011661407476964652 0 0.045035662380300691 -0.011868664620639943 0 0.044978761450267093 -0.011416137844056878 0 0.045390440508751378 -0.011939760477751636 0 0.044978761450267093 -0.011416137844056878 0 0.045782978756550755 -0.010974142702282301 0 0.045390440508751378 -0.011939760477751636 0 0.046289784822723772 -0.00874606879965391 0 0.045482884437012927 -0.0090427706596592113 0 0.045523434726046287 -0.0097287749172174018 0 0.046289784822723772 -0.00874606879965391 0 0.045482884437012927 -0.0090427706596592113 0 0.045593715597401469 -0.0081881286484121619 0 0.046289784822723772 -0.00874606879965391 0 0.045593715597401469 -0.0081881286484121619 0 0.04617304292441405 -0.0076631626029259976 0 0.047995526057669893 -0.0090054500504477969 0 0.046289784822723772 -0.00874606879965391 0 0.04713958075007485 -0.0075163152410441646 0 0.047995526057669893 -0.0090054500504477969 0 0.047224466994577455 -0.010847367654912433 0 0.046283889724454887 -0.010058071662683646 0 0.047995526057669893 -0.0090054500504477969 0 0.046289784822723772 -0.00874606879965391 0 0.046283889724454887 -0.010058071662683646 0 0.046289784822723772 -0.00874606879965391 0 0.046283889724454887 -0.010058071662683646 0 0.045523434726046287 -0.0097287749172174018 0 0.04532112665831517 -0.010607772211097972 0 0.046283889724454887 -0.010058071662683646 0 0.045523434726046287 -0.0097287749172174018 0 0.045523434726046287 -0.0097287749172174018 0 0.044837326475155891 -0.010320054180862867 0 0.0448505155406759 -0.0096750036506724115 0 0.04532112665831517 -0.010607772211097972 0 0.045523434726046287 -0.0097287749172174018 0 0.044837326475155891 -0.010320054180862867 0 0.044323036626637322 -0.010646026851111103 0 0.044837326475155891 -0.010320054180862867 0 0.044461503367555701 -0.010116539898078529 0 0.044837326475155891 -0.010320054180862867 0 0.044461503367555701 -0.010116539898078529 0 0.0448505155406759 -0.0096750036506724115 0 0.0448505155406759 -0.0096750036506724115 0 0.044317609149549783 -0.0096463192480198273 0 0.044531882972163775 -0.0091465375063137875 0 0.044461503367555701 -0.010116539898078529 0 0.0448505155406759 -0.0096750036506724115 0 0.044317609149549783 -0.0096463192480198273 0 0.045482884437012927 -0.0090427706596592113 0 0.045523434726046287 -0.0097287749172174018 0 0.0448505155406759 -0.0096750036506724115 0 0.043888325853313356 -0.010549726285886036 0 0.043565844157561484 -0.010590445809948199 0 0.043508280827046233 -0.01022235869196176 0 0.043888325853313356 -0.010549726285886036 0 0.043508280827046233 -0.01022235869196176 0 0.044074443491687196 -0.010165378267209089 0 0.043508280827046233 -0.01022235869196176 0 0.044074443491687196 -0.010165378267209089 0 0.043884787919848761 -0.009784194281869921 0 0.044323036626637322 -0.010646026851111103 0 0.043888325853313356 -0.010549726285886036 0 0.044074443491687196 -0.010165378267209089 0 0.044323036626637322 -0.010646026851111103 0 0.044461503367555701 -0.010116539898078529 0 0.044074443491687196 -0.010165378267209089 0 0.044461503367555701 -0.010116539898078529 0 0.044074443491687196 -0.010165378267209089 0 0.044317609149549783 -0.0096463192480198273 0 0.044317609149549783 -0.0096463192480198273 0 0.043973941676459939 -0.0091604633837241971 0 0.044531882972163775 -0.0091465375063137875 0 0.044317609149549783 -0.0096463192480198273 0 0.043884787919848761 -0.009784194281869921 0 0.043973941676459939 -0.0091604633837241971 0 0.044074443491687196 -0.010165378267209089 0 0.044317609149549783 -0.0096463192480198273 0 0.043884787919848761 -0.009784194281869921 0 0.043495440580958084 -0.0096507111282280005 0 0.043384091340223696 -0.0092150966780300738 0 0.043973941676459939 -0.0091604633837241971 0 0.043508280827046233 -0.01022235869196176 0 0.043884787919848761 -0.009784194281869921 0 0.043495440580958084 -0.0096507111282280005 0 0.043884787919848761 -0.009784194281869921 0 0.043495440580958084 -0.0096507111282280005 0 0.043973941676459939 -0.0091604633837241971 0 0.043495440580958084 -0.0096507111282280005 0 0.043384091340223696 -0.0092150966780300738 0 0.04303117981282701 -0.0097407511357347088 0 0.043508280827046233 -0.01022235869196176 0 0.043495440580958084 -0.0096507111282280005 0 0.04303117981282701 -0.0097407511357347088 0 0.043438743415436187 -0.0086277641736500401 0 0.043384091340223696 -0.0092150966780300738 0 0.043973941676459939 -0.0091604633837241971 0 0.043438743415436187 -0.0086277641736500401 0 0.043973941676459939 -0.0091604633837241971 0 0.043963042898220686 -0.0083738204071924088 0 0.043973941676459939 -0.0091604633837241971 0 0.044455575155338906 -0.0085417514992612246 0 0.043963042898220686 -0.0083738204071924088 0 0.043973941676459939 -0.0091604633837241971 0 0.044455575155338906 -0.0085417514992612246 0 0.044531882972163775 -0.0091465375063137875 0 0.043963042898220686 -0.0083738204071924088 0 0.043663317829044007 -0.0077863191921027329 0 0.044274983472624534 -0.0079410480538487579 0 0.044455575155338906 -0.0085417514992612246 0 0.043963042898220686 -0.0083738204071924088 0 0.044274983472624534 -0.0079410480538487579 0 0.043438743415436187 -0.0086277641736500401 0 0.043963042898220686 -0.0083738204071924088 0 0.043663317829044007 -0.0077863191921027329 0 0.043438743415436187 -0.0086277641736500401 0 0.043663317829044007 -0.0077863191921027329 0 0.042999879163148257 -0.0082240496357388147 0 0.045482884437012927 -0.0090427706596592113 0 0.045593715597401469 -0.0081881286484121619 0 0.044985767391896199 -0.0086930321328158137 0 0.045482884437012927 -0.0090427706596592113 0 0.0448505155406759 -0.0096750036506724115 0 0.044985767391896199 -0.0086930321328158137 0 0.044455575155338906 -0.0085417514992612246 0 0.044985767391896199 -0.0086930321328158137 0 0.044531882972163775 -0.0091465375063137875 0 0.0448505155406759 -0.0096750036506724115 0 0.044985767391896199 -0.0086930321328158137 0 0.044531882972163775 -0.0091465375063137875 0 0.044455575155338906 -0.0085417514992612246 0 0.04487272626582705 -0.0078783882829573208 0 0.044274983472624534 -0.0079410480538487579 0 0.044455575155338906 -0.0085417514992612246 0 0.044985767391896199 -0.0086930321328158137 0 0.04487272626582705 -0.0078783882829573208 0 0.045593715597401469 -0.0081881286484121619 0 0.044985767391896199 -0.0086930321328158137 0 0.04487272626582705 -0.0078783882829573208 0 0.045593715597401469 -0.0081881286484121619 0 0.04487272626582705 -0.0078783882829573208 0 0.04555567104105631 -0.0073249916659536901 0 0.04487272626582705 -0.0078783882829573208 0 0.045007703694104999 -0.0070247915167795799 0 0.04555567104105631 -0.0073249916659536901 0 0.04487272626582705 -0.0078783882829573208 0 0.045007703694104999 -0.0070247915167795799 0 0.044385195342799479 -0.0071289430381374615 0 0.045007703694104999 -0.0070247915167795799 0 0.044385195342799479 -0.0071289430381374615 0 0.044875890705300035 -0.0063193807421833142 0 0.045007703694104999 -0.0070247915167795799 0 0.045419162443237661 -0.0066145255250401394 0 0.04555567104105631 -0.0073249916659536901 0 0.04487272626582705 -0.0078783882829573208 0 0.044274983472624534 -0.0079410480538487579 0 0.044385195342799479 -0.0071289430381374615 0 0.043663317829044007 -0.0077863191921027329 0 0.044274983472624534 -0.0079410480538487579 0 0.044385195342799479 -0.0071289430381374615 0 0.044385195342799479 -0.0071289430381374615 0 0.044361146344559531 -0.0063826777533257982 0 0.04354440241418376 -0.0067885331930455017 0 0.043663317829044007 -0.0077863191921027329 0 0.044385195342799479 -0.0071289430381374615 0 0.04354440241418376 -0.0067885331930455017 0 0.044361146344559531 -0.0063826777533257982 0 0.044190818233953218 -0.0058652926056395405 0 0.04354440241418376 -0.0067885331930455017 0 0.044385195342799479 -0.0071289430381374615 0 0.044361146344559531 -0.0063826777533257982 0 0.044875890705300035 -0.0063193807421833142 0 0.044361146344559531 -0.0063826777533257982 0 0.044190818233953218 -0.0058652926056395405 0 0.044484388035681367 -0.0056389100355578661 0 0.046031395505536921 -0.0046946454286376999 0 0.046306471930475941 -0.0045063073875627521 0 0.044361146344559531 -0.0063826777533257982 0 0.044875890705300035 -0.0063193807421833142 0 0.044484388035681367 -0.0056389100355578661 0 0.045419162443237661 -0.0066145255250401394 0 0.044875890705300035 -0.0063193807421833142 0 0.04554497703923651 -0.0059314875247661004 0 0.045007703694104999 -0.0070247915167795799 0 0.045419162443237661 -0.0066145255250401394 0 0.044875890705300035 -0.0063193807421833142 0 0.044875890705300035 -0.0063193807421833142 0 0.045146696424141985 -0.0058075723171357339 0 0.044484388035681367 -0.0056389100355578661 0 0.044875890705300035 -0.0063193807421833142 0 0.045146696424141985 -0.0058075723171357339 0 0.04554497703923651 -0.0059314875247661004 0 0.04554497703923651 -0.0059314875247661004 0 0.04615819818143356 -0.0066204144730251813 0 0.046225638793207395 -0.0055095368614732779 0 0.04615819818143356 -0.0066204144730251813 0 0.047030219084640869 -0.0058850844151449927 0 0.046225638793207395 -0.0055095368614732779 0 0.045419162443237661 -0.0066145255250401394 0 0.04554497703923651 -0.0059314875247661004 0 0.04615819818143356 -0.0066204144730251813 0 0.04615819818143356 -0.0066204144730251813 0 0.04555567104105631 -0.0073249916659536901 0 0.04617304292441405 -0.0076631626029259976 0 0.045419162443237661 -0.0066145255250401394 0 0.04615819818143356 -0.0066204144730251813 0 0.04555567104105631 -0.0073249916659536901 0 0.04615819818143356 -0.0066204144730251813 0 0.04617304292441405 -0.0076631626029259976 0 0.04713958075007485 -0.0075163152410441646 0 0.045593715597401469 -0.0081881286484121619 0 0.04555567104105631 -0.0073249916659536901 0 0.04617304292441405 -0.0076631626029259976 0 0.046289784822723772 -0.00874606879965391 0 0.04617304292441405 -0.0076631626029259976 0 0.04713958075007485 -0.0075163152410441646 0 0.048642240430974662 -0.0071155575069471472 0 0.04713958075007485 -0.0075163152410441646 0 0.047030219084640869 -0.0058850844151449927 0 0.04615819818143356 -0.0066204144730251813 0 0.04713958075007485 -0.0075163152410441646 0 0.047030219084640869 -0.0058850844151449927 0 0.047799412780885356 -0.0051076320928577197 0 0.047030219084640869 -0.0058850844151449927 0 0.047021621807843104 -0.0044666653032454781 0 0.047030219084640869 -0.0058850844151449927 0 0.046225638793207395 -0.0055095368614732779 0 0.047021621807843104 -0.0044666653032454781 0 0.047743997634305937 -0.0043768873210780421 0 0.047799412780885356 -0.0051076320928577197 0 0.047021621807843104 -0.0044666653032454781 0 0.046225638793207395 -0.0055095368614732779 0 0.045934358727442087 -0.0047320841751011603 0 0.045524097126122258 -0.0054624384171866342 0 0.04554497703923651 -0.0059314875247661004 0 0.046225638793207395 -0.0055095368614732779 0 0.045524097126122258 -0.0054624384171866342 0 0.046225638793207395 -0.0055095368614732779 0 0.045934358727442087 -0.0047320841751011603 0 0.047021621807843104 -0.0044666653032454781 0 0.048311996665208828 -0.0026556928779447554 0 0.049829432677859671 -0.0023995114738717301 0 0.049056761263935392 -0.0020203666919720534 0 0.04805331795058998 -0.0035381385096116824 0 0.049225627039415597 -0.0023611075671928629 0 0.047331567909504858 -0.0036779725680621466 0 0.049213245692199412 -0.0025415506661155443 0 0.047416163700193609 -0.0037865439940745656 0 0.048311996665208828 -0.0026556928779447554 0 0.049829432677859671 -0.0023995114738717301 0 0.047571315853774422 -0.0041876184160739406 0 0.045934358727442087 -0.0047320841751011603 0 0.047021621807843104 -0.0044666653032454781 0 0.047623876501920848 -0.0037092475588538288 0 0.04805331795058998 -0.0035381385096116824 0 0.049225627039415597 -0.0023611075671928629 0 0.049951283133048863 -0.0025494289104071718 0 0.04714102967207677 -0.0039879364970757747 0 0.048440716057557835 -0.0031794812423135742 0 0.047743997634305937 -0.0043768873210780421 0 0.047021621807843104 -0.0044666653032454781 0 0.04768377097686359 -0.0036395724254859904 0 0.048188641162594303 -0.0034452165818034753 0 0.048440716057557835 -0.0031794812423135742 0 0.05010233720268116 -0.0013033794219779815 0 0.049198629889713123 -0.001468875260847835 0 0.04958818712192941 -0.00066691293332406384 0 0.05010233720268116 -0.0013033794219779815 0 0.049570382269567136 -0.0018043108688793532 0 0.049198629889713123 -0.001468875260847835 0 0.049829432677859671 -0.0023995114738717301 0 0.049570382269567136 -0.0018043108688793532 0 0.049056761263935392 -0.0020203666919720534 0 0.049829432677859671 -0.0023995114738717301 0 0.05010233720268116 -0.0013033794219779815 0 0.049570382269567136 -0.0018043108688793532 0 0.049056761263935392 -0.0020203666919720534 0 0.048312428316557368 -0.0017856353177161082 0 0.049198629889713123 -0.001468875260847835 0 0.049570382269567136 -0.0018043108688793532 0 0.049056761263935392 -0.0020203666919720534 0 0.049198629889713123 -0.001468875260847835 0 0.048311996665208828 -0.0026556928779447554 0 0.048312428316557368 -0.0017856353177161082 0 0.047073453871117131 -0.0022920575129506257 0 0.048311996665208828 -0.0026556928779447554 0 0.049056761263935392 -0.0020203666919720534 0 0.048312428316557368 -0.0017856353177161082 0 0.048312428316557368 -0.0017856353177161082 0 0.048454645680834123 -0.00095003989661985103 0 0.047425889832508956 -0.00134089868878665 0 0.048312428316557368 -0.0017856353177161082 0 0.049198629889713123 -0.001468875260847835 0 0.048454645680834123 -0.00095003989661985103 0 0.048454645680834123 -0.00095003989661985103 0 0.048807236762604851 -0.00012545063187013658 0 0.04958818712192941 -0.00066691293332406384 0 0.049198629889713123 -0.001468875260847835 0 0.048454645680834123 -0.00095003989661985103 0 0.04958818712192941 -0.00066691293332406384 0 0.048807236762604851 -0.00012545063187013658 0 0.04958818712192941 -0.00066691293332406384 0 0.049483681396280406 0.00021228965659103463 0 0.050314022702178891 -0.00076651239302160095 0 0.04958818712192941 -0.00066691293332406384 0 0.05026347051436799 -6.0062082728249437e-06 0 0.05010233720268116 -0.0013033794219779815 0 0.050314022702178891 -0.00076651239302160095 0 0.04958818712192941 -0.00066691293332406384 0 0.04492858970192256 -0.00069796899546637663 0 0.047273975969994594 -0.00017158633076046792 0 0.045106543887234306 0.0004948062580460951 0 0.04492858970192256 -0.00069796899546637663 0 0.047273975969994594 -0.00017158633076046792 0 0.04583678321749908 -0.0015425328723486851 0 0.047273975969994594 -0.00017158633076046792 0 0.047425889832508956 -0.00134089868878665 0 0.04583678321749908 -0.0015425328723486851 0 0.048454645680834123 -0.00095003989661985103 0 0.048807236762604851 -0.00012545063187013658 0 0.047273975969994594 -0.00017158633076046792 0 0.048454645680834123 -0.00095003989661985103 0 0.047273975969994594 -0.00017158633076046792 0 0.047425889832508956 -0.00134089868878665 0 0.048312428316557368 -0.0017856353177161082 0 0.047425889832508956 -0.00134089868878665 0 0.047073453871117131 -0.0022920575129506257 0 0.047425889832508956 -0.00134089868878665 0 0.047073453871117131 -0.0022920575129506257 0 0.04583678321749908 -0.0015425328723486851 0 0.04583678321749908 -0.0015425328723486851 0 0.044520571691713501 -0.002381309288521153 0 0.043663610624816301 -0.0014878025677752356 0 0.047073453871117131 -0.0022920575129506257 0 0.04583678321749908 -0.0015425328723486851 0 0.04565281348933628 -0.0025677695891117482 0 0.04492858970192256 -0.00069796899546637663 0 0.04583678321749908 -0.0015425328723486851 0 0.043663610624816301 -0.0014878025677752356 0 0.04583678321749908 -0.0015425328723486851 0 0.044520571691713501 -0.002381309288521153 0 0.04565281348933628 -0.0025677695891117482 0 0.044520571691713501 -0.002381309288521153 0 0.04565281348933628 -0.0025677695891117482 0 0.044993114487902587 -0.0035373132313523906 0 0.04565281348933628 -0.0025677695891117482 0 0.044993114487902587 -0.0035373132313523906 0 0.046460571406803319 -0.0030682862642782646 0 0.044993114487902587 -0.0035373132313523906 0 0.046460571406803319 -0.0030682862642782646 0 0.046470720188856375 -0.0037707460731246276 0 0.048311996665208828 -0.0026556928779447554 0 0.047073453871117131 -0.0022920575129506257 0 0.047272678821440393 -0.0031591512469347086 0 0.047073453871117131 -0.0022920575129506257 0 0.046460571406803319 -0.0030682862642782646 0 0.047272678821440393 -0.0031591512469347086 0 0.047073453871117131 -0.0022920575129506257 0 0.04565281348933628 -0.0025677695891117482 0 0.046460571406803319 -0.0030682862642782646 0 0.046460571406803319 -0.0030682862642782646 0 0.046470720188856375 -0.0037707460731246276 0 0.047272678821440393 -0.0031591512469347086 0 0.046470720188856375 -0.0037707460731246276 0 0.047272678821440393 -0.0031591512469347086 0 0.047571315853774422 -0.0041876184160739406 0 0.048311996665208828 -0.0026556928779447554 0 0.047272678821440393 -0.0031591512469347086 0 0.047571315853774422 -0.0041876184160739406 0 0.04805331795058998 -0.0035381385096116824 0 0.047331567909504858 -0.0036779725680621466 0 0.046139320079593184 -0.0045070651973414186 0 0.045146696424141985 -0.0058075723171357339 0 0.045524097126122258 -0.0054624384171866342 0 0.044484388035681367 -0.0056389100355578661 0 0.047571315853774422 -0.0041876184160739406 0 0.045594179215697209 -0.0044351439963705294 0 0.045615952119375983 -0.0053140350623971872 0 0.046470720188856375 -0.0037707460731246276 0 0.047571315853774422 -0.0041876184160739406 0 0.045594179215697209 -0.0044351439963705294 0 0.04714102967207677 -0.0039879364970757747 0 0.046306471930475941 -0.0045063073875627521 0 0.045934358727442087 -0.0047320841751011603 0 0.045524097126122258 -0.0054624384171866342 0 0.044484388035681367 -0.0056389100355578661 0 0.047416163700193609 -0.0037865439940745656 0 0.046306471930475941 -0.0045063073875627521 0 0.045146696424141985 -0.0058075723171357339 0 0.04554497703923651 -0.0059314875247661004 0 0.045524097126122258 -0.0054624384171866342 0 0.044993114487902587 -0.0035373132313523906 0 0.044431429715307259 -0.0047544956389178345 0 0.043383072041177265 -0.0044462998928169956 0 0.044993114487902587 -0.0035373132313523906 0 0.045594179215697209 -0.0044351439963705294 0 0.044431429715307259 -0.0047544956389178345 0 0.044993114487902587 -0.0035373132313523906 0 0.046470720188856375 -0.0037707460731246276 0 0.045594179215697209 -0.0044351439963705294 0 0.044190818233953218 -0.0058652926056395405 0 0.045594179215697209 -0.0044351439963705294 0 0.045615952119375983 -0.0053140350623971872 0 0.044190818233953218 -0.0058652926056395405 0 0.044431429715307259 -0.0047544956389178345 0 0.043383072041177265 -0.0044462998928169956 0 0.044190818233953218 -0.0058652926056395405 0 0.045594179215697209 -0.0044351439963705294 0 0.044431429715307259 -0.0047544956389178345 0 0.043383072041177265 -0.0044462998928169956 0 0.041834972799589719 -0.0045465347916977218 0 0.042983444445525022 -0.0029369782549246398 0 0.043383072041177265 -0.0044462998928169956 0 0.041834972799589719 -0.0045465347916977218 0 0.042775327789308343 -0.0057681445997116981 0 0.041834972799589719 -0.0045465347916977218 0 0.040740750900596409 -0.0029566275540876094 0 0.039832590824959865 -0.004782048532871468 0 0.041834972799589719 -0.0045465347916977218 0 0.042983444445525022 -0.0029369782549246398 0 0.040740750900596409 -0.0029566275540876094 0 0.042983444445525022 -0.0029369782549246398 0 0.041698327133986399 -0.0014145125422941039 0 0.040740750900596409 -0.0029566275540876094 0 0.044993114487902587 -0.0035373132313523906 0 0.043383072041177265 -0.0044462998928169956 0 0.042983444445525022 -0.0029369782549246398 0 0.044520571691713501 -0.002381309288521153 0 0.044993114487902587 -0.0035373132313523906 0 0.042983444445525022 -0.0029369782549246398 0 0.042983444445525022 -0.0029369782549246398 0 0.043663610624816301 -0.0014878025677752356 0 0.041698327133986399 -0.0014145125422941039 0 0.044520571691713501 -0.002381309288521153 0 0.042983444445525022 -0.0029369782549246398 0 0.043663610624816301 -0.0014878025677752356 0 0.043663610624816301 -0.0014878025677752356 0 0.041698327133986399 -0.0014145125422941039 0 0.042784164935700572 0.00010473229819069489 0 0.041698327133986399 -0.0014145125422941039 0 0.042784164935700572 0.00010473229819069489 0 0.040473608294069666 0.00027451846640141989 0 0.04492858970192256 -0.00069796899546637663 0 0.043663610624816301 -0.0014878025677752356 0 0.042784164935700572 0.00010473229819069489 0 0.04492858970192256 -0.00069796899546637663 0 0.042784164935700572 0.00010473229819069489 0 0.045106543887234306 0.0004948062580460951 0 0.038889504836293033 0.00010841518029713024 0 0.040473608294069666 0.00027451846640141989 0 0.039642468492660406 -0.0013814209611069357 0 0.041698327133986399 -0.0014145125422941039 0 0.040473608294069666 0.00027451846640141989 0 0.039642468492660406 -0.0013814209611069357 0 0.041698327133986399 -0.0014145125422941039 0 0.039642468492660406 -0.0013814209611069357 0 0.040740750900596409 -0.0029566275540876094 0 0.039642468492660406 -0.0013814209611069357 0 0.038451460170380806 -0.0030977931528969613 0 0.037817195426436925 -0.0011665333157548029 0 0.038889504836293033 0.00010841518029713024 0 0.039642468492660406 -0.0013814209611069357 0 0.037817195426436925 -0.0011665333157548029 0 0.038009602976749206 -0.0017822036575823217 0 0.037467766210229292 -0.00049612760123910133 0 0.039642468492660406 -0.0013814209611069357 0 0.040740750900596409 -0.0029566275540876094 0 0.038451460170380806 -0.0030977931528969613 0 0.040740750900596409 -0.0029566275540876094 0 0.039832590824959865 -0.004782048532871468 0 0.038451460170380806 -0.0030977931528969613 0 0.039832590824959865 -0.004782048532871468 0 0.038451460170380806 -0.0030977931528969613 0 0.037110554367522877 -0.0056323773949922872 0 0.039832590824959865 -0.004782048532871468 0 0.037110554367522877 -0.0056323773949922872 0 0.039364895077821524 -0.0065926469344341774 0 0.037686305368236035 -0.0074291389350812 0 0.039364895077821524 -0.0065926469344341774 0 0.038669415310353998 -0.0084730301160306689 0 0.037110554367522877 -0.0056323773949922872 0 0.037686305368236035 -0.0074291389350812 0 0.039364895077821524 -0.0065926469344341774 0 0.039364895077821524 -0.0065926469344341774 0 0.041196522736530024 -0.0060040351705805952 0 0.040865008447319454 -0.0073824121531105361 0 0.039364895077821524 -0.0065926469344341774 0 0.038669415310353998 -0.0084730301160306689 0 0.039946422618933143 -0.0080841916725072037 0 0.039364895077821524 -0.0065926469344341774 0 0.040865008447319454 -0.0073824121531105361 0 0.039946422618933143 -0.0080841916725072037 0 0.039832590824959865 -0.004782048532871468 0 0.039364895077821524 -0.0065926469344341774 0 0.041196522736530024 -0.0060040351705805952 0 0.041834972799589719 -0.0045465347916977218 0 0.041196522736530024 -0.0060040351705805952 0 0.042775327789308343 -0.0057681445997116981 0 0.041834972799589719 -0.0045465347916977218 0 0.039832590824959865 -0.004782048532871468 0 0.041196522736530024 -0.0060040351705805952 0 0.041196522736530024 -0.0060040351705805952 0 0.042775327789308343 -0.0057681445997116981 0 0.042304159227632449 -0.0071240185021584392 0 0.042775327789308343 -0.0057681445997116981 0 0.04354440241418376 -0.0067885331930455017 0 0.042304159227632449 -0.0071240185021584392 0 0.044190818233953218 -0.0058652926056395405 0 0.043383072041177265 -0.0044462998928169956 0 0.042775327789308343 -0.0057681445997116981 0 0.044190818233953218 -0.0058652926056395405 0 0.042775327789308343 -0.0057681445997116981 0 0.04354440241418376 -0.0067885331930455017 0 0.04354440241418376 -0.0067885331930455017 0 0.042304159227632449 -0.0071240185021584392 0 0.043007783410292787 -0.0075811164407797935 0 0.042304159227632449 -0.0071240185021584392 0 0.042491974628835888 -0.0079520263176506723 0 0.043007783410292787 -0.0075811164407797935 0 0.042304159227632449 -0.0071240185021584392 0 0.042491974628835888 -0.0079520263176506723 0 0.041731415377844625 -0.0081916975307984637 0 0.043663317829044007 -0.0077863191921027329 0 0.04354440241418376 -0.0067885331930455017 0 0.043007783410292787 -0.0075811164407797935 0 0.043663317829044007 -0.0077863191921027329 0 0.043007783410292787 -0.0075811164407797935 0 0.042999879163148257 -0.0082240496357388147 0 0.042491974628835888 -0.0079520263176506723 0 0.043007783410292787 -0.0075811164407797935 0 0.042999879163148257 -0.0082240496357388147 0 0.041196522736530024 -0.0060040351705805952 0 0.042304159227632449 -0.0071240185021584392 0 0.040865008447319454 -0.0073824121531105361 0 0.042304159227632449 -0.0071240185021584392 0 0.040865008447319454 -0.0073824121531105361 0 0.041731415377844625 -0.0081916975307984637 0 0.040865008447319454 -0.0073824121531105361 0 0.040728010480483502 -0.0089296202519423742 0 0.039946422618933143 -0.0080841916725072037 0 0.040865008447319454 -0.0073824121531105361 0 0.041731415377844625 -0.0081916975307984637 0 0.040728010480483502 -0.0089296202519423742 0 0.041731415377844625 -0.0081916975307984637 0 0.041651386926674555 -0.0091545717519538189 0 0.042385002105013267 -0.0086359531910339751 0 0.041731415377844625 -0.0081916975307984637 0 0.041651386926674555 -0.0091545717519538189 0 0.040728010480483502 -0.0089296202519423742 0 0.041651386926674555 -0.0091545717519538189 0 0.040728010480483502 -0.0089296202519423742 0 0.040900610073824041 -0.0097553749193078215 0 0.043438743415436187 -0.0086277641736500401 0 0.042999879163148257 -0.0082240496357388147 0 0.04295827242028246 -0.0089303631175492414 0 0.042999879163148257 -0.0082240496357388147 0 0.042385002105013267 -0.0086359531910339751 0 0.04295827242028246 -0.0089303631175492414 0 0.042491974628835888 -0.0079520263176506723 0 0.041731415377844625 -0.0081916975307984637 0 0.042385002105013267 -0.0086359531910339751 0 0.042491974628835888 -0.0079520263176506723 0 0.042999879163148257 -0.0082240496357388147 0 0.042385002105013267 -0.0086359531910339751 0 0.041651386926674555 -0.0091545717519538189 0 0.042385002105013267 -0.0086359531910339751 0 0.042436841546501722 -0.0093487618603731396 0 0.042385002105013267 -0.0086359531910339751 0 0.04295827242028246 -0.0089303631175492414 0 0.042436841546501722 -0.0093487618603731396 0 0.043438743415436187 -0.0086277641736500401 0 0.043384091340223696 -0.0092150966780300738 0 0.04295827242028246 -0.0089303631175492414 0 0.043384091340223696 -0.0092150966780300738 0 0.04295827242028246 -0.0089303631175492414 0 0.04303117981282701 -0.0097407511357347088 0 0.04295827242028246 -0.0089303631175492414 0 0.04303117981282701 -0.0097407511357347088 0 0.042436841546501722 -0.0093487618603731396 0 0.04303117981282701 -0.0097407511357347088 0 0.042430322748756091 -0.0099774010340493713 0 0.042436841546501722 -0.0093487618603731396 0 0.042430322748756091 -0.0099774010340493713 0 0.042436841546501722 -0.0093487618603731396 0 0.041678498930755876 -0.010031735120601118 0 0.042002029296691785 -0.010863424899624311 0 0.042430322748756091 -0.0099774010340493713 0 0.041678498930755876 -0.010031735120601118 0 0.042002029296691785 -0.010863424899624311 0 0.042430322748756091 -0.0099774010340493713 0 0.042860083794299571 -0.010364113114168098 0 0.04303117981282701 -0.0097407511357347088 0 0.042430322748756091 -0.0099774010340493713 0 0.042860083794299571 -0.010364113114168098 0 0.043114373986994255 -0.010910846872617539 0 0.043508280827046233 -0.01022235869196176 0 0.042860083794299571 -0.010364113114168098 0 0.043508280827046233 -0.01022235869196176 0 0.04303117981282701 -0.0097407511357347088 0 0.042860083794299571 -0.010364113114168098 0 0.040728010480483502 -0.0089296202519423742 0 0.040900610073824041 -0.0097553749193078215 0 0.039817704969083004 -0.0097678800215806987 0 0.040900610073824041 -0.0097553749193078215 0 0.040769444584661189 -0.010768271489238033 0 0.039817704969083004 -0.0097678800215806987 0 0.041651386926674555 -0.0091545717519538189 0 0.040900610073824041 -0.0097553749193078215 0 0.041678498930755876 -0.010031735120601118 0 0.041651386926674555 -0.0091545717519538189 0 0.042436841546501722 -0.0093487618603731396 0 0.041678498930755876 -0.010031735120601118 0 0.042002029296691785 -0.010863424899624311 0 0.041678498930755876 -0.010031735120601118 0 0.040769444584661189 -0.010768271489238033 0 0.040900610073824041 -0.0097553749193078215 0 0.041678498930755876 -0.010031735120601118 0 0.040769444584661189 -0.010768271489238033 0 0.039483406754175096 -0.011145328869677873 0 0.039817704969083004 -0.0097678800215806987 0 0.038123400474012768 -0.010235874894327562 0 0.039483406754175096 -0.011145328869677873 0 0.040769444584661189 -0.010768271489238033 0 0.039817704969083004 -0.0097678800215806987 0 0.039817704969083004 -0.0097678800215806987 0 0.038123400474012768 -0.010235874894327562 0 0.038669415310353998 -0.0084730301160306689 0 0.038123400474012768 -0.010235874894327562 0 0.037222186615269222 -0.0087182197602023812 0 0.035851096519804844 -0.0096597527843544501 0 0.038123400474012768 -0.010235874894327562 0 0.037222186615269222 -0.0087182197602023812 0 0.038669415310353998 -0.0084730301160306689 0 0.037686305368236035 -0.0074291389350812 0 0.037222186615269222 -0.0087182197602023812 0 0.038669415310353998 -0.0084730301160306689 0 0.040728010480483502 -0.0089296202519423742 0 0.039817704969083004 -0.0097678800215806987 0 0.039946422618933143 -0.0080841916725072037 0 0.039817704969083004 -0.0097678800215806987 0 0.038669415310353998 -0.0084730301160306689 0 0.039946422618933143 -0.0080841916725072037 0 0.034531081954346121 -0.008108788318268171 0 0.033319744584331845 -0.0094379799317550247 0 0.033252474654444523 -0.0069498730170533774 0 0.034531081954346121 -0.008108788318268171 0 0.035851096519804844 -0.0096597527843544501 0 0.033319744584331845 -0.0094379799317550247 0 0.034531081954346121 -0.008108788318268171 0 0.035995529627546631 -0.0077164925596226982 0 0.035851096519804844 -0.0096597527843544501 0 0.037222186615269222 -0.0087182197602023812 0 0.035995529627546631 -0.0077164925596226982 0 0.035851096519804844 -0.0096597527843544501 0 0.037686305368236035 -0.0074291389350812 0 0.037222186615269222 -0.0087182197602023812 0 0.035995529627546631 -0.0077164925596226982 0 0.036373088838156778 -0.011322399412905922 0 0.038123400474012768 -0.010235874894327562 0 0.035851096519804844 -0.0096597527843544501 0 0.036373088838156778 -0.011322399412905922 0 0.035851096519804844 -0.0096597527843544501 0 0.034576380222238148 -0.010931542364074117 0 0.035851096519804844 -0.0096597527843544501 0 0.034576380222238148 -0.010931542364074117 0 0.033319744584331845 -0.0094379799317550247 0 0.031835404000090051 -0.012252770454021995 0 0.034576380222238148 -0.010931542364074117 0 0.033319744584331845 -0.0094379799317550247 0 0.031835404000090051 -0.012252770454021995 0 0.033319744584331845 -0.0094379799317550247 0 0.030286987928230064 -0.0090191466429868188 0 0.019522778525432164 -0.0067508331420920581 0 0.022030640936201603 -0.004879619403236524 0 0.01602054505748126 -0.00048200106492694107 0 0.016577788047495493 -0.00054702062491079992 0 0.016256907296965335 -0.0001065329857310394 0 0.016577788047495493 -0.00054702062491079992 0 0.016256907296965335 -0.0001065329857310394 0 0.016295247580842241 -6.0656866692099317e-05 0 0.033319744584331845 -0.0094379799317550247 0 0.033252474654444523 -0.0069498730170533774 0 0.03131172074845346 -0.0072163465616700848 0 0.033319744584331845 -0.0094379799317550247 0 0.030286987928230064 -0.0090191466429868188 0 0.03131172074845346 -0.0072163465616700848 0 0.033252474654444523 -0.0069498730170533774 0 0.030932657095247396 -0.0049904766017693884 0 0.033220812404846319 -0.0050842512441877218 0 0.033252474654444523 -0.0069498730170533774 0 0.03131172074845346 -0.0072163465616700848 0 0.030932657095247396 -0.0049904766017693884 0 0.03131172074845346 -0.0072163465616700848 0 0.030932657095247396 -0.0049904766017693884 0 0.028622438545793563 -0.0054913285700833106 0 0.022030640936201603 -0.004879619403236524 0 0.023095615150999494 -0.0023627079727305913 0 0.030286987928230064 -0.0090191466429868188 0 0.03131172074845346 -0.0072163465616700848 0 0.028622438545793563 -0.0054913285700833106 0 0.030932657095247396 -0.0049904766017693884 0 0.029228896902861037 -0.0035327675421473947 0 0.028386304531586658 -0.0051147607636724763 0 0.025651736807453782 -0.0023499798874240556 0 0.023095615150999494 -0.0023627079727305913 0 0.030932657095247396 -0.0049904766017693884 0 0.032318543701064302 -0.0034202270656218119 0 0.030268219500654722 -0.0028622846329775047 0 0.030932657095247396 -0.0049904766017693884 0 0.029228896902861037 -0.0035327675421473947 0 0.030268219500654722 -0.0028622846329775047 0 0.030932657095247396 -0.0049904766017693884 0 0.033220812404846319 -0.0050842512441877218 0 0.032318543701064302 -0.0034202270656218119 0 0.033220812404846319 -0.0050842512441877218 0 0.034869652040890847 -0.0061124069352006677 0 0.034646687824204214 -0.0040022315024861475 0 0.033220812404846319 -0.0050842512441877218 0 0.034646687824204214 -0.0040022315024861475 0 0.032318543701064302 -0.0034202270656218119 0 0.034531081954346121 -0.008108788318268171 0 0.035995529627546631 -0.0077164925596226982 0 0.034869652040890847 -0.0061124069352006677 0 0.034531081954346121 -0.008108788318268171 0 0.033252474654444523 -0.0069498730170533774 0 0.034869652040890847 -0.0061124069352006677 0 0.033252474654444523 -0.0069498730170533774 0 0.033220812404846319 -0.0050842512441877218 0 0.034869652040890847 -0.0061124069352006677 0 0.037110554367522877 -0.0056323773949922872 0 0.037686305368236035 -0.0074291389350812 0 0.035995529627546631 -0.0077164925596226982 0 0.037110554367522877 -0.0056323773949922872 0 0.035995529627546631 -0.0077164925596226982 0 0.034869652040890847 -0.0061124069352006677 0 0.037110554367522877 -0.0056323773949922872 0 0.034869652040890847 -0.0061124069352006677 0 0.034646687824204214 -0.0040022315024861475 0 0.038451460170380806 -0.0030977931528969613 0 0.034646687824204214 -0.0040022315024861475 0 0.034913033616085179 -0.0016351052266604981 0 0.038451460170380806 -0.0030977931528969613 0 0.037110554367522877 -0.0056323773949922872 0 0.034646687824204214 -0.0040022315024861475 0 0.034646687824204214 -0.0040022315024861475 0 0.034913033616085179 -0.0016351052266604981 0 0.033028771178418501 -0.0019120180440638935 0 0.034646687824204214 -0.0040022315024861475 0 0.033028771178418501 -0.0019120180440638935 0 0.032318543701064302 -0.0034202270656218119 0 0.034913033616085179 -0.0016351052266604981 0 0.033071458013292428 -3.9382606997125249e-06 0 0.033028771178418501 -0.0019120180440638935 0 0.038451460170380806 -0.0030977931528969613 0 0.034913033616085179 -0.0016351052266604981 0 0.036093418403794569 0.00039662415283521214 0 0.034913033616085179 -0.0016351052266604981 0 0.036093418403794569 0.00039662415283521214 0 0.033071458013292428 -3.9382606997125249e-06 0 0.033071458013292428 -3.9382606997125249e-06 0 0.031897991709964837 0.0016598211835257839 0 0.034302555857744582 0.0026525934229734479 0 0.036093418403794569 0.00039662415283521214 0 0.033071458013292428 -3.9382606997125249e-06 0 0.034302555857744582 0.0026525934229734479 0 0.037467766210229292 -0.00049612760123910133 0 0.037559262676883538 0.00032078385589522258 0 0.038889504836293033 0.00010841518029713024 0 0.037817195426436925 -0.0011665333157548029 0 0.03655731474896512 0.0012412886864476647 0 0.031897991709964837 0.0016598211835257839 0 0.03114377490003617 0.00047450098420508612 0 0.030643424454636272 0.0010809065013934469 0 0.033071458013292428 -3.9382606997125249e-06 0 0.031897991709964837 0.0016598211835257839 0 0.03114377490003617 0.00047450098420508612 0 0.033071458013292428 -3.9382606997125249e-06 0 0.03114377490003617 0.00047450098420508612 0 0.030729404112920949 -0.0011848872202869195 0 0.03114377490003617 0.00047450098420508612 0 0.030729404112920949 -0.0011848872202869195 0 0.029765461404119422 6.6421593982150039e-05 0 0.03114377490003617 0.00047450098420508612 0 0.029765461404119422 6.6421593982150039e-05 0 0.030643424454636272 0.0010809065013934469 0 0.033071458013292428 -3.9382606997125249e-06 0 0.030729404112920949 -0.0011848872202869195 0 0.033028771178418501 -0.0019120180440638935 0 0.030729404112920949 -0.0011848872202869195 0 0.033028771178418501 -0.0019120180440638935 0 0.032318543701064302 -0.0034202270656218119 0 0.030729404112920949 -0.0011848872202869195 0 0.030268219500654722 -0.0028622846329775047 0 0.028572718395583788 -0.0019560924576540292 0 0.030729404112920949 -0.0011848872202869195 0 0.032318543701064302 -0.0034202270656218119 0 0.030268219500654722 -0.0028622846329775047 0 0.029228896902861037 -0.0035327675421473947 0 0.030268219500654722 -0.0028622846329775047 0 0.028572718395583788 -0.0019560924576540292 0 0.028572718395583788 -0.0019560924576540292 0 0.026925285172849513 -0.0015322085518956704 0 0.027619511854618257 -0.0028772323245079118 0 0.028572718395583788 -0.0019560924576540292 0 0.026925285172849513 -0.0015322085518956704 0 0.028287841641398134 -0.00070913445062949991 0 0.026925285172849513 -0.0015322085518956704 0 0.028287841641398134 -0.00070913445062949991 0 0.025596484410994391 -0.0004547501315585404 0 0.026925285172849513 -0.0015322085518956704 0 0.025596484410994391 -0.0004547501315585404 0 0.025106910462096461 -0.001608056405223691 0 0.026925285172849513 -0.0015322085518956704 0 0.025106910462096461 -0.001608056405223691 0 0.027619511854618257 -0.0028772323245079118 0 0.028287841641398134 -0.00070913445062949991 0 0.028518120077325366 0.00037090031491225124 0 0.025596484410994391 -0.0004547501315585404 0 0.030729404112920949 -0.0011848872202869195 0 0.028572718395583788 -0.0019560924576540292 0 0.028287841641398134 -0.00070913445062949991 0 0.030729404112920949 -0.0011848872202869195 0 0.028287841641398134 -0.00070913445062949991 0 0.029765461404119422 6.6421593982150039e-05 0 0.029765461404119422 6.6421593982150039e-05 0 0.028518120077325366 0.00037090031491225124 0 0.030643424454636272 0.0010809065013934469 0 0.028287841641398134 -0.00070913445062949991 0 0.029765461404119422 6.6421593982150039e-05 0 0.028518120077325366 0.00037090031491225124 0 0.028518120077325366 0.00037090031491225124 0 0.029943725761914362 0.00084883077640488175 0 0.029246460803205254 0.00065313927811208518 0 0.028518120077325366 0.00037090031491225124 0 0.029943725761914362 0.00084883077640488175 0 0.030643424454636272 0.0010809065013934469 0 0.027125391800143492 1.0194608028072525e-06 0 0.026681493986926819 0.00022484774184836659 0 0.029246460803205254 0.00065313927811208518 0 0.028518120077325366 0.00037090031491225124 0 0.026681493986926819 0.00022484774184836659 0 0.029246460803205254 0.00065313927811208518 0 0.028518120077325366 0.00037090031491225124 0 0.026681493986926819 0.00022484774184836659 0 0.025596484410994391 -0.0004547501315585404 0 0.027125391800143492 1.0194608028072525e-06 0 0.026681493986926819 0.00022484774184836659 0 0.023953484419285905 -2.319582111815669e-07 0 0.025596484410994391 -0.0004547501315585404 0 0.02077883890725216 1.1123290688909746e-06 0 0.025106910462096461 -0.001608056405223691 0 0.023953484419285905 -2.319582111815669e-07 0 0.025596484410994391 -0.0004547501315585404 0 0.02077883890725216 1.1123290688909746e-06 0 0.026681493986926819 0.00022484774184836659 0 0.023953484419285905 -2.319582111815669e-07 0 0.025596484410994391 -0.0004547501315585404 0 0.02077883890725216 1.1123290688909746e-06 0 0.023903567005256622 -0.0028293024367108078 0 0.025106910462096461 -0.001608056405223691 0 0.02077883890725216 1.1123290688909746e-06 0 0.017614605858938318 -8.2343809435076932e-06 0 0.023903567005256622 -0.0028293024367108078 0 0.017609936394885999 -2.3501155820643776e-06 0 0.020558402158594349 -0.0011739521196786524 0 0.01760015954180676 4.409423287302531e-07 0 0.016320034813976245 -0.00024518745595708823 0 0.01637387476781391 0.00012700721834337718 0 0.023903567005256622 -0.0028293024367108078 0 0.025106910462096461 -0.001608056405223691 0 0.027619511854618257 -0.0028772323245079118 0 0.023903567005256622 -0.0028293024367108078 0 0.027619511854618257 -0.0028772323245079118 0 0.028008629312010702 -0.0038742188629012509 0 0.029228896902861037 -0.0035327675421473947 0 0.028572718395583788 -0.0019560924576540292 0 0.027619511854618257 -0.0028772323245079118 0 0.023544004771075787 -0.0028275832288760013 0 0.023095615150999494 -0.0023627079727305913 0 0.029228896902861037 -0.0035327675421473947 0 0.027619511854618257 -0.0028772323245079118 0 0.028386304531586658 -0.0051147607636724763 0 0.020558402158594349 -0.0011739521196786524 0 0.023095615150999494 -0.0023627079727305913 0 0.016320034813976245 -0.00024518745595708823 0 0.016277547005137182 -0.00015682723110158308 0 0.016293790254771394 -8.1709874597917336e-05 0 0.016320034813976245 -0.00024518745595708823 0 0.016338737746976032 -1.9336185046023483e-05 0 0.016293790254771394 -8.1709874597917336e-05 0 0.016338737746976032 -1.9336185046023483e-05 0 0.016293790254771394 -8.1709874597917336e-05 0 0.016392888297111153 -1.0931763925052247e-05 0 0.016256907296965335 -0.0001065329857310394 0 0.016295247580842241 -6.0656866692099317e-05 0 0.016293790254771394 -8.1709874597917336e-05 0 0.016295247580842241 -6.0656866692099317e-05 0 0.016277547005137182 -0.00015682723110158308 0 0.016293790254771394 -8.1709874597917336e-05 0 0.016256907296965335 -0.0001065329857310394 0 0.016293790254771394 -8.1709874597917336e-05 0 0.016392888297111153 -1.0931763925052247e-05 0 0.016058971818480754 -0.00010583358393009545 0 0.015772539095361061 -0.00014060655811111569 0 0.01602054505748126 -0.00048200106492694107 0 0.016256907296965335 -0.0001065329857310394 0 0.015677298862121269 -0.00017260624781692855 0 0.015412888541445277 -0.00040301639029912502 0 0.01602054505748126 -0.00048200106492694107 0 0.015677298862121269 -0.00017260624781692855 0 0.015772539095361061 -0.00014060655811111569 0 0.014585649790175806 -0.00029075145946706141 0 0.015412888541445277 -0.00040301639029912502 0 0.015677298862121269 -0.00017260624781692855 0 0.015069772797825025 -0.00025612219723471479 0 0.016392888297111153 -1.0931763925052247e-05 0 0.016177986260162078 -0.00023942638322057449 0 0.01637387476781391 0.00012700721834337718 0 0.013101474566755233 -0.0012431270797930798 0 0.014585649790175806 -0.00029075145946706141 0 0.013101474566755233 -0.0012431270797930798 0 0.014158400600587033 -2.3707219066389539e-06 0 0.014670837045539769 -9.9535677145555124e-05 0 0.014360553527634122 4.8640356410770487e-05 0 0.014163798496927222 1.1542033243981078e-07 0 0.014585649790175806 -0.00029075145946706141 0 0.014333657700517168 -1.5249740769292051e-06 0 0.014481329780024548 3.890622649446504e-07 0 0.014336081546238898 -4.8076044191267525e-10 0 0.014942138706657938 1.0161319155993065e-09 0 0.014360553527634122 4.8640356410770487e-05 0 0.014163798496927222 1.1542033243981078e-07 0 0.01432977224058069 -1.1764581213539654e-07 0 0.016177986260162078 -0.00023942638322057449 0 0.014951531245228418 -5.0685511611704576e-07 0 0.016338035990693282 0.00013380037288369902 0 0.014585649790175806 -0.00029075145946706141 0 0.014944069618020505 -1.5235808004518007e-06 0 0.01760015954180676 4.409423287302531e-07 0 0.014951531245228418 -5.0685511611704576e-07 0 0.016338035990693282 0.00013380037288369902 0 0.01760015954180676 4.409423287302531e-07 0 0.016338035990693282 0.00013380037288369902 0 0.01637387476781391 0.00012700721834337718 0 0.016177986260162078 -0.00023942638322057449 0 0.016338035990693282 0.00013380037288369902 0 0.01637387476781391 0.00012700721834337718 0 0.016320034813976245 -0.00024518745595708823 0 0.016338737746976032 -1.9336185046023483e-05 0 0.01637387476781391 0.00012700721834337718 0 0.016338737746976032 -1.9336185046023483e-05 0 0.016392888297111153 -1.0931763925052247e-05 0 0.01637387476781391 0.00012700721834337718 0 0.038476192003595346 -0.00045029529271651544 0 0.039699144205947778 -0.00015996089384167042 0 0.04004243126847707 -0.00043892048762027026 0 0.038476192003595346 -0.00045029529271651544 0 0.038293400742449184 -0.00012755721572336356 0 0.039699144205947778 -0.00015996089384167042 0 0.038293400742449184 -0.00012755721572336356 0 0.039816895663194449 2.3308460102110815e-07 0 0.039699144205947778 -0.00015996089384167042 0 0.038293400742449184 -0.00012755721572336356 0 0.039816895663194449 2.3308460102110815e-07 0 0.036642958171821963 -3.7550653485308217e-07 0 0.039816895663194449 2.3308460102110815e-07 0 0.039699144205947778 -0.00015996089384167042 0 0.041058752902495228 0.00012543731904828266 0 0.039699144205947778 -0.00015996089384167042 0 0.041046185424124672 -1.838631659048408e-05 0 0.041058752902495228 0.00012543731904828266 0 0.039699144205947778 -0.00015996089384167042 0 0.04004243126847707 -0.00043892048762027026 0 0.041046185424124672 -1.838631659048408e-05 0 0.04004243126847707 -0.00043892048762027026 0 0.042423730834090276 -6.0466213508228316e-05 0 0.041046185424124672 -1.838631659048408e-05 0 0.04004243126847707 -0.00043892048762027026 0 0.040421984064473011 -0.00091330527154145533 0 0.042423730834090276 -6.0466213508228316e-05 0 0.040421984064473011 -0.00091330527154145533 0 0.042694733046283406 -0.00037995677556755574 0 0.042423730834090276 -6.0466213508228316e-05 0 0.04011768771315289 -0.00074760662311708793 0 0.040114105917957533 -0.00071640372862296199 0 0.040421984064473011 -0.00091330527154145533 0 0.038276603959720545 -0.00077032349338770293 0 0.03867657941176806 -0.0008436693927031131 0 0.04004243126847707 -0.00043892048762027026 0 0.040421984064473011 -0.00091330527154145533 0 0.03900142744423684 -0.00070424930839337312 0 0.040421984064473011 -0.00091330527154145533 0 0.03900142744423684 -0.00070424930839337312 0 0.038276603959720545 -0.00077032349338770293 0 0.038476192003595346 -0.00045029529271651544 0 0.04004243126847707 -0.00043892048762027026 0 0.03900142744423684 -0.00070424930839337312 0 0.038476192003595346 -0.00045029529271651544 0 0.03900142744423684 -0.00070424930839337312 0 0.037576465117169638 -0.00069398416526518937 0 0.037576465117169638 -0.00069398416526518937 0 0.036086742373552465 -0.00092207731674911618 0 0.036319445489520673 -0.00034715268466900317 0 0.038476192003595346 -0.00045029529271651544 0 0.037576465117169638 -0.00069398416526518937 0 0.036319445489520673 -0.00034715268466900317 0 0.038276603959720545 -0.00077032349338770293 0 0.036086742373552465 -0.00092207731674911618 0 0.038660969208220153 -0.00093955684079307332 0 0.038731691284524937 -0.0011306907684252327 0 0.039794118225000702 -0.00071309796761351502 0 0.038276603959720545 -0.00077032349338770293 0 0.038660969208220153 -0.00093955684079307332 0 0.03867657941176806 -0.0008436693927031131 0 0.03900142744423684 -0.00070424930839337312 0 0.037576465117169638 -0.00069398416526518937 0 0.038276603959720545 -0.00077032349338770293 0 0.037576465117169638 -0.00069398416526518937 0 0.038276603959720545 -0.00077032349338770293 0 0.036086742373552465 -0.00092207731674911618 0 0.036086742373552465 -0.00092207731674911618 0 0.03329143727573753 0.00049042127569472215 0 0.034214057039421715 -0.0020423156158411336 0 0.036086742373552465 -0.00092207731674911618 0 0.034545819982524643 9.1822121771326898e-05 0 0.03329143727573753 0.00049042127569472215 0 0.036086742373552465 -0.00092207731674911618 0 0.036319445489520673 -0.00034715268466900317 0 0.034545819982524643 9.1822121771326898e-05 0 0.036319445489520673 -0.00034715268466900317 0 0.033752528898064592 0.000299982926359555 0 0.034680835062385458 2.1323444594159752e-05 0 0.038476192003595346 -0.00045029529271651544 0 0.038293400742449184 -0.00012755721572336356 0 0.036319445489520673 -0.00034715268466900317 0 0.038293400742449184 -0.00012755721572336356 0 0.036319445489520673 -0.00034715268466900317 0 0.036642958171821963 -3.7550653485308217e-07 0 0.036319445489520673 -0.00034715268466900317 0 0.036642958171821963 -3.7550653485308217e-07 0 0.034680835062385458 2.1323444594159752e-05 0 0.036642958171821963 -3.7550653485308217e-07 0 0.033470905542122995 2.9909056917435571e-07 0 0.034680835062385458 2.1323444594159752e-05 0 0.033470905542122995 2.9909056917435571e-07 0 0.034680835062385458 2.1323444594159752e-05 0 0.032503507596773916 0.00025471877735444695 0 0.033752528898064592 0.000299982926359555 0 0.034680835062385458 2.1323444594159752e-05 0 0.032503507596773916 0.00025471877735444695 0 0.033752528898064592 0.000299982926359555 0 0.032503507596773916 0.00025471877735444695 0 0.031344732147070384 0.00063838060299384292 0 0.033470905542122995 2.9909056917435571e-07 0 0.032503507596773916 0.00025471877735444695 0 0.030298176968080435 7.6254618457531254e-07 0 0.030298176968080435 7.6254618457531254e-07 0 0.031344732147070384 0.00063838060299384292 0 0.029465517926673759 0.0003629262991972745 0 0.032503507596773916 0.00025471877735444695 0 0.030298176968080435 7.6254618457531254e-07 0 0.031344732147070384 0.00063838060299384292 0 0.031344732147070384 0.00063838060299384292 0 0.029246460803205254 0.00065313927811208518 0 0.029465517926673759 0.0003629262991972745 0 0.027125391800143492 1.0194608028072525e-06 0 0.029246460803205254 0.00065313927811208518 0 0.029465517926673759 0.0003629262991972745 0 0.027125391800143492 1.0194608028072525e-06 0 0.030298176968080435 7.6254618457531254e-07 0 0.029465517926673759 0.0003629262991972745 0 0.029943725761914362 0.00084883077640488175 0 0.030643424454636272 0.0010809065013934469 0 0.031362430186812208 0.00115370300533505 0 0.030643424454636272 0.0010809065013934469 0 0.031362430186812208 0.00115370300533505 0 0.031737214140497266 0.001436730311940841 0 0.029943725761914362 0.00084883077640488175 0 0.029246460803205254 0.00065313927811208518 0 0.031362430186812208 0.00115370300533505 0 0.031344732147070384 0.00063838060299384292 0 0.029246460803205254 0.00065313927811208518 0 0.031362430186812208 0.00115370300533505 0 0.031344732147070384 0.00063838060299384292 0 0.031362430186812208 0.00115370300533505 0 0.032822715598334606 0.0008502155408643535 0 0.031362430186812208 0.00115370300533505 0 0.032822715598334606 0.0008502155408643535 0 0.032285543363680495 0.0011421711923057351 0 0.032822715598334606 0.0008502155408643535 0 0.03329143727573753 0.00049042127569472215 0 0.032285543363680495 0.0011421711923057351 0 0.033752528898064592 0.000299982926359555 0 0.031344732147070384 0.00063838060299384292 0 0.032822715598334606 0.0008502155408643535 0 0.036319445489520673 -0.00034715268466900317 0 0.033752528898064592 0.000299982926359555 0 0.034545819982524643 9.1822121771326898e-05 0 0.033752528898064592 0.000299982926359555 0 0.032822715598334606 0.0008502155408643535 0 0.034545819982524643 9.1822121771326898e-05 0 0.032822715598334606 0.0008502155408643535 0 0.034545819982524643 9.1822121771326898e-05 0 0.03329143727573753 0.00049042127569472215 0 0.03329143727573753 0.00049042127569472215 0 0.032120083450363872 0.00037963205113944627 0 0.032285543363680495 0.0011421711923057351 0 0.043342919005840148 0.00093587520589898923 0 0.043257944768727255 0.00091825897487284784 0 0.043351756050801306 0.00090265565501696573 0 0.043324433491548173 0.00097271674318884737 0 0.043342919005840148 0.00093587520589898923 0 0.043383093625775068 0.00094851476917554316 0 0.043324433491548173 0.00097271674318884737 0 0.043342919005840148 0.00093587520589898923 0 0.043257944768727255 0.00091825897487284784 0 0.043257944768727255 0.00091825897487284784 0 0.043336627710376142 0.0008756899974357486 0 0.043351756050801306 0.00090265565501696573 0 0.038363917894611341 0.00067844527922420893 0 0.037709959184797304 0.00088891989780994873 0 0.043257944768727255 0.00091825897487284784 0 0.043334223898016076 0.00082268954245082572 0 0.043336627710376142 0.0008756899974357486 0 0.032120083450363872 0.00037963205113944627 0 0.032285543363680495 0.0011421711923057351 0 0.031659135743056468 0.0012416380637209068 0 0.031897991709964837 0.0016598211835257839 0 0.031737214140497266 0.001436730311940841 0 0.031659135743056468 0.0012416380637209068 0 0.031362430186812208 0.00115370300533505 0 0.032285543363680495 0.0011421711923057351 0 0.031737214140497266 0.001436730311940841 0 0.032285543363680495 0.0011421711923057351 0 0.031737214140497266 0.001436730311940841 0 0.031659135743056468 0.0012416380637209068 0 0.031897991709964837 0.0016598211835257839 0 0.030643424454636272 0.0010809065013934469 0 0.031737214140497266 0.001436730311940841 0 0.031897991709964837 0.0016598211835257839 0 0.031567629847039286 0.0015828040577965416 0 0.031659135743056468 0.0012416380637209068 0 0.037559262676883538 0.00032078385589522258 0 0.040843071280356052 0.00099884265272594296 0 0.043372389332537557 0.00071117171825720753 0 0.043414595973552954 0.00079274831425391122 0 0.043492515218602222 0.00072988216430791108 0 0.038889504836293033 0.00010841518029713024 0 0.03655731474896512 0.0012412886864476647 0 0.038818345829400067 0.0019005828683626325 0 0.0349199963372894 0.00017080558436001974 0 0.037559262676883538 0.00032078385589522258 0 0.043414595973552954 0.00079274831425391122 0 0.043334223898016076 0.00082268954245082572 0 0.043389939656716184 0.00084771526917857643 0 0.037559262676883538 0.00032078385589522258 0 0.037709959184797304 0.00088891989780994873 0 0.043372389332537557 0.00071117171825720753 0 0.043414595973552954 0.00079274831425391122 0 0.043334223898016076 0.00082268954245082572 0 0.043414595973552954 0.00079274831425391122 0 0.043457025222211697 0.00083880530411651016 0 0.043465972086047189 0.00079226210445056762 0 0.043414595973552954 0.00079274831425391122 0 0.043457025222211697 0.00083880530411651016 0 0.043389939656716184 0.00084771526917857643 0 0.043442568772878214 0.00087694958636540157 0 0.043389939656716184 0.00084771526917857643 0 0.043363645606907836 0.00089513877403203158 0 0.043457025222211697 0.00083880530411651016 0 0.043442568772878214 0.00087694958636540157 0 0.043389939656716184 0.00084771526917857643 0 0.043334223898016076 0.00082268954245082572 0 0.043389939656716184 0.00084771526917857643 0 0.043356636529313597 0.00086650532709732313 0 0.043389939656716184 0.00084771526917857643 0 0.043356636529313597 0.00086650532709732313 0 0.043363645606907836 0.00089513877403203158 0 0.043334223898016076 0.00082268954245082572 0 0.043356636529313597 0.00086650532709732313 0 0.043336627710376142 0.0008756899974357486 0 0.043356636529313597 0.00086650532709732313 0 0.043336627710376142 0.0008756899974357486 0 0.043359133608781422 0.00089470713561262791 0 0.043336627710376142 0.0008756899974357486 0 0.043351756050801306 0.00090265565501696573 0 0.043359133608781422 0.00089470713561262791 0 0.043356636529313597 0.00086650532709732313 0 0.043359133608781422 0.00089470713561262791 0 0.043363645606907836 0.00089513877403203158 0 0.043939146028150515 0.00096683376407449048 0 0.043941677678409376 0.00096700060791304475 0 0.043911454549167117 0.00097287363210014118 0 0.043941677678409376 0.00096700060791304475 0 0.043351756050801306 0.00090265565501696573 0 0.043398403586702231 0.00089007026701987352 0 0.043389825412380678 0.00091449016616009687 0 0.043351756050801306 0.00090265565501696573 0 0.043359133608781422 0.00089470713561262791 0 0.043362290407900024 0.00089366550096294092 0 0.043941677678409376 0.00096700060791304475 0 0.044172275231962294 0.00094695938504545595 0 0.043398403586702231 0.00089007026701987352 0 0.043389825412380678 0.00091449016616009687 0 0.043460366787425583 0.00089408342802263366 0 0.043889192454407394 0.00069664506851142773 0 0.043940850712925458 0.00069917669392477672 0 0.043687668486114488 0.00093670238583642821 0 0.043824747578186073 0.001062190536061703 0 0.044172275231962294 0.00094695938504545595 0 0.044331763636706815 0.00094275018853027625 0 0.044054177725907792 0.0010499805834706132 0 0.043389825412380678 0.00091449016616009687 0 0.043383093625775068 0.00094851476917554316 0 0.043460366787425583 0.00089408342802263366 0 0.043601679962061581 0.0008855038204134821 0 0.043889192454407394 0.00069664506851142773 0 0.043687668486114488 0.00093670238583642821 0 0.043342919005840148 0.00093587520589898923 0 0.043351756050801306 0.00090265565501696573 0 0.043389825412380678 0.00091449016616009687 0 0.043342919005840148 0.00093587520589898923 0 0.043389825412380678 0.00091449016616009687 0 0.043383093625775068 0.00094851476917554316 0 0.044112066280784276 0.0009703849742907128 0 0.043941677678409376 0.00096700060791304475 0 0.044114690453673271 0.00094501615919393952 0 0.044065477274091082 0.00095952195815760563 0 0.04409089389050895 0.00096105188861938726 0 0.044331763636706815 0.00094275018853027625 0 0.046160020060941234 0.00095872466207292686 0 0.044111478263608138 0.00053024926275671298 0 0.044107011411732129 0.0008012009523318416 0 0.044542362298155093 0.00055203075639299523 0 0.045168526074161996 0.00094374419939886802 0 0.045083700955449467 0.0010219070375118203 0 0.045251181522790979 0.0010314787758972906 0 0.044112066280784276 0.0009703849742907128 0 0.044331763636706815 0.00094275018853027625 0 0.044103193415673175 0.0010079258010267235 0 0.044363973084085892 0.00082385643049460533 0 0.044298552966647572 0.00082097912919749721 0 0.044112066280784276 0.0009703849742907128 0 0.044172275231962294 0.00094695938504545595 0 0.044172275231962294 0.00094695938504545595 0 0.044331763636706815 0.00094275018853027625 0 0.044111478263608138 0.00053024926275671298 0 0.044107011411732129 0.0008012009523318416 0 0.043758942380007056 0.0008582231709377161 0 0.045536651729545422 0.00098402179814713027 0 0.046160020060941234 0.00095872466207292686 0 0.048015371416613169 0.0014914894227402154 0 0.048271734075908644 0.0016054136253512688 0 0.048267631505299474 0.0013462104843112877 0 0.045536651729545422 0.00098402179814713027 0 0.046725598555927797 0.0014825104060455976 0 0.048015371416613169 0.0014914894227402154 0 0.048177550426286249 0.0019515155134279638 0 0.048271734075908644 0.0016054136253512688 0 0.044040100015258161 0.00082451714534120758 0 0.044276985418116095 0.0014746337701961698 0 0.043756321175319753 0.0014191404581381784 0 0.044276985418116095 0.0014746337701961698 0 0.043756321175319753 0.0014191404581381784 0 0.043997122751453135 0.0017436152351955237 0 0.043756321175319753 0.0014191404581381784 0 0.043418048543423793 0.0014487904990764973 0 0.043497067739317649 0.0017610787626351401 0 0.043756321175319753 0.0014191404581381784 0 0.043435057430283683 0.0011734246781396522 0 0.043418048543423793 0.0014487904990764973 0 0.043756321175319753 0.0014191404581381784 0 0.043686271750405389 0.0010350370042840674 0 0.043435057430283683 0.0011734246781396522 0 0.044040100015258161 0.00082451714534120758 0 0.043756321175319753 0.0014191404581381784 0 0.043686271750405389 0.0010350370042840674 0 0.045536651729545422 0.00098402179814713027 0 0.045044864411715568 0.0011637934669325883 0 0.044107011411732129 0.0008012009523318416 0 0.043758942380007056 0.0008582231709377161 0 0.043686271750405389 0.0010350370042840674 0 0.044054177725907792 0.0010499805834706132 0 0.043930631666510352 0.0011189852518089947 0 0.043601679962061581 0.0008855038204134821 0 0.043687668486114488 0.00093670238583642821 0 0.043435057430283683 0.0011734246781396522 0 0.043758942380007056 0.0008582231709377161 0 0.043686271750405389 0.0010350370042840674 0 0.043435057430283683 0.0011734246781396522 0 0.043601679962061581 0.0008855038204134821 0 0.043303060667633848 0.0010860346883853809 0 0.043435057430283683 0.0011734246781396522 0 0.043324433491548173 0.00097271674318884737 0 0.043383093625775068 0.00094851476917554316 0 0.043303060667633848 0.0010860346883853809 0 0.043257944768727255 0.00091825897487284784 0 0.043303060667633848 0.0010860346883853809 0 0.043219372509887034 0.0012746742687917824 0 0.043824747578186073 0.001062190536061703 0 0.043698862973337312 0.0011115330871452546 0 0.043324433491548173 0.00097271674318884737 0 0.043257944768727255 0.00091825897487284784 0 0.043303060667633848 0.0010860346883853809 0 0.043303060667633848 0.0010860346883853809 0 0.043435057430283683 0.0011734246781396522 0 0.043219372509887034 0.0012746742687917824 0 0.032120083450363872 0.00037963205113944627 0 0.033062381266022386 -0.0012298971980021101 0 0.032973228141597324 -0.0012835460832907033 0 0.038363917894611341 0.00067844527922420893 0 0.040089973055073051 -0.00053870098860839667 0 0.03329143727573753 0.00049042127569472215 0 0.032120083450363872 0.00037963205113944627 0 0.033062381266022386 -0.0012298971980021101 0 0.043257944768727255 0.00091825897487284784 0 0.042964910585111114 0.0013947564473548765 0 0.043219372509887034 0.0012746742687917824 0 0.038061607525213224 -0.00057666279439771658 0 0.039794118225000702 -0.00071309796761351502 0 0.040292434408269559 0.00084280064230174488 0 0.039492655945642975 0.00036583428660119866 0 0.040058003101044737 -0.00075557637159685039 0 0.039794118225000702 -0.00071309796761351502 0 0.040089973055073051 -0.00053870098860839667 0 0.045906356099418018 -0.0039475651533934491 0 0.045828773245444647 -0.0037887797045118208 0 0.046588731443669318 -0.0028152828604025935 0 0.040089973055073051 -0.00053870098860839667 0 0.040114105917957533 -0.00071640372862296199 0 0.039794118225000702 -0.00071309796761351502 0 0.040114105917957533 -0.00071640372862296199 0 0.042964910585111114 0.0013947564473548765 0 0.043418048543423793 0.0014487904990764973 0 0.043497067739317649 0.0017610787626351401 0 0.042964910585111114 0.0013947564473548765 0 0.043219372509887034 0.0012746742687917824 0 0.043418048543423793 0.0014487904990764973 0 0.040089973055073051 -0.00053870098860839667 0 0.044697655385119862 0.00021739104315534623 0 0.043435057430283683 0.0011734246781396522 0 0.043219372509887034 0.0012746742687917824 0 0.043418048543423793 0.0014487904990764973 0 0.045906356099418018 -0.0039475651533934491 0 0.047829505817541876 -0.0028202587387738051 0 0.046588731443669318 -0.0028152828604025935 0 0.047829505817541876 -0.0028202587387738051 0 0.047269480485553669 -0.0018943489996429118 0 0.048730790311633347 -0.0016181439716911673 0 0.047829505817541876 -0.0028202587387738051 0 0.046588731443669318 -0.0028152828604025935 0 0.047269480485553669 -0.0018943489996429118 0 0.040421984064473011 -0.00091330527154145533 0 0.041351524349317451 -0.0028886009834436419 0 0.042694733046283406 -0.00037995677556755574 0 0.045828773245444647 -0.0037887797045118208 0 0.046588731443669318 -0.0028152828604025935 0 0.046152571520718888 -0.0016212175849991137 0 0.040114105917957533 -0.00071640372862296199 0 0.04254058591761737 -0.00026091607929587556 0 0.046588731443669318 -0.0028152828604025935 0 0.046152571520718888 -0.0016212175849991137 0 0.047269480485553669 -0.0018943489996429118 0 0.046152571520718888 -0.0016212175849991137 0 0.047269480485553669 -0.0018943489996429118 0 0.047508586552628664 -0.0006998749035131616 0 0.047269480485553669 -0.0018943489996429118 0 0.048730790311633347 -0.0016181439716911673 0 0.047508586552628664 -0.0006998749035131616 0 0.048730790311633347 -0.0016181439716911673 0 0.049272663480503139 -0.00032910985138046852 0 0.047508586552628664 -0.0006998749035131616 0 0.047829505817541876 -0.0028202587387738051 0 0.048730790311633347 -0.0016181439716911673 0 0.049820289682343123 -0.0015875831206751232 0 0.049695547592934868 -0.0014448055021806503 0 0.050233912710321633 -0.00045966318353982165 0 0.049272663480503139 -0.00032910985138046852 0 0.049695547592934868 -0.0014448055021806503 0 0.050832789395644812 -0.0013171415096129774 0 0.050233912710321633 -0.00045966318353982165 0 0.048730790311633347 -0.0016181439716911673 0 0.049695547592934868 -0.0014448055021806503 0 0.049272663480503139 -0.00032910985138046852 0 0.047129264856601953 0.00061698167697157803 0 0.048209868303963732 0.001594070117528983 0 0.047566476400691747 0.00047445091323933204 0 0.047129264856601953 0.00061698167697157803 0 0.044276985418116095 0.0014746337701961698 0 0.043997122751453135 0.0017436152351955237 0 0.044525923271645451 0.0021335317048484484 0 0.0440981308326929 0.0021241097360662981 0 0.043997122751453135 0.0017436152351955237 0 0.044525923271645451 0.0021335317048484484 0 0.043756321175319753 0.0014191404581381784 0 0.043497067739317649 0.0017610787626351401 0 0.043997122751453135 0.0017436152351955237 0 0.044697655385119862 0.00021739104315534623 0 0.047129264856601953 0.00061698167697157803 0 0.043497067739317649 0.0017610787626351401 0 0.0440981308326929 0.0021241097360662981 0 0.043997122751453135 0.0017436152351955237 0 0.048537595141035096 0.0021141405816692935 0 0.048338907421931879 0.0024319971827801196 0 0.048723924335255811 0.0024528457664285829 0 0.048537595141035096 0.0021141405816692935 0 0.048723924335255811 0.0024528457664285829 0 0.048800226947608168 0.0021318104565008905 0 0.048177550426286249 0.0019515155134279638 0 0.048537595141035096 0.0021141405816692935 0 0.048338907421931879 0.0024319971827801196 0 0.046725598555927797 0.0014825104060455976 0 0.048209868303963732 0.001594070117528983 0 0.048209868303963732 0.001594070117528983 0 0.049414530122555193 0.00200092509201121 0 0.051536464473835711 0.002640377620455913 0 0.051005448938279123 0.0026297619545812422 0 0.051367516361643696 0.0021293694923315075 0 0.049414530122555193 0.00200092509201121 0 0.04970801981046321 0.0021818353240078774 0 0.048723924335255811 0.0024528457664285829 0 0.049150760201780559 0.0024775591730095484 0 0.048800226947608168 0.0021318104565008905 0 0.051005448938279123 0.0026297619545812422 0 0.050441765653741588 0.0025912872485274047 0 0.050575664012151432 0.0022302025365450871 0 0.050441765653741588 0.0025912872485274047 0 0.049786889334707443 0.0024178242516738895 0 0.050210393057181606 0.0021887513319471075 0 0.04970801981046321 0.0021818353240078774 0 0.049762871597822687 0.0022276977987872788 0 0.049150760201780559 0.0024775591730095484 0 0.049095398923220533 0.0020173261759929388 0 0.04944991465926684 0.0021840802305173159 0 0.049150760201780559 0.0024775591730095484 0 0.048800226947608168 0.0021318104565008905 0 0.049095398923220533 0.0020173261759929388 0 0.048800226947608168 0.0021318104565008905 0 0.048764141287254814 0.0018233082077926952 0 0.049095398923220533 0.0020173261759929388 0 0.048764141287254814 0.0018233082077926952 0 0.049095398923220533 0.0020173261759929388 0 0.049071261653665613 0.0016586525021647274 0 0.049095398923220533 0.0020173261759929388 0 0.049357674830766952 0.0019307397542578828 0 0.04944991465926684 0.0021840802305173159 0 0.049095398923220533 0.0020173261759929388 0 0.049071261653665613 0.0016586525021647274 0 0.049357674830766952 0.0019307397542578828 0 0.049071261653665613 0.0016586525021647274 0 0.048813178482016162 0.0015666185082428988 0 0.048959002768835386 0.0014205139678942116 0 0.048764141287254814 0.0018233082077926952 0 0.049071261653665613 0.0016586525021647274 0 0.048813178482016162 0.0015666185082428988 0 0.048764141287254814 0.0018233082077926952 0 0.048813178482016162 0.0015666185082428988 0 0.048620184082287923 0.0015872786372180252 0 0.048764141287254814 0.0018233082077926952 0 0.048620184082287923 0.0015872786372180252 0 0.048454459186492493 0.0017260118336054598 0 0.048620184082287923 0.0015872786372180252 0 0.048454459186492493 0.0017260118336054598 0 0.048441106667836638 0.0015138393096049371 0 0.048537595141035096 0.0021141405816692935 0 0.048800226947608168 0.0021318104565008905 0 0.048764141287254814 0.0018233082077926952 0 0.048537595141035096 0.0021141405816692935 0 0.048764141287254814 0.0018233082077926952 0 0.048454459186492493 0.0017260118336054598 0 0.048177550426286249 0.0019515155134279638 0 0.048537595141035096 0.0021141405816692935 0 0.048454459186492493 0.0017260118336054598 0 0.048177550426286249 0.0019515155134279638 0 0.048454459186492493 0.0017260118336054598 0 0.048271734075908644 0.0016054136253512688 0 0.048454459186492493 0.0017260118336054598 0 0.048271734075908644 0.0016054136253512688 0 0.048441106667836638 0.0015138393096049371 0 0.046160020060941234 0.00095872466207292686 0 0.048046582584626671 0.001181731062489157 0 0.048271734075908644 0.0016054136253512688 0 0.048441106667836638 0.0015138393096049371 0 0.048267631505299474 0.0013462104843112877 0 0.048441106667836638 0.0015138393096049371 0 0.048267631505299474 0.0013462104843112877 0 0.048631581000006911 0.0013744413703244964 0 0.048617315901850547 0.0014062829320490311 0 0.048798726124283848 0.0014138705261848893 0 0.048774429879128604 0.00132544233183757 0 0.048813178482016162 0.0015666185082428988 0 0.048620184082287923 0.0015872786372180252 0 0.048631581000006911 0.0013744413703244964 0 0.048620184082287923 0.0015872786372180252 0 0.048441106667836638 0.0015138393096049371 0 0.048631581000006911 0.0013744413703244964 0 0.045457990024209118 0.0009150380308346847 0 0.045422499942493352 0.00086949207941470607 0 0.04566485964035466 0.00080146243430050709 0 0.044726286498606299 0.0010017732538753741 0 0.045691087617440666 0.00099331540469937106 0 0.04358165263772168 0.0008954207430608486 0 0.0436825141415789 0.00082726263685444954 0 0.043737839657749807 0.00085903950480686452 0 0.046375724489865287 0.00084462896731198403 0 0.045691087617440666 0.00099331540469937106 0 0.048798726124283848 0.0014138705261848893 0 0.048774429879128604 0.00132544233183757 0 0.04887530031386924 0.0013505213944194098 0 0.04358165263772168 0.0008954207430608486 0 0.043539062815793367 0.0008804916394733321 0 0.043622116065686799 0.00081777932722579022 0 0.043458930813840127 0.00092928764417575885 0 0.04358165263772168 0.0008954207430608486 0 0.043539062815793367 0.0008804916394733321 0 0.044112066280784276 0.0009703849742907128 0 0.044726286498606299 0.0010017732538753741 0 0.046160020060941234 0.00095872466207292686 0 0.046375724489865287 0.00084462896731198403 0 0.045168526074161996 0.00094374419939886802 0 0.045251181522790979 0.0010314787758972906 0 0.045422499942493352 0.00086949207941470607 0 0.045251181522790979 0.0010314787758972906 0 0.045457990024209118 0.0009150380308346847 0 0.045422499942493352 0.00086949207941470607 0 0.044112066280784276 0.0009703849742907128 0 0.043848338399631565 0.001018354270908646 0 0.043457025222211697 0.00083880530411651016 0 0.043506878392648329 0.00083468520496882994 0 0.043481242589769049 0.00081876323187928912 0 0.044112066280784276 0.0009703849742907128 0 0.043871677072661167 0.0010029183876222728 0 0.043457025222211697 0.00083880530411651016 0 0.043442568772878214 0.00087694958636540157 0 0.043506878392648329 0.00083468520496882994 0 0.043468430433042667 0.00092256099841056798 0 0.043538729771933439 0.00087352154109332188 0 0.043529979484288883 0.00085656987461671863 0 0.043457025222211697 0.00083880530411651016 0 0.043481242589769049 0.00081876323187928912 0 0.043465972086047189 0.00079226210445056762 0 0.043495010840058232 0.00080850913899895764 0 0.043465972086047189 0.00079226210445056762 0 0.043529414312134446 0.00078214443742970587 0 0.043414595973552954 0.00079274831425391122 0 0.043465972086047189 0.00079226210445056762 0 0.043492515218602222 0.00072988216430791108 0 0.043506878392648329 0.00083468520496882994 0 0.043481242589769049 0.00081876323187928912 0 0.043495010840058232 0.00080850913899895764 0 0.043481242589769049 0.00081876323187928912 0 0.043495010840058232 0.00080850913899895764 0 0.043465972086047189 0.00079226210445056762 0 0.043465972086047189 0.00079226210445056762 0 0.043529414312134446 0.00078214443742970587 0 0.043492515218602222 0.00072988216430791108 0 0.043529414312134446 0.00078214443742970587 0 0.043604552448821249 0.00077261974440010026 0 0.043492515218602222 0.00072988216430791108 0 0.043506878392648329 0.00083468520496882994 0 0.043529414312134446 0.00078214443742970587 0 0.043604552448821249 0.00077261974440010026 0 0.043506878392648329 0.00083468520496882994 0 0.043495010840058232 0.00080850913899895764 0 0.043529414312134446 0.00078214443742970587 0 0.043538729771933439 0.00087352154109332188 0 0.043529979484288883 0.00085656987461671863 0 0.043622116065686799 0.00081777932722579022 0 0.043871677072661167 0.0010029183876222728 0 0.043824563296164624 0.00098835160981930307 0 0.043848338399631565 0.001018354270908646 0 0.043801322600893415 0.0010141051427938234 0 0.043604552448821249 0.00077261974440010026 0 0.043492515218602222 0.00072988216430791108 0 0.04367294893804731 0.00076571831306945066 0 0.043529979484288883 0.00085656987461671863 0 0.043622116065686799 0.00081777932722579022 0 0.043604552448821249 0.00077261974440010026 0 0.04358165263772168 0.0008954207430608486 0 0.043622116065686799 0.00081777932722579022 0 0.0436825141415789 0.00082726263685444954 0 0.043622116065686799 0.00081777932722579022 0 0.04367294893804731 0.00076571831306945066 0 0.0436825141415789 0.00082726263685444954 0 0.043622116065686799 0.00081777932722579022 0 0.043604552448821249 0.00077261974440010026 0 0.04367294893804731 0.00076571831306945066 0 0.040843071280356052 0.00099884265272594296 0 0.04287070165086819 0.0012072062549213555 0 0.040473608294069666 0.00027451846640141989 0 0.038818345829400067 0.0019005828683626325 0 0.041328418411758147 0.002607154381336821 0 0.038889504836293033 0.00010841518029713024 0 0.040473608294069666 0.00027451846640141989 0 0.038818345829400067 0.0019005828683626325 0 0.042784164935700572 0.00010473229819069489 0 0.043566643854306079 0.00163891669458277 0 0.045106543887234306 0.0004948062580460951 0 0.043566643854306079 0.00163891669458277 0 0.045106543887234306 0.0004948062580460951 0 0.045254839466610471 0.0017286353940195055 0 0.042784164935700572 0.00010473229819069489 0 0.043566643854306079 0.00163891669458277 0 0.041328418411758147 0.002607154381336821 0 0.042784164935700572 0.00010473229819069489 0 0.040473608294069666 0.00027451846640141989 0 0.041328418411758147 0.002607154381336821 0 0.043566643854306079 0.00163891669458277 0 0.041328418411758147 0.002607154381336821 0 0.044292885332444409 0.0034487555983406387 0 0.04287070165086819 0.0012072062549213555 0 0.045530649179022352 0.0012573394241245687 0 0.04367294893804731 0.00076571831306945066 0 0.04377419213788733 0.00084130507630165205 0 0.043880104084807588 0.0008195122046249834 0 0.04367294893804731 0.00076571831306945066 0 0.0436825141415789 0.00082726263685444954 0 0.04377419213788733 0.00084130507630165205 0 0.0436825141415789 0.00082726263685444954 0 0.043737839657749807 0.00085903950480686452 0 0.04377419213788733 0.00084130507630165205 0 0.045691087617440666 0.00099331540469937106 0 0.045634967470405401 0.0010142797656442078 0 0.043739041807072727 0.00086165545091358969 0 0.04377419213788733 0.00084130507630165205 0 0.043880104084807588 0.0008195122046249834 0 0.045691087617440666 0.00099331540469937106 0 0.045530649179022352 0.0012573394241245687 0 0.043566643854306079 0.00163891669458277 0 0.044292885332444409 0.0034487555983406387 0 0.045254839466610471 0.0017286353940195055 0 0.049034019554474506 0.0013498034619438709 0 0.049023368903520596 0.0013330995854822273 0 0.048982873969781161 0.0012908869069741089 0 0.045575292846304453 0.0012664853831131299 0 0.045530649179022352 0.0012573394241245687 0 0.048917274852271257 0.0012791538579052886 0 0.049023368903520596 0.0013330995854822273 0 0.04897416262380002 0.0013149197081668003 0 0.049023368903520596 0.0013330995854822273 0 0.048982873969781161 0.0012908869069741089 0 0.04897416262380002 0.0013149197081668003 0 0.048982873969781161 0.0012908869069741089 0 0.04897416262380002 0.0013149197081668003 0 0.049014958574934174 0.0013291697765823915 0 0.04897416262380002 0.0013149197081668003 0 0.049014958574934174 0.0013291697765823915 0 0.048931804847752447 0.0014081125138365944 0 0.048774429879128604 0.00132544233183757 0 0.048917274852271257 0.0012791538579052886 0 0.04887530031386924 0.0013505213944194098 0 0.048917274852271257 0.0012791538579052886 0 0.04897416262380002 0.0013149197081668003 0 0.04887530031386924 0.0013505213944194098 0 0.04897416262380002 0.0013149197081668003 0 0.04887530031386924 0.0013505213944194098 0 0.048931804847752447 0.0014081125138365944 0 0.048798726124283848 0.0014138705261848893 0 0.04887530031386924 0.0013505213944194098 0 0.048931804847752447 0.0014081125138365944 0 0.048813178482016162 0.0015666185082428988 0 0.048631581000006911 0.0013744413703244964 0 0.048959002768835386 0.0014205139678942116 0 0.048046582584626671 0.001181731062489157 0 0.048692928272479355 0.0012781886270910496 0 0.049014958574934174 0.0013291697765823915 0 0.048931804847752447 0.0014081125138365944 0 0.049131902785842507 0.0014229460746820639 0 0.049071261653665613 0.0016586525021647274 0 0.048959002768835386 0.0014205139678942116 0 0.049131902785842507 0.0014229460746820639 0 0.048692928272479355 0.0012781886270910496 0 0.048878904249386061 0.0013066624265588253 0 0.049131902785842507 0.0014229460746820639 0 0.049193458754064293 0.0013600902968734525 0 0.049485383366507055 0.0016508273404744036 0 0.049131902785842507 0.0014229460746820639 0 0.049193458754064293 0.0013600902968734525 0 0.048981316360631119 0.0012953156555832361 0 0.049193458754064293 0.0013600902968734525 0 0.049577088198218315 0.0013489214031766419 0 0.049485383366507055 0.0016508273404744036 0 0.049193458754064293 0.0013600902968734525 0 0.048816073224661853 0.0012810289193540515 0 0.049577088198218315 0.0013489214031766419 0 0.049193458754064293 0.0013600902968734525 0 0.048816073224661853 0.0012810289193540515 0 0.048981316360631119 0.0012953156555832361 0 0.049014958574934174 0.0013291697765823915 0 0.049131902785842507 0.0014229460746820639 0 0.048981316360631119 0.0012953156555832361 0 0.048982873969781161 0.0012908869069741089 0 0.049014958574934174 0.0013291697765823915 0 0.048981316360631119 0.0012953156555832361 0 0.048816073224661853 0.0012810289193540515 0 0.048981316360631119 0.0012953156555832361 0 0.048766893209102234 0.0012767991722609296 0 0.048982873969781161 0.0012908869069741089 0 0.048981316360631119 0.0012953156555832361 0 0.048766893209102234 0.0012767991722609296 0 0.049034019554474506 0.0013498034619438709 0 0.048982873969781161 0.0012908869069741089 0 0.048766893209102234 0.0012767991722609296 0 0.049034019554474506 0.0013498034619438709 0 0.048766893209102234 0.0012767991722609296 0 0.048134320822003113 0.0014406771541028267 0 0.045530649179022352 0.0012573394241245687 0 0.046718784763792383 0.0011721559781424876 0 0.044292885332444409 0.0034487555983406387 0 0.048134320822003113 0.0014406771541028267 0 0.045254839466610471 0.0017286353940195055 0 0.049034019554474506 0.0013498034619438709 0 0.049141845831842688 0.0013983073403414682 0 0.048134320822003113 0.0014406771541028267 0 0.048816073224661853 0.0012810289193540515 0 0.048134320822003113 0.0014406771541028267 0 0.048841448738062308 0.00081909546459099875 0 0.048816073224661853 0.0012810289193540515 0 0.048766893209102234 0.0012767991722609296 0 0.048134320822003113 0.0014406771541028267 0 0.047273975969994594 -0.00017158633076046792 0 0.048134320822003113 0.0014406771541028267 0 0.048841448738062308 0.00081909546459099875 0 0.048807236762604851 -0.00012545063187013658 0 0.047273975969994594 -0.00017158633076046792 0 0.048841448738062308 0.00081909546459099875 0 0.048134320822003113 0.0014406771541028267 0 0.045106543887234306 0.0004948062580460951 0 0.045254839466610471 0.0017286353940195055 0 0.047273975969994594 -0.00017158633076046792 0 0.048134320822003113 0.0014406771541028267 0 0.045106543887234306 0.0004948062580460951 0 0.05026347051436799 -6.0062082728249437e-06 0 0.049483681396280406 0.00021228965659103463 0 0.049730392609541221 0.00078440759836947429 0 0.04958818712192941 -0.00066691293332406384 0 0.05026347051436799 -6.0062082728249437e-06 0 0.049483681396280406 0.00021228965659103463 0 0.049483681396280406 0.00021228965659103463 0 0.048841448738062308 0.00081909546459099875 0 0.049730392609541221 0.00078440759836947429 0 0.048807236762604851 -0.00012545063187013658 0 0.049483681396280406 0.00021228965659103463 0 0.048841448738062308 0.00081909546459099875 0 0.048816073224661853 0.0012810289193540515 0 0.048841448738062308 0.00081909546459099875 0 0.049730392609541221 0.00078440759836947429 0 0.05026347051436799 -6.0062082728249437e-06 0 0.049730392609541221 0.00078440759836947429 0 0.050720404140051738 0.00059323294072890814 0 0.049730392609541221 0.00078440759836947429 0 0.050445061480049298 0.0011761026994239275 0 0.050720404140051738 0.00059323294072890814 0 0.049730392609541221 0.00078440759836947429 0 0.049577088198218315 0.0013489214031766419 0 0.050445061480049298 0.0011761026994239275 0 0.048816073224661853 0.0012810289193540515 0 0.049730392609541221 0.00078440759836947429 0 0.049577088198218315 0.0013489214031766419 0 0.049577088198218315 0.0013489214031766419 0 0.050445061480049298 0.0011761026994239275 0 0.050265709392403983 0.0016939774545652948 0 0.050445061480049298 0.0011761026994239275 0 0.050265709392403983 0.0016939774545652948 0 0.051248719912017779 0.0015964885833378616 0 0.051221041410745849 0.0019681039618282478 0 0.051248719912017779 0.0015964885833378616 0 0.051722067947392356 0.0019033041686605046 0 0.050265709392403983 0.0016939774545652948 0 0.051221041410745849 0.0019681039618282478 0 0.051248719912017779 0.0015964885833378616 0 0.050265709392403983 0.0016939774545652948 0 0.049741859275199592 0.0021521978789058515 0 0.050053642083721282 0.0021717640438634282 0 0.050705132013095525 0.001587809675564246 0 0.050829764503619076 0.0017337596405425587 0 0.049577088198218315 0.0013489214031766419 0 0.050265709392403983 0.0016939774545652948 0 0.049485383366507055 0.0016508273404744036 0 0.049071261653665613 0.0016586525021647274 0 0.049131902785842507 0.0014229460746820639 0 0.049485383366507055 0.0016508273404744036 0 0.049071261653665613 0.0016586525021647274 0 0.049485383366507055 0.0016508273404744036 0 0.049357674830766952 0.0019307397542578828 0 0.049485383366507055 0.0016508273404744036 0 0.049357674830766952 0.0019307397542578828 0 0.049741859275199592 0.0021521978789058515 0 0.050265709392403983 0.0016939774545652948 0 0.049485383366507055 0.0016508273404744036 0 0.049741859275199592 0.0021521978789058515 0 0.049741859275199592 0.0021521978789058515 0 0.04944991465926684 0.0021840802305173159 0 0.049786889334707443 0.0024178242516738895 0 0.049357674830766952 0.0019307397542578828 0 0.049741859275199592 0.0021521978789058515 0 0.04944991465926684 0.0021840802305173159 0 0.049150760201780559 0.0024775591730095484 0 0.04944991465926684 0.0021840802305173159 0 0.049786889334707443 0.0024178242516738895 0 0.049786889334707443 0.0024178242516738895 0 0.049843182750972118 0.0023145585982783838 0 0.049951492457691496 0.0021992800579809092 0 0.049741859275199592 0.0021521978789058515 0 0.049786889334707443 0.0024178242516738895 0 0.049843182750972118 0.0023145585982783838 0 0.049843182750972118 0.0023145585982783838 0 0.049824790641017198 0.0022678954962122421 0 0.050053642083721282 0.0021717640438634282 0 0.051098739936062787 0.0018182599777283057 0 0.050829764503619076 0.0017337596405425587 0 0.051985054249449061 0.0021457991249749964 0 0.051221041410745849 0.0019681039618282478 0 0.051722067947392356 0.0019033041686605046 0 0.049741859275199592 0.0021521978789058515 0 0.049843182750972118 0.0023145585982783838 0 0.050053642083721282 0.0021717640438634282 0 0.049834994193730102 0.0019667094870522181 0 0.04963068208195167 0.0020116976646048059 0 0.049818996288035836 0.0021558381300193566 0 0.049834994193730102 0.0019667094870522181 0 0.049818996288035836 0.0021558381300193566 0 0.049910911293576561 0.00208819814089019 0 0.051098739936062787 0.0018182599777283057 0 0.051472519643541631 0.0016118854359025274 0 0.049824790641017198 0.0022678954962122421 0 0.04963068208195167 0.0020116976646048059 0 0.049818996288035836 0.0021558381300193566 0 0.051985054249449061 0.0021457991249749964 0 0.052782101145948578 0.0020177714316718534 0 0.05246169236117626 0.0021196168138642433 0 0.049843182750972118 0.0023145585982783838 0 0.049824790641017198 0.0022678954962122421 0 0.049818996288035836 0.0021558381300193566 0 0.049843182750972118 0.0023145585982783838 0 0.049818996288035836 0.0021558381300193566 0 0.049910911293576561 0.00208819814089019 0 0.049843182750972118 0.0023145585982783838 0 0.049951492457691496 0.0021992800579809092 0 0.049910911293576561 0.00208819814089019 0 0.049951492457691496 0.0021992800579809092 0 0.050156280583521597 0.0019015970646851738 0 0.050210393057181606 0.0021887513319471075 0 0.049786889334707443 0.0024178242516738895 0 0.049951492457691496 0.0021992800579809092 0 0.050210393057181606 0.0021887513319471075 0 0.049951492457691496 0.0021992800579809092 0 0.050156280583521597 0.0019015970646851738 0 0.049910911293576561 0.00208819814089019 0 0.050156280583521597 0.0019015970646851738 0 0.049910911293576561 0.00208819814089019 0 0.049984447959475438 0.0018545034976956759 0 0.049834994193730102 0.0019667094870522181 0 0.049910911293576561 0.00208819814089019 0 0.049984447959475438 0.0018545034976956759 0 0.049984447959475438 0.0018545034976956759 0 0.050076986164303811 0.0016617950605075287 0 0.04982744202348266 0.0017621780800350338 0 0.050378305139598671 0.0017415471579355427 0 0.05014584832729959 0.0017589308420574048 0 0.050076986164303811 0.0016617950605075287 0 0.05026721815471763 0.0017212879433424993 0 0.050476682570422871 0.0015570640962060708 0 0.050156280583521597 0.0019015970646851738 0 0.050123797898723461 0.0017815870609270269 0 0.05026721815471763 0.0017212879433424993 0 0.049984447959475438 0.0018545034976956759 0 0.050123797898723461 0.0017815870609270269 0 0.050076986164303811 0.0016617950605075287 0 0.050156280583521597 0.0019015970646851738 0 0.049984447959475438 0.0018545034976956759 0 0.050123797898723461 0.0017815870609270269 0 0.050123797898723461 0.0017815870609270269 0 0.050076986164303811 0.0016617950605075287 0 0.05026721815471763 0.0017212879433424993 0 0.050378305139598671 0.0017415471579355427 0 0.050832336614190503 0.0017279578179882652 0 0.050428179667810873 0.001748969468468525 0 0.050470316644999319 0.0015194896302354753 0 0.05083197227649322 0.0014648169826274359 0 0.052464898115250305 0.0011689045453354529 0 0.052903745443871504 0.00078177677718195126 0 0.050470316644999319 0.0015194896302354753 0 0.050737513890368541 0.0011169701203717656 0 0.05083197227649322 0.0014648169826274359 0 0.050428179667810873 0.001748969468468525 0 0.050106669445954086 0.0015653222954274911 0 0.04982744202348266 0.0017621780800350338 0 0.050470316644999319 0.0015194896302354753 0 0.050106669445954086 0.0015653222954274911 0 0.050014819478209419 0.0011421462901488903 0 0.050428179667810873 0.001748969468468525 0 0.050470316644999319 0.0015194896302354753 0 0.050106669445954086 0.0015653222954274911 0 0.049777131038537481 0.0014257354651869818 0 0.04982744202348266 0.0017621780800350338 0 0.049517194256002581 0.0015857825475492728 0 0.050106669445954086 0.0015653222954274911 0 0.049777131038537481 0.0014257354651869818 0 0.050014819478209419 0.0011421462901488903 0 0.050106669445954086 0.0015653222954274911 0 0.049777131038537481 0.0014257354651869818 0 0.04982744202348266 0.0017621780800350338 0 0.049834994193730102 0.0019667094870522181 0 0.049984447959475438 0.0018545034976956759 0 0.04982744202348266 0.0017621780800350338 0 0.049834994193730102 0.0019667094870522181 0 0.04963068208195167 0.0020116976646048059 0 0.04982744202348266 0.0017621780800350338 0 0.051472519643541631 0.0016118854359025274 0 0.052001567298624193 0.0012040158429825318 0 0.04963068208195167 0.0020116976646048059 0 0.04982744202348266 0.0017621780800350338 0 0.049517194256002581 0.0015857825475492728 0 0.052782101145948578 0.0020177714316718534 0 0.053654451209979581 0.0010994611607947102 0 0.052937052917494801 0.001680143391262651 0 0.052001567298624193 0.0012040158429825318 0 0.052854138351004123 0.0010805188330594972 0 0.053654451209979581 0.0010994611607947102 0 0.054106865532638326 0.00046488192615383976 0 0.053906760977728764 0.00062490681225872463 0 0.049777131038537481 0.0014257354651869818 0 0.049517194256002581 0.0015857825475492728 0 0.049439437114043264 0.0010578028804229481 0 0.052593796834111368 0.00080873927485160333 0 0.052854138351004123 0.0010805188330594972 0 0.049777131038537481 0.0014257354651869818 0 0.050014819478209419 0.0011421462901488903 0 0.049439437114043264 0.0010578028804229481 0 0.054979117712082234 8.2281946672608164e-05 0 0.054961961609677916 7.2534386381697274e-05 0 0.054984082367484782 5.174869625114242e-05 0 0.054979117712082234 8.2281946672608164e-05 0 0.054954454126121481 8.3374340590728572e-05 0 0.054961961609677916 7.2534386381697274e-05 0 0.054954454126121481 8.3374340590728572e-05 0 0.054961961609677916 7.2534386381697274e-05 0 0.054934386898032705 7.8883180704154585e-05 0 0.052854138351004123 0.0010805188330594972 0 0.053370375291873343 0.00052099026284450867 0 0.054961961609677916 7.2534386381697274e-05 0 0.054975543349744325 5.1295279918861395e-05 0 0.054934386898032705 7.8883180704154585e-05 0 0.054961961609677916 7.2534386381697274e-05 0 0.054975543349744325 5.1295279918861395e-05 0 0.054984082367484782 5.174869625114242e-05 0 0.054975543349744325 5.1295279918861395e-05 0 0.054984082367484782 5.174869625114242e-05 0 0.05499277845992688 2.4559759118184108e-05 0 0.05499277845992688 2.4559759118184108e-05 0 0.054999997055978765 3.2442569707938384e-08 0 0.054999995704774651 2.6248596374738674e-08 0 0.054975543349744325 5.1295279918861395e-05 0 0.054999997055978765 3.2442569707938384e-08 0 0.054934386898032705 7.8883180704154585e-05 0 0.054975543349744325 5.1295279918861395e-05 0 0.05499277845992688 2.4559759118184108e-05 0 0.054999997055978765 3.2442569707938384e-08 0 0.055002340695023952 3.1892313657591864e-06 0 0.054999995704774651 2.6248596374738674e-08 0 0.055000014275127004 3.6979363407246714e-09 0 0.055011989432196477 2.6164065942888102e-05 0 0.055002340695023952 3.1892313657591864e-06 0 0.055000208149692587 2.4560521687220887e-05 0 0.055011989432196477 2.6164065942888102e-05 0 0.055002340695023952 3.1892313657591864e-06 0 0.055029456919168621 2.087556353874346e-05 0 0.05499277845992688 2.4559759118184108e-05 0 0.054999995704774651 2.6248596374738674e-08 0 0.055000208149692587 2.4560521687220887e-05 0 0.055002340695023952 3.1892313657591864e-06 0 0.054999995704774651 2.6248596374738674e-08 0 0.055000208149692587 2.4560521687220887e-05 0 0.054984082367484782 5.174869625114242e-05 0 0.05499277845992688 2.4559759118184108e-05 0 0.055000208149692587 2.4560521687220887e-05 0 0.054984082367484782 5.174869625114242e-05 0 0.055000208149692587 2.4560521687220887e-05 0 0.054994227397826966 5.5075091546522164e-05 0 0.055000208149692587 2.4560521687220887e-05 0 0.055009516571955401 4.6163726326617806e-05 0 0.054994227397826966 5.5075091546522164e-05 0 0.055011989432196477 2.6164065942888102e-05 0 0.055000208149692587 2.4560521687220887e-05 0 0.055009516571955401 4.6163726326617806e-05 0 0.055011989432196477 2.6164065942888102e-05 0 0.055009516571955401 4.6163726326617806e-05 0 0.05502601619321755 3.9932127989166665e-05 0 0.055009516571955401 4.6163726326617806e-05 0 0.055003983563720951 6.597298916249292e-05 0 0.055029924383111016 6.0964436136056728e-05 0 0.055003983563720951 6.597298916249292e-05 0 0.055010857290374422 8.6051201830214237e-05 0 0.055029924383111016 6.0964436136056728e-05 0 0.055009516571955401 4.6163726326617806e-05 0 0.055003983563720951 6.597298916249292e-05 0 0.054994227397826966 5.5075091546522164e-05 0 0.054979117712082234 8.2281946672608164e-05 0 0.055003983563720951 6.597298916249292e-05 0 0.054994227397826966 5.5075091546522164e-05 0 0.054979117712082234 8.2281946672608164e-05 0 0.054984082367484782 5.174869625114242e-05 0 0.054994227397826966 5.5075091546522164e-05 0 0.052593796834111368 0.00080873927485160333 0 0.052903745443871504 0.00078177677718195126 0 0.050470316644999319 0.0015194896302354753 0 0.050014819478209419 0.0011421462901488903 0 0.050665027480813328 0.0012372646406387515 0 0.054979117712082234 8.2281946672608164e-05 0 0.055003983563720951 6.597298916249292e-05 0 0.055010857290374422 8.6051201830214237e-05 0 0.052903745443871504 0.00078177677718195126 0 0.053825969435469162 0.00035883464802516992 0 0.053384309539537447 0.00064598969126805259 0 0.053479127234146821 0.00066308489052361262 0 0.053448895408679732 0.00055188890683021373 0 0.052903745443871504 0.00078177677718195126 0 0.052749622422749692 0.00073352948208456597 0 0.050737513890368541 0.0011169701203717656 0 0.051337967451954611 0.0012252846245892814 0 0.05083197227649322 0.0014648169826274359 0 0.053479127234146821 0.00066308489052361262 0 0.053511743238870264 0.00060042301127996231 0 0.053573201031862396 0.00068030915444227617 0 0.053479127234146821 0.00066308489052361262 0 0.053511743238870264 0.00060042301127996231 0 0.053448895408679732 0.00055188890683021373 0 0.053511743238870264 0.00060042301127996231 0 0.053522312098989215 0.0005364050589002639 0 0.05357275951001788 0.00058529221960277027 0 0.053511743238870264 0.00060042301127996231 0 0.053522312098989215 0.0005364050589002639 0 0.053448895408679732 0.00055188890683021373 0 0.05502601619321755 3.9932127989166665e-05 0 0.05504875608099398 3.3708019964673289e-05 0 0.055029456919168621 2.087556353874346e-05 0 0.055029924383111016 6.0964436136056728e-05 0 0.05502601619321755 3.9932127989166665e-05 0 0.05504875608099398 3.3708019964673289e-05 0 0.055009516571955401 4.6163726326617806e-05 0 0.055029924383111016 6.0964436136056728e-05 0 0.05502601619321755 3.9932127989166665e-05 0 0.055011989432196477 2.6164065942888102e-05 0 0.05502601619321755 3.9932127989166665e-05 0 0.055029456919168621 2.087556353874346e-05 0 0.053825969435469162 0.00035883464802516992 0 0.054254711894977589 0.00040557847697343907 0 0.053522312098989215 0.0005364050589002639 0 0.053513349827314732 0.00045791460829623572 0 0.053572593789232514 0.00048943786529667547 0 0.053522312098989215 0.0005364050589002639 0 0.053448895408679732 0.00055188890683021373 0 0.053513349827314732 0.00045791460829623572 0 0.054254711894977589 0.00040557847697343907 0 0.053837983397729654 0.00057989561007509036 0 0.054254711894977589 0.00040557847697343907 0 0.054595442044870671 0.00037749759375685252 0 0.054254711894977589 0.00040557847697343907 0 0.05489598499881912 3.6865235487763058e-05 0 0.055000014275127004 3.6979363407246714e-09 0 0.05499937216627427 1.3966674823449137e-07 0 0.054999890723960825 2.2380133911018758e-08 0 0.055000014275127004 3.6979363407246714e-09 0 0.054999890723960825 2.2380133911018758e-08 0 0.054999989866741088 -1.4710368263384292e-09 0 0.054998754617848505 5.618186186229084e-07 0 0.05499937216627427 1.3966674823449137e-07 0 0.054999890723960825 2.2380133911018758e-08 0 0.054681641582457308 0.00035890703242757733 0 0.054595442044870671 0.00037749759375685252 0 0.055002340695023952 3.1892313657591864e-06 0 0.055000014275127004 3.6979363407246714e-09 0 0.05499937216627427 1.3966674823449137e-07 0 0.054999996200166872 1.5986058358352685e-09 0 0.054997071013255641 2.1836160133389865e-06 0 0.054999990850971341 2.1225192953974327e-09 0 0.054999996200166872 1.5986058358352685e-09 0 0.054997071013255641 2.1836160133389865e-06 0 0.054996587512609808 3.1067712487346875e-06 0 0.054239489823391614 0.00048102451026772465 0 0.05436525650231492 0.00029618631805795219 0 0.054367876760958056 0.00054864871902751461 0 0.054997071013255641 2.1836160133389865e-06 0 0.054999481078036455 3.1010079689576988e-07 0 0.054993563884627707 4.5113498589371781e-06 0 0.054997071013255641 2.1836160133389865e-06 0 0.054999481078036455 3.1010079689576988e-07 0 0.054999990850971341 2.1225192953974327e-09 0 0.05489598499881912 3.6865235487763058e-05 0 0.053837983397729654 0.00057989561007509036 0 0.05489598499881912 3.6865235487763058e-05 0 0.054996650396209733 6.2880375495869071e-07 0 0.054997071013255641 2.1836160133389865e-06 0 0.054993563884627707 4.5113498589371781e-06 0 0.054993108156925548 5.9580733607397203e-06 0 0.053837983397729654 0.00057989561007509036 0 0.053237953790761849 0.00083906179478874534 0 0.054993108156925548 5.9580733607397203e-06 0 0.054992165282814365 8.2852172427841691e-06 0 0.054996587512609808 3.1067712487346875e-06 0 0.054997071013255641 2.1836160133389865e-06 0 0.054993108156925548 5.9580733607397203e-06 0 0.054996587512609808 3.1067712487346875e-06 0 0.053237953790761849 0.00083906179478874534 0 0.052422351140531141 0.0011941824228401704 0 0.05237040466808187 0.00051001589647739812 0 0.052328632024663417 0.00083070943633838383 0 0.052787243918771716 0.00072870348277691689 0 0.053522312098989215 0.0005364050589002639 0 0.053572593789232514 0.00048943786529667547 0 0.05357275951001788 0.00058529221960277027 0 0.053837983397729654 0.00057989561007509036 0 0.053358591405145768 0.00066014384823161892 0 0.051955727079930222 0.00029235355533577771 0 0.05237040466808187 0.00051001589647739812 0 0.051959501070965329 0.00081826531355127261 0 0.05237040466808187 0.00051001589647739812 0 0.052328632024663417 0.00083070943633838383 0 0.051959501070965329 0.00081826531355127261 0 0.053511743238870264 0.00060042301127996231 0 0.05357275951001788 0.00058529221960277027 0 0.053573201031862396 0.00068030915444227617 0 0.051959501070965329 0.00081826531355127261 0 0.052134345242633794 0.0011027737123264808 0 0.051958473727181848 0.0013551215511662159 0 0.053358591405145768 0.00066014384823161892 0 0.053071481698758943 0.00068344809108123871 0 0.052328632024663417 0.00083070943633838383 0 0.051959501070965329 0.00081826531355127261 0 0.052134345242633794 0.0011027737123264808 0 0.052134345242633794 0.0011027737123264808 0 0.052404350537331189 0.0011470028156191922 0 0.052018946050463075 0.0013671841569830988 0 0.052134345242633794 0.0011027737123264808 0 0.051958473727181848 0.0013551215511662159 0 0.052018946050463075 0.0013671841569830988 0 0.052328632024663417 0.00083070943633838383 0 0.052404350537331189 0.0011470028156191922 0 0.052787243918771716 0.00072870348277691689 0 0.051648758459175027 0.0016949553852894242 0 0.052422351140531141 0.0011941824228401704 0 0.052328632024663417 0.00083070943633838383 0 0.052134345242633794 0.0011027737123264808 0 0.052404350537331189 0.0011470028156191922 0 0.0506952121786741 0.0023236689363091848 0 0.050268268044441421 0.0021431560883083882 0 0.05008702620249525 0.0026784004793424005 0 0.050626627056642462 0.0028517860437228507 0 0.0506952121786741 0.0023236689363091848 0 0.05008702620249525 0.0026784004793424005 0 0.050626627056642462 0.0028517860437228507 0 0.0506952121786741 0.0023236689363091848 0 0.051216885625310571 0.0022610563332074673 0 0.0506952121786741 0.0023236689363091848 0 0.05089674834596615 0.0018332930285007106 0 0.050268268044441421 0.0021431560883083882 0 0.05089674834596615 0.0018332930285007106 0 0.050349303828676452 0.0015600521535722143 0 0.050268268044441421 0.0021431560883083882 0 0.05089674834596615 0.0018332930285007106 0 0.050349303828676452 0.0015600521535722143 0 0.050795198637605336 0.0012326917832456883 0 0.051209672813501805 0.0015833785798277621 0 0.05111132350608364 0.0017496976038243962 0 0.051031029153992401 0.0015782835462360928 0 0.05089674834596615 0.0018332930285007106 0 0.051209672813501805 0.0015833785798277621 0 0.050795198637605336 0.0012326917832456883 0 0.05089674834596615 0.0018332930285007106 0 0.051209672813501805 0.0015833785798277621 0 0.05111132350608364 0.0017496976038243962 0 0.05089674834596615 0.0018332930285007106 0 0.05111132350608364 0.0017496976038243962 0 0.051144912359632484 0.0020548852796917348 0 0.051199288213006983 0.0017852743681690516 0 0.050969988784286602 0.001872964229208721 0 0.05111132350608364 0.0017496976038243962 0 0.051144912359632484 0.0020548852796917348 0 0.051031029153992401 0.0015782835462360928 0 0.0506952121786741 0.0023236689363091848 0 0.05089674834596615 0.0018332930285007106 0 0.051144912359632484 0.0020548852796917348 0 0.051082296708026421 0.0018302581832827054 0 0.051199288213006983 0.0017852743681690516 0 0.052404350537331189 0.0011470028156191922 0 0.052009792449094303 0.0015849005820437608 0 0.052018946050463075 0.0013671841569830988 0 0.051648758459175027 0.0016949553852894242 0 0.051199288213006983 0.0017852743681690516 0 0.053063877436134943 0.00070389237934296829 0 0.053071481698758943 0.00068344809108123871 0 0.052009792449094303 0.0015849005820437608 0 0.051954520420227392 0.0014711359946620317 0 0.052018946050463075 0.0013671841569830988 0 0.051954520420227392 0.0014711359946620317 0 0.051956036320814303 0.0013550048174903577 0 0.052018946050463075 0.0013671841569830988 0 0.053071481698758943 0.00068344809108123871 0 0.053063679680965543 0.0006837970444236504 0 0.051199288213006983 0.0017852743681690516 0 0.050832336614190503 0.0017279578179882652 0 0.052749622422749692 0.00073352948208456597 0 0.053071481698758943 0.00068344809108123871 0 0.051337967451954611 0.0012252846245892814 0 0.051954520420227392 0.0014711359946620317 0 0.051952672924338313 0.0013385540621162783 0 0.052009792449094303 0.0015849005820437608 0 0.051954520420227392 0.0014711359946620317 0 0.05120347408917001 0.001684652878580963 0 0.051337967451954611 0.0012252846245892814 0 0.051954520420227392 0.0014711359946620317 0 0.05120347408917001 0.001684652878580963 0 0.051337967451954611 0.0012252846245892814 0 0.05083197227649322 0.0014648169826274359 0 0.05120347408917001 0.001684652878580963 0 0.050428179667810873 0.001748969468468525 0 0.05083197227649322 0.0014648169826274359 0 0.05120347408917001 0.001684652878580963 0 0.050156280583521597 0.0019015970646851738 0 0.05026721815471763 0.0017212879433424993 0 0.050464009354563709 0.0017369817891168045 0 0.05026721815471763 0.0017212879433424993 0 0.050476682570422871 0.0015570640962060708 0 0.050464009354563709 0.0017369817891168045 0 0.050831994988644158 0.0015162664236104094 0 0.050476682570422871 0.0015570640962060708 0 0.050652456039430638 0.0017094505214005715 0 0.050476682570422871 0.0015570640962060708 0 0.050464009354563709 0.0017369817891168045 0 0.050652456039430638 0.0017094505214005715 0 0.050464009354563709 0.0017369817891168045 0 0.050652456039430638 0.0017094505214005715 0 0.050509666496494424 0.0018768581920561391 0 0.050969988784286602 0.001872964229208721 0 0.050871629182673274 0.0019205176845952451 0 0.051209672813501805 0.0015833785798277621 0 0.051031029153992401 0.0015782835462360928 0 0.050936754114534175 0.0019979622809403819 0 0.051031029153992401 0.0015782835462360928 0 0.050936754114534175 0.0019979622809403819 0 0.050509666496494424 0.0018768581920561391 0 0.050156280583521597 0.0019015970646851738 0 0.050464009354563709 0.0017369817891168045 0 0.050509666496494424 0.0018768581920561391 0 0.050156280583521597 0.0019015970646851738 0 0.050509666496494424 0.0018768581920561391 0 0.050210393057181606 0.0021887513319471075 0 0.050441765653741588 0.0025912872485274047 0 0.050210393057181606 0.0021887513319471075 0 0.050575664012151432 0.0022302025365450871 0 0.050509666496494424 0.0018768581920561391 0 0.050210393057181606 0.0021887513319471075 0 0.050575664012151432 0.0022302025365450871 0 0.050936754114534175 0.0019979622809403819 0 0.050509666496494424 0.0018768581920561391 0 0.050575664012151432 0.0022302025365450871 0 0.051005448938279123 0.0026297619545812422 0 0.050936754114534175 0.0019979622809403819 0 0.050575664012151432 0.0022302025365450871 0 0.051005448938279123 0.0026297619545812422 0 0.050936754114534175 0.0019979622809403819 0 0.051367516361643696 0.0021293694923315075 0 0.048209868303963732 0.001594070117528983 0 0.049389606585166668 0.0015979163031672006 0 0.051205137932252398 0.00018958771097477714 0 0.050272697153551482 0.00059885648811576768 0 0.050233912710321633 -0.00045966318353982165 0 0.050832789395644812 -0.0013171415096129774 0 0.051205137932252398 0.00018958771097477714 0 0.050233912710321633 -0.00045966318353982165 0 0.050349303828676452 0.0015600521535722143 0 0.050272697153551482 0.00059885648811576768 0 0.050795198637605336 0.0012326917832456883 0 0.051205137932252398 0.00018958771097477714 0 0.050272697153551482 0.00059885648811576768 0 0.050795198637605336 0.0012326917832456883 0 0.051209672813501805 0.0015833785798277621 0 0.050936754114534175 0.0019979622809403819 0 0.051367516361643696 0.0021293694923315075 0 0.049739013650857533 0.0016546879372604248 0 0.049389606585166668 0.0015979163031672006 0 0.051209672813501805 0.0015833785798277621 0 0.051205137932252398 0.00018958771097477714 0 0.050795198637605336 0.0012326917832456883 0 0.048303159630221339 0.00047830720505216999 0 0.049444382146997833 0.0010142935739669357 0 0.048534666515138963 0.0017632838718901981 0 0.050349303828676452 0.0015600521535722143 0 0.050272697153551482 0.00059885648811576768 0 0.049444382146997833 0.0010142935739669357 0 0.050272697153551482 0.00059885648811576768 0 0.049444382146997833 0.0010142935739669357 0 0.049272663480503139 -0.00032910985138046852 0 0.050272697153551482 0.00059885648811576768 0 0.050233912710321633 -0.00045966318353982165 0 0.049272663480503139 -0.00032910985138046852 0 0.048303159630221339 0.00047830720505216999 0 0.049444382146997833 0.0010142935739669357 0 0.049272663480503139 -0.00032910985138046852 0 0.048303159630221339 0.00047830720505216999 0 0.049272663480503139 -0.00032910985138046852 0 0.047508586552628664 -0.0006998749035131616 0 0.048303159630221339 0.00047830720505216999 0 0.047508586552628664 -0.0006998749035131616 0 0.046180853311457271 0.00057455818958149869 0 0.042694733046283406 -0.00037995677556755574 0 0.046180853311457271 0.00057455818958149869 0 0.042423730834090276 -6.0466213508228316e-05 0 0.046152571520718888 -0.0016212175849991137 0 0.047508586552628664 -0.0006998749035131616 0 0.046180853311457271 0.00057455818958149869 0 0.04254058591761737 -0.00026091607929587556 0 0.04347713517236737 0.00068340182497863633 0 0.046180853311457271 0.00057455818958149869 0 0.047131076144394997 0.0016663274602902334 0 0.044906907991935835 0.00093791766212805879 0 0.046180853311457271 0.00057455818958149869 0 0.044906907991935835 0.00093791766212805879 0 0.042423730834090276 -6.0466213508228316e-05 0 0.046180853311457271 0.00057455818958149869 0 0.048534666515138963 0.0017632838718901981 0 0.047131076144394997 0.0016663274602902334 0 0.048303159630221339 0.00047830720505216999 0 0.046180853311457271 0.00057455818958149869 0 0.048534666515138963 0.0017632838718901981 0 0.048534666515138963 0.0017632838718901981 0 0.047131076144394997 0.0016663274602902334 0 0.048498318144849402 0.0025916142104575185 0 0.047131076144394997 0.0016663274602902334 0 0.047160896429300402 0.0022385674666015889 0 0.048498318144849402 0.0025916142104575185 0 0.047131076144394997 0.0016663274602902334 0 0.047160896429300402 0.0022385674666015889 0 0.044906907991935835 0.00093791766212805879 0 0.048522774860804176 0.0029655579228402384 0 0.048498318144849402 0.0025916142104575185 0 0.049509113705408933 0.0030139567008017924 0 0.047160896429300402 0.0022385674666015889 0 0.048522774860804176 0.0029655579228402384 0 0.048498318144849402 0.0025916142104575185 0 0.047160896429300402 0.0022385674666015889 0 0.048522774860804176 0.0029655579228402384 0 0.047411546979807054 0.002750937782357354 0 0.048534666515138963 0.0017632838718901981 0 0.048498318144849402 0.0025916142104575185 0 0.049408321850330901 0.0028576752374244248 0 0.048498318144849402 0.0025916142104575185 0 0.049408321850330901 0.0028576752374244248 0 0.049509113705408933 0.0030139567008017924 0 0.049408321850330901 0.0028576752374244248 0 0.049740318911666956 0.0021539767021158816 0 0.05008702620249525 0.0026784004793424005 0 0.048534666515138963 0.0017632838718901981 0 0.049408321850330901 0.0028576752374244248 0 0.049740318911666956 0.0021539767021158816 0 0.049444382146997833 0.0010142935739669357 0 0.048534666515138963 0.0017632838718901981 0 0.049740318911666956 0.0021539767021158816 0 0.050349303828676452 0.0015600521535722143 0 0.049444382146997833 0.0010142935739669357 0 0.049740318911666956 0.0021539767021158816 0 0.050349303828676452 0.0015600521535722143 0 0.049740318911666956 0.0021539767021158816 0 0.050268268044441421 0.0021431560883083882 0 0.049740318911666956 0.0021539767021158816 0 0.050268268044441421 0.0021431560883083882 0 0.05008702620249525 0.0026784004793424005 0 0.050626627056642462 0.0028517860437228507 0 0.05008702620249525 0.0026784004793424005 0 0.050176124073942632 0.0032286780676205641 0 0.05008702620249525 0.0026784004793424005 0 0.049811143169943298 0.0029678454574804921 0 0.050176124073942632 0.0032286780676205641 0 0.049408321850330901 0.0028576752374244248 0 0.05008702620249525 0.0026784004793424005 0 0.049811143169943298 0.0029678454574804921 0 0.049408321850330901 0.0028576752374244248 0 0.049811143169943298 0.0029678454574804921 0 0.050662984851231482 0.0027763500815732528 0 0.049811143169943298 0.0029678454574804921 0 0.050403946931552444 0.0015256049695240039 0 0.050662984851231482 0.0027763500815732528 0 0.049811143169943298 0.0029678454574804921 0 0.04910263855542274 0.0025258661967049443 0 0.050403946931552444 0.0015256049695240039 0 0.052422351140531141 0.0011941824228401704 0 0.053209009035243574 0.000962496078706502 0 0.051652074535461709 0.0012320321070123674 0 0.052422351140531141 0.0011941824228401704 0 0.054992165282814365 8.2852172427841691e-06 0 0.054996587512609808 3.1067712487346875e-06 0 0.054997231384888268 3.6501726071101732e-06 0 0.054997231384888268 3.6501726071101732e-06 0 0.054999995862793728 2.5478408895464835e-09 0 0.055000000183616816 -1.3811862797538119e-09 0 0.054996587512609808 3.1067712487346875e-06 0 0.054997231384888268 3.6501726071101732e-06 0 0.054999995862793728 2.5478408895464835e-09 0 0.054999996200166872 1.5986058358352685e-09 0 0.054996587512609808 3.1067712487346875e-06 0 0.054999995862793728 2.5478408895464835e-09 0 0.054113542783519472 0.00058919940974570589 0 0.054990229449710687 -4.007828450306742e-07 0 0.053002756173325512 0.001305790860641125 0 0.054113542783519472 0.00058919940974570589 0 0.054990229449710687 -4.007828450306742e-07 0 0.05500313610792306 8.607200088271151e-07 0 0.054990229449710687 -4.007828450306742e-07 0 0.052168427848298761 0.0016264892409700777 0 0.053002756173325512 0.001305790860641125 0 0.050403946931552444 0.0015256049695240039 0 0.054990229449710687 -4.007828450306742e-07 0 0.052168427848298761 0.0016264892409700777 0 0.053209009035243574 0.000962496078706502 0 0.054997470743772495 8.7438612592053265e-07 0 0.050403946931552444 0.0015256049695240039 0 0.052168427848298761 0.0016264892409700777 0 0.050662984851231482 0.0027763500815732528 0 0.052168427848298761 0.0016264892409700777 0 0.05201349153922398 0.0020695142978367402 0 0.053002756173325512 0.001305790860641125 0 0.054113542783519472 0.00058919940974570589 0 0.053002756173325512 0.001305790860641125 0 0.053730871843069072 0.0013507234374008552 0 0.05201349153922398 0.0020695142978367402 0 0.053002756173325512 0.001305790860641125 0 0.053730871843069072 0.0013507234374008552 0 0.05201349153922398 0.0020695142978367402 0 0.050798674086616279 0.0027305046646723501 0 0.050662984851231482 0.0027763500815732528 0 0.05201349153922398 0.0020695142978367402 0 0.050798674086616279 0.0027305046646723501 0 0.053730871843069072 0.0013507234374008552 0 0.052168427848298761 0.0016264892409700777 0 0.05201349153922398 0.0020695142978367402 0 0.050662984851231482 0.0027763500815732528 0 0.049408321850330901 0.0028576752374244248 0 0.050662984851231482 0.0027763500815732528 0 0.049509113705408933 0.0030139567008017924 0 0.050798674086616279 0.0027305046646723501 0 0.050662984851231482 0.0027763500815732528 0 0.049509113705408933 0.0030139567008017924 0 0.050798674086616279 0.0027305046646723501 0 0.049509113705408933 0.0030139567008017924 0 0.049407057463128068 0.0031435066230163563 0 0.048522774860804176 0.0029655579228402384 0 0.049509113705408933 0.0030139567008017924 0 0.049407057463128068 0.0031435066230163563 0 0.049407057463128068 0.0031435066230163563 0 0.04868460793458642 0.0034414617093401069 0 0.049706672177166775 0.0032532370597662071 0 0.048522774860804176 0.0029655579228402384 0 0.049407057463128068 0.0031435066230163563 0 0.04868460793458642 0.0034414617093401069 0 0.047191968254236744 0.0040392889414674468 0 0.045842604767940047 0.0027812400789847618 0 0.046988026236238191 0.0032291694041377858 0 0.04868460793458642 0.0034414617093401069 0 0.047450510838258332 0.0036263025560021424 0 0.046988026236238191 0.0032291694041377858 0 0.047450510838258332 0.0036263025560021424 0 0.047191968254236744 0.0040392889414674468 0 0.046988026236238191 0.0032291694041377858 0 0.051995924595302521 0.0022060124347453563 0 0.052113650790251674 0.0021343880401606639 0 0.047450510838258332 0.0036263025560021424 0 0.047324887267483892 0.0040110366639865896 0 0.047191968254236744 0.0040392889414674468 0 0.04868460793458642 0.0034414617093401069 0 0.047450510838258332 0.0036263025560021424 0 0.047324887267483892 0.0040110366639865896 0 0.050798674086616279 0.0027305046646723501 0 0.049407057463128068 0.0031435066230163563 0 0.049706672177166775 0.0032532370597662071 0 0.047191968254236744 0.0040392889414674468 0 0.046606989033725323 0.0034830542921051705 0 0.046610712726621678 0.0043255039989575179 0 0.052113650790251674 0.0021343880401606639 0 0.05140839880655447 0.0019077175074483292 0 0.047191968254236744 0.0040392889414674468 0 0.046606989033725323 0.0034830542921051705 0 0.046879617300772385 0.001953082199993725 0 0.047324887267483892 0.0040110366639865896 0 0.047191968254236744 0.0040392889414674468 0 0.046610712726621678 0.0043255039989575179 0 0.054940262244157559 0.00011075941604530493 0 0.054985385609723582 7.2149991649892304e-05 0 0.054959983865485597 3.9226870411878214e-05 0 0.052113650790251674 0.0021343880401606639 0 0.053647348710937515 0.00056135941702356964 0 0.053644871980684815 0.0016098735663454291 0 0.054091745097394249 0.0011147216025520236 0 0.050798674086616279 0.0027305046646723501 0 0.049706672177166775 0.0032532370597662071 0 0.052794061448037895 0.001809269083264799 0 0.052794061448037895 0.001809269083264799 0 0.052601795278367967 0.0013128170343502435 0 0.055002253180477717 -6.0187712748670931e-07 0 0.050798674086616279 0.0027305046646723501 0 0.052794061448037895 0.001809269083264799 0 0.052601795278367967 0.0013128170343502435 0 0.054959983865485597 3.9226870411878214e-05 0 0.054991564382133498 2.307051743857063e-05 0 0.054999943527401361 -5.4016821834090099e-09 0 0.054985385609723582 7.2149991649892304e-05 0 0.054959983865485597 3.9226870411878214e-05 0 0.054991564382133498 2.307051743857063e-05 0 0.054991564382133498 2.307051743857063e-05 0 0.055000002863913683 1.4357557051302555e-08 0 0.054999943527401361 -5.4016821834090099e-09 0 0.054091745097394249 0.0011147216025520236 0 0.05499788089058219 1.5510361693663626e-06 0 0.052601795278367967 0.0013128170343502435 0 0.055002253180477717 -6.0187712748670931e-07 0 0.054995920832601131 8.3338447740631573e-07 0 0.053647348710937515 0.00056135941702356964 0 0.054997685566069154 5.2329401654835928e-08 0 0.054113542783519472 0.00058919940974570589 0 0.053730871843069072 0.0013507234374008552 0 0.05500313610792306 8.607200088271151e-07 0 0.054196946849843421 -1.5462521246285713e-05 0 0.054999101515596331 9.7910502880376682e-07 0 0.054313329596682315 -0.00064507618046731813 0 0.054196946849843421 -1.5462521246285713e-05 0 0.054998273709532558 3.3282836492866346e-07 0 0.053090289791876133 -1.64089057601224e-06 0 0.054995350007400058 3.1143494748915901e-07 0 0.051938925981102016 0.00082628284213751273 0 0.054196946849843421 -1.5462521246285713e-05 0 0.054998273709532558 3.3282836492866346e-07 0 0.054999101515596331 9.7910502880376682e-07 0 0.055000020826277307 -1.5861333554677067e-09 0 0.055000008640768164 1.4133458663375257e-05 0 0.055011941144844492 3.9348482920767662e-05 0 0.054991564382133498 2.307051743857063e-05 0 0.055000002863913683 1.4357557051302555e-08 0 0.055000008640768164 1.4133458663375257e-05 0 0.055000002863913683 1.4357557051302555e-08 0 0.055000020826277307 -1.5861333554677067e-09 0 0.055000008640768164 1.4133458663375257e-05 0 0.054985385609723582 7.2149991649892304e-05 0 0.054991564382133498 2.307051743857063e-05 0 0.055011941144844492 3.9348482920767662e-05 0 0.054991564382133498 2.307051743857063e-05 0 0.055000008640768164 1.4133458663375257e-05 0 0.055011941144844492 3.9348482920767662e-05 0 0.050518584112659581 -0.00019921034940611996 0 0.053082710035297416 -1.393136568206374e-06 0 0.050561529855339765 4.8214871706937318e-07 0 0.054196946849843421 -1.5462521246285713e-05 0 0.054313329596682315 -0.00064507618046731813 0 0.053090289791876133 -1.64089057601224e-06 0 0.051938925981102016 0.00082628284213751273 0 0.053084292090831167 1.0466107402308405e-06 0 0.050518584112659581 -0.00019921034940611996 0 0.050561529855339765 4.8214871706937318e-07 0 0.048383773723617192 0.0001385911761082207 0 0.05140839880655447 0.0019077175074483292 0 0.051938925981102016 0.00082628284213751273 0 0.051938925981102016 0.00082628284213751273 0 0.049386278023749564 0.0019598325809363601 0 0.046610712726621678 0.0043255039989575179 0 0.04546070169762443 0.0051722580626117039 0 0.04549614214597867 0.0033700204364915695 0 0.046606989033725323 0.0034830542921051705 0 0.04549614214597867 0.0033700204364915695 0 0.046879617300772385 0.001953082199993725 0 0.046606989033725323 0.0034830542921051705 0 0.046610712726621678 0.0043255039989575179 0 0.04549614214597867 0.0033700204364915695 0 0.050561529855339765 4.8214871706937318e-07 0 0.048383773723617192 0.0001385911761082207 0 0.048037530259010239 3.354106471074865e-07 0 0.048383773723617192 0.0001385911761082207 0 0.047211500911970086 0.00021697654193762533 0 0.046145490197349218 0.00043649385444534524 0 0.048037530259010239 3.354106471074865e-07 0 0.047211500911970086 0.00021697654193762533 0 0.046344090789239976 0.00023508696060792057 0 0.048383773723617192 0.0001385911761082207 0 0.048037530259010239 3.354106471074865e-07 0 0.047211500911970086 0.00021697654193762533 0 0.048037530259010239 3.354106471074865e-07 0 0.045512728839928275 8.1980056023188669e-07 0 0.046344090789239976 0.00023508696060792057 0 0.045512728839928275 8.1980056023188669e-07 0 0.046344090789239976 0.00023508696060792057 0 0.046036684088520095 -3.1242750979824547e-05 0 0.047211500911970086 0.00021697654193762533 0 0.046344090789239976 0.00023508696060792057 0 0.046145490197349218 0.00043649385444534524 0 0.046344090789239976 0.00023508696060792057 0 0.046036684088520095 -3.1242750979824547e-05 0 0.046145490197349218 0.00043649385444534524 0 0.042674400342471393 0.00088719446970409279 0 0.041517264220016219 0.00060553075451000153 0 0.043463288395403143 0.0026605699400474919 0 0.043990597957644074 0.00093368708394241074 0 0.044851404872710943 0.0018286401240889399 0 0.046036684088520095 -3.1242750979824547e-05 0 0.046145490197349218 0.00043649385444534524 0 0.046879617300772385 0.001953082199993725 0 0.042674400342471393 0.00088719446970409279 0 0.041517264220016219 0.00060553075451000153 0 0.04190001040125628 0.00044077415852260553 0 0.049386278023749564 0.0019598325809363601 0 0.04860732389600296 0.0016895182224057549 0 0.04549614214597867 0.0033700204364915695 0 0.046145490197349218 0.00043649385444534524 0 0.046879617300772385 0.001953082199993725 0 0.045479883647667023 0.0024867196080806471 0 0.044851404872710943 0.0018286401240889399 0 0.047191968254236744 0.0040392889414674468 0 0.045842604767940047 0.0027812400789847618 0 0.043463288395403143 0.0026605699400474919 0 0.045842604767940047 0.0027812400789847618 0 0.043463288395403143 0.0026605699400474919 0 0.044055282018958648 0.0016540600338769398 0 0.04868460793458642 0.0034414617093401069 0 0.047411546979807054 0.002750937782357354 0 0.046988026236238191 0.0032291694041377858 0 0.048522774860804176 0.0029655579228402384 0 0.04868460793458642 0.0034414617093401069 0 0.047411546979807054 0.002750937782357354 0 0.045842604767940047 0.0027812400789847618 0 0.047411546979807054 0.002750937782357354 0 0.046988026236238191 0.0032291694041377858 0 0.045842604767940047 0.0027812400789847618 0 0.047411546979807054 0.002750937782357354 0 0.045331797115995449 0.0017351563462472065 0 0.047160896429300402 0.0022385674666015889 0 0.047411546979807054 0.002750937782357354 0 0.045331797115995449 0.0017351563462472065 0 0.045331797115995449 0.0017351563462472065 0 0.043381580208993478 0.00078487836318737289 0 0.044906907991935835 0.00093791766212805879 0 0.047160896429300402 0.0022385674666015889 0 0.045331797115995449 0.0017351563462472065 0 0.044906907991935835 0.00093791766212805879 0 0.042674400342471393 0.00088719446970409279 0 0.043463288395403143 0.0026605699400474919 0 0.044055282018958648 0.0016540600338769398 0 0.045842604767940047 0.0027812400789847618 0 0.045331797115995449 0.0017351563462472065 0 0.044055282018958648 0.0016540600338769398 0 0.045331797115995449 0.0017351563462472065 0 0.044055282018958648 0.0016540600338769398 0 0.043381580208993478 0.00078487836318737289 0 0.042674400342471393 0.00088719446970409279 0 0.044055282018958648 0.0016540600338769398 0 0.043381580208993478 0.00078487836318737289 0 0.042674400342471393 0.00088719446970409279 0 0.043381580208993478 0.00078487836318737289 0 0.041814677619321283 0.00024748186162224038 0 0.043381580208993478 0.00078487836318737289 0 0.042564615388133088 0.00027830864158287234 0 0.041814677619321283 0.00024748186162224038 0 0.043381580208993478 0.00078487836318737289 0 0.044906907991935835 0.00093791766212805879 0 0.042564615388133088 0.00027830864158287234 0 0.044906907991935835 0.00093791766212805879 0 0.042423730834090276 -6.0466213508228316e-05 0 0.042564615388133088 0.00027830864158287234 0 0.042423730834090276 -6.0466213508228316e-05 0 0.042564615388133088 0.00027830864158287234 0 0.041046185424124672 -1.838631659048408e-05 0 0.042564615388133088 0.00027830864158287234 0 0.041046185424124672 -1.838631659048408e-05 0 0.041814677619321283 0.00024748186162224038 0 0.041046185424124672 -1.838631659048408e-05 0 0.041058752902495228 0.00012543731904828266 0 0.041814677619321283 0.00024748186162224038 0 0.041058752902495228 0.00012543731904828266 0 0.041814677619321283 0.00024748186162224038 0 0.041707242727336578 0.00021905989882702067 0 0.039816895663194449 2.3308460102110815e-07 0 0.041058752902495228 0.00012543731904828266 0 0.04298268947973554 -2.2878618884649422e-07 0 0.041058752902495228 0.00012543731904828266 0 0.04298268947973554 -2.2878618884649422e-07 0 0.041707242727336578 0.00021905989882702067 0 0.043990597957644074 0.00093368708394241074 0 0.042990361026718632 1.3939071108248297e-06 0 0.041517264220016219 0.00060553075451000153 0 0.04298268947973554 -2.2878618884649422e-07 0 0.041707242727336578 0.00021905989882702067 0 0.045512728839928275 8.1980056023188669e-07 0 0.046036684088520095 -3.1242750979824547e-05 0 0.042991749482216027 -1.1950826409830733e-06 0 0.041517264220016219 0.00060553075451000153 0 0.04190001040125628 0.00044077415852260553 0 0.041707242727336578 0.00021905989882702067 0 0.042674400342471393 0.00088719446970409279 0 0.04190001040125628 0.00044077415852260553 0 0.041814677619321283 0.00024748186162224038 0 0.04190001040125628 0.00044077415852260553 0 0.041814677619321283 0.00024748186162224038 0 0.041707242727336578 0.00021905989882702067 0 0.053068210061475572 0.0011135557065815385 0 0.052247352852398586 0.0011533159259072597 0 0.053009396950228799 0.0015540822759245161 0 0.053010217041244007 0.0015799876561761129 0 0.052915775471739562 0.0017532233652214162 0 0.053010217041244007 0.0015799876561761129 0 0.052915775471739562 0.0017532233652214162 0 0.053021632171523898 0.0016500656610352171 0 0.054374088252294721 0.0010763907508460596 0 0.054101063751036925 0.0011635863101193708 0 0.054250965848629727 0.0013858935593069656 0 0.054101063751036925 0.0011635863101193708 0 0.054104317718555561 0.00087956968202312891 0 0.053830796369605839 0.0011084511880243356 0 0.054250965848629727 0.0013858935593069656 0 0.053977792571010555 0.0014075363987875943 0 0.054060155795953205 0.0015584061278658143 0 0.054101063751036925 0.0011635863101193708 0 0.053942466950520108 0.001249311655251815 0 0.053977792571010555 0.0014075363987875943 0 0.054101063751036925 0.0011635863101193708 0 0.054250965848629727 0.0013858935593069656 0 0.053977792571010555 0.0014075363987875943 0 0.052915775471739562 0.0017532233652214162 0 0.053046819863544023 0.0016951733088861746 0 0.053021632171523898 0.0016500656610352171 0 0.052915775471739562 0.0017532233652214162 0 0.053046819863544023 0.0016951733088861746 0 0.053018232762255244 0.0018171174931615761 0 0.053046819863544023 0.0016951733088861746 0 0.053180642360411153 0.0016406983109557092 0 0.053018232762255244 0.0018171174931615761 0 0.052799094494111694 0.001079961090950797 0 0.052151782271344288 0.0008880852986999987 0 0.05351109155768595 0.0012787144072200318 0 0.053484400355561915 0.0011995179200506268 0 0.053525864893846337 0.0011936950873753362 0 0.05351109155768595 0.0012787144072200318 0 0.053484400355561915 0.0011995179200506268 0 0.053449129984212806 0.0012387129541209221 0 0.05351109155768595 0.0012787144072200318 0 0.053449129984212806 0.0012387129541209221 0 0.053358747845920623 0.0014443404386021237 0 0.052799094494111694 0.001079961090950797 0 0.052963353602044565 0.0011468839479616129 0 0.053180642360411153 0.0016406983109557092 0 0.053098678402336452 0.0015467746661278329 0 0.053183328228301179 0.0014718783472844686 0 0.053010217041244007 0.0015799876561761129 0 0.053021632171523898 0.0016500656610352171 0 0.053052620533023453 0.0015990067513670444 0 0.053046819863544023 0.0016951733088861746 0 0.053080087849229511 0.0016258161492282049 0 0.053021632171523898 0.0016500656610352171 0 0.053080087849229511 0.0016258161492282049 0 0.053021632171523898 0.0016500656610352171 0 0.053052620533023453 0.0015990067513670444 0 0.053046819863544023 0.0016951733088861746 0 0.053180642360411153 0.0016406983109557092 0 0.053080087849229511 0.0016258161492282049 0 0.053180642360411153 0.0016406983109557092 0 0.053080087849229511 0.0016258161492282049 0 0.053098678402336452 0.0015467746661278329 0 0.053080087849229511 0.0016258161492282049 0 0.053098678402336452 0.0015467746661278329 0 0.053052620533023453 0.0015990067513670444 0 0.053010217041244007 0.0015799876561761129 0 0.053098678402336452 0.0015467746661278329 0 0.053052620533023453 0.0015990067513670444 0 0.053098678402336452 0.0015467746661278329 0 0.053183328228301179 0.0014718783472844686 0 0.053093068827340245 0.001379356821779056 0 0.053010217041244007 0.0015799876561761129 0 0.053098678402336452 0.0015467746661278329 0 0.053093068827340245 0.001379356821779056 0 0.053009396950228799 0.0015540822759245161 0 0.053010217041244007 0.0015799876561761129 0 0.053109841368617412 0.0013401191268318936 0 0.053316664840274315 0.0014008708714766051 0 0.053515102615588658 0.0010671815067214757 0 0.053068210061475572 0.0011135557065815385 0 0.053515102615588658 0.0010671815067214757 0 0.053180642360411153 0.0016406983109557092 0 0.053183328228301179 0.0014718783472844686 0 0.053358747845920623 0.0014443404386021237 0 0.053183328228301179 0.0014718783472844686 0 0.053218849698991676 0.0013699450272957069 0 0.053358747845920623 0.0014443404386021237 0 0.053183328228301179 0.0014718783472844686 0 0.053218849698991676 0.0013699450272957069 0 0.053093068827340245 0.001379356821779056 0 0.053218849698991676 0.0013699450272957069 0 0.053323157500455756 0.0013786884690973607 0 0.053235901087204829 0.0012692902315717665 0 0.053218849698991676 0.0013699450272957069 0 0.053093068827340245 0.001379356821779056 0 0.053114190775465434 0.0012737021754675732 0 0.053515102615588658 0.0010671815067214757 0 0.05396558043855032 0.00064106384398200699 0 0.054489307494428665 0.00077805549373136562 0 0.054362213473753952 0.0006522146222979157 0 0.05455446147674662 0.00058593574007365665 0 0.054362213473753952 0.0006522146222979157 0 0.05431880783227519 0.00086485037131963369 0 0.054104317718555561 0.00087956968202312891 0 0.054489307494428665 0.00077805549373136562 0 0.054362213473753952 0.0006522146222979157 0 0.05431880783227519 0.00086485037131963369 0 0.054459389465350214 0.00028706265196109208 0 0.054415591835836288 0.00038250532879306937 0 0.054374088252294721 0.0010763907508460596 0 0.05431880783227519 0.00086485037131963369 0 0.054104317718555561 0.00087956968202312891 0 0.054374088252294721 0.0010763907508460596 0 0.054489307494428665 0.00077805549373136562 0 0.05431880783227519 0.00086485037131963369 0 0.054374088252294721 0.0010763907508460596 0 0.054101063751036925 0.0011635863101193708 0 0.054104317718555561 0.00087956968202312891 0 0.054828996990965849 -7.8545608136793596e-06 0 0.054871359889352454 -3.7037343005220409e-05 0 0.054870116242758928 -2.7127941350174896e-06 0 0.054871359889352454 -3.7037343005220409e-05 0 0.054896215770947436 -1.8899243299456279e-05 0 0.054870116242758928 -2.7127941350174896e-06 0 0.054885542704401692 -3.0976921260562617e-05 0 0.054887942700200539 -3.2991848367317412e-05 0 0.054877950817736922 -1.7544370332331915e-05 0 0.05423285880268168 -0.00072229696184595942 0 0.054213084040839445 -0.00065442789802239577 0 0.054299043081612437 -0.00065827773096953054 0 0.054213084040839445 -0.00065442789802239577 0 0.053905290100020931 -0.00058917329319967051 0 0.054514696892561804 -0.00067861135155928144 0 0.053905290100020931 -0.00058917329319967051 0 0.053151834819650044 -0.00083308706459855311 0 0.053232449365066312 -0.0014851739397985944 0 0.053905290100020931 -0.00058917329319967051 0 0.053285331462623257 -0.0015462360033368767 0 0.053232449365066312 -0.0014851739397985944 0 0.054036183196949208 -0.00075574600776041835 0 0.053989174294154792 -0.0009242809370114891 0 0.054213084040839445 -0.00065442789802239577 0 0.05431952488848716 -0.0006516876345841621 0 0.054299043081612437 -0.00065827773096953054 0 0.054213084040839445 -0.00065442789802239577 0 0.054355416853709024 -0.00065584323841277133 0 0.05431952488848716 -0.0006516876345841621 0 0.05423285880268168 -0.00072229696184595942 0 0.054213084040839445 -0.00065442789802239577 0 0.053905290100020931 -0.00058917329319967051 0 0.053905290100020931 -0.00058917329319967051 0 0.053151834819650044 -0.00083308706459855311 0 0.053318813992881887 -3.3290101064242832e-05 0 0.053905290100020931 -0.00058917329319967051 0 0.053917030441569924 -0.00022653192251430933 0 0.053318813992881887 -3.3290101064242832e-05 0 0.054871359889352454 -3.7037343005220409e-05 0 0.054890804507836788 -5.0422119139453734e-05 0 0.054896385741682104 -5.6351706982021818e-05 0 0.054887942700200539 -3.2991848367317412e-05 0 0.054890804507836788 -5.0422119139453734e-05 0 0.054896385741682104 -5.6351706982021818e-05 0 0.054748477070336608 -7.4200088139511302e-05 0 0.054774828459070293 -5.7402476200622924e-05 0 0.054415591835836288 0.00038250532879306937 0 0.054275279385844609 0.00049880208564427825 0 0.054871359889352454 -3.7037343005220409e-05 0 0.054896215770947436 -1.8899243299456279e-05 0 0.054890804507836788 -5.0422119139453734e-05 0 0.05451410924611047 -0.00015520873660938804 0 0.054275279385844609 0.00049880208564427825 0 0.05423285880268168 -0.00072229696184595942 0 0.053917030441569924 -0.00022653192251430933 0 0.054097038683349481 5.585024723320601e-06 0 0.05423285880268168 -0.00072229696184595942 0 0.053905290100020931 -0.00058917329319967051 0 0.053917030441569924 -0.00022653192251430933 0 0.054885542704401692 -3.0976921260562617e-05 0 0.054887942700200539 -3.2991848367317412e-05 0 0.054890804507836788 -5.0422119139453734e-05 0 0.053053513606337602 -0.0011220089702389496 0 0.053067037688876904 -0.0014210676311382652 0 0.052866209649533355 -0.0013171639381067545 0 0.052183992517665388 -0.0011757312385199253 0 0.052545681400298624 -0.0013842716628262369 0 0.053151834819650044 -0.00083308706459855311 0 0.052413451278227427 -0.00068046921977669213 0 0.053232449365066312 -0.0014851739397985944 0 0.053053513606337602 -0.0011220089702389496 0 0.053067037688876904 -0.0014210676311382652 0 0.053232449365066312 -0.0014851739397985944 0 0.053151834819650044 -0.00083308706459855311 0 0.052413451278227427 -0.00068046921977669213 0 0.052600149803883507 -5.9527913689802421e-05 0 0.053151834819650044 -0.00083308706459855311 0 0.052600149803883507 -5.9527913689802421e-05 0 0.053318813992881887 -3.3290101064242832e-05 0 0.052413451278227427 -0.00068046921977669213 0 0.052600149803883507 -5.9527913689802421e-05 0 0.051608026550365997 0.00018854548964351722 0 0.052183992517665388 -0.0011757312385199253 0 0.051314687257181898 -0.0009565354256864132 0 0.052600149803883507 -5.9527913689802421e-05 0 0.052766651334664176 0.00059382477989169047 0 0.051608026550365997 0.00018854548964351722 0 0.052600149803883507 -5.9527913689802421e-05 0 0.052766651334664176 0.00059382477989169047 0 0.053318813992881887 -3.3290101064242832e-05 0 0.052766651334664176 0.00059382477989169047 0 0.053318813992881887 -3.3290101064242832e-05 0 0.053435502322906371 0.0004608282355665252 0 0.052766651334664176 0.00059382477989169047 0 0.053366709098793839 0.00098330926051967043 0 0.052899176170000513 0.0013332344995849918 0 0.052766651334664176 0.00059382477989169047 0 0.052065603747426088 0.0011560365244842536 0 0.052899176170000513 0.0013332344995849918 0 0.052766651334664176 0.00059382477989169047 0 0.053435502322906371 0.0004608282355665252 0 0.053366709098793839 0.00098330926051967043 0 0.052766651334664176 0.00059382477989169047 0 0.052065603747426088 0.0011560365244842536 0 0.051608026550365997 0.00018854548964351722 0 0.054101063751036925 0.0011635863101193708 0 0.053942466950520108 0.001249311655251815 0 0.053830796369605839 0.0011084511880243356 0 0.054107736866613181 1.9754216006755652e-05 0 0.054007902438486542 0.00010093044508509444 0 0.053877849485290161 0.0010043831099574188 0 0.053917030441569924 -0.00022653192251430933 0 0.054097038683349481 5.585024723320601e-06 0 0.054007902438486542 0.00010093044508509444 0 0.054275279385844609 0.00049880208564427825 0 0.054274915405216756 0.00049693200441377876 0 0.053917030441569924 -0.00022653192251430933 0 0.053695540806086052 0.00013646261877993754 0 0.053318813992881887 -3.3290101064242832e-05 0 0.053917030441569924 -0.00022653192251430933 0 0.054007902438486542 0.00010093044508509444 0 0.053695540806086052 0.00013646261877993754 0 0.053695540806086052 0.00013646261877993754 0 0.053318813992881887 -3.3290101064242832e-05 0 0.053435502322906371 0.0004608282355665252 0 0.054007902438486542 0.00010093044508509444 0 0.053695540806086052 0.00013646261877993754 0 0.053718155732309605 0.00035142428704881481 0 0.054007902438486542 0.00010093044508509444 0 0.053718155732309605 0.00035142428704881481 0 0.053706218513273868 0.00064646605805600504 0 0.053695540806086052 0.00013646261877993754 0 0.053718155732309605 0.00035142428704881481 0 0.053435502322906371 0.0004608282355665252 0 0.054007902438486542 0.00010093044508509444 0 0.053706218513273868 0.00064646605805600504 0 0.053877849485290161 0.0010043831099574188 0 0.053718155732309605 0.00035142428704881481 0 0.053706218513273868 0.00064646605805600504 0 0.053435502322906371 0.0004608282355665252 0 0.053706218513273868 0.00064646605805600504 0 0.053435502322906371 0.0004608282355665252 0 0.053366709098793839 0.00098330926051967043 0 0.053706218513273868 0.00064646605805600504 0 0.053366709098793839 0.00098330926051967043 0 0.053877849485290161 0.0010043831099574188 0 0.054275279385844609 0.00049880208564427825 0 0.05403631236832708 0.0011380157265011895 0 0.053942466950520108 0.001249311655251815 0 0.053830796369605839 0.0011084511880243356 0 0.053748787829155903 0.0014623309166884304 0 0.053942466950520108 0.001249311655251815 0 0.053748787829155903 0.0014623309166884304 0 0.053977792571010555 0.0014075363987875943 0 0.053748787829155903 0.0014623309166884304 0 0.053977792571010555 0.0014075363987875943 0 0.053926122813968067 0.0016940550336872813 0 0.053977792571010555 0.0014075363987875943 0 0.053926122813968067 0.0016940550336872813 0 0.054172715018161767 0.0016686215737186664 0 0.053748787829155903 0.0014623309166884304 0 0.053926122813968067 0.0016940550336872813 0 0.05364427814444582 0.0019834971540593615 0 0.053926122813968067 0.0016940550336872813 0 0.053946801594380291 0.0019470770381723858 0 0.054110429707487022 0.0018612839088598342 0 0.053877849485290161 0.0010043831099574188 0 0.053392394050619553 0.0014927357675275379 0 0.05364427814444582 0.0019834971540593615 0 0.05403631236832708 0.0011380157265011895 0 0.053940747248122735 0.0014785839619872814 0 0.053392394050619553 0.0014927357675275379 0 0.053179487094894243 0.0021001696772315198 0 0.052899176170000513 0.0013332344995849918 0 0.053366709098793839 0.00098330926051967043 0 0.053877849485290161 0.0010043831099574188 0 0.053392394050619553 0.0014927357675275379 0 0.053366709098793839 0.00098330926051967043 0 0.053392394050619553 0.0014927357675275379 0 0.052899176170000513 0.0013332344995849918 0 0.053179487094894243 0.0021001696772315198 0 0.05266120332297871 0.0022776433685521278 0 0.053493092041674392 0.0024259545033853995 0 0.053392394050619553 0.0014927357675275379 0 0.05364427814444582 0.0019834971540593615 0 0.053179487094894243 0.0021001696772315198 0 0.053179487094894243 0.0021001696772315198 0 0.053567770805861732 0.0021943492133257147 0 0.053493092041674392 0.0024259545033853995 0 0.05364427814444582 0.0019834971540593615 0 0.053179487094894243 0.0021001696772315198 0 0.053567770805861732 0.0021943492133257147 0 0.053567770805861732 0.0021943492133257147 0 0.053866125950450525 0.0022438858383628784 0 0.053493092041674392 0.0024259545033853995 0 0.05364427814444582 0.0019834971540593615 0 0.053567770805861732 0.0021943492133257147 0 0.053866125950450525 0.0022438858383628784 0 0.05364427814444582 0.0019834971540593615 0 0.053866125950450525 0.0022438858383628784 0 0.053946801594380291 0.0019470770381723858 0 0.053866125950450525 0.0022438858383628784 0 0.054069580291450266 0.0021160923997443509 0 0.053946801594380291 0.0019470770381723858 0 0.053866125950450525 0.0022438858383628784 0 0.054069580291450266 0.0021160923997443509 0 0.054031602521919318 0.0023107228067729569 0 0.054069580291450266 0.0021160923997443509 0 0.053946801594380291 0.0019470770381723858 0 0.054110429707487022 0.0018612839088598342 0 0.053926122813968067 0.0016940550336872813 0 0.05364427814444582 0.0019834971540593615 0 0.053946801594380291 0.0019470770381723858 0 0.052065603747426088 0.0011560365244842536 0 0.052421054500894071 0.00168633956072068 0 0.051607120585180764 0.0018859586663658677 0 0.052065603747426088 0.0011560365244842536 0 0.052899176170000513 0.0013332344995849918 0 0.052421054500894071 0.00168633956072068 0 0.053179487094894243 0.0021001696772315198 0 0.052421054500894071 0.00168633956072068 0 0.05266120332297871 0.0022776433685521278 0 0.053179487094894243 0.0021001696772315198 0 0.052899176170000513 0.0013332344995849918 0 0.052421054500894071 0.00168633956072068 0 0.052421054500894071 0.00168633956072068 0 0.05266120332297871 0.0022776433685521278 0 0.051607120585180764 0.0018859586663658677 0 0.051432897132471199 0.0019730893646609802 0 0.051607120585180764 0.0018859586663658677 0 0.051451549155299398 0.0019597394578770989 0 0.051871503318104771 0.0018072862418109022 0 0.051824505844782133 0.0018226760532342929 0 0.051607120585180764 0.0018859586663658677 0 0.051451549155299398 0.0019597394578770989 0 0.051298378306903737 0.0020276059977739711 0 0.051451549155299398 0.0019597394578770989 0 0.051362216484161179 0.0020360593715486727 0 0.051298378306903737 0.0020276059977739711 0 0.051451549155299398 0.0019597394578770989 0 0.051415546518292651 0.0019957611424449655 0 0.051362216484161179 0.0020360593715486727 0 0.051871503318104771 0.0018072862418109022 0 0.051566270379359479 0.0015986703714544637 0 0.051432897132471199 0.0019730893646609802 0 0.051451549155299398 0.0019597394578770989 0 0.051415546518292651 0.0019957611424449655 0 0.051432897132471199 0.0019730893646609802 0 0.051415546518292651 0.0019957611424449655 0 0.051446214704340805 0.0019829034299293242 0 0.051415546518292651 0.0019957611424449655 0 0.05143351569879695 0.0020126365639102422 0 0.051446214704340805 0.0019829034299293242 0 0.051415546518292651 0.0019957611424449655 0 0.05143351569879695 0.0020126365639102422 0 0.051420114857076017 0.0020524552585119444 0 0.05143351569879695 0.0020126365639102422 0 0.051420114857076017 0.0020524552585119444 0 0.051456034328588189 0.0020273084906714143 0 0.051391101986893908 0.0021331508688369433 0 0.051420114857076017 0.0020524552585119444 0 0.051347146964321945 0.0020929891626333477 0 0.051391101986893908 0.0021331508688369433 0 0.051420114857076017 0.0020524552585119444 0 0.051464101809753214 0.0020696501391815609 0 0.051415546518292651 0.0019957611424449655 0 0.051420114857076017 0.0020524552585119444 0 0.051347146964321945 0.0020929891626333477 0 0.051415546518292651 0.0019957611424449655 0 0.051347146964321945 0.0020929891626333477 0 0.051362216484161179 0.0020360593715486727 0 0.051347146964321945 0.0020929891626333477 0 0.051362216484161179 0.0020360593715486727 0 0.05126136419594203 0.0021169947630851299 0 0.051362216484161179 0.0020360593715486727 0 0.05126136419594203 0.0021169947630851299 0 0.051298378306903737 0.0020276059977739711 0 0.053866125950450525 0.0022438858383628784 0 0.054031117952141945 0.0025252629638636516 0 0.053493092041674392 0.0024259545033853995 0 0.051416453460861558 0.001962057837620261 0 0.051411393484737569 0.0019665502948677553 0 0.051441803872665566 0.0019825419382415825 0 0.049635372052308363 0.00077553601480424221 0 0.051566270379359479 0.0015986703714544637 0 0.046704728277621177 0.0021806733326893706 0 0.049892303359613567 0.0028881191605889061 0 0.049161854642569273 -0.00070986084981535566 0 0.049644326864682967 0.00077140491741776399 0 0.048450005834944632 0.00049333466261705671 0 0.048450005834944632 0.00049333466261705671 0 0.048996528112462467 0.00056439451073637492 0 0.049892303359613567 0.0028881191605889061 0 0.049161854642569273 -0.00070986084981535566 0 0.051126791209199066 -0.00011272974910800963 0 0.049635372052308363 0.00077553601480424221 0 0.048996528112462467 0.00056439451073637492 0 0.049644326864682967 0.00077140491741776399 0 0.049635372052308363 0.00077553601480424221 0 0.054031117952141945 0.0025252629638636516 0 0.054031602521919318 0.0023107228067729569 0 0.054159523235169732 0.0023589325947094698 0 0.053866125950450525 0.0022438858383628784 0 0.054031117952141945 0.0025252629638636516 0 0.054031602521919318 0.0023107228067729569 0 0.051432897132471199 0.0019730893646609802 0 0.051441803872665566 0.0019825419382415825 0 0.051446214704340805 0.0019829034299293242 0 0.051416453460861558 0.001962057837620261 0 0.051441803872665566 0.0019825419382415825 0 0.051446214704340805 0.0019829034299293242 0 0.051585127535878662 0.0020020163368952544 0 0.051446214704340805 0.0019829034299293242 0 0.051509268779973222 0.002032717619523419 0 0.049644326864682967 0.00077140491741776399 0 0.050768142823124487 0.0011866336429210604 0 0.05143351569879695 0.0020126365639102422 0 0.051446214704340805 0.0019829034299293242 0 0.051456034328588189 0.0020273084906714143 0 0.051446214704340805 0.0019829034299293242 0 0.051509268779973222 0.002032717619523419 0 0.051456034328588189 0.0020273084906714143 0 0.051420114857076017 0.0020524552585119444 0 0.051456034328588189 0.0020273084906714143 0 0.051464101809753214 0.0020696501391815609 0 0.051509268779973222 0.002032717619523419 0 0.051456034328588189 0.0020273084906714143 0 0.051464101809753214 0.0020696501391815609 0 0.051502997019367627 0.0021211538494367386 0 0.051391101986893908 0.0021331508688369433 0 0.051464101809753214 0.0020696501391815609 0 0.051502997019367627 0.0021211538494367386 0 0.051509268779973222 0.002032717619523419 0 0.051464101809753214 0.0020696501391815609 0 0.051502997019367627 0.0021211538494367386 0 0.051585127535878662 0.0020020163368952544 0 0.051509268779973222 0.002032717619523419 0 0.050599615341336369 0.0012117041762560296 0 0.049644326864682967 0.00077140491741776399 0 0.051808573480061848 0.0014943237691549868 0 0.051539400665812245 0.0014221021346893395 0 0.051909595636581818 0.00097126257170184231 0 0.040493315742618018 -0.003806998262088595 0 0.0393746462856212 -0.0036641760192346832 0 0.039899880634767071 -0.0048862979169871619 0 0.045770619415559266 -0.0006393373187612583 0 0.048450005834944632 0.00049333466261705671 0 0.051808573480061848 0.0014943237691549868 0 0.051909595636581818 0.00097126257170184231 0 0.052000628700861709 0.00099136224736565744 0 0.040493315742618018 -0.003806998262088595 0 0.039899880634767071 -0.0048862979169871619 0 0.041250103183595607 -0.0045887494425032515 0 0.048450005834944632 0.00049333466261705671 0 0.045754936911788328 -0.0014919331169375276 0 0.048350202168413188 -0.00031570737783153188 0 0.047038268525724632 -0.00047380814953737721 0 0.046978083449149326 -0.00062426247332406245 0 0.041590100468360598 -0.0037250599789224611 0 0.040493315742618018 -0.003806998262088595 0 0.041250103183595607 -0.0045887494425032515 0 0.042225947782593559 -0.0032737104054009719 0 0.045754936911788328 -0.0014919331169375276 0 0.043597321861571267 -0.0023832566703044377 0 0.043516013138285528 -0.001986547350157907 0 0.043418712033767293 -0.0021594235122183946 0 0.043597321861571267 -0.0023832566703044377 0 0.043781618680495848 -0.0019261778763698346 0 0.043516013138285528 -0.001986547350157907 0 0.042225947782593559 -0.0032737104054009719 0 0.045007997894776462 -0.0025342698616362506 0 0.046480617208416314 -0.00099541840878564279 0 0.045754936911788328 -0.0014919331169375276 0 0.045754936911788328 -0.0014919331169375276 0 0.046197587312773535 -0.0017393175460056114 0 0.046480617208416314 -0.00099541840878564279 0 0.046682474883888346 -0.0013486185543548693 0 0.045382595400270662 -0.0015847557342125417 0 0.047129938136255219 -0.0015672589368530626 0 0.047366106890872006 -0.0011472670938123101 0 0.045150832027265123 -0.0021657965480203546 0 0.045382595400270662 -0.0015847557342125417 0 0.047129938136255219 -0.0015672589368530626 0 0.046682474883888346 -0.0013486185543548693 0 0.046197587312773535 -0.0017393175460056114 0 0.046480617208416314 -0.00099541840878564279 0 0.049897637747014702 0.00093754632785221482 0 0.048320447192229714 -0.0012110900490226548 0 0.048259093990434716 -0.00019948830752526328 0 0.049137025061601954 0.00083325643581015564 0 0.053499192267874571 0.0010786768230457561 0 0.053523138620812996 0.001113190583869749 0 0.053503880496694162 0.0011125116926377658 0 0.046682474883888346 -0.0013486185543548693 0 0.048872337770058762 0.00020593658221452406 0 0.048320447192229714 -0.0012110900490226548 0 0.047560864506874162 -0.0014432490476611942 0 0.048259093990434716 -0.00019948830752526328 0 0.053523138620812996 0.001113190583869749 0 0.053509809397720709 0.0011337995237007581 0 0.053503880496694162 0.0011125116926377658 0 0.046480617208416314 -0.00099541840878564279 0 0.048996528112462467 0.00056439451073637492 0 0.048350202168413188 -0.00031570737783153188 0 0.047038268525724632 -0.00047380814953737721 0 0.048260965048381024 -9.8975288291353972e-05 0 0.048863073136862792 0.00045980659526258634 0 0.048773797321933557 0.00043422125029806671 0 0.048787136067452781 0.00040315440904945796 0 0.048863073136862792 0.00045980659526258634 0 0.048787136067452781 0.00040315440904945796 0 0.048826745953068344 0.000358096369209232 0 0.048518732535701464 0.0019496055681888435 0 0.049181824139547359 0.0021511334846281184 0 0.049963877573076999 0.00024962350039247104 0 0.048996528112462467 0.00056439451073637492 0 0.049611508790801603 0.0007928088756202794 0 0.049635372052308363 0.00077553601480424221 0 0.049611508790801603 0.0007928088756202794 0 0.049611508790801603 0.0007928088756202794 0 0.049897637747014702 0.00093754632785221482 0 0.049611508790801603 0.0007928088756202794 0 0.050372025057037209 0.0012239200372430338 0 0.054069580291450266 0.0021160923997443509 0 0.054031602521919318 0.0023107228067729569 0 0.054159523235169732 0.0023589325947094698 0 0.054069580291450266 0.0021160923997443509 0 0.054159523235169732 0.0023589325947094698 0 0.054299768600194448 0.0019565378398752652 0 0.054069580291450266 0.0021160923997443509 0 0.054299768600194448 0.0019565378398752652 0 0.054110429707487022 0.0018612839088598342 0 0.050604028314089528 0.001239477181778648 0 0.050372025057037209 0.0012239200372430338 0 0.050187685715452991 0.0009399022633735832 0 0.050182420236693046 0.00095180426142767866 0 0.050201620851325263 0.00096573660097074292 0 0.050372025057037209 0.0012239200372430338 0 0.049897637747014702 0.00093754632785221482 0 0.050182420236693046 0.00095180426142767866 0 0.050201620851325263 0.00096573660097074292 0 0.050191794562766866 0.0009769087755804927 0 0.050604028314089528 0.001239477181778648 0 0.05018881556195743 0.00092154799367515506 0 0.049955379048593686 0.0011200564115452765 0 0.050131908600936879 0.00069609713059101057 0 0.050190971982956786 0.00084520871855583968 0 0.05018881556195743 0.00092154799367515506 0 0.049897637747014702 0.00093754632785221482 0 0.048872337770058762 0.00020593658221452406 0 0.05018881556195743 0.00092154799367515506 0 0.048259093990434716 -0.00019948830752526328 0 0.048958202374694386 0.0010441096919501522 0 0.049137025061601954 0.00083325643581015564 0 0.053523138620812996 0.001113190583869749 0 0.05354028909867059 0.001143456459457649 0 0.053524581785691173 0.0011413993934913369 0 0.053523138620812996 0.001113190583869749 0 0.053524581785691173 0.0011413993934913369 0 0.053509809397720709 0.0011337995237007581 0 0.053524581785691173 0.0011413993934913369 0 0.053509809397720709 0.0011337995237007581 0 0.053510206872709902 0.0011500644692328697 0 0.053524581785691173 0.0011413993934913369 0 0.053523327161583173 0.0011604949043213034 0 0.053510206872709902 0.0011500644692328697 0 0.05354028909867059 0.001143456459457649 0 0.053524581785691173 0.0011413993934913369 0 0.053523327161583173 0.0011604949043213034 0 0.052822643048717755 0.0019517022751054797 0 0.052849062109566254 0.0020007765603561501 0 0.053018232762255244 0.0018171174931615761 0 0.05018881556195743 0.00092154799367515506 0 0.052151782271344288 0.0008880852986999987 0 0.05354028909867059 0.001143456459457649 0 0.053523327161583173 0.0011604949043213034 0 0.053525864893846337 0.0011936950873753362 0 0.052915775471739562 0.0017532233652214162 0 0.052822643048717755 0.0019517022751054797 0 0.053018232762255244 0.0018171174931615761 0 0.052247352852398586 0.0011533159259072597 0 0.050604028314089528 0.001239477181778648 0 0.054250965848629727 0.0013858935593069656 0 0.054123589896199371 0.0016781886168897632 0 0.054060155795953205 0.0015584061278658143 0 0.051295084038348822 0.0018200503481958649 0 0.05092024889320472 0.0015881214897732268 0 0.054299768600194448 0.0019565378398752652 0 0.054172715018161767 0.0016686215737186664 0 0.054110429707487022 0.0018612839088598342 0 0.053926122813968067 0.0016940550336872813 0 0.054172715018161767 0.0016686215737186664 0 0.054110429707487022 0.0018612839088598342 0 0.050372025057037209 0.0012239200372430338 0 0.05092024889320472 0.0015881214897732268 0 0.050604028314089528 0.001239477181778648 0 0.05092024889320472 0.0015881214897732268 0 0.050463002262041486 0.0012665444990182457 0 0.050496499201010035 0.0011844912105638291 0 0.050634898592801382 0.001570992914753274 0 0.053484400355561915 0.0011995179200506268 0 0.053495270230936101 0.0011745755591307944 0 0.053468780156490189 0.001145005217232872 0 0.053484400355561915 0.0011995179200506268 0 0.053446902928321001 0.0011537391588815873 0 0.053449129984212806 0.0012387129541209221 0 0.053484400355561915 0.0011995179200506268 0 0.053468780156490189 0.001145005217232872 0 0.053446902928321001 0.0011537391588815873 0 0.053484400355561915 0.0011995179200506268 0 0.053525864893846337 0.0011936950873753362 0 0.053495270230936101 0.0011745755591307944 0 0.053525864893846337 0.0011936950873753362 0 0.053511732512559952 0.0011709122688075373 0 0.053495270230936101 0.0011745755591307944 0 0.053523327161583173 0.0011604949043213034 0 0.053511732512559952 0.0011709122688075373 0 0.053510206872709902 0.0011500644692328697 0 0.053523327161583173 0.0011604949043213034 0 0.053525864893846337 0.0011936950873753362 0 0.053511732512559952 0.0011709122688075373 0 0.053511732512559952 0.0011709122688075373 0 0.053495270230936101 0.0011745755591307944 0 0.053492506349380409 0.0011499594544103773 0 0.053492506349380409 0.0011499594544103773 0 0.053510206872709902 0.0011500644692328697 0 0.053498763287612758 0.0011374356120519848 0 0.053511732512559952 0.0011709122688075373 0 0.053492506349380409 0.0011499594544103773 0 0.053510206872709902 0.0011500644692328697 0 0.053509809397720709 0.0011337995237007581 0 0.053510206872709902 0.0011500644692328697 0 0.053498763287612758 0.0011374356120519848 0 0.053509809397720709 0.0011337995237007581 0 0.053498763287612758 0.0011374356120519848 0 0.053495461095497757 0.001123883741027467 0 0.053492506349380409 0.0011499594544103773 0 0.053485512274342374 0.0011291053029195369 0 0.05347740332831253 0.0011355178585275984 0 0.053492506349380409 0.0011499594544103773 0 0.053498763287612758 0.0011374356120519848 0 0.053485512274342374 0.0011291053029195369 0 0.053498763287612758 0.0011374356120519848 0 0.053485512274342374 0.0011291053029195369 0 0.053495461095497757 0.001123883741027467 0 0.053485512274342374 0.0011291053029195369 0 0.053477103767126187 0.0011242960099817581 0 0.05347740332831253 0.0011355178585275984 0 0.050564191936459307 -0.0012755975567233782 0 0.051884798404432421 -0.00046922024022552584 0 0.05347740332831253 0.0011355178585275984 0 0.053468780156490189 0.001145005217232872 0 0.053466129422971131 0.0011166105722569583 0 0.054369101751554787 2.2442000625986726e-05 0 0.054029935044811364 9.3744113726694419e-05 0 0.054011365680822147 0.00061131370490769975 0 0.053468780156490189 0.001145005217232872 0 0.053466129422971131 0.0011166105722569583 0 0.053446902928321001 0.0011537391588815873 0 0.053477103767126187 0.0011242960099817581 0 0.05347740332831253 0.0011355178585275984 0 0.053466129422971131 0.0011166105722569583 0 0.053495270230936101 0.0011745755591307944 0 0.053492506349380409 0.0011499594544103773 0 0.053468780156490189 0.001145005217232872 0 0.053492506349380409 0.0011499594544103773 0 0.05347740332831253 0.0011355178585275984 0 0.053468780156490189 0.001145005217232872 0 0.054338704857865967 -3.1754089003416034e-05 0 0.054345905188623672 -7.6689899330282374e-05 0 0.054330582845797212 -0.00013203064823689818 0 0.054369101751554787 2.2442000625986726e-05 0 0.054338704857865967 -3.1754089003416034e-05 0 0.054029935044811364 9.3744113726694419e-05 0 0.054338704857865967 -3.1754089003416034e-05 0 0.054069874270376447 -9.0329444414773884e-05 0 0.054029935044811364 9.3744113726694419e-05 0 0.053477103767126187 0.0011242960099817581 0 0.053466129422971131 0.0011166105722569583 0 0.053479895613435059 0.001114357129629906 0 0.054369101751554787 2.2442000625986726e-05 0 0.054338704857865967 -3.1754089003416034e-05 0 0.054345905188623672 -7.6689899330282374e-05 0 0.054338704857865967 -3.1754089003416034e-05 0 0.054251151458060122 -0.00017415020528719813 0 0.05436767134191315 -0.00027707502828899923 0 0.054338704857865967 -3.1754089003416034e-05 0 0.054251151458060122 -0.00017415020528719813 0 0.054069874270376447 -9.0329444414773884e-05 0 0.054251151458060122 -0.00017415020528719813 0 0.054270670208574817 -0.00027026503858678676 0 0.05436767134191315 -0.00027707502828899923 0 0.054251151458060122 -0.00017415020528719813 0 0.054117762643609423 -0.00026514018958951555 0 0.054069874270376447 -9.0329444414773884e-05 0 0.054251151458060122 -0.00017415020528719813 0 0.054270670208574817 -0.00027026503858678676 0 0.054117762643609423 -0.00026514018958951555 0 0.054369101751554787 2.2442000625986726e-05 0 0.054345905188623672 -7.6689899330282374e-05 0 0.05435783331851609 -0.00014044011603321996 0 0.050564191936459307 -0.0012755975567233782 0 0.046572484815037521 -0.0020075711924860884 0 0.053466129422971131 0.0011166105722569583 0 0.053481516656702401 0.0011015884024347406 0 0.053481235445014562 0.0010715487733515576 0 0.053509809397720709 0.0011337995237007581 0 0.053503880496694162 0.0011125116926377658 0 0.053495461095497757 0.001123883741027467 0 0.053503880496694162 0.0011125116926377658 0 0.053495461095497757 0.001123883741027467 0 0.053490645557135841 0.0011089675473529002 0 0.053466129422971131 0.0011166105722569583 0 0.053479895613435059 0.001114357129629906 0 0.053481516656702401 0.0011015884024347406 0 0.053490645557135841 0.0011089675473529002 0 0.053479895613435059 0.001114357129629906 0 0.053481516656702401 0.0011015884024347406 0 0.053485512274342374 0.0011291053029195369 0 0.053495461095497757 0.001123883741027467 0 0.053479895613435059 0.001114357129629906 0 0.053495461095497757 0.001123883741027467 0 0.053490645557135841 0.0011089675473529002 0 0.053479895613435059 0.001114357129629906 0 0.053485512274342374 0.0011291053029195369 0 0.053477103767126187 0.0011242960099817581 0 0.053479895613435059 0.001114357129629906 0 0.053499192267874571 0.0010786768230457561 0 0.053503880496694162 0.0011125116926377658 0 0.053490747808034714 0.0010945634443894476 0 0.053481516656702401 0.0011015884024347406 0 0.053490747808034714 0.0010945634443894476 0 0.053481235445014562 0.0010715487733515576 0 0.053490645557135841 0.0011089675473529002 0 0.053481516656702401 0.0011015884024347406 0 0.053490747808034714 0.0010945634443894476 0 0.053503880496694162 0.0011125116926377658 0 0.053490645557135841 0.0011089675473529002 0 0.053490747808034714 0.0010945634443894476 0 0.053499192267874571 0.0010786768230457561 0 0.053490747808034714 0.0010945634443894476 0 0.053481235445014562 0.0010715487733515576 0 0.045829201875984278 -0.0023427605984028318 0 0.045970627145860775 -0.0020917513183737945 0 0.046863755929827611 -0.0018962544953039125 0 0.046682474883888346 -0.0013486185543548693 0 0.046572484815037521 -0.0020075711924860884 0 0.046197587312773535 -0.0017393175460056114 0 0.046572484815037521 -0.0020075711924860884 0 0.044512843524758296 -0.0015381274176166444 0 0.044620351950018719 -0.0015153455632729909 0 0.044564069940770203 -0.0014469749386549751 0 0.054345905188623672 -7.6689899330282374e-05 0 0.05435783331851609 -0.00014044011603321996 0 0.054343036018304036 -0.00011427166280258623 0 0.054345905188623672 -7.6689899330282374e-05 0 0.054343036018304036 -0.00011427166280258623 0 0.054330582845797212 -0.00013203064823689818 0 0.05435783331851609 -0.00014044011603321996 0 0.054341600326194332 -0.00012774206746007526 0 0.054343036018304036 -0.00011427166280258623 0 0.046572484815037521 -0.0020075711924860884 0 0.046944675052020844 -0.00195021363487804 0 0.054341600326194332 -0.00012774206746007526 0 0.054343036018304036 -0.00011427166280258623 0 0.054330582845797212 -0.00013203064823689818 0 0.046572484815037521 -0.0020075711924860884 0 0.046000195855692511 -0.0029386496490622538 0 0.044267251256540324 -0.0032498740739507607 0 0.044640621035912251 -0.0031676025683663313 0 0.044138506621267178 -0.0030921547646412524 0 0.044410727942945032 -0.0026037035730786021 0 0.044640621035912251 -0.0031676025683663313 0 0.044138506621267178 -0.0030921547646412524 0 0.054352919872544966 -0.00012521420266508785 0 0.054341600326194332 -0.00012774206746007526 0 0.054330582845797212 -0.00013203064823689818 0 0.046572484815037521 -0.0020075711924860884 0 0.045007997894776462 -0.0025342698616362506 0 0.046197587312773535 -0.0017393175460056114 0 0.045007997894776462 -0.0025342698616362506 0 0.054338704857865967 -3.1754089003416034e-05 0 0.054501658934516889 -0.00049644353852174646 0 0.05436767134191315 -0.00027707502828899923 0 0.047154817497723024 -0.0027026639350776339 0 0.046000195855692511 -0.0029386496490622538 0 0.054242876974984131 -0.00036705848491571356 0 0.054295682413079929 -0.00044882381115524166 0 0.054095333128590536 -0.00044896255462753695 0 0.054242876974984131 -0.00036705848491571356 0 0.054295682413079929 -0.00044882381115524166 0 0.054323966100394236 -0.00038723098106228292 0 0.054242876974984131 -0.00036705848491571356 0 0.054319168583734347 -0.0003252142300348108 0 0.054323966100394236 -0.00038723098106228292 0 0.054242876974984131 -0.00036705848491571356 0 0.054095333128590536 -0.00044896255462753695 0 0.054117762643609423 -0.00026514018958951555 0 0.054242876974984131 -0.00036705848491571356 0 0.054270670208574817 -0.00027026503858678676 0 0.054117762643609423 -0.00026514018958951555 0 0.054242876974984131 -0.00036705848491571356 0 0.054270670208574817 -0.00027026503858678676 0 0.054319168583734347 -0.0003252142300348108 0 0.05436767134191315 -0.00027707502828899923 0 0.054366280381830216 -0.00035682708150748158 0 0.054429489479144166 -0.00043231721696797423 0 0.054501658934516889 -0.00049644353852174646 0 0.05436767134191315 -0.00027707502828899923 0 0.054429489479144166 -0.00043231721696797423 0 0.054270670208574817 -0.00027026503858678676 0 0.05436767134191315 -0.00027707502828899923 0 0.054319168583734347 -0.0003252142300348108 0 0.05436767134191315 -0.00027707502828899923 0 0.054366280381830216 -0.00035682708150748158 0 0.054319168583734347 -0.0003252142300348108 0 0.054366280381830216 -0.00035682708150748158 0 0.054319168583734347 -0.0003252142300348108 0 0.054323966100394236 -0.00038723098106228292 0 0.054366280381830216 -0.00035682708150748158 0 0.054323966100394236 -0.00038723098106228292 0 0.054369947289935008 -0.00040056045506099003 0 0.054366280381830216 -0.00035682708150748158 0 0.054429489479144166 -0.00043231721696797423 0 0.054369947289935008 -0.00040056045506099003 0 0.054429489479144166 -0.00043231721696797423 0 0.054369947289935008 -0.00040056045506099003 0 0.054365157583202157 -0.00046212681984951286 0 0.054295682413079929 -0.00044882381115524166 0 0.054369947289935008 -0.00040056045506099003 0 0.054365157583202157 -0.00046212681984951286 0 0.054295682413079929 -0.00044882381115524166 0 0.054323966100394236 -0.00038723098106228292 0 0.054369947289935008 -0.00040056045506099003 0 0.041132174077219134 -0.0043403569719855338 0 0.04123851945409944 -0.0037163869250462812 0 0.040858883703274548 -0.0038006711798645558 0 0.054295682413079929 -0.00044882381115524166 0 0.054365157583202157 -0.00046212681984951286 0 0.054347621322853992 -0.00052882624752547574 0 0.054429489479144166 -0.00043231721696797423 0 0.054365157583202157 -0.00046212681984951286 0 0.054347621322853992 -0.00052882624752547574 0 0.046000195855692511 -0.0029386496490622538 0 0.046584969080610751 -0.0033829954503029115 0 0.054501658934516889 -0.00049644353852174646 0 0.054429489479144166 -0.00043231721696797423 0 0.054347621322853992 -0.00052882624752547574 0 0.046584969080610751 -0.0033829954503029115 0 0.048331025504245659 -0.0029224428494220231 0 0.053973027053744876 -0.00076352250132269005 0 0.05424365069454111 -0.00054406417401497704 0 0.054014075922012551 -0.00058964084005663862 0 0.054347621322853992 -0.00052882624752547574 0 0.054014075922012551 -0.00058964084005663862 0 0.054095333128590536 -0.00044896255462753695 0 0.054295682413079929 -0.00044882381115524166 0 0.054347621322853992 -0.00052882624752547574 0 0.054095333128590536 -0.00044896255462753695 0 0.054014075922012551 -0.00058964084005663862 0 0.054095333128590536 -0.00044896255462753695 0 0.053811374391340379 -0.00023593667484355266 0 0.048052421283998184 -0.0037632856933889109 0 0.049369856222276909 -0.002849877362156682 0 0.053912372547763182 -0.0014813079018555048 0 0.054464831719613832 -0.0014249588958526709 0 0.053811374391340379 -0.00023593667484355266 0 0.053973027053744876 -0.00076352250132269005 0 0.054014075922012551 -0.00058964084005663862 0 0.053811374391340379 -0.00023593667484355266 0 0.054095333128590536 -0.00044896255462753695 0 0.054117762643609423 -0.00026514018958951555 0 0.053811374391340379 -0.00023593667484355266 0 0.054069874270376447 -9.0329444414773884e-05 0 0.053811374391340379 -0.00023593667484355266 0 0.054029935044811364 9.3744113726694419e-05 0 0.054117762643609423 -0.00026514018958951555 0 0.054069874270376447 -9.0329444414773884e-05 0 0.053811374391340379 -0.00023593667484355266 0 0.053811374391340379 -0.00023593667484355266 0 0.054029935044811364 9.3744113726694419e-05 0 0.053522526347656252 0.00028418108215583443 0 0.053811374391340379 -0.00023593667484355266 0 0.053077862906714082 -0.00033452520782071703 0 0.053522526347656252 0.00028418108215583443 0 0.053811374391340379 -0.00023593667484355266 0 0.053439560100771222 -0.00083477931420146694 0 0.053077862906714082 -0.00033452520782071703 0 0.053912372547763182 -0.0014813079018555048 0 0.053811374391340379 -0.00023593667484355266 0 0.053439560100771222 -0.00083477931420146694 0 0.053017021239716321 -0.0012896657857168479 0 0.053439560100771222 -0.00083477931420146694 0 0.053077862906714082 -0.00033452520782071703 0 0.053017021239716321 -0.0012896657857168479 0 0.052426524395832674 -0.00051776657345483962 0 0.053077862906714082 -0.00033452520782071703 0 0.052426524395832674 -0.00051776657345483962 0 0.052554950934423882 0.00017208495110993661 0 0.053077862906714082 -0.00033452520782071703 0 0.052554950934423882 0.00017208495110993661 0 0.053077862906714082 -0.00033452520782071703 0 0.052955913826381019 0.00052455998434595226 0 0.053077862906714082 -0.00033452520782071703 0 0.052955913826381019 0.00052455998434595226 0 0.053522526347656252 0.00028418108215583443 0 0.052554950934423882 0.00017208495110993661 0 0.052955913826381019 0.00052455998434595226 0 0.052491850743159797 0.00071929175496797751 0 0.052955913826381019 0.00052455998434595226 0 0.052491850743159797 0.00071929175496797751 0 0.053044166602579337 0.0010947446584394897 0 0.052491850743159797 0.00071929175496797751 0 0.052536819488167713 0.0012063902178616847 0 0.053044166602579337 0.0010947446584394897 0 0.052955913826381019 0.00052455998434595226 0 0.053367240681656443 0.00075916906991300884 0 0.053044166602579337 0.0010947446584394897 0 0.053367240681656443 0.00075916906991300884 0 0.053446288193461144 0.0011614567568056606 0 0.053044166602579337 0.0010947446584394897 0 0.053367240681656443 0.00075916906991300884 0 0.054011365680822147 0.00061131370490769975 0 0.053446288193461144 0.0011614567568056606 0 0.051884798404432421 -0.00046922024022552584 0 0.052181061863032806 -0.00013846893562383323 0 0.053446902928321001 0.0011537391588815873 0 0.053449129984212806 0.0012387129541209221 0 0.053446288193461144 0.0011614567568056606 0 0.054029935044811364 9.3744113726694419e-05 0 0.054011365680822147 0.00061131370490769975 0 0.053522526347656252 0.00028418108215583443 0 0.053367240681656443 0.00075916906991300884 0 0.054011365680822147 0.00061131370490769975 0 0.053522526347656252 0.00028418108215583443 0 0.052955913826381019 0.00052455998434595226 0 0.053367240681656443 0.00075916906991300884 0 0.053522526347656252 0.00028418108215583443 0 0.050720404140051738 0.00059323294072890814 0 0.050940549532697707 -9.4936815142526829e-05 0 0.051404792946674188 0.0001687882591999058 0 0.05026347051436799 -6.0062082728249437e-06 0 0.050720404140051738 0.00059323294072890814 0 0.050940549532697707 -9.4936815142526829e-05 0 0.050747376212281682 -0.00048786551811948192 0 0.05026347051436799 -6.0062082728249437e-06 0 0.050940549532697707 -9.4936815142526829e-05 0 0.051226371339849912 -0.00034241380073235517 0 0.051022441575287299 -0.00041072031026183071 0 0.050940549532697707 -9.4936815142526829e-05 0 0.051226371339849912 -0.00034241380073235517 0 0.050940549532697707 -9.4936815142526829e-05 0 0.051404792946674188 0.0001687882591999058 0 0.051226371339849912 -0.00034241380073235517 0 0.051404792946674188 0.0001687882591999058 0 0.051626587588377147 -0.00011158164726532681 0 0.050720404140051738 0.00059323294072890814 0 0.051404792946674188 0.0001687882591999058 0 0.051510882918202994 0.000561025307720865 0 0.051404792946674188 0.0001687882591999058 0 0.051510882918202994 0.000561025307720865 0 0.051893004518366523 0.00021714745166124581 0 0.051404792946674188 0.0001687882591999058 0 0.051626587588377147 -0.00011158164726532681 0 0.051893004518366523 0.00021714745166124581 0 0.050304084785961531 -0.00088153104198327554 0 0.051477572880241192 -0.00080463701276271317 0 0.051893004518366523 0.00021714745166124581 0 0.050730794381203523 -0.00079691130440792484 0 0.051173457200071937 -0.00033405921756361301 0 0.052020272620245181 -0.0015064711865800543 0 0.052426524395832674 -0.00051776657345483962 0 0.051477572880241192 -0.00080463701276271317 0 0.052426524395832674 -0.00051776657345483962 0 0.051477572880241192 -0.00080463701276271317 0 0.051893004518366523 0.00021714745166124581 0 0.052426524395832674 -0.00051776657345483962 0 0.052554950934423882 0.00017208495110993661 0 0.051893004518366523 0.00021714745166124581 0 0.052491850743159797 0.00071929175496797751 0 0.051893004518366523 0.00021714745166124581 0 0.0519738333330928 0.00086695496487687552 0 0.052554950934423882 0.00017208495110993661 0 0.052491850743159797 0.00071929175496797751 0 0.051893004518366523 0.00021714745166124581 0 0.052491850743159797 0.00071929175496797751 0 0.0519738333330928 0.00086695496487687552 0 0.052536819488167713 0.0012063902178616847 0 0.0519738333330928 0.00086695496487687552 0 0.051979691755142207 0.0013229312602102115 0 0.052536819488167713 0.0012063902178616847 0 0.051510882918202994 0.000561025307720865 0 0.051893004518366523 0.00021714745166124581 0 0.0519738333330928 0.00086695496487687552 0 0.051510882918202994 0.000561025307720865 0 0.0519738333330928 0.00086695496487687552 0 0.051282747854068368 0.00099908377054204684 0 0.050720404140051738 0.00059323294072890814 0 0.051510882918202994 0.000561025307720865 0 0.051282747854068368 0.00099908377054204684 0 0.0519738333330928 0.00086695496487687552 0 0.051282747854068368 0.00099908377054204684 0 0.051979691755142207 0.0013229312602102115 0 0.050445061480049298 0.0011761026994239275 0 0.051282747854068368 0.00099908377054204684 0 0.051248719912017779 0.0015964885833378616 0 0.050445061480049298 0.0011761026994239275 0 0.050720404140051738 0.00059323294072890814 0 0.051282747854068368 0.00099908377054204684 0 0.051248719912017779 0.0015964885833378616 0 0.051930522104894336 0.0016468798444169276 0 0.051722067947392356 0.0019033041686605046 0 0.051248719912017779 0.0015964885833378616 0 0.051930522104894336 0.0016468798444169276 0 0.051979691755142207 0.0013229312602102115 0 0.051282747854068368 0.00099908377054204684 0 0.051248719912017779 0.0015964885833378616 0 0.051979691755142207 0.0013229312602102115 0 0.051930522104894336 0.0016468798444169276 0 0.051979691755142207 0.0013229312602102115 0 0.052604559209672518 0.0015442863962259286 0 0.051979691755142207 0.0013229312602102115 0 0.052536819488167713 0.0012063902178616847 0 0.052604559209672518 0.0015442863962259286 0 0.052536819488167713 0.0012063902178616847 0 0.052604559209672518 0.0015442863962259286 0 0.052989566148374051 0.0013950016810840194 0 0.052604559209672518 0.0015442863962259286 0 0.052989566148374051 0.0013950016810840194 0 0.05309317801861714 0.0015751218061068556 0 0.052604559209672518 0.0015442863962259286 0 0.053133995031154964 0.0017491208323265101 0 0.05309317801861714 0.0015751218061068556 0 0.053133995031154964 0.0017491208323265101 0 0.052372350356297698 0.0017487682152007404 0 0.052182439830047597 0.0020230855855211073 0 0.052604559209672518 0.0015442863962259286 0 0.053133995031154964 0.0017491208323265101 0 0.052372350356297698 0.0017487682152007404 0 0.051930522104894336 0.0016468798444169276 0 0.052604559209672518 0.0015442863962259286 0 0.052372350356297698 0.0017487682152007404 0 0.051930522104894336 0.0016468798444169276 0 0.052372350356297698 0.0017487682152007404 0 0.051722067947392356 0.0019033041686605046 0 0.052372350356297698 0.0017487682152007404 0 0.052182439830047597 0.0020230855855211073 0 0.051722067947392356 0.0019033041686605046 0 0.051985054249449061 0.0021457991249749964 0 0.052182439830047597 0.0020230855855211073 0 0.051722067947392356 0.0019033041686605046 0 0.053319791855859958 0.0013792917038449885 0 0.053449129984212806 0.0012387129541209221 0 0.053358747845920623 0.0014443404386021237 0 0.053319791855859958 0.0013792917038449885 0 0.053446288193461144 0.0011614567568056606 0 0.053044166602579337 0.0010947446584394897 0 0.053319791855859958 0.0013792917038449885 0 0.053449129984212806 0.0012387129541209221 0 0.053446288193461144 0.0011614567568056606 0 0.053319791855859958 0.0013792917038449885 0 0.053044166602579337 0.0010947446584394897 0 0.052989566148374051 0.0013950016810840194 0 0.052536819488167713 0.0012063902178616847 0 0.053044166602579337 0.0010947446584394897 0 0.052989566148374051 0.0013950016810840194 0 0.053319791855859958 0.0013792917038449885 0 0.052989566148374051 0.0013950016810840194 0 0.053231700858277657 0.0014867225688304634 0 0.053231700858277657 0.0014867225688304634 0 0.05309317801861714 0.0015751218061068556 0 0.053370929877740309 0.001489152860533623 0 0.052989566148374051 0.0013950016810840194 0 0.053231700858277657 0.0014867225688304634 0 0.05309317801861714 0.0015751218061068556 0 0.053133995031154964 0.0017491208323265101 0 0.05309317801861714 0.0015751218061068556 0 0.053370929877740309 0.001489152860533623 0 0.053370929877740309 0.001489152860533623 0 0.053354137963749396 0.0014552950755057623 0 0.053473097522331051 0.0012944109206599777 0 0.053231700858277657 0.0014867225688304634 0 0.053370929877740309 0.001489152860533623 0 0.053354137963749396 0.0014552950755057623 0 0.053354137963749396 0.0014552950755057623 0 0.053323157500455756 0.0013786884690973607 0 0.053382388062579125 0.0012911039872532577 0 0.053319791855859958 0.0013792917038449885 0 0.053354137963749396 0.0014552950755057623 0 0.053358747845920623 0.0014443404386021237 0 0.053319791855859958 0.0013792917038449885 0 0.053231700858277657 0.0014867225688304634 0 0.053354137963749396 0.0014552950755057623 0 0.053218849698991676 0.0013699450272957069 0 0.053358747845920623 0.0014443404386021237 0 0.053323157500455756 0.0013786884690973607 0 0.053354137963749396 0.0014552950755057623 0 0.053358747845920623 0.0014443404386021237 0 0.053323157500455756 0.0013786884690973607 0 0.053309867791584205 0.0011292610248900526 0 0.053382388062579125 0.0012911039872532577 0 0.053235901087204829 0.0012692902315717665 0 0.053323157500455756 0.0013786884690973607 0 0.053382388062579125 0.0012911039872532577 0 0.053235901087204829 0.0012692902315717665 0 0.053309867791584205 0.0011292610248900526 0 0.053312660041519688 0.00082981697332030124 0 0.053122115609106284 0.0011404000014183693 0 0.053309867791584205 0.0011292610248900526 0 0.053586974742887629 0.0010395549211398873 0 0.053312660041519688 0.00082981697332030124 0 0.053309867791584205 0.0011292610248900526 0 0.053586974742887629 0.0010395549211398873 0 0.053382388062579125 0.0012911039872532577 0 0.053354137963749396 0.0014552950755057623 0 0.053382388062579125 0.0012911039872532577 0 0.053473097522331051 0.0012944109206599777 0 0.053586974742887629 0.0010395549211398873 0 0.053382388062579125 0.0012911039872532577 0 0.053473097522331051 0.0012944109206599777 0 0.053370929877740309 0.001489152860533623 0 0.053473097522331051 0.0012944109206599777 0 0.053732200447568976 0.0010472108417879532 0 0.053370929877740309 0.001489152860533623 0 0.053732200447568976 0.0010472108417879532 0 0.053645524871162781 0.0012380470142772002 0 0.053586974742887629 0.0010395549211398873 0 0.053732200447568976 0.0010472108417879532 0 0.053900105124720446 0.00073892993902152063 0 0.053586974742887629 0.0010395549211398873 0 0.053473097522331051 0.0012944109206599777 0 0.053732200447568976 0.0010472108417879532 0 0.053586974742887629 0.0010395549211398873 0 0.053900105124720446 0.00073892993902152063 0 0.054087183936518062 0.00034229592517606201 0 0.053732200447568976 0.0010472108417879532 0 0.053900105124720446 0.00073892993902152063 0 0.054144952083985266 0.0005442783163153316 0 0.054144952083985266 0.0005442783163153316 0 0.054087183936518062 0.00034229592517606201 0 0.054398845104800371 0.00031790139360713608 0 0.053900105124720446 0.00073892993902152063 0 0.054144952083985266 0.0005442783163153316 0 0.054087183936518062 0.00034229592517606201 0 0.054087183936518062 0.00034229592517606201 0 0.054685393173601354 0.00016582603094106657 0 0.054482490748701616 0.00029944264268860126 0 0.054087183936518062 0.00034229592517606201 0 0.054685393173601354 0.00016582603094106657 0 0.054516013899573446 -0.00015027501370297924 0 0.054685393173601354 0.00016582603094106657 0 0.054516013899573446 -0.00015027501370297924 0 0.054776124099667749 -0.00015964177448072339 0 0.053586974742887629 0.0010395549211398873 0 0.054087183936518062 0.00034229592517606201 0 0.053312660041519688 0.00082981697332030124 0 0.054039013281256522 0.0003777073935727515 0 0.054045578167844756 0.00038578908880072539 0 0.052782101145948578 0.0020177714316718534 0 0.05246169236117626 0.0021196168138642433 0 0.052937052917494801 0.001680143391262651 0 0.051985054249449061 0.0021457991249749964 0 0.052182439830047597 0.0020230855855211073 0 0.05246169236117626 0.0021196168138642433 0 0.052182439830047597 0.0020230855855211073 0 0.05246169236117626 0.0021196168138642433 0 0.05243552262114641 0.0021974263077436701 0 0.053371185749050573 0.0014329752115918653 0 0.053484307489956348 0.0012098584551199871 0 0.05246169236117626 0.0021196168138642433 0 0.05243552262114641 0.0021974263077436701 0 0.052489576914353124 0.0016100288514684961 0 0.054226317123434786 0.0011023762197408123 0 0.053645524871162781 0.0012380470142772002 0 0.054173786526711135 0.00067770543257233192 0 0.053320440307051707 0.0015161093073391661 0 0.053371185749050573 0.0014329752115918653 0 0.053133995031154964 0.0017491208323265101 0 0.054226317123434786 0.0011023762197408123 0 0.053645524871162781 0.0012380470142772002 0 0.053133995031154964 0.0017491208323265101 0 0.052182439830047597 0.0020230855855211073 0 0.05243552262114641 0.0021974263077436701 0 0.053133995031154964 0.0017491208323265101 0 0.053370929877740309 0.001489152860533623 0 0.053645524871162781 0.0012380470142772002 0 0.053732200447568976 0.0010472108417879532 0 0.053645524871162781 0.0012380470142772002 0 0.054173786526711135 0.00067770543257233192 0 0.053732200447568976 0.0010472108417879532 0 0.054144952083985266 0.0005442783163153316 0 0.054173786526711135 0.00067770543257233192 0 0.054144952083985266 0.0005442783163153316 0 0.054400737995748627 0.00045427098746188364 0 0.054371410384180863 0.00039917503250194546 0 0.054144952083985266 0.0005442783163153316 0 0.054173786526711135 0.00067770543257233192 0 0.054400737995748627 0.00045427098746188364 0 0.054173786526711135 0.00067770543257233192 0 0.054431602776183752 0.00050671497260802343 0 0.054400737995748627 0.00045427098746188364 0 0.054226317123434786 0.0011023762197408123 0 0.054173786526711135 0.00067770543257233192 0 0.054432513446779192 0.00055842603316259051 0 0.054173786526711135 0.00067770543257233192 0 0.054432513446779192 0.00055842603316259051 0 0.054431602776183752 0.00050671497260802343 0 0.053654451209979581 0.0010994611607947102 0 0.052489576914353124 0.0016100288514684961 0 0.053906760977728764 0.00062490681225872463 0 0.053484307489956348 0.0012098584551199871 0 0.053593259329531691 0.001040508415937924 0 0.054432513446779192 0.00055842603316259051 0 0.053906760977728764 0.00062490681225872463 0 0.054431602776183752 0.00050671497260802343 0 0.05246169236117626 0.0021196168138642433 0 0.052489576914353124 0.0016100288514684961 0 0.052937052917494801 0.001680143391262651 0 0.053654451209979581 0.0010994611607947102 0 0.052489576914353124 0.0016100288514684961 0 0.052937052917494801 0.001680143391262651 0 0.05479632805266349 0.0005718930892475195 0 0.054487288331254262 0.00050779032063236293 0 0.054934386898032705 7.8883180704154585e-05 0 0.052854138351004123 0.0010805188330594972 0 0.053263798408783911 0.0010882136305560765 0 0.053906760977728764 0.00062490681225872463 0 0.054302385317286019 0.0005661879539063659 0 0.054431602776183752 0.00050671497260802343 0 0.054106865532638326 0.00046488192615383976 0 0.053906760977728764 0.00062490681225872463 0 0.054302385317286019 0.0005661879539063659 0 0.054106865532638326 0.00046488192615383976 0 0.054487288331254262 0.00050779032063236293 0 0.054302385317286019 0.0005661879539063659 0 0.054487288331254262 0.00050779032063236293 0 0.054302385317286019 0.0005661879539063659 0 0.054538447368326484 0.0004187024288731267 0 0.054302385317286019 0.0005661879539063659 0 0.054431602776183752 0.00050671497260802343 0 0.054538447368326484 0.0004187024288731267 0 0.054487288331254262 0.00050779032063236293 0 0.054538447368326484 0.0004187024288731267 0 0.054722018515703415 0.00023156712569656423 0 0.054538447368326484 0.0004187024288731267 0 0.054551203016089532 0.000297220826698257 0 0.054759478793685611 0.00017353788935616359 0 0.054538447368326484 0.0004187024288731267 0 0.054400737995748627 0.00045427098746188364 0 0.054551203016089532 0.000297220826698257 0 0.054431602776183752 0.00050671497260802343 0 0.054538447368326484 0.0004187024288731267 0 0.054400737995748627 0.00045427098746188364 0 0.054400737995748627 0.00045427098746188364 0 0.054551203016089532 0.000297220826698257 0 0.054371410384180863 0.00039917503250194546 0 0.054551203016089532 0.000297220826698257 0 0.054771905187266198 0.00013457467320255012 0 0.054759478793685611 0.00017353788935616359 0 0.054771905187266198 0.00013457467320255012 0 0.05499969315089296 1.2991048640545852e-07 0 0.054759478793685611 0.00017353788935616359 0 0.05499969315089296 1.2991048640545852e-07 0 0.054759478793685611 0.00017353788935616359 0 0.05499967456446915 6.4145697999341882e-08 0 0.054759478793685611 0.00017353788935616359 0 0.054722018515703415 0.00023156712569656423 0 0.05499967456446915 6.4145697999341882e-08 0 0.054538447368326484 0.0004187024288731267 0 0.054759478793685611 0.00017353788935616359 0 0.054722018515703415 0.00023156712569656423 0 0.054999997055978765 3.2442569707938384e-08 0 0.05499967456446915 6.4145697999341882e-08 0 0.054934386898032705 7.8883180704154585e-05 0 0.054722018515703415 0.00023156712569656423 0 0.05499967456446915 6.4145697999341882e-08 0 0.054934386898032705 7.8883180704154585e-05 0 0.054487288331254262 0.00050779032063236293 0 0.054722018515703415 0.00023156712569656423 0 0.054934386898032705 7.8883180704154585e-05 0 0.054613564554606912 0.00024909621772941981 0 0.054482490748701616 0.00029944264268860126 0 0.054398845104800371 0.00031790139360713608 0 0.054613564554606912 0.00024909621772941981 0 0.05467881863933223 0.00022801431250019241 0 0.054803135615494186 0.00014094772986457721 0 0.054613564554606912 0.00024909621772941981 0 0.05467881863933223 0.00022801431250019241 0 0.054482490748701616 0.00029944264268860126 0 0.05467881863933223 0.00022801431250019241 0 0.054843746808898405 0.00014315185880811544 0 0.054739656826510816 0.00022146804200992373 0 0.05467881863933223 0.00022801431250019241 0 0.054482490748701616 0.00029944264268860126 0 0.054739656826510816 0.00022146804200992373 0 0.054685393173601354 0.00016582603094106657 0 0.054482490748701616 0.00029944264268860126 0 0.054739656826510816 0.00022146804200992373 0 0.054087183936518062 0.00034229592517606201 0 0.054482490748701616 0.00029944264268860126 0 0.054398845104800371 0.00031790139360713608 0 0.054144952083985266 0.0005442783163153316 0 0.054398845104800371 0.00031790139360713608 0 0.054371410384180863 0.00039917503250194546 0 0.054551203016089532 0.000297220826698257 0 0.054398845104800371 0.00031790139360713608 0 0.054371410384180863 0.00039917503250194546 0 0.054551203016089532 0.000297220826698257 0 0.054398845104800371 0.00031790139360713608 0 0.054641103469903148 0.00017741819973367024 0 0.054613564554606912 0.00024909621772941981 0 0.054398845104800371 0.00031790139360713608 0 0.054793450561973628 0.00017267356613039799 0 0.054780344047752831 0.00019063590757283124 0 0.054852995779653517 0.00013789425212406818 0 0.054613564554606912 0.00024909621772941981 0 0.054793450561973628 0.00017267356613039799 0 0.054803135615494186 0.00014094772986457721 0 0.054551203016089532 0.000297220826698257 0 0.054771905187266198 0.00013457467320255012 0 0.054641103469903148 0.00017741819973367024 0 0.054771905187266198 0.00013457467320255012 0 0.054641103469903148 0.00017741819973367024 0 0.054999421789826371 6.1164027400851483e-08 0 0.054771905187266198 0.00013457467320255012 0 0.05499969315089296 1.2991048640545852e-07 0 0.054999421789826371 6.1164027400851483e-08 0 0.054852995779653517 0.00013789425212406818 0 0.054999679066978495 1.9234035159294905e-07 0 0.054793450561973628 0.00017267356613039799 0 0.054999946243928517 5.6722688767907488e-08 0 0.054803135615494186 0.00014094772986457721 0 0.054999946243928517 5.6722688767907488e-08 0 0.054999725279675379 1.0541521995623783e-07 0 0.054803135615494186 0.00014094772986457721 0 0.05467881863933223 0.00022801431250019241 0 0.054803135615494186 0.00014094772986457721 0 0.054843746808898405 0.00014315185880811544 0 0.054999725279675379 1.0541521995623783e-07 0 0.054843746808898405 0.00014315185880811544 0 0.054999859340528742 7.9087157133707287e-08 0 0.054999725279675379 1.0541521995623783e-07 0 0.054803135615494186 0.00014094772986457721 0 0.054843746808898405 0.00014315185880811544 0 0.054843746808898405 0.00014315185880811544 0 0.054999859340528742 7.9087157133707287e-08 0 0.054924750371081674 8.8886064538797404e-05 0 0.054924750371081674 8.8886064538797404e-05 0 0.054999936367168309 6.891904336018523e-08 0 0.054923879272818298 9.7801222077314052e-05 0 0.054999859340528742 7.9087157133707287e-08 0 0.054924750371081674 8.8886064538797404e-05 0 0.054999936367168309 6.891904336018523e-08 0 0.054924750371081674 8.8886064538797404e-05 0 0.054923879272818298 9.7801222077314052e-05 0 0.054850378476306097 0.00015932120501124575 0 0.054843746808898405 0.00014315185880811544 0 0.054924750371081674 8.8886064538797404e-05 0 0.054850378476306097 0.00015932120501124575 0 0.054999811462775203 -1.4017586648043458e-08 0 0.054897412440399043 -5.2819621716218311e-06 0 0.054999936367168309 6.891904336018523e-08 0 0.054999782552818309 5.1305883285746302e-08 0 0.054923879272818298 9.7801222077314052e-05 0 0.054999782552818309 5.1305883285746302e-08 0 0.054923879272818298 9.7801222077314052e-05 0 0.054891333193251644 0.00011177954582156214 0 0.054897412440399043 -5.2819621716218311e-06 0 0.054808934519970126 -4.4924174289847073e-05 0 0.054891333193251644 0.00011177954582156214 0 0.054865090724530469 0.00015283708777519568 0 0.054880805681888703 0.00014074328538612603 0 0.054923879272818298 9.7801222077314052e-05 0 0.054891333193251644 0.00011177954582156214 0 0.054865090724530469 0.00015283708777519568 0 0.054865090724530469 0.00015283708777519568 0 0.054880805681888703 0.00014074328538612603 0 0.054861533461403315 0.00011725078289787812 0 0.054739656826510816 0.00022146804200992373 0 0.054850378476306097 0.00015932120501124575 0 0.054802145087114486 0.00017456705918173583 0 0.054843746808898405 0.00014315185880811544 0 0.054739656826510816 0.00022146804200992373 0 0.054850378476306097 0.00015932120501124575 0 0.054865090724530469 0.00015283708777519568 0 0.054850378476306097 0.00015932120501124575 0 0.054802145087114486 0.00017456705918173583 0 0.054923879272818298 9.7801222077314052e-05 0 0.054865090724530469 0.00015283708777519568 0 0.054850378476306097 0.00015932120501124575 0 0.054865090724530469 0.00015283708777519568 0 0.054802145087114486 0.00017456705918173583 0 0.054815303110078074 0.000131345895598188 0 0.054685393173601354 0.00016582603094106657 0 0.054739656826510816 0.00022146804200992373 0 0.054802145087114486 0.00017456705918173583 0 0.054685393173601354 0.00016582603094106657 0 0.054802145087114486 0.00017456705918173583 0 0.054815303110078074 0.000131345895598188 0 0.054685393173601354 0.00016582603094106657 0 0.054785639888015346 8.9798655322362317e-05 0 0.054815303110078074 0.000131345895598188 0 0.054685393173601354 0.00016582603094106657 0 0.054740164222731612 7.0755730267103118e-05 0 0.054785639888015346 8.9798655322362317e-05 0 0.054505210504543163 5.776604628825253e-05 0 0.054465530844388474 6.1449116273115946e-05 0 0.054740164222731612 7.0755730267103118e-05 0 0.054785639888015346 8.9798655322362317e-05 0 0.054774078236389696 5.9285878345504645e-05 0 0.054516013899573446 -0.00015027501370297924 0 0.054753042846961635 -0.0002018184261338219 0 0.054776124099667749 -0.00015964177448072339 0 0.054785639888015346 8.9798655322362317e-05 0 0.054815303110078074 0.000131345895598188 0 0.054829309257189943 7.515819893393748e-05 0 0.054785639888015346 8.9798655322362317e-05 0 0.054829309257189943 7.515819893393748e-05 0 0.054796478969965194 5.599023715163619e-05 0 0.054785639888015346 8.9798655322362317e-05 0 0.054774078236389696 5.9285878345504645e-05 0 0.054796478969965194 5.599023715163619e-05 0 0.054865090724530469 0.00015283708777519568 0 0.054815303110078074 0.000131345895598188 0 0.054861533461403315 0.00011725078289787812 0 0.054815303110078074 0.000131345895598188 0 0.054861533461403315 0.00011725078289787812 0 0.054829309257189943 7.515819893393748e-05 0 0.054880805681888703 0.00014074328538612603 0 0.054861533461403315 0.00011725078289787812 0 0.054895874483642651 9.5362426163750854e-05 0 0.054808934519970126 -4.4924174289847073e-05 0 0.054733529482506198 -0.00011252899086476245 0 0.054861533461403315 0.00011725078289787812 0 0.054868860708563533 7.0357335956074664e-05 0 0.054895874483642651 9.5362426163750854e-05 0 0.054861533461403315 0.00011725078289787812 0 0.054868860708563533 7.0357335956074664e-05 0 0.054829309257189943 7.515819893393748e-05 0 0.054829309257189943 7.515819893393748e-05 0 0.054855792626528094 3.3586715728966349e-05 0 0.054819783091366731 2.8573443874169773e-05 0 0.054868860708563533 7.0357335956074664e-05 0 0.054829309257189943 7.515819893393748e-05 0 0.054855792626528094 3.3586715728966349e-05 0 0.054868860708563533 7.0357335956074664e-05 0 0.054901475483182804 2.8828518884370295e-05 0 0.054895874483642651 9.5362426163750854e-05 0 0.054868860708563533 7.0357335956074664e-05 0 0.054855792626528094 3.3586715728966349e-05 0 0.054901475483182804 2.8828518884370295e-05 0 0.054855792626528094 3.3586715728966349e-05 0 0.054870116242758928 -2.7127941350174896e-06 0 0.054901475483182804 2.8828518884370295e-05 0 0.054828996990965849 -7.8545608136793596e-06 0 0.054855792626528094 3.3586715728966349e-05 0 0.054819783091366731 2.8573443874169773e-05 0 0.054828996990965849 -7.8545608136793596e-06 0 0.054855792626528094 3.3586715728966349e-05 0 0.054870116242758928 -2.7127941350174896e-06 0 0.054828996990965849 -7.8545608136793596e-06 0 0.054776790338976755 2.5399438897782513e-05 0 0.054819783091366731 2.8573443874169773e-05 0 0.054459389465350214 0.00028706265196109208 0 0.054243256584823603 0.00032379279057573578 0 0.054362213473753952 0.0006522146222979157 0 0.05455446147674662 0.00058593574007365665 0 0.05460953352309364 0.00042868631661531004 0 0.05396558043855032 0.00064106384398200699 0 0.054243256584823603 0.00032379279057573578 0 0.053114190775465434 0.0012737021754675732 0 0.053235901087204829 0.0012692902315717665 0 0.053122115609106284 0.0011404000014183693 0 0.053218849698991676 0.0013699450272957069 0 0.053114190775465434 0.0012737021754675732 0 0.053235901087204829 0.0012692902315717665 0 0.053309867791584205 0.0011292610248900526 0 0.053235901087204829 0.0012692902315717665 0 0.053122115609106284 0.0011404000014183693 0 0.05396558043855032 0.00064106384398200699 0 0.054187669064918662 0.00035020434889905603 0 0.054027861515651573 0.00061458062285308594 0 0.054126969686121643 0.00033497468009368621 0 0.054178960352570617 0.00028814485741868997 0 0.054740164222731612 7.0755730267103118e-05 0 0.054776790338976755 2.5399438897782513e-05 0 0.054774078236389696 5.9285878345504645e-05 0 0.054776124099667749 -0.00015964177448072339 0 0.054863114772690569 -0.00043720305599255418 0 0.054830797373128168 -0.00040667978950713698 0 0.054465530844388474 6.1449116273115946e-05 0 0.054243256584823603 0.00032379279057573578 0 0.054516013899573446 -0.00015027501370297924 0 0.054753042846961635 -0.0002018184261338219 0 0.054852413794601061 -0.00043534852895412779 0 0.054045578167844756 0.00038578908880072539 0 0.054187669064918662 0.00035020434889905603 0 0.054753042846961635 -0.0002018184261338219 0 0.054776124099667749 -0.00015964177448072339 0 0.054830797373128168 -0.00040667978950713698 0 0.054243256584823603 0.00032379279057573578 0 0.054187669064918662 0.00035020434889905603 0 0.054307244955281116 0.00013329937136912268 0 0.054187669064918662 0.00035020434889905603 0 0.054776790338976755 2.5399438897782513e-05 0 0.054796478969965194 5.599023715163619e-05 0 0.054819783091366731 2.8573443874169773e-05 0 0.054776790338976755 2.5399438897782513e-05 0 0.054774078236389696 5.9285878345504645e-05 0 0.054796478969965194 5.599023715163619e-05 0 0.054829309257189943 7.515819893393748e-05 0 0.054796478969965194 5.599023715163619e-05 0 0.054819783091366731 2.8573443874169773e-05 0 0.054808499461689891 -0.00040532046646656592 0 0.05459040107890404 -0.0005059521828832237 0 0.054514696892561804 -0.00067861135155928144 0 0.054808499461689891 -0.00040532046646656592 0 0.05459040107890404 -0.0005059521828832237 0 0.054639345339962966 -0.00037824013469690788 0 0.054002000421585872 -0.0010146584659802671 0 0.053989174294154792 -0.0009242809370114891 0 0.053084694520688355 -0.0017960421247808756 0 0.052963657424950884 -0.0016604423580947221 0 0.053102235121209859 -0.0016099382943342525 0 0.053084694520688355 -0.0017960421247808756 0 0.052963657424950884 -0.0016604423580947221 0 0.052884915635932297 -0.0017441744786403622 0 0.052963657424950884 -0.0016604423580947221 0 0.052918941241027487 -0.001499718909986709 0 0.053102235121209859 -0.0016099382943342525 0 0.052918941241027487 -0.001499718909986709 0 0.053067037688876904 -0.0014210676311382652 0 0.052866209649533355 -0.0013171639381067545 0 0.052918941241027487 -0.001499718909986709 0 0.053067037688876904 -0.0014210676311382652 0 0.053102235121209859 -0.0016099382943342525 0 0.053165543301398485 -0.0015118656727888436 0 0.053102235121209859 -0.0016099382943342525 0 0.053285331462623257 -0.0015462360033368767 0 0.053084694520688355 -0.0017960421247808756 0 0.053102235121209859 -0.0016099382943342525 0 0.053285331462623257 -0.0015462360033368767 0 0.053067037688876904 -0.0014210676311382652 0 0.053165543301398485 -0.0015118656727888436 0 0.053232449365066312 -0.0014851739397985944 0 0.053067037688876904 -0.0014210676311382652 0 0.053165543301398485 -0.0015118656727888436 0 0.053102235121209859 -0.0016099382943342525 0 0.05459040107890404 -0.0005059521828832237 0 0.054514696892561804 -0.00067861135155928144 0 0.054480571529924339 -0.00060815651755169757 0 0.053165543301398485 -0.0015118656727888436 0 0.053285331462623257 -0.0015462360033368767 0 0.053232449365066312 -0.0014851739397985944 0 0.054213084040839445 -0.00065442789802239577 0 0.054514696892561804 -0.00067861135155928144 0 0.054355416853709024 -0.00065584323841277133 0 0.054514696892561804 -0.00067861135155928144 0 0.054429693634511965 -0.00064836997649764033 0 0.054355416853709024 -0.00065584323841277133 0 0.054514696892561804 -0.00067861135155928144 0 0.054429693634511965 -0.00064836997649764033 0 0.054480571529924339 -0.00060815651755169757 0 0.054429693634511965 -0.00064836997649764033 0 0.054395494220014912 -0.00063209911479643604 0 0.054480571529924339 -0.00060815651755169757 0 0.054429693634511965 -0.00064836997649764033 0 0.054395494220014912 -0.00063209911479643604 0 0.054355416853709024 -0.00065584323841277133 0 0.054395494220014912 -0.00063209911479643604 0 0.054355416853709024 -0.00065584323841277133 0 0.05431952488848716 -0.0006516876345841621 0 0.05431952488848716 -0.0006516876345841621 0 0.054364971852105572 -0.00061206542410468189 0 0.054299043081612437 -0.00065827773096953054 0 0.054395494220014912 -0.00063209911479643604 0 0.05431952488848716 -0.0006516876345841621 0 0.054364971852105572 -0.00061206542410468189 0 0.054395494220014912 -0.00063209911479643604 0 0.054364971852105572 -0.00061206542410468189 0 0.054470915388756709 -0.00056433428230999894 0 0.054364971852105572 -0.00061206542410468189 0 0.054470915388756709 -0.00056433428230999894 0 0.054432615943197378 -0.00054037631420215503 0 0.05459040107890404 -0.0005059521828832237 0 0.054470915388756709 -0.00056433428230999894 0 0.054480571529924339 -0.00060815651755169757 0 0.054395494220014912 -0.00063209911479643604 0 0.054470915388756709 -0.00056433428230999894 0 0.054480571529924339 -0.00060815651755169757 0 0.054748477070336608 -7.4200088139511302e-05 0 0.054660509121619745 -0.00020703542995406305 0 0.05423285880268168 -0.00072229696184595942 0 0.054299043081612437 -0.00065827773096953054 0 0.054322828511840039 -0.00055367839658954706 0 0.054896215770947436 -1.8899243299456279e-05 0 0.054870116242758928 -2.7127941350174896e-06 0 0.054901475483182804 2.8828518884370295e-05 0 0.05451410924611047 -0.00015520873660938804 0 0.054660509121619745 -0.00020703542995406305 0 0.054364971852105572 -0.00061206542410468189 0 0.054299043081612437 -0.00065827773096953054 0 0.054322828511840039 -0.00055367839658954706 0 0.054364971852105572 -0.00061206542410468189 0 0.054322828511840039 -0.00055367839658954706 0 0.054432615943197378 -0.00054037631420215503 0 0.054322828511840039 -0.00055367839658954706 0 0.054450118185959427 -0.00046279012312929997 0 0.054432420956352312 -0.00036988761442787962 0 0.054660509121619745 -0.00020703542995406305 0 0.054622948218542459 -0.00029552803027030469 0 0.05451570572142142 -0.00038046379905984574 0 0.054550871715211509 -0.00025719743772849697 0 0.054543287900831842 -0.00030119481458598169 0 0.054660509121619745 -0.00020703542995406305 0 0.054733529482506198 -0.00011252899086476245 0 0.054322828511840039 -0.00055367839658954706 0 0.054450118185959427 -0.00046279012312929997 0 0.054432615943197378 -0.00054037631420215503 0 0.054450118185959427 -0.00046279012312929997 0 0.054542318327578283 -0.00037352199912339348 0 0.054432420956352312 -0.00036988761442787962 0 0.05459040107890404 -0.0005059521828832237 0 0.054470915388756709 -0.00056433428230999894 0 0.054520404685906979 -0.00047237637767514045 0 0.054450118185959427 -0.00046279012312929997 0 0.054520404685906979 -0.00047237637767514045 0 0.054432615943197378 -0.00054037631420215503 0 0.054470915388756709 -0.00056433428230999894 0 0.054520404685906979 -0.00047237637767514045 0 0.054432615943197378 -0.00054037631420215503 0 0.054450118185959427 -0.00046279012312929997 0 0.054520404685906979 -0.00047237637767514045 0 0.054542318327578283 -0.00037352199912339348 0 0.05459040107890404 -0.0005059521828832237 0 0.054520404685906979 -0.00047237637767514045 0 0.054639345339962966 -0.00037824013469690788 0 0.054520404685906979 -0.00047237637767514045 0 0.054639345339962966 -0.00037824013469690788 0 0.054542318327578283 -0.00037352199912339348 0 0.054639345339962966 -0.00037824013469690788 0 0.054542318327578283 -0.00037352199912339348 0 0.054643882802049633 -0.00027246648407760538 0 0.054542318327578283 -0.00037352199912339348 0 0.054643882802049633 -0.00027246648407760538 0 0.054561905207984256 -0.00029021144018820307 0 0.054639345339962966 -0.00037824013469690788 0 0.054643882802049633 -0.00027246648407760538 0 0.054746595998504191 -0.00027598218248439297 0 0.054432420956352312 -0.00036988761442787962 0 0.054561905207984256 -0.00029021144018820307 0 0.054589153075175506 -0.00022089855419581595 0 0.054622948218542459 -0.00029552803027030469 0 0.054615394393068083 -0.00029614542081408209 0 0.054550871715211509 -0.00025719743772849697 0 0.054543287900831842 -0.00030119481458598169 0 0.054589153075175506 -0.00022089855419581595 0 0.054542318327578283 -0.00037352199912339348 0 0.054432420956352312 -0.00036988761442787962 0 0.054561905207984256 -0.00029021144018820307 0 0.054643882802049633 -0.00027246648407760538 0 0.054561905207984256 -0.00029021144018820307 0 0.054624670436233265 -0.00022433104321022143 0 0.054689558104525159 -0.00012646158708218692 0 0.054589153075175506 -0.00022089855419581595 0 0.054671765670765045 -0.00017208698811562386 0 0.054689558104525159 -0.00012646158708218692 0 0.054550871715211509 -0.00025719743772849697 0 0.054589153075175506 -0.00022089855419581595 0 0.054589153075175506 -0.00022089855419581595 0 0.054624670436233265 -0.00022433104321022143 0 0.054671765670765045 -0.00017208698811562386 0 0.054561905207984256 -0.00029021144018820307 0 0.054589153075175506 -0.00022089855419581595 0 0.054624670436233265 -0.00022433104321022143 0 0.054624670436233265 -0.00022433104321022143 0 0.054671765670765045 -0.00017208698811562386 0 0.054702456098569351 -0.00017971530806989324 0 0.054643882802049633 -0.00027246648407760538 0 0.054740649808263493 -0.00020316880336116564 0 0.054746595998504191 -0.00027598218248439297 0 0.054643882802049633 -0.00027246648407760538 0 0.054702456098569351 -0.00017971530806989324 0 0.054740649808263493 -0.00020316880336116564 0 0.054643882802049633 -0.00027246648407760538 0 0.054624670436233265 -0.00022433104321022143 0 0.054702456098569351 -0.00017971530806989324 0 0.054702456098569351 -0.00017971530806989324 0 0.054740649808263493 -0.00020316880336116564 0 0.054805542453049985 -0.00012133647862727428 0 0.054740649808263493 -0.00020316880336116564 0 0.054823753020149656 -0.00018851153367212471 0 0.054805542453049985 -0.00012133647862727428 0 0.054823753020149656 -0.00018851153367212471 0 0.054838425174775669 -0.0002514051919397807 0 0.054878252457399419 -0.00018948652427143553 0 0.054823753020149656 -0.00018851153367212471 0 0.054838425174775669 -0.0002514051919397807 0 0.054746595998504191 -0.00027598218248439297 0 0.054740649808263493 -0.00020316880336116564 0 0.054823753020149656 -0.00018851153367212471 0 0.054746595998504191 -0.00027598218248439297 0 0.054808499461689891 -0.00040532046646656592 0 0.054838425174775669 -0.0002514051919397807 0 0.054746595998504191 -0.00027598218248439297 0 0.054808499461689891 -0.00040532046646656592 0 0.054639345339962966 -0.00037824013469690788 0 0.054746595998504191 -0.00027598218248439297 0 0.053084694520688355 -0.0017960421247808756 0 0.052973151648446321 -0.0018166465396984093 0 0.052884915635932297 -0.0017441744786403622 0 0.054002000421585872 -0.0010146584659802671 0 0.054133649712089324 -0.00089518016328206146 0 0.053084694520688355 -0.0017960421247808756 0 0.053110589496435386 -0.0018053079038718206 0 0.052973151648446321 -0.0018166465396984093 0 0.054808499461689891 -0.00040532046646656592 0 0.054838425174775669 -0.0002514051919397807 0 0.054938305840712048 -0.00020926936783411263 0 0.053084694520688355 -0.0017960421247808756 0 0.053110589496435386 -0.0018053079038718206 0 0.053134907442936766 -0.001760357362694966 0 0.054938305840712048 -0.00020926936783411263 0 0.054878252457399419 -0.00018948652427143553 0 0.054909487985921331 -0.00010854339009872164 0 0.054838425174775669 -0.0002514051919397807 0 0.054938305840712048 -0.00020926936783411263 0 0.054878252457399419 -0.00018948652427143553 0 0.054823753020149656 -0.00018851153367212471 0 0.054878252457399419 -0.00018948652427143553 0 0.054909487985921331 -0.00010854339009872164 0 0.054938305840712048 -0.00020926936783411263 0 0.054909487985921331 -0.00010854339009872164 0 0.054993891362215969 -8.8936162721486679e-05 0 0.054823753020149656 -0.00018851153367212471 0 0.054909487985921331 -0.00010854339009872164 0 0.054805542453049985 -0.00012133647862727428 0 0.054909487985921331 -0.00010854339009872164 0 0.054805542453049985 -0.00012133647862727428 0 0.054908303388087012 -3.986148770595373e-05 0 0.054909487985921331 -0.00010854339009872164 0 0.054970827894563846 -2.7081365670633171e-05 0 0.054908303388087012 -3.986148770595373e-05 0 0.054909487985921331 -0.00010854339009872164 0 0.054970827894563846 -2.7081365670633171e-05 0 0.054993891362215969 -8.8936162721486679e-05 0 0.054689558104525159 -0.00012646158708218692 0 0.054747815056073755 -0.00012458864159732363 0 0.054824776802239877 -6.4773389517438172e-05 0 0.054689558104525159 -0.00012646158708218692 0 0.054671765670765045 -0.00017208698811562386 0 0.054747815056073755 -0.00012458864159732363 0 0.054671765670765045 -0.00017208698811562386 0 0.054702456098569351 -0.00017971530806989324 0 0.054747815056073755 -0.00012458864159732363 0 0.054747815056073755 -0.00012458864159732363 0 0.054805542453049985 -0.00012133647862727428 0 0.054824776802239877 -6.4773389517438172e-05 0 0.054702456098569351 -0.00017971530806989324 0 0.054747815056073755 -0.00012458864159732363 0 0.054805542453049985 -0.00012133647862727428 0 0.054805542453049985 -0.00012133647862727428 0 0.054824776802239877 -6.4773389517438172e-05 0 0.054908303388087012 -3.986148770595373e-05 0 0.054854030461720667 -3.4956507735190923e-05 0 0.054689558104525159 -0.00012646158708218692 0 0.054824776802239877 -6.4773389517438172e-05 0 0.054854030461720667 -3.4956507735190923e-05 0 0.054824776802239877 -6.4773389517438172e-05 0 0.054918970191768349 -1.8903067846512915e-05 0 0.054824776802239877 -6.4773389517438172e-05 0 0.054918970191768349 -1.8903067846512915e-05 0 0.054908303388087012 -3.986148770595373e-05 0 0.054918970191768349 -1.8903067846512915e-05 0 0.054999887130896936 -2.4926322799228788e-08 0 0.054999938145258484 1.3774193409569386e-08 0 0.054999847752225703 8.5847266606280849e-09 0 0.054854030461720667 -3.4956507735190923e-05 0 0.054918970191768349 -1.8903067846512915e-05 0 0.054999847752225703 8.5847266606280849e-09 0 0.054918970191768349 -1.8903067846512915e-05 0 0.054999887130896936 -2.4926322799228788e-08 0 0.054918970191768349 -1.8903067846512915e-05 0 0.054908303388087012 -3.986148770595373e-05 0 0.054999938145258484 1.3774193409569386e-08 0 0.054970827894563846 -2.7081365670633171e-05 0 0.054908303388087012 -3.986148770595373e-05 0 0.054999938145258484 1.3774193409569386e-08 0 0.054970827894563846 -2.7081365670633171e-05 0 0.054999938145258484 1.3774193409569386e-08 0 0.054999992085777168 -7.2894370500504997e-09 0 0.054970827894563846 -2.7081365670633171e-05 0 0.054999992085777168 -7.2894370500504997e-09 0 0.055010190153014234 -2.2693348923885253e-05 0 0.054688786684914885 -0.00027519579018226771 0 0.054999550446679105 -2.5174767438269583e-07 0 0.054999992085777168 -7.2894370500504997e-09 0 0.055010190153014234 -2.2693348923885253e-05 0 0.055000029032019698 -6.2725966166964717e-09 0 0.054356686855270286 -0.00028748362685754721 0 0.054999263592551133 1.0518095666511029e-07 0 0.054873476703261044 -0.00018197206464045916 0 0.054999263592551133 1.0518095666511029e-07 0 0.05500002236537814 -1.1512629085895905e-07 0 0.054873476703261044 -0.00018197206464045916 0 0.05500002236537814 -1.1512629085895905e-07 0 0.055050782002809967 -0.00018899931194375219 0 0.055000439569767266 2.0342379924434341e-08 0 0.05500002236537814 -1.1512629085895905e-07 0 0.055050782002809967 -0.00018899931194375219 0 0.054873476703261044 -0.00018197206464045916 0 0.055050782002809967 -0.00018899931194375219 0 0.054934069430606886 -0.00043927014823715455 0 0.054873476703261044 -0.00018197206464045916 0 0.055050782002809967 -0.00018899931194375219 0 0.054934069430606886 -0.00043927014823715455 0 0.055178456460887773 -0.00061577010511613733 0 0.054356686855270286 -0.00028748362685754721 0 0.054873476703261044 -0.00018197206464045916 0 0.054579397046957558 -0.00063382698233069204 0 0.054934069430606886 -0.00043927014823715455 0 0.054873476703261044 -0.00018197206464045916 0 0.054579397046957558 -0.00063382698233069204 0 0.054579397046957558 -0.00063382698233069204 0 0.054909138218837923 -0.00075769682501893954 0 0.05469958484801582 -0.0010548946884764178 0 0.054934069430606886 -0.00043927014823715455 0 0.054579397046957558 -0.00063382698233069204 0 0.054909138218837923 -0.00075769682501893954 0 0.054909138218837923 -0.00075769682501893954 0 0.055132916223081391 -0.0010147070300074914 0 0.055178456460887773 -0.00061577010511613733 0 0.054934069430606886 -0.00043927014823715455 0 0.054909138218837923 -0.00075769682501893954 0 0.055178456460887773 -0.00061577010511613733 0 0.054909138218837923 -0.00075769682501893954 0 0.055132916223081391 -0.0010147070300074914 0 0.05469958484801582 -0.0010548946884764178 0 0.055132916223081391 -0.0010147070300074914 0 0.05469958484801582 -0.0010548946884764178 0 0.054956793839498704 -0.0014339275768851306 0 0.054579397046957558 -0.00063382698233069204 0 0.05469958484801582 -0.0010548946884764178 0 0.054276202487173422 -0.0011412727461849665 0 0.05469958484801582 -0.0010548946884764178 0 0.054276202487173422 -0.0011412727461849665 0 0.054458662654688544 -0.0013650147441168535 0 0.054579397046957558 -0.00063382698233069204 0 0.054276202487173422 -0.0011412727461849665 0 0.05379322616742778 -0.00084005839648097335 0 0.054133649712089324 -0.00089518016328206146 0 0.054401388328459824 -0.00056915473730204439 0 0.054276202487173422 -0.0011412727461849665 0 0.05379322616742778 -0.00084005839648097335 0 0.053817163950319061 -0.0014138878177093943 0 0.053134907442936766 -0.001760357362694966 0 0.05379322616742778 -0.00084005839648097335 0 0.053817163950319061 -0.0014138878177093943 0 0.054970827894563846 -2.7081365670633171e-05 0 0.055010190153014234 -2.2693348923885253e-05 0 0.054993891362215969 -8.8936162721486679e-05 0 0.054688786684914885 -0.00027519579018226771 0 0.054401388328459824 -0.00056915473730204439 0 0.054356686855270286 -0.00028748362685754721 0 0.054579397046957558 -0.00063382698233069204 0 0.05379322616742778 -0.00084005839648097335 0 0.054969393391932027 -2.914599091190626e-05 0 0.05498333917071338 -6.0560859057151779e-05 0 0.055001776210831139 -3.4841108379763606e-05 0 0.055000033085644377 6.7202542587990915e-09 0 0.054969393391932027 -2.914599091190626e-05 0 0.055001776210831139 -3.4841108379763606e-05 0 0.054998377846626131 -7.2548436050438821e-07 0 0.05388328272153451 -0.00033898968167821479 0 0.054998957072363776 -6.5143182348321469e-08 0 0.054460750475779383 -9.0150882743379989e-05 0 0.055000036644997675 -5.8903634757379069e-09 0 0.055011558712541278 -2.4775500782749232e-05 0 0.054996089863152832 -9.4394567307538309e-06 0 0.055000033085644377 6.7202542587990915e-09 0 0.05499993280662762 -1.7050727675496712e-08 0 0.054969393391932027 -2.914599091190626e-05 0 0.055011558712541278 -2.4775500782749232e-05 0 0.054996089863152832 -9.4394567307538309e-06 0 0.054978337195763512 -2.5487718407006212e-05 0 0.055011558712541278 -2.4775500782749232e-05 0 0.054978337195763512 -2.5487718407006212e-05 0 0.054993390318820175 -5.190211500911297e-05 0 0.055000036644997675 -5.8903634757379069e-09 0 0.054996089863152832 -9.4394567307538309e-06 0 0.054999948378971993 -4.8001014197859485e-09 0 0.054999378117942345 -5.1456412256868277e-07 0 0.054662667731226931 -0.00038518986638938691 0 0.054996089863152832 -9.4394567307538309e-06 0 0.054999948378971993 -4.8001014197859485e-09 0 0.054978337195763512 -2.5487718407006212e-05 0 0.055050782002809967 -0.00018899931194375219 0 0.055000439569767266 2.0342379924434341e-08 0 0.055363772435623751 -0.00034947218332433589 0 0.055050782002809967 -0.00018899931194375219 0 0.055363772435623751 -0.00034947218332433589 0 0.055178456460887773 -0.00061577010511613733 0 0.055363772435623751 -0.00034947218332433589 0 0.055178456460887773 -0.00061577010511613733 0 0.055560589558002429 -0.00089638277625681603 0 0.055132916223081391 -0.0010147070300074914 0 0.055178456460887773 -0.00061577010511613733 0 0.055560589558002429 -0.00089638277625681603 0 0.055132916223081391 -0.0010147070300074914 0 0.055560589558002429 -0.00089638277625681603 0 0.055441288280555286 -0.0012937952807263644 0 0.054971330810594209 -9.0566386920602762e-05 0 0.055014583947780603 -8.4722442895950227e-05 0 0.055006461953948038 -0.00017035541285263285 0 0.054022359669587627 -0.00082704073089632753 0 0.052636980184573717 -0.0013913699620992015 0 0.054662667731226931 -0.00038518986638938691 0 0.054022359669587627 -0.00082704073089632753 0 0.054978337195763512 -2.5487718407006212e-05 0 0.054971330810594209 -9.0566386920602762e-05 0 0.054993390318820175 -5.190211500911297e-05 0 0.054971330810594209 -9.0566386920602762e-05 0 0.054993390318820175 -5.190211500911297e-05 0 0.055014583947780603 -8.4722442895950227e-05 0 0.054969393391932027 -2.914599091190626e-05 0 0.054949296869719715 -7.1791872101227244e-05 0 0.05498333917071338 -6.0560859057151779e-05 0 0.054460750475779383 -9.0150882743379989e-05 0 0.053658658616968308 -0.00034572258668849273 0 0.055011558712541278 -2.4775500782749232e-05 0 0.054993390318820175 -5.190211500911297e-05 0 0.055014583947780603 -8.4722442895950227e-05 0 0.053658658616968308 -0.00034572258668849273 0 0.052188626302242164 -0.0013645501684648969 0 0.054949296869719715 -7.1791872101227244e-05 0 0.054981475750338404 -9.6728684796117936e-05 0 0.054938191265848743 -0.00012173605543905425 0 0.054949296869719715 -7.1791872101227244e-05 0 0.054981475750338404 -9.6728684796117936e-05 0 0.05498333917071338 -6.0560859057151779e-05 0 0.045140251002725555 -0.0012411000023460506 0 0.045131431160987202 -0.0012267311788786818 0 0.045114782507827467 -0.0012331575509494151 0 0.045140251002725555 -0.0012411000023460506 0 0.045160989596859366 -0.0012280941167414792 0 0.045131431160987202 -0.0012267311788786818 0 0.045146118717199771 -0.0012576901999405135 0 0.045140251002725555 -0.0012411000023460506 0 0.045125497351810123 -0.001249782305268186 0 0.045146118717199771 -0.0012576901999405135 0 0.045140251002725555 -0.0012411000023460506 0 0.045169987591609825 -0.0012491913666580145 0 0.050978193091920351 -0.0010071121519652083 0 0.052188626302242164 -0.0013645501684648969 0 0.052188626302242164 -0.0013645501684648969 0 0.052636980184573717 -0.0013913699620992015 0 0.051553573040626646 -0.0010766606901154055 0 0.051538320542046226 -0.0014923263603812851 0 0.051435623481596554 -0.0011327481024700767 0 0.045140251002725555 -0.0012411000023460506 0 0.045169987591609825 -0.0012491913666580145 0 0.045160989596859366 -0.0012280941167414792 0 0.052188626302242164 -0.0013645501684648969 0 0.05091611801672246 -0.0013055009602867043 0 0.05091611801672246 -0.0013055009602867043 0 0.052636980184573717 -0.0013913699620992015 0 0.055710819891494366 -0.0016978288963062952 0 0.055577288959288172 -0.0015074756561881937 0 0.055649107061536057 -0.0013875169575298964 0 0.055710819891494366 -0.0016978288963062952 0 0.055501218261602425 -0.0016402349138639404 0 0.055577288959288172 -0.0015074756561881937 0 0.055501218261602425 -0.0016402349138639404 0 0.055448104765458764 -0.0014761132984144356 0 0.055352110644565945 -0.0016280425599839098 0 0.055501218261602425 -0.0016402349138639404 0 0.055352110644565945 -0.0016280425599839098 0 0.055421686491643314 -0.0017156888265712131 0 0.055501218261602425 -0.0016402349138639404 0 0.055448104765458764 -0.0014761132984144356 0 0.055577288959288172 -0.0015074756561881937 0 0.055448104765458764 -0.0014761132984144356 0 0.055577288959288172 -0.0015074756561881937 0 0.05553020128936563 -0.0014369923133902747 0 0.055577288959288172 -0.0015074756561881937 0 0.055616241774334461 -0.0014049257212754829 0 0.05553020128936563 -0.0014369923133902747 0 0.055658933566280003 -0.001386939739616124 0 0.055616241774334461 -0.0014049257212754829 0 0.055441288280555286 -0.0012937952807263644 0 0.055560589558002429 -0.00089638277625681603 0 0.055658933566280003 -0.001386939739616124 0 0.055441288280555286 -0.0012937952807263644 0 0.054971330810594209 -9.0566386920602762e-05 0 0.055006461953948038 -0.00017035541285263285 0 0.054984115440209508 -0.00018138908875693597 0 0.052636980184573717 -0.0013913699620992015 0 0.052661871897058454 -0.0013829838035928038 0 0.055577288959288172 -0.0015074756561881937 0 0.055649107061536057 -0.0013875169575298964 0 0.055616241774334461 -0.0014049257212754829 0 0.055448104765458764 -0.0014761132984144356 0 0.055441288280555286 -0.0012937952807263644 0 0.05553020128936563 -0.0014369923133902747 0 0.055616241774334461 -0.0014049257212754829 0 0.055441288280555286 -0.0012937952807263644 0 0.05553020128936563 -0.0014369923133902747 0 0.055441288280555286 -0.0012937952807263644 0 0.055197688019983836 -0.0014609341861177769 0 0.055335059184945627 -0.0014918003500184664 0 0.055441288280555286 -0.0012937952807263644 0 0.055197688019983836 -0.0014609341861177769 0 0.054978502891189204 -0.0013405866500479765 0 0.055132916223081391 -0.0010147070300074914 0 0.055441288280555286 -0.0012937952807263644 0 0.054956793839498704 -0.0014339275768851306 0 0.055074836577822972 -0.0014142272826904868 0 0.054734231204413633 -0.0014734413988425831 0 0.055448104765458764 -0.0014761132984144356 0 0.055441288280555286 -0.0012937952807263644 0 0.055335059184945627 -0.0014918003500184664 0 0.055197688019983836 -0.0014609341861177769 0 0.055335059184945627 -0.0014918003500184664 0 0.055259231456837206 -0.0016023299568059095 0 0.055335059184945627 -0.0014918003500184664 0 0.055352110644565945 -0.0016280425599839098 0 0.055259231456837206 -0.0016023299568059095 0 0.055448104765458764 -0.0014761132984144356 0 0.055335059184945627 -0.0014918003500184664 0 0.055352110644565945 -0.0016280425599839098 0 0.055352110644565945 -0.0016280425599839098 0 0.055259231456837206 -0.0016023299568059095 0 0.055269133521242145 -0.001722420028792431 0 0.055197688019983836 -0.0014609341861177769 0 0.055259231456837206 -0.0016023299568059095 0 0.055141103624985748 -0.0017062979023432713 0 0.055259231456837206 -0.0016023299568059095 0 0.055269133521242145 -0.001722420028792431 0 0.055141103624985748 -0.0017062979023432713 0 0.055269133521242145 -0.001722420028792431 0 0.055299203377514865 -0.0019516418538259748 0 0.055141103624985748 -0.0017062979023432713 0 0.055352110644565945 -0.0016280425599839098 0 0.055348679475270945 -0.0017908500294096603 0 0.055421686491643314 -0.0017156888265712131 0 0.055269133521242145 -0.001722420028792431 0 0.055348679475270945 -0.0017908500294096603 0 0.055299203377514865 -0.0019516418538259748 0 0.055352110644565945 -0.0016280425599839098 0 0.055269133521242145 -0.001722420028792431 0 0.055348679475270945 -0.0017908500294096603 0 0.055348679475270945 -0.0017908500294096603 0 0.055299203377514865 -0.0019516418538259748 0 0.05539312436699969 -0.0018667510961000377 0 0.055299203377514865 -0.0019516418538259748 0 0.05539312436699969 -0.0018667510961000377 0 0.055442052440066905 -0.0019214219842207457 0 0.051843005843752434 -0.0016285810164566701 0 0.051806327667628244 -0.0015084532403054837 0 0.051980886356749113 -0.0014995922748621588 0 0.051806327667628244 -0.0015084532403054837 0 0.051804632920572996 -0.001410708559529862 0 0.051980886356749113 -0.0014995922748621588 0 0.051804632920572996 -0.001410708559529862 0 0.051593857988077724 -0.0014953039041083744 0 0.051676070774513631 -0.0013387332793445735 0 0.051806327667628244 -0.0015084532403054837 0 0.051804632920572996 -0.001410708559529862 0 0.051593857988077724 -0.0014953039041083744 0 0.051094957247865197 -0.0017784671168696168 0 0.050881738699427068 -0.0017079051861873711 0 0.051843005843752434 -0.0016285810164566701 0 0.051806327667628244 -0.0015084532403054837 0 0.051593857988077724 -0.0014953039041083744 0 0.051760110192193842 -0.0016179782908615045 0 0.051843005843752434 -0.0016285810164566701 0 0.051600093282609769 -0.0014810669917502232 0 0.055506717348918377 -0.0020217333545503465 0 0.055572886761928057 -0.001915408271753857 0 0.055442052440066905 -0.0019214219842207457 0 0.055299203377514865 -0.0019516418538259748 0 0.055506717348918377 -0.0020217333545503465 0 0.055442052440066905 -0.0019214219842207457 0 0.052725152262057172 -0.0020743143846756826 0 0.050210793575071917 -0.0014881944169075991 0 0.055299203377514865 -0.0019516418538259748 0 0.055506717348918377 -0.0020217333545503465 0 0.055633446742622029 -0.0021983343486507885 0 0.051760110192193842 -0.0016179782908615045 0 0.051600093282609769 -0.0014810669917502232 0 0.051356012537414231 -0.0013296435863596695 0 0.050881738699427068 -0.0017079051861873711 0 0.050210793575071917 -0.0014881944169075991 0 0.055506717348918377 -0.0020217333545503465 0 0.055611057079337431 -0.0020742840005312201 0 0.055633446742622029 -0.0021983343486507885 0 0.055611057079337431 -0.0020742840005312201 0 0.055572886761928057 -0.001915408271753857 0 0.055684431516580257 -0.0019658207313878158 0 0.055506717348918377 -0.0020217333545503465 0 0.055611057079337431 -0.0020742840005312201 0 0.055572886761928057 -0.001915408271753857 0 0.055572886761928057 -0.001915408271753857 0 0.055442052440066905 -0.0019214219842207457 0 0.055484005941311101 -0.0018020784595838737 0 0.05539312436699969 -0.0018667510961000377 0 0.055442052440066905 -0.0019214219842207457 0 0.055484005941311101 -0.0018020784595838737 0 0.055348679475270945 -0.0017908500294096603 0 0.055421686491643314 -0.0017156888265712131 0 0.055484005941311101 -0.0018020784595838737 0 0.055348679475270945 -0.0017908500294096603 0 0.05539312436699969 -0.0018667510961000377 0 0.055484005941311101 -0.0018020784595838737 0 0.055501218261602425 -0.0016402349138639404 0 0.055421686491643314 -0.0017156888265712131 0 0.055484005941311101 -0.0018020784595838737 0 0.055710819891494366 -0.0016978288963062952 0 0.055572886761928057 -0.001915408271753857 0 0.055484005941311101 -0.0018020784595838737 0 0.055710819891494366 -0.0016978288963062952 0 0.055501218261602425 -0.0016402349138639404 0 0.055484005941311101 -0.0018020784595838737 0 0.049375999074759321 -0.0014215857390418947 0 0.049280921232000049 -0.0011311364230876309 0 0.049375433111911247 -0.0011913801612880551 0 0.05091611801672246 -0.0013055009602867043 0 0.048730045747285497 -0.00078910802071213444 0 0.055710819891494366 -0.0016978288963062952 0 0.055572886761928057 -0.001915408271753857 0 0.055684431516580257 -0.0019658207313878158 0 0.05091611801672246 -0.0013055009602867043 0 0.050476036442212373 -0.0013606116468468214 0 0.045160989596859366 -0.0012280941167414792 0 0.04514038148488677 -0.0012052207020024389 0 0.045127689563753529 -0.0012146672113982665 0 0.050476036442212373 -0.0013606116468468214 0 0.049528312897027527 -0.0012324043064948012 0 0.049280921232000049 -0.0011311364230876309 0 0.049375433111911247 -0.0011913801612880551 0 0.049377797791123813 -0.000957200647279564 0 0.055611057079337431 -0.0020742840005312201 0 0.055684431516580257 -0.0019658207313878158 0 0.055664785599715952 -0.002223814504282896 0 0.055611057079337431 -0.0020742840005312201 0 0.055633446742622029 -0.0021983343486507885 0 0.055664785599715952 -0.002223814504282896 0 0.04510471646514394 -0.001198303283668944 0 0.045127689563753529 -0.0012146672113982665 0 0.045103104824780825 -0.0012119007518844132 0 0.04514038148488677 -0.0012052207020024389 0 0.04510471646514394 -0.001198303283668944 0 0.045116457583332971 -0.0011712576253127525 0 0.04514038148488677 -0.0012052207020024389 0 0.04510471646514394 -0.001198303283668944 0 0.045127689563753529 -0.0012146672113982665 0 0.045160989596859366 -0.0012280941167414792 0 0.045127689563753529 -0.0012146672113982665 0 0.045131431160987202 -0.0012267311788786818 0 0.045127689563753529 -0.0012146672113982665 0 0.045131431160987202 -0.0012267311788786818 0 0.045103104824780825 -0.0012119007518844132 0 0.052676488825572777 -0.0019397419752959627 0 0.052830261864013753 -0.0020026280137421942 0 0.05255399700491304 -0.0020733278378613435 0 0.052676488825572777 -0.0019397419752959627 0 0.052491657738389735 -0.0018918631936960947 0 0.05255399700491304 -0.0020733278378613435 0 0.052491657738389735 -0.0018918631936960947 0 0.052661417858581652 -0.0018210366795020202 0 0.052429045980670379 -0.0017243599039737931 0 0.052676488825572777 -0.0019397419752959627 0 0.052491657738389735 -0.0018918631936960947 0 0.052661417858581652 -0.0018210366795020202 0 0.052676488825572777 -0.0019397419752959627 0 0.052661417858581652 -0.0018210366795020202 0 0.052798629304331539 -0.0018714267009282482 0 0.052661417858581652 -0.0018210366795020202 0 0.052798629304331539 -0.0018714267009282482 0 0.052884915635932297 -0.0017441744786403622 0 0.053110589496435386 -0.0018053079038718206 0 0.052973151648446321 -0.0018166465396984093 0 0.052830261864013753 -0.0020026280137421942 0 0.052973151648446321 -0.0018166465396984093 0 0.052798629304331539 -0.0018714267009282482 0 0.052884915635932297 -0.0017441744786403622 0 0.052973151648446321 -0.0018166465396984093 0 0.052798629304331539 -0.0018714267009282482 0 0.052830261864013753 -0.0020026280137421942 0 0.052676488825572777 -0.0019397419752959627 0 0.052798629304331539 -0.0018714267009282482 0 0.052830261864013753 -0.0020026280137421942 0 0.05369575445046551 -0.0018804754301712139 0 0.053817163950319061 -0.0014138878177093943 0 0.054180341604297182 -0.0016284224293782274 0 0.05333910705457192 -0.0017411456620612629 0 0.053430092765770473 -0.0017213151854429318 0 0.053110589496435386 -0.0018053079038718206 0 0.053134907442936766 -0.001760357362694966 0 0.05369575445046551 -0.0018804754301712139 0 0.053134907442936766 -0.001760357362694966 0 0.05369575445046551 -0.0018804754301712139 0 0.053817163950319061 -0.0014138878177093943 0 0.053430092765770473 -0.0017213151854429318 0 0.053707840784669732 -0.0016435033845765327 0 0.05369575445046551 -0.0018804754301712139 0 0.054180341604297182 -0.0016284224293782274 0 0.054348358931816797 -0.0017483771506358312 0 0.054276202487173422 -0.0011412727461849665 0 0.053817163950319061 -0.0014138878177093943 0 0.054180341604297182 -0.0016284224293782274 0 0.054180341604297182 -0.0016284224293782274 0 0.054304841875969762 -0.0016742160055305609 0 0.054458662654688544 -0.0013650147441168535 0 0.053721806696581102 -0.001650170369107316 0 0.053707840784669732 -0.0016435033845765327 0 0.054276202487173422 -0.0011412727461849665 0 0.054180341604297182 -0.0016284224293782274 0 0.054458662654688544 -0.0013650147441168535 0 0.054304841875969762 -0.0016742160055305609 0 0.054458662654688544 -0.0013650147441168535 0 0.054956793839498704 -0.0014339275768851306 0 0.053707840784669732 -0.0016435033845765327 0 0.054734231204413633 -0.0014734413988425831 0 0.05469958484801582 -0.0010548946884764178 0 0.054458662654688544 -0.0013650147441168535 0 0.054956793839498704 -0.0014339275768851306 0 0.055197688019983836 -0.0014609341861177769 0 0.054978502891189204 -0.0013405866500479765 0 0.054915940504658922 -0.0016845799423609576 0 0.055197688019983836 -0.0014609341861177769 0 0.054915940504658922 -0.0016845799423609576 0 0.055141103624985748 -0.0017062979023432713 0 0.05451963849708235 -0.0013937283023046508 0 0.054978502891189204 -0.0013405866500479765 0 0.054915940504658922 -0.0016845799423609576 0 0.053707840784669732 -0.0016435033845765327 0 0.053360755986219192 -0.0018803135085985569 0 0.052491657738389735 -0.0018918631936960947 0 0.05255399700491304 -0.0020733278378613435 0 0.05216652941386854 -0.0018569441026505009 0 0.052491657738389735 -0.0018918631936960947 0 0.05216652941386854 -0.0018569441026505009 0 0.052429045980670379 -0.0017243599039737931 0 0.05216652941386854 -0.0018569441026505009 0 0.052429045980670379 -0.0017243599039737931 0 0.052175259563433558 -0.0016059858475280027 0 0.052429045980670379 -0.0017243599039737931 0 0.052175259563433558 -0.0016059858475280027 0 0.052425237305233449 -0.0015155182827056286 0 0.055299203377514865 -0.0019516418538259748 0 0.054915940504658922 -0.0016845799423609576 0 0.055141103624985748 -0.0017062979023432713 0 0.051760110192193842 -0.0016179782908615045 0 0.051843005843752434 -0.0016285810164566701 0 0.05216652941386854 -0.0018569441026505009 0 0.051843005843752434 -0.0016285810164566701 0 0.05216652941386854 -0.0018569441026505009 0 0.052175259563433558 -0.0016059858475280027 0 0.052725152262057172 -0.0020743143846756826 0 0.053360755986219192 -0.0018803135085985569 0 0.052175259563433558 -0.0016059858475280027 0 0.051980886356749113 -0.0014995922748621588 0 0.052186409664673625 -0.0013604932728189933 0 0.051843005843752434 -0.0016285810164566701 0 0.052175259563433558 -0.0016059858475280027 0 0.051980886356749113 -0.0014995922748621588 0 0.051980886356749113 -0.0014995922748621588 0 0.052186409664673625 -0.0013604932728189933 0 0.051956150287946937 -0.0013106969996790714 0 0.051804632920572996 -0.001410708559529862 0 0.051980886356749113 -0.0014995922748621588 0 0.051956150287946937 -0.0013106969996790714 0 0.052175259563433558 -0.0016059858475280027 0 0.052425237305233449 -0.0015155182827056286 0 0.052186409664673625 -0.0013604932728189933 0 0.052425237305233449 -0.0015155182827056286 0 0.052186409664673625 -0.0013604932728189933 0 0.052441894420672736 -0.0012690224091683573 0 0.052425237305233449 -0.0015155182827056286 0 0.052679567405449247 -0.0014373321301699902 0 0.052441894420672736 -0.0012690224091683573 0 0.052425237305233449 -0.0015155182827056286 0 0.052679567405449247 -0.0014373321301699902 0 0.052640782026579014 -0.0016512609209906257 0 0.052429045980670379 -0.0017243599039737931 0 0.052425237305233449 -0.0015155182827056286 0 0.052640782026579014 -0.0016512609209906257 0 0.052661417858581652 -0.0018210366795020202 0 0.052429045980670379 -0.0017243599039737931 0 0.052640782026579014 -0.0016512609209906257 0 0.052661417858581652 -0.0018210366795020202 0 0.052640782026579014 -0.0016512609209906257 0 0.052884915635932297 -0.0017441744786403622 0 0.052640782026579014 -0.0016512609209906257 0 0.052884915635932297 -0.0017441744786403622 0 0.05282379961452232 -0.0016132144851243768 0 0.052963657424950884 -0.0016604423580947221 0 0.052884915635932297 -0.0017441744786403622 0 0.05282379961452232 -0.0016132144851243768 0 0.052918941241027487 -0.001499718909986709 0 0.052679567405449247 -0.0014373321301699902 0 0.05282379961452232 -0.0016132144851243768 0 0.052918941241027487 -0.001499718909986709 0 0.052679567405449247 -0.0014373321301699902 0 0.052866209649533355 -0.0013171639381067545 0 0.052679567405449247 -0.0014373321301699902 0 0.052640782026579014 -0.0016512609209906257 0 0.05282379961452232 -0.0016132144851243768 0 0.052963657424950884 -0.0016604423580947221 0 0.052918941241027487 -0.001499718909986709 0 0.05282379961452232 -0.0016132144851243768 0 0.053053513606337602 -0.0011220089702389496 0 0.052866209649533355 -0.0013171639381067545 0 0.052700070106077176 -0.0011056621881114707 0 0.052679567405449247 -0.0014373321301699902 0 0.052866209649533355 -0.0013171639381067545 0 0.052700070106077176 -0.0011056621881114707 0 0.052441894420672736 -0.0012690224091683573 0 0.052700070106077176 -0.0011056621881114707 0 0.052399771949259821 -0.0010090415779576108 0 0.052679567405449247 -0.0014373321301699902 0 0.052441894420672736 -0.0012690224091683573 0 0.052700070106077176 -0.0011056621881114707 0 0.052700070106077176 -0.0011056621881114707 0 0.052543394953626497 -0.00079134707224515308 0 0.052399771949259821 -0.0010090415779576108 0 0.052700070106077176 -0.0011056621881114707 0 0.052798846650205226 -0.00075023341524384864 0 0.052543394953626497 -0.00079134707224515308 0 0.053053513606337602 -0.0011220089702389496 0 0.052700070106077176 -0.0011056621881114707 0 0.052798846650205226 -0.00075023341524384864 0 0.052798846650205226 -0.00075023341524384864 0 0.052543394953626497 -0.00079134707224515308 0 0.052511408703844742 -0.00038214103745292202 0 0.052543394953626497 -0.00079134707224515308 0 0.052511408703844742 -0.00038214103745292202 0 0.052308189256794119 -0.00069681263889017893 0 0.052543394953626497 -0.00079134707224515308 0 0.052308189256794119 -0.00069681263889017893 0 0.052399771949259821 -0.0010090415779576108 0 0.052065603747426088 0.0011560365244842536 0 0.051608026550365997 0.00018854548964351722 0 0.051496132915021142 0.00098212792687548539 0 0.051608026550365997 0.00018854548964351722 0 0.050991344321402808 0.0010395353985603044 0 0.051496132915021142 0.00098212792687548539 0 0.051314687257181898 -0.0009565354256864132 0 0.049793596853370238 -0.001088589334436487 0 0.052014366200818479 -0.00048378605329210813 0 0.051667526704936254 -0.00047828654175746958 0 0.051961555959762318 -0.00022556387161503381 0 0.052014366200818479 -0.00048378605329210813 0 0.052213770589352546 -0.00032941185736513916 0 0.051961555959762318 -0.00022556387161503381 0 0.052511408703844742 -0.00038214103745292202 0 0.052308189256794119 -0.00069681263889017893 0 0.052213770589352546 -0.00032941185736513916 0 0.052014366200818479 -0.00048378605329210813 0 0.052308189256794119 -0.00069681263889017893 0 0.052213770589352546 -0.00032941185736513916 0 0.052308189256794119 -0.00069681263889017893 0 0.052062395940073197 -0.0007386366177687039 0 0.052113665964722465 -0.00098238606272140839 0 0.052014366200818479 -0.00048378605329210813 0 0.052308189256794119 -0.00069681263889017893 0 0.052062395940073197 -0.0007386366177687039 0 0.052014366200818479 -0.00048378605329210813 0 0.052062395940073197 -0.0007386366177687039 0 0.051821870353311594 -0.00069441778807759398 0 0.052062395940073197 -0.0007386366177687039 0 0.051849473787596349 -0.0009254404488337625 0 0.051821870353311594 -0.00069441778807759398 0 0.052062395940073197 -0.0007386366177687039 0 0.052113665964722465 -0.00098238606272140839 0 0.051849473787596349 -0.0009254404488337625 0 0.052113665964722465 -0.00098238606272140839 0 0.051921524052286457 -0.0011070977927404482 0 0.052076922843222552 -0.0011849696168232766 0 0.052113665964722465 -0.00098238606272140839 0 0.052241076833662754 -0.0011642549630032537 0 0.052076922843222552 -0.0011849696168232766 0 0.052113665964722465 -0.00098238606272140839 0 0.051921524052286457 -0.0011070977927404482 0 0.051849473787596349 -0.0009254404488337625 0 0.052113665964722465 -0.00098238606272140839 0 0.052399771949259821 -0.0010090415779576108 0 0.052241076833662754 -0.0011642549630032537 0 0.052308189256794119 -0.00069681263889017893 0 0.052113665964722465 -0.00098238606272140839 0 0.052399771949259821 -0.0010090415779576108 0 0.052186409664673625 -0.0013604932728189933 0 0.052441894420672736 -0.0012690224091683573 0 0.052241076833662754 -0.0011642549630032537 0 0.052441894420672736 -0.0012690224091683573 0 0.052399771949259821 -0.0010090415779576108 0 0.052241076833662754 -0.0011642549630032537 0 0.052186409664673625 -0.0013604932728189933 0 0.052241076833662754 -0.0011642549630032537 0 0.052076922843222552 -0.0011849696168232766 0 0.051921524052286457 -0.0011070977927404482 0 0.052076922843222552 -0.0011849696168232766 0 0.051956150287946937 -0.0013106969996790714 0 0.052186409664673625 -0.0013604932728189933 0 0.052076922843222552 -0.0011849696168232766 0 0.051956150287946937 -0.0013106969996790714 0 0.051804632920572996 -0.001410708559529862 0 0.051956150287946937 -0.0013106969996790714 0 0.051768869289816284 -0.0012497505226147126 0 0.051921524052286457 -0.0011070977927404482 0 0.051956150287946937 -0.0013106969996790714 0 0.051768869289816284 -0.0012497505226147126 0 0.051921524052286457 -0.0011070977927404482 0 0.051768869289816284 -0.0012497505226147126 0 0.05172234758247491 -0.0010934561882430761 0 0.051768869289816284 -0.0012497505226147126 0 0.051536008838910352 -0.0012007127648996302 0 0.05172234758247491 -0.0010934561882430761 0 0.051768869289816284 -0.0012497505226147126 0 0.051676070774513631 -0.0013387332793445735 0 0.051536008838910352 -0.0012007127648996302 0 0.051804632920572996 -0.001410708559529862 0 0.051768869289816284 -0.0012497505226147126 0 0.051676070774513631 -0.0013387332793445735 0 0.051593857988077724 -0.0014953039041083744 0 0.051676070774513631 -0.0013387332793445735 0 0.051536008838910352 -0.0012007127648996302 0 0.051536008838910352 -0.0012007127648996302 0 0.051318750703949895 -0.0013227265697789055 0 0.051311994244322069 -0.00083333430009011999 0 0.051593857988077724 -0.0014953039041083744 0 0.051536008838910352 -0.0012007127648996302 0 0.05135700854471769 -0.001350716853390482 0 0.051536008838910352 -0.0012007127648996302 0 0.05135700854471769 -0.001350716853390482 0 0.051318750703949895 -0.0013227265697789055 0 0.051536008838910352 -0.0012007127648996302 0 0.05162530473885793 -0.0008744286193697661 0 0.051311994244322069 -0.00083333430009011999 0 0.051536008838910352 -0.0012007127648996302 0 0.05162530473885793 -0.0008744286193697661 0 0.05172234758247491 -0.0010934561882430761 0 0.05162530473885793 -0.0008744286193697661 0 0.051849473787596349 -0.0009254404488337625 0 0.05172234758247491 -0.0010934561882430761 0 0.051921524052286457 -0.0011070977927404482 0 0.051849473787596349 -0.0009254404488337625 0 0.05172234758247491 -0.0010934561882430761 0 0.045116457583332971 -0.0011712576253127525 0 0.045050115873511667 -0.0011875775863390968 0 0.045078303935352615 -0.0011887802161171146 0 0.04510471646514394 -0.001198303283668944 0 0.045116457583332971 -0.0011712576253127525 0 0.045078303935352615 -0.0011887802161171146 0 0.043415200174075755 -0.00039004409804396068 0 0.042793843542433908 1.0765083162350369e-05 0 0.04277793614352083 -0.0014209436062725179 0 0.049280921232000049 -0.0011311364230876309 0 0.049187686528762452 -0.00083846751947894854 0 0.049377797791123813 -0.000957200647279564 0 0.048730045747285497 -0.00078910802071213444 0 0.047224471576249247 -0.00021365341535093806 0 0.047224471576249247 -0.00021365341535093806 0 0.049528312897027527 -0.0012324043064948012 0 0.050210793575071917 -0.0014881944169075991 0 0.049528312897027527 -0.0012324043064948012 0 0.043415200174075755 -0.00039004409804396068 0 0.042975399968001295 -0.0013767123908055279 0 0.04277793614352083 -0.0014209436062725179 0 0.043415200174075755 -0.00039004409804396068 0 0.043569328858352907 -0.0010619841008728218 0 0.042975399968001295 -0.0013767123908055279 0 0.049528312897027527 -0.0012324043064948012 0 0.046893887505748535 -0.00090931284624730488 0 0.043569328858352907 -0.0010619841008728218 0 0.043900828008491488 -0.0016682804187143519 0 0.042975399968001295 -0.0013767123908055279 0 0.043300472915529194 -0.00017588907704479482 0 0.044103243751285867 -0.00084466427574399726 0 0.045007185463325564 -0.0012107966549093647 0 0.045116457583332971 -0.0011712576253127525 0 0.045050115873511667 -0.0011875775863390968 0 0.045007185463325564 -0.0012107966549093647 0 0.047224471576249247 -0.00021365341535093806 0 0.045964918408257512 -6.4374945164050884e-05 0 0.043415200174075755 -0.00039004409804396068 0 0.043569328858352907 -0.0010619841008728218 0 0.044103243751285867 -0.00084466427574399726 0 0.047224471576249247 -0.00021365341535093806 0 0.046581564658724546 5.3338213721499763e-05 0 0.043569328858352907 -0.0010619841008728218 0 0.044103243751285867 -0.00084466427574399726 0 0.043900828008491488 -0.0016682804187143519 0 0.044103243751285867 -0.00084466427574399726 0 0.043900828008491488 -0.0016682804187143519 0 0.044616978884603843 -0.0014602246555904432 0 0.042530039254511716 -0.0012455117094823656 0 0.042485592080362823 -0.0010162131338758162 0 0.042243093213943754 -0.0013616773810921946 0 0.042538238963408553 -0.0014215101417100592 0 0.042739083963245224 -0.0012863878772925066 0 0.042975399968001295 -0.0013767123908055279 0 0.042530039254511716 -0.0012455117094823656 0 0.042538238963408553 -0.0014215101417100592 0 0.042243093213943754 -0.0013616773810921946 0 0.042475020726308627 -0.0013584121785408972 0 0.042658722723560749 -0.0013904665285123911 0 0.042530039254511716 -0.0012455117094823656 0 0.042739083963245224 -0.0012863878772925066 0 0.042670374832604163 -0.0011443767620618586 0 0.042530039254511716 -0.0012455117094823656 0 0.042538238963408553 -0.0014215101417100592 0 0.042739083963245224 -0.0012863878772925066 0 0.042739083963245224 -0.0012863878772925066 0 0.042842188563253114 -0.0012008414214310795 0 0.042670374832604163 -0.0011443767620618586 0 0.042739083963245224 -0.0012863878772925066 0 0.042852007980400245 -0.0013364842150299198 0 0.042842188563253114 -0.0012008414214310795 0 0.042739083963245224 -0.0012863878772925066 0 0.042975399968001295 -0.0013767123908055279 0 0.042852007980400245 -0.0013364842150299198 0 0.042975399968001295 -0.0013767123908055279 0 0.042852007980400245 -0.0013364842150299198 0 0.04277793614352083 -0.0014209436062725179 0 0.042852007980400245 -0.0013364842150299198 0 0.04277793614352083 -0.0014209436062725179 0 0.042842188563253114 -0.0012008414214310795 0 0.046893887505748535 -0.00090931284624730488 0 0.044121698089715777 -0.00046737171624293964 0 0.04277793614352083 -0.0014209436062725179 0 0.042842188563253114 -0.0012008414214310795 0 0.043021838533961861 -0.00095700704972302058 0 0.042842188563253114 -0.0012008414214310795 0 0.042739935723358165 -0.0010151185707950156 0 0.043021838533961861 -0.00095700704972302058 0 0.042842188563253114 -0.0012008414214310795 0 0.042739935723358165 -0.0010151185707950156 0 0.042670374832604163 -0.0011443767620618586 0 0.042530039254511716 -0.0012455117094823656 0 0.042670374832604163 -0.0011443767620618586 0 0.042485592080362823 -0.0010162131338758162 0 0.042739935723358165 -0.0010151185707950156 0 0.042670374832604163 -0.0011443767620618586 0 0.042485592080362823 -0.0010162131338758162 0 0.042739935723358165 -0.0010151185707950156 0 0.042485592080362823 -0.0010162131338758162 0 0.042650076783735877 -0.00074791427313646735 0 0.05162530473885793 -0.0008744286193697661 0 0.051821870353311594 -0.00069441778807759398 0 0.051667526704936254 -0.00047828654175746958 0 0.05162530473885793 -0.0008744286193697661 0 0.051849473787596349 -0.0009254404488337625 0 0.051821870353311594 -0.00069441778807759398 0 0.05162530473885793 -0.0008744286193697661 0 0.051311994244322069 -0.00083333430009011999 0 0.051667526704936254 -0.00047828654175746958 0 0.051311994244322069 -0.00083333430009011999 0 0.051667526704936254 -0.00047828654175746958 0 0.051290233949789807 -0.000335069594958129 0 0.052014366200818479 -0.00048378605329210813 0 0.051821870353311594 -0.00069441778807759398 0 0.051667526704936254 -0.00047828654175746958 0 0.051667526704936254 -0.00047828654175746958 0 0.051745681467499333 8.1465832397061605e-05 0 0.051290233949789807 -0.000335069594958129 0 0.051667526704936254 -0.00047828654175746958 0 0.051745681467499333 8.1465832397061605e-05 0 0.051961555959762318 -0.00022556387161503381 0 0.05127289463839739 0.00018193199247555397 0 0.051745681467499333 8.1465832397061605e-05 0 0.051290233949789807 -0.000335069594958129 0 0.03888456503201277 7.7254753897816221e-05 0 0.044057317917373683 -0.0010850162619626363 0 0.034481229991857661 -0.00183005326087803 0 0.037710410887775797 -0.0025556467409710935 0 0.036645274347825774 -0.0013874904235751493 0 0.042650076783735877 -0.00074791427313646735 0 0.042128322303405477 -0.0002859789404489179 0 0.041525916491558658 -0.00071196721548720629 0 0.042485592080362823 -0.0010162131338758162 0 0.042650076783735877 -0.00074791427313646735 0 0.04214111807976044 -0.00072452058398325735 0 0.04066335513746016 -0.0007817797935755356 0 0.036751174681916958 -0.00054961203803667537 0 0.042650076783735877 -0.00074791427313646735 0 0.043021838533961861 -0.00095700704972302058 0 0.042655430752934667 -0.00026955072862029248 0 0.03888456503201277 7.7254753897816221e-05 0 0.044121698089715777 -0.00046737171624293964 0 0.042739935723358165 -0.0010151185707950156 0 0.042650076783735877 -0.00074791427313646735 0 0.043021838533961861 -0.00095700704972302058 0 0.043091268084260947 3.162738655572266e-05 0 0.043021838533961861 -0.00095700704972302058 0 0.042655430752934667 -0.00026955072862029248 0 0.043091268084260947 3.162738655572266e-05 0 0.042655430752934667 -0.00026955072862029248 0 0.042341091375946577 0.00023599219615421131 0 0.042650076783735877 -0.00074791427313646735 0 0.042655430752934667 -0.00026955072862029248 0 0.042128322303405477 -0.0002859789404489179 0 0.042655430752934667 -0.00026955072862029248 0 0.042128322303405477 -0.0002859789404489179 0 0.042341091375946577 0.00023599219615421131 0 0.027340042304754515 0.00099429770994587997 0 0.027242770191132665 0.001435019227422599 0 0.02683462620848941 0.0011047401287596886 0 0.042128322303405477 -0.0002859789404489179 0 0.042341091375946577 0.00023599219615421131 0 0.041516839262427392 0.00042809707951663997 0 0.027852393847123302 0.00088327383282682059 0 0.027340042304754515 0.00099429770994587997 0 0.027846450526265876 0.0014926857077472032 0 0.03888456503201277 7.7254753897816221e-05 0 0.034282143329763926 0.0009385648283571083 0 0.027242770191132665 0.001435019227422599 0 0.027846450526265876 0.0014926857077472032 0 0.027297687008706831 0.0019176474955766238 0 0.027340042304754515 0.00099429770994587997 0 0.027242770191132665 0.001435019227422599 0 0.027846450526265876 0.0014926857077472032 0 0.037710410887775797 -0.0025556467409710935 0 0.037259930898239327 -0.00092194586603172124 0 0.039400046435989676 -0.0012543630242589101 0 0.037285845015892445 -0.00014749331245771073 0 0.037259930898239327 -0.00092194586603172124 0 0.039400046435989676 -0.0012543630242589101 0 0.037285845015892445 -0.00014749331245771073 0 0.037755873505130613 0.00075289044239380115 0 0.039400046435989676 -0.0012543630242589101 0 0.036485097871824475 -0.00040936537089970089 0 0.037233784160135348 -0.00020674132842854969 0 0.036208438601689603 0.0006914123287108131 0 0.036485097871824475 -0.00040936537089970089 0 0.037233784160135348 -0.00020674132842854969 0 0.036645274347825774 -0.0013874904235751493 0 0.034374465506028302 0.00033507808939230903 0 0.034416507250598166 0.00028110025952043867 0 0.037710410887775797 -0.0025556467409710935 0 0.036645274347825774 -0.0013874904235751493 0 0.037259930898239327 -0.00092194586603172124 0 0.034374465506028302 0.00033507808939230903 0 0.034490629195842414 0.00026866634037678593 0 0.037282251944419885 -0.0001468625937443267 0 0.036645274347825774 -0.0013874904235751493 0 0.037259930898239327 -0.00092194586603172124 0 0.03888456503201277 7.7254753897816221e-05 0 0.032649221032152904 0.0011118040748011187 0 0.034481229991857661 -0.00183005326087803 0 0.035718296319527512 -0.00038936145384670074 0 0.034585792366349934 0.0012632812968393415 0 0.034481229991857661 -0.00183005326087803 0 0.036645274347825774 -0.0013874904235751493 0 0.035718296319527512 -0.00038936145384670074 0 0.036485097871824475 -0.00040936537089970089 0 0.035718296319527512 -0.00038936145384670074 0 0.036208438601689603 0.0006914123287108131 0 0.036485097871824475 -0.00040936537089970089 0 0.036645274347825774 -0.0013874904235751493 0 0.035718296319527512 -0.00038936145384670074 0 0.036208438601689603 0.0006914123287108131 0 0.034585792366349934 0.0012632812968393415 0 0.035961078825197522 0.0027337654661294397 0 0.035718296319527512 -0.00038936145384670074 0 0.036208438601689603 0.0006914123287108131 0 0.034585792366349934 0.0012632812968393415 0 0.031954324662951367 0.001974700613556069 0 0.032077275795414174 0.0018210158942800997 0 0.031551545369200171 0.0012156931027944458 0 0.036208438601689603 0.0006914123287108131 0 0.037267864561636332 0.00114331783856236 0 0.035961078825197522 0.0027337654661294397 0 0.033206565515778073 0.00073747061294845192 0 0.030412948765320667 0.0010729476624259542 0 0.037233784160135348 -0.00020674132842854969 0 0.036208438601689603 0.0006914123287108131 0 0.037267864561636332 0.00114331783856236 0 0.033368949984861722 0.0014510708012585674 0 0.032543720157569185 -0.00012102565417959133 0 0.033280107500062786 -0.0010312791786325425 0 0.034374465506028302 0.00033507808939230903 0 0.033206565515778073 0.00073747061294845192 0 0.034374465506028302 0.00033507808939230903 0 0.035096321850859508 0.00048250050502371275 0 0.035096321850859508 0.00048250050502371275 0 0.033206565515778073 0.00073747061294845192 0 0.05054484750484154 0.0020433011793181853 0 0.050738672788095872 0.0020616184251336903 0 0.050680374288253768 0.0022266805516387546 0 0.035096321850859508 0.00048250050502371275 0 0.037697876963555775 0.0022307960371581439 0 0.05054484750484154 0.0020433011793181853 0 0.050738672788095872 0.0020616184251336903 0 0.050665480431569841 0.001881703597039064 0 0.035096321850859508 0.00048250050502371275 0 0.041887530792549435 -0.00093607331991985162 0 0.050738672788095872 0.0020616184251336903 0 0.050665480431569841 0.001881703597039064 0 0.050903522133103611 0.0019771347879576177 0 0.050665480431569841 0.001881703597039064 0 0.050903522133103611 0.0019771347879576177 0 0.050882585122343192 0.0018052915487291241 0 0.050738672788095872 0.0020616184251336903 0 0.050903522133103611 0.0019771347879576177 0 0.050898356686042902 0.0021555166205613633 0 0.050738672788095872 0.0020616184251336903 0 0.050898356686042902 0.0021555166205613633 0 0.050680374288253768 0.0022266805516387546 0 0.050898356686042902 0.0021555166205613633 0 0.051077147567006084 0.0020581081061513749 0 0.051109704496466866 0.0021825166995154549 0 0.050903522133103611 0.0019771347879576177 0 0.050898356686042902 0.0021555166205613633 0 0.051077147567006084 0.0020581081061513749 0 0.05126136419594203 0.0021169947630851299 0 0.051298378306903737 0.0020276059977739711 0 0.051109704496466866 0.0021825166995154549 0 0.051077147567006084 0.0020581081061513749 0 0.051298378306903737 0.0020276059977739711 0 0.051109704496466866 0.0021825166995154549 0 0.051077147567006084 0.0020581081061513749 0 0.051298378306903737 0.0020276059977739711 0 0.051146527799261932 0.0018840590487949696 0 0.051607120585180764 0.0018859586663658677 0 0.051298378306903737 0.0020276059977739711 0 0.051146527799261932 0.0018840590487949696 0 0.050903522133103611 0.0019771347879576177 0 0.051077147567006084 0.0020581081061513749 0 0.051146527799261932 0.0018840590487949696 0 0.050903522133103611 0.0019771347879576177 0 0.051146527799261932 0.0018840590487949696 0 0.050882585122343192 0.0018052915487291241 0 0.051146527799261932 0.0018840590487949696 0 0.050876429160420705 0.0016095389747555128 0 0.050882585122343192 0.0018052915487291241 0 0.051146527799261932 0.0018840590487949696 0 0.050876429160420705 0.0016095389747555128 0 0.05131877390776686 0.0014853356628208463 0 0.051607120585180764 0.0018859586663658677 0 0.051146527799261932 0.0018840590487949696 0 0.05131877390776686 0.0014853356628208463 0 0.052065603747426088 0.0011560365244842536 0 0.051607120585180764 0.0018859586663658677 0 0.05131877390776686 0.0014853356628208463 0 0.052065603747426088 0.0011560365244842536 0 0.051496132915021142 0.00098212792687548539 0 0.05131877390776686 0.0014853356628208463 0 0.050991344321402808 0.0010395353985603044 0 0.051496132915021142 0.00098212792687548539 0 0.05131877390776686 0.0014853356628208463 0 0.050991344321402808 0.0010395353985603044 0 0.050876429160420705 0.0016095389747555128 0 0.05131877390776686 0.0014853356628208463 0 0.052511408703844742 -0.00038214103745292202 0 0.052213770589352546 -0.00032941185736513916 0 0.052209428671322868 -1.7674921900809893e-05 0 0.050991344321402808 0.0010395353985603044 0 0.050876429160420705 0.0016095389747555128 0 0.050615446916003795 0.001676513216429692 0 0.049793596853370238 -0.001088589334436487 0 0.046636484509732859 -0.0016840590362391012 0 0.052213770589352546 -0.00032941185736513916 0 0.051961555959762318 -0.00022556387161503381 0 0.052209428671322868 -1.7674921900809893e-05 0 0.037710410887775797 -0.0025556467409710935 0 0.039400046435989676 -0.0012543630242589101 0 0.04106359595142578 -0.0032870875582914566 0 0.044057317917373683 -0.0010850162619626363 0 0.046636484509732859 -0.0016840590362391012 0 0.041887530792549435 -0.00093607331991985162 0 0.046636484509732859 -0.0016840590362391012 0 0.051745681467499333 8.1465832397061605e-05 0 0.051961555959762318 -0.00022556387161503381 0 0.052209428671322868 -1.7674921900809893e-05 0 0.050665480431569841 0.001881703597039064 0 0.050882585122343192 0.0018052915487291241 0 0.05078190365558035 0.0016723722319546522 0 0.050876429160420705 0.0016095389747555128 0 0.050882585122343192 0.0018052915487291241 0 0.05078190365558035 0.0016723722319546522 0 0.047160348731034203 -0.0016298566735211029 0 0.046636484509732859 -0.0016840590362391012 0 0.034171983140496028 0.0010467473626416101 0 0.033658879046032632 0.0015250656756132408 0 0.033654594060686605 0.00052888902979317438 0 0.034171983140496028 0.0010467473626416101 0 0.034548004226227572 0.00090605982995208467 0 0.033654594060686605 0.00052888902979317438 0 0.034171983140496028 0.0010467473626416101 0 0.033658879046032632 0.0015250656756132408 0 0.03469810630297309 0.0012200083723793971 0 0.032892299755081247 0.0011220516419139454 0 0.033658879046032632 0.0015250656756132408 0 0.032291717839764221 0.0017439722319891725 0 0.032892299755081247 0.0011220516419139454 0 0.033654594060686605 0.00052888902979317438 0 0.031884533840749817 0.00067591668599656905 0 0.032892299755081247 0.0011220516419139454 0 0.033658879046032632 0.0015250656756132408 0 0.033654594060686605 0.00052888902979317438 0 0.036466185106298996 0.00076057203127700708 0 0.035761722976566677 0.0014015397965968489 0 0.037224639610931337 0.0013018804456906127 0 0.03471401258242128 0.0011166472506190044 0 0.034781527280639629 0.0009350102043225527 0 0.036466185106298996 0.00076057203127700708 0 0.035595166542052581 0.00080440165034019375 0 0.035761722976566677 0.0014015397965968489 0 0.03471401258242128 0.0011166472506190044 0 0.034707914382608278 0.0011509089637291459 0 0.035064876160314139 0.001074482014217022 0 0.034825267842005167 0.0010178944410720126 0 0.035211634258654832 0.00081826795234417988 0 0.035761722976566677 0.0014015397965968489 0 0.035064876160314139 0.001074482014217022 0 0.03469810630297309 0.0012200083723793971 0 0.035595166542052581 0.00080440165034019375 0 0.035761722976566677 0.0014015397965968489 0 0.035064876160314139 0.001074482014217022 0 0.035595166542052581 0.00080440165034019375 0 0.035064876160314139 0.001074482014217022 0 0.035493283517781776 0.00016517140085310601 0 0.040315826329801706 0.00055239034196852743 0 0.041487977520221819 -0.00051486931120721131 0 0.034825267842005167 0.0010178944410720126 0 0.034912316012450081 0.0011827408072147339 0 0.03469810630297309 0.0012200083723793971 0 0.035064876160314139 0.001074482014217022 0 0.034825267842005167 0.0010178944410720126 0 0.03469810630297309 0.0012200083723793971 0 0.042924610253660817 8.6546943859591363e-05 0 0.043499061925432181 0.00065095699923601116 0 0.034912316012450081 0.0011827408072147339 0 0.034911301301782403 0.00096571873052691008 0 0.03469810630297309 0.0012200083723793971 0 0.034911301301782403 0.00096571873052691008 0 0.03469810630297309 0.0012200083723793971 0 0.034548004226227572 0.00090605982995208467 0 0.034911301301782403 0.00096571873052691008 0 0.034548004226227572 0.00090605982995208467 0 0.034721876388372715 0.00063126193446212502 0 0.034171983140496028 0.0010467473626416101 0 0.03469810630297309 0.0012200083723793971 0 0.034548004226227572 0.00090605982995208467 0 0.034548004226227572 0.00090605982995208467 0 0.034721876388372715 0.00063126193446212502 0 0.033654594060686605 0.00052888902979317438 0 0.012081136923087358 0.0046290909725508677 0 0.012660791752991006 0.0039030199659649207 0 0.01347223349933058 0.0044100679049277232 0 0.034911301301782403 0.00096571873052691008 0 0.034721876388372715 0.00063126193446212502 0 0.035176720925295189 0.00063872580834992371 0 0.023803173174309172 0.0029973429577044592 0 0.027284017271244819 0.0034625844712856853 0 0.012081136923087358 0.0046290909725508677 0 0.012660791752991006 0.0039030199659649207 0 0.011962142329384444 0.0034487954274925996 0 0.012081136923087358 0.0046290909725508677 0 0.011066629769603592 0.0038669879321642656 0 0.011962142329384444 0.0034487954274925996 0 0.023803173174309172 0.0029973429577044592 0 0.022252983559651409 0.0025290654342328476 0 0.012081136923087358 0.0046290909725508677 0 0.011066629769603592 0.0038669879321642656 0 0.010668984597313202 0.0047712384293017917 0 0.010668984597313202 0.0047712384293017917 0 0.01024524850019942 0.0040078892673167084 0 0.0098834231959835425 0.0045176856048446262 0 0.011066629769603592 0.0038669879321642656 0 0.010668984597313202 0.0047712384293017917 0 0.01024524850019942 0.0040078892673167084 0 0.022252983559651409 0.0025290654342328476 0 0.021317356418689652 0.0018756003712802208 0 0.011066629769603592 0.0038669879321642656 0 0.01024524850019942 0.0040078892673167084 0 0.010404866055755984 0.0032967555256181742 0 0.01024524850019942 0.0040078892673167084 0 0.0097913602126659151 0.003468672262216266 0 0.010404866055755984 0.0032967555256181742 0 0.0098033074857436907 0.0039065682945320437 0 0.0094130236680315966 0.0036801732035988233 0 0.0098834231959835425 0.0045176856048446262 0 0.01024524850019942 0.0040078892673167084 0 0.0097913602126659151 0.003468672262216266 0 0.0098033074857436907 0.0039065682945320437 0 0.0097913602126659151 0.003468672262216266 0 0.0098033074857436907 0.0039065682945320437 0 0.0094130236680315966 0.0036801732035988233 0 0.0094130236680315966 0.0036801732035988233 0 0.0086858643154129524 0.0035851251299700263 0 0.0098834231959835425 0.0045176856048446262 0 0.01024524850019942 0.0040078892673167084 0 0.0098033074857436907 0.0039065682945320437 0 0.0098834231959835425 0.0045176856048446262 0 0.0098202805584528471 0.0045944207982512092 0 0.0098141981797464327 0.0045797650058434138 0 0.0098276612633430554 0.0045830505916314912 0 0.0098202805584528471 0.0045944207982512092 0 0.0098276612633430554 0.0045830505916314912 0 0.0098410928451819393 0.0045874883154399171 0 0.011423192440296321 0.0025667168772406318 0 0.010906721148416168 0.0030667286043616535 0 0.0098141981797464327 0.0045797650058434138 0 0.0098356254420920147 0.0045822043646969214 0 0.0097704315907957799 0.0046698371180959909 0 0.0098202805584528471 0.0045944207982512092 0 0.0098141981797464327 0.0045797650058434138 0 0.0098834231959835425 0.0045176856048446262 0 0.0098141981797464327 0.0045797650058434138 0 0.0098276612633430554 0.0045830505916314912 0 0.0098356254420920147 0.0045822043646969214 0 0.0098141981797464327 0.0045797650058434138 0 0.0098834231959835425 0.0045176856048446262 0 0.0097704315907957799 0.0046698371180959909 0 0.010668984597313202 0.0047712384293017917 0 0.0098834231959835425 0.0045176856048446262 0 0.0097704315907957799 0.0046698371180959909 0 0.027242770191132665 0.001435019227422599 0 0.026825888794915029 0.0016179085450269747 0 0.02683462620848941 0.0011047401287596886 0 0.022936960081253885 0.002334927977218237 0 0.028522804010555802 0.0021315023783941987 0 0.021188598018260847 0.0030145983814715096 0 0.021808417257910485 0.0030873342588394696 0 0.021217257686585441 0.005160891486303814 0 0.0098567422981857451 0.0045876697690052579 0 0.0098809027026841249 0.0045993574807683549 0 0.0098608971273429803 0.0045845280255523806 0 0.018760305335753298 0.0030951554713484868 0 0.023015372131816189 0.0030601259998395964 0 0.0098202805584528471 0.0045944207982512092 0 0.0098809027026841249 0.0045993574807683549 0 0.0098410928451819393 0.0045874883154399171 0 0.0098567422981857451 0.0045876697690052579 0 0.0098809027026841249 0.0045993574807683549 0 0.0098410928451819393 0.0045874883154399171 0 0.0098356254420920147 0.0045822043646969214 0 0.0098608971273429803 0.0045845280255523806 0 0.0098680405467239697 0.0045412721927587376 0 0.021808417257910485 0.0030873342588394696 0 0.022098276284066895 0.0049706732336040026 0 0.021217257686585441 0.005160891486303814 0 0.023015372131816189 0.0030601259998395964 0 0.022810145129310771 0.0002492759769897638 0 0.029642625183809709 -0.00034822708907137088 0 0.028962790256353187 -0.00020105805707943579 0 0.029445547996879221 0.0010084486399288516 0 0.0098276612633430554 0.0045830505916314912 0 0.0098424974083096452 0.0045842765037163247 0 0.0098356254420920147 0.0045822043646969214 0 0.0098567422981857451 0.0045876697690052579 0 0.0098424974083096452 0.0045842765037163247 0 0.0098608971273429803 0.0045845280255523806 0 0.0098276612633430554 0.0045830505916314912 0 0.0098410928451819393 0.0045874883154399171 0 0.0098424974083096452 0.0045842765037163247 0 0.0098567422981857451 0.0045876697690052579 0 0.0098410928451819393 0.0045874883154399171 0 0.0098424974083096452 0.0045842765037163247 0 0.0098424974083096452 0.0045842765037163247 0 0.0098356254420920147 0.0045822043646969214 0 0.0098608971273429803 0.0045845280255523806 0 0.034282143329763926 0.0009385648283571083 0 0.028522804010555802 0.0021315023783941987 0 0.023015372131816189 0.0030601259998395964 0 0.028522804010555802 0.0021315023783941987 0 0.028522804010555802 0.0021315023783941987 0 0.036751174681916958 -0.00054961203803667537 0 0.042128322303405477 -0.0002859789404489179 0 0.041516839262427392 0.00042809707951663997 0 0.041525916491558658 -0.00071196721548720629 0 0.028962790256353187 -0.00020105805707943579 0 0.029445547996879221 0.0010084486399288516 0 0.029001125827392817 0.0020294255347973818 0 0.029642625183809709 -0.00034822708907137088 0 0.029445547996879221 0.0010084486399288516 0 0.029837547127449692 0.00093756457048287329 0 0.022810145129310771 0.0002492759769897638 0 0.023230820471707873 0.0006302642359178102 0 0.029445547996879221 0.0010084486399288516 0 0.029841674467375706 0.00093723532139052782 0 0.029976486777805997 0.001808073900140621 0 0.023101805520092167 0.00021948634747983117 0 0.022810145129310771 0.0002492759769897638 0 0.029863821313560537 0.00097491535028310788 0 0.029976486777805997 0.001808073900140621 0 0.030784778798306937 0.0013550502022030744 0 0.036751174681916958 -0.00054961203803667537 0 0.03511016504678624 0.00047352268647749126 0 0.029976486777805997 0.001808073900140621 0 0.029001125827392817 0.0020294255347973818 0 0.030698528056204821 0.0019071644692322414 0 0.039873819117163298 0.001054925951555436 0 0.038565994093999779 0.0011656283877145587 0 0.039196736326623891 0.00052008592055641451 0 0.029976486777805997 0.001808073900140621 0 0.030784778798306937 0.0013550502022030744 0 0.030698528056204821 0.0019071644692322414 0 0.038565994093999779 0.0011656283877145587 0 0.038547904994539146 0.000345941859503189 0 0.039196736326623891 0.00052008592055641451 0 0.029445547996879221 0.0010084486399288516 0 0.029976486777805997 0.001808073900140621 0 0.029001125827392817 0.0020294255347973818 0 0.039873819117163298 0.001054925951555436 0 0.0398725980219111 9.3511208364789012e-05 0 0.039196736326623891 0.00052008592055641451 0 0.036751174681916958 -0.00054961203803667537 0 0.039150896379846228 -0.000715049101935165 0 0.032892299755081247 0.0011220516419139454 0 0.031884533840749817 0.00067591668599656905 0 0.032291717839764221 0.0017439722319891725 0 0.031884533840749817 0.00067591668599656905 0 0.03147003251991181 0.0014395495021713714 0 0.032291717839764221 0.0017439722319891725 0 0.0098356254420920147 0.0045822043646969214 0 0.0098680405467239697 0.0045412721927587376 0 0.0097704315907957799 0.0046698371180959909 0 0.022810145129310771 0.0002492759769897638 0 0.021317356418689652 0.0018756003712802208 0 0.029863821313560537 0.00097491535028310788 0 0.031884533840749817 0.00067591668599656905 0 0.030784778798306937 0.0013550502022030744 0 0.030784778798306937 0.0013550502022030744 0 0.03147003251991181 0.0014395495021713714 0 0.030698528056204821 0.0019071644692322414 0 0.031884533840749817 0.00067591668599656905 0 0.030784778798306937 0.0013550502022030744 0 0.03147003251991181 0.0014395495021713714 0 0.03511016504678624 0.00047352268647749126 0 0.034781527280639629 0.0009350102043225527 0 0.038565994093999779 0.0011656283877145587 0 0.038028468856863534 0.00078493359528639811 0 0.037224639610931337 0.0013018804456906127 0 0.03147003251991181 0.0014395495021713714 0 0.030698528056204821 0.0019071644692322414 0 0.032291717839764221 0.0017439722319891725 0 0.038565994093999779 0.0011656283877145587 0 0.038028468856863534 0.00078493359528639811 0 0.038547904994539146 0.000345941859503189 0 0.037224639610931337 0.0013018804456906127 0 0.03703284833480161 0.00037904474032435074 0 0.037763114964103082 0.00033670351159068132 0 0.038028468856863534 0.00078493359528639811 0 0.037224639610931337 0.0013018804456906127 0 0.037763114964103082 0.00033670351159068132 0 0.036466185106298996 0.00076057203127700708 0 0.037224639610931337 0.0013018804456906127 0 0.03703284833480161 0.00037904474032435074 0 0.03709123820930188 -0.00035376315938641525 0 0.037763114964103082 0.00033670351159068132 0 0.038481055104529184 -0.00060376277053042276 0 0.03703284833480161 0.00037904474032435074 0 0.03709123820930188 -0.00035376315938641525 0 0.037763114964103082 0.00033670351159068132 0 0.037763114964103082 0.00033670351159068132 0 0.038547904994539146 0.000345941859503189 0 0.038481055104529184 -0.00060376277053042276 0 0.038028468856863534 0.00078493359528639811 0 0.037763114964103082 0.00033670351159068132 0 0.038547904994539146 0.000345941859503189 0 0.03709123820930188 -0.00035376315938641525 0 0.037628202278305857 -0.0015560595194134134 0 0.036239494348520057 -0.0012745659838508158 0 0.03709123820930188 -0.00035376315938641525 0 0.038719312859997926 -0.00065016998026932375 0 0.037628202278305857 -0.0015560595194134134 0 0.038184885314294571 -0.00056122781744114242 0 0.039029495751567736 -0.00072619233089074402 0 0.042485592080362823 -0.0010162131338758162 0 0.04214111807976044 -0.00072452058398325735 0 0.042139877547379995 -0.0010448812364342497 0 0.0398725980219111 9.3511208364789012e-05 0 0.039194331862350537 -0.00010299516591277035 0 0.039870468316030284 -0.00086986356003526276 0 0.042485592080362823 -0.0010162131338758162 0 0.042139877547379995 -0.0010448812364342497 0 0.042185310930209885 -0.0013820866978446161 0 0.041860600137884514 -0.0010042582788431858 0 0.041558485204848991 -0.0011787527497874033 0 0.038547904994539146 0.000345941859503189 0 0.038481055104529184 -0.00060376277053042276 0 0.039194331862350537 -0.00010299516591277035 0 0.0398725980219111 9.3511208364789012e-05 0 0.039194331862350537 -0.00010299516591277035 0 0.039196736326623891 0.00052008592055641451 0 0.038547904994539146 0.000345941859503189 0 0.039194331862350537 -0.00010299516591277035 0 0.039196736326623891 0.00052008592055641451 0 0.038719312859997926 -0.00065016998026932375 0 0.040313407110670503 -0.0011940359741143484 0 0.040314672707054633 -0.0009590769546577939 0 0.038481055104529184 -0.00060376277053042276 0 0.039194331862350537 -0.00010299516591277035 0 0.039870468316030284 -0.00086986356003526276 0 0.039029495751567736 -0.00072619233089074402 0 0.041115832449592493 -0.0011398411906810466 0 0.039150896379846228 -0.000715049101935165 0 0.041115832449592493 -0.0011398411906810466 0 0.042139877547379995 -0.0010448812364342497 0 0.042136604119451734 -0.001372511275700522 0 0.042185310930209885 -0.0013820866978446161 0 0.043900828008491488 -0.0016682804187143519 0 0.044947955670258576 -0.001888092308236799 0 0.044616978884603843 -0.0014602246555904432 0 0.042475020726308627 -0.0013584121785408972 0 0.041558485204848991 -0.0011787527497874033 0 0.041874631797706945 -0.00047139663772143985 0 0.041862388264709519 -0.0027277757419196104 0 0.040290086317355811 -0.0024212861063961011 0 0.041457277178818377 -0.0012887245555912746 0 0.041558485204848991 -0.0011787527497874033 0 0.041457277178818377 -0.0012887245555912746 0 0.041115832449592493 -0.0011398411906810466 0 0.041115832449592493 -0.0011398411906810466 0 0.041558485204848991 -0.0011787527497874033 0 0.045118133834995432 -0.0016727142716266759 0 0.044947955670258576 -0.001888092308236799 0 0.044616978884603843 -0.0014602246555904432 0 0.038719312859997926 -0.00065016998026932375 0 0.040313407110670503 -0.0011940359741143484 0 0.039066511622630737 -0.002725845206865452 0 0.044103243751285867 -0.00084466427574399726 0 0.044616978884603843 -0.0014602246555904432 0 0.045007185463325564 -0.0012107966549093647 0 0.041457277178818377 -0.0012887245555912746 0 0.041561546794879015 -0.0012893766082444766 0 0.045050115873511667 -0.0011875775863390968 0 0.045007185463325564 -0.0012107966549093647 0 0.045062039504520687 -0.0011820317935764401 0 0.045118133834995432 -0.0016727142716266759 0 0.045007185463325564 -0.0012107966549093647 0 0.045062039504520687 -0.0011820317935764401 0 0.045118133834995432 -0.0016727142716266759 0 0.044616978884603843 -0.0014602246555904432 0 0.045007185463325564 -0.0012107966549093647 0 0.045050115873511667 -0.0011875775863390968 0 0.045062039504520687 -0.0011820317935764401 0 0.045069554200028866 -0.0011875520010888134 0 0.045062039504520687 -0.0011820317935764401 0 0.045069005041823769 -0.0011888384733089992 0 0.045069554200028866 -0.0011875520010888134 0 0.041457277178818377 -0.0012887245555912746 0 0.042802516048483549 -0.0020147534427263961 0 0.045058361437739398 -0.0011809717270414163 0 0.045062039504520687 -0.0011820317935764401 0 0.045069005041823769 -0.0011888384733089992 0 0.045069005041823769 -0.0011888384733089992 0 0.045069554200028866 -0.0011875520010888134 0 0.045081452300170487 -0.0011958287786741201 0 0.04510471646514394 -0.001198303283668944 0 0.045078303935352615 -0.0011887802161171146 0 0.045081452300170487 -0.0011958287786741201 0 0.045069554200028866 -0.0011875520010888134 0 0.045078303935352615 -0.0011887802161171146 0 0.045081452300170487 -0.0011958287786741201 0 0.045050115873511667 -0.0011875775863390968 0 0.045069554200028866 -0.0011875520010888134 0 0.045078303935352615 -0.0011887802161171146 0 0.038719312859997926 -0.00065016998026932375 0 0.039066511622630737 -0.002725845206865452 0 0.037628202278305857 -0.0015560595194134134 0 0.037628202278305857 -0.0015560595194134134 0 0.037040202460767266 -0.0027647340063394104 0 0.036239494348520057 -0.0012745659838508158 0 0.039066511622630737 -0.002725845206865452 0 0.037628202278305857 -0.0015560595194134134 0 0.037040202460767266 -0.0027647340063394104 0 0.039066511622630737 -0.002725845206865452 0 0.037040202460767266 -0.0027647340063394104 0 0.037841896751258139 -0.0042419046193266086 0 0.053695394906500479 -0.00079349040996150874 0 0.053596257114576655 -0.00090786558537578647 0 0.053647945572451901 -0.00089625442994683993 0 0.053695394906500479 -0.00079349040996150874 0 0.053596257114576655 -0.00090786558537578647 0 0.053478943106532735 -0.00062804636203446995 0 0.053596257114576655 -0.00090786558537578647 0 0.053160980976732525 -0.00054993971530248613 0 0.053478943106532735 -0.00062804636203446995 0 0.053557669184639327 -0.00078423442917072953 0 0.053513145566265123 -0.00072327946695081261 0 0.053713568296227726 -0.00093642468813639882 0 0.05381304849837204 -0.0010235317968591846 0 0.053809892717727188 -0.00096872720410570495 0 0.053596257114576655 -0.00090786558537578647 0 0.053713568296227726 -0.00093642468813639882 0 0.05381304849837204 -0.0010235317968591846 0 0.053324805163357213 -0.00048371831709273863 0 0.053549474385548142 -0.00034185458191014328 0 0.053158423048866491 -0.00037089059578474085 0 0.053160980976732525 -0.00054993971530248613 0 0.053324805163357213 -0.00048371831709273863 0 0.053478943106532735 -0.00062804636203446995 0 0.053160980976732525 -0.00054993971530248613 0 0.053324805163357213 -0.00048371831709273863 0 0.053158423048866491 -0.00037089059578474085 0 0.053695394906500479 -0.00079349040996150874 0 0.053478943106532735 -0.00062804636203446995 0 0.053549474385548142 -0.00034185458191014328 0 0.045102102540246616 -0.0015622558725508918 0 0.043741775713976722 -0.0011541738020194193 0 0.053324805163357213 -0.00048371831709273863 0 0.053478943106532735 -0.00062804636203446995 0 0.053549474385548142 -0.00034185458191014328 0 0.03709123820930188 -0.00035376315938641525 0 0.036239494348520057 -0.0012745659838508158 0 0.03618155301839527 -9.3652051837728409e-05 0 0.043741775713976722 -0.0011541738020194193 0 0.041487977520221819 -0.00051486931120721131 0 0.053549474385548142 -0.00034185458191014328 0 0.053158423048866491 -0.00037089059578474085 0 0.053246807775407995 0.00039249712779328947 0 0.053158423048866491 -0.00037089059578474085 0 0.053246807775407995 0.00039249712779328947 0 0.052460339083638244 0.00024418676656501526 0 0.041487977520221819 -0.00051486931120721131 0 0.040480191133160197 -0.0002277689670648202 0 0.035595166542052581 0.00080440165034019375 0 0.035493283517781776 0.00016517140085310601 0 0.03618155301839527 -9.3652051837728409e-05 0 0.036466185106298996 0.00076057203127700708 0 0.035595166542052581 0.00080440165034019375 0 0.03618155301839527 -9.3652051837728409e-05 0 0.036239494348520057 -0.0012745659838508158 0 0.035494525239547638 0.00016268719617180396 0 0.03618155301839527 -9.3652051837728409e-05 0 0.036466185106298996 0.00076057203127700708 0 0.03703284833480161 0.00037904474032435074 0 0.03618155301839527 -9.3652051837728409e-05 0 0.03703284833480161 0.00037904474032435074 0 0.03709123820930188 -0.00035376315938641525 0 0.03618155301839527 -9.3652051837728409e-05 0 0.043499061925432181 0.00065095699923601116 0 0.049079895808218379 -0.001429049874936817 0 0.053277679616064791 -0.00039026189911700213 0 0.053174132926209677 -0.00038642833564727258 0 0.053333856852052407 -0.00039702486136424485 0 0.052525944711931567 0.00070962050999843281 0 0.051696067616814417 0.0010086497639603398 0 0.052460339083638244 0.00024418676656501526 0 0.042924610253660817 8.6546943859591363e-05 0 0.041487977520221819 -0.00051486931120721131 0 0.052525944711931567 0.00070962050999843281 0 0.053246807775407995 0.00039249712779328947 0 0.052460339083638244 0.00024418676656501526 0 0.050363687618278148 -0.0016876865068637245 0 0.049079895808218379 -0.001429049874936817 0 0.053158423048866491 -0.00037089059578474085 0 0.053174132926209677 -0.00038642833564727258 0 0.053167732216737582 -0.00034850573039045855 0 0.053447194450757629 -0.00061304535504670666 0 0.05339450638638342 -0.00054458847201297518 0 0.053174132926209677 -0.00038642833564727258 0 0.053167732216737582 -0.00034850573039045855 0 0.053333856852052407 -0.00039702486136424485 0 0.053800979946597029 -0.00077460485588657594 0 0.053645022174155718 -0.00091454513013612942 0 0.053452803016990812 -0.00066165915797260797 0 0.053800979946597029 -0.00077460485588657594 0 0.053333856852052407 -0.00039702486136424485 0 0.053452803016990812 -0.00066165915797260797 0 0.053800979946597029 -0.00077460485588657594 0 0.053645022174155718 -0.00091454513013612942 0 0.053802048817595836 -0.00098969869051766845 0 0.053645022174155718 -0.00091454513013612942 0 0.053802048817595836 -0.00098969869051766845 0 0.053741258487800647 -0.0011140881989503584 0 0.053645022174155718 -0.00091454513013612942 0 0.053741258487800647 -0.0011140881989503584 0 0.053549948335015106 -0.0010980764777353692 0 0.053513145566265123 -0.00072327946695081261 0 0.053447194450757629 -0.00061304535504670666 0 0.05381304849837204 -0.0010235317968591846 0 0.053800979946597029 -0.00077460485588657594 0 0.053802048817595836 -0.00098969869051766845 0 0.053160980976732525 -0.00054993971530248613 0 0.053158423048866491 -0.00037089059578474085 0 0.053167732216737582 -0.00034850573039045855 0 0.053802048817595836 -0.00098969869051766845 0 0.053809892717727188 -0.00096872720410570495 0 0.053741258487800647 -0.0011140881989503584 0 0.05381304849837204 -0.0010235317968591846 0 0.053802048817595836 -0.00098969869051766845 0 0.053809892717727188 -0.00096872720410570495 0 0.053236149732173416 -0.0015261984806905805 0 0.053397581833646623 -0.0014777749919234018 0 0.053895376675660793 -0.0013852485008515371 0 0.053741258487800647 -0.0011140881989503584 0 0.053815610317915416 -0.0014407958174517904 0 0.053741258487800647 -0.0011140881989503584 0 0.053815610317915416 -0.0014407958174517904 0 0.053673586593349643 -0.0013851210885524904 0 0.053815610317915416 -0.0014407958174517904 0 0.053775481091304332 -0.0015449161176911443 0 0.053673586593349643 -0.0013851210885524904 0 0.053775481091304332 -0.0015449161176911443 0 0.053807104569408695 -0.0014330388313574945 0 0.05390196953404721 -0.0013082996513790973 0 0.053775481091304332 -0.0015449161176911443 0 0.05390196953404721 -0.0013082996513790973 0 0.053780254984823105 -0.0015304752772711048 0 0.053815610317915416 -0.0014407958174517904 0 0.053775481091304332 -0.0015449161176911443 0 0.053807104569408695 -0.0014330388313574945 0 0.053807104569408695 -0.0014330388313574945 0 0.0538223276730284 -0.0014207416659297288 0 0.053824592698464992 -0.001437209792238504 0 0.053807104569408695 -0.0014330388313574945 0 0.053840001713319853 -0.0014187428963121339 0 0.0538223276730284 -0.0014207416659297288 0 0.053815610317915416 -0.0014407958174517904 0 0.053807104569408695 -0.0014330388313574945 0 0.053840001713319853 -0.0014187428963121339 0 0.053895376675660793 -0.0013852485008515371 0 0.053815610317915416 -0.0014407958174517904 0 0.053840001713319853 -0.0014187428963121339 0 0.053236149732173416 -0.0015261984806905805 0 0.052304318659397692 -0.0014970332013377263 0 0.053713568296227726 -0.00093642468813639882 0 0.053809892717727188 -0.00096872720410570495 0 0.053637293793970156 -0.0008751796565807015 0 0.053895376675660793 -0.0013852485008515371 0 0.053816786591877462 -0.0014008421414045144 0 0.053726631548053912 -0.0014423990763972219 0 0.053895376675660793 -0.0013852485008515371 0 0.053840001713319853 -0.0014187428963121339 0 0.053816786591877462 -0.0014008421414045144 0 0.053816786591877462 -0.0014008421414045144 0 0.053726631548053912 -0.0014423990763972219 0 0.053718572548553313 -0.0012657191923272535 0 0.053637293793970156 -0.0008751796565807015 0 0.053641153278179594 -0.0009071888545284252 0 0.053650154973161494 -0.00094605807887688425 0 0.052304318659397692 -0.0014970332013377263 0 0.04879253554528027 -0.00064512687605967098 0 0.053625025152858476 -0.00089520419721512078 0 0.053641153278179594 -0.0009071888545284252 0 0.053647945572451901 -0.00089625442994683993 0 0.053625025152858476 -0.00089520419721512078 0 0.053637293793970156 -0.0008751796565807015 0 0.053641153278179594 -0.0009071888545284252 0 0.053596257114576655 -0.00090786558537578647 0 0.053625025152858476 -0.00089520419721512078 0 0.053647945572451901 -0.00089625442994683993 0 0.053596257114576655 -0.00090786558537578647 0 0.053713568296227726 -0.00093642468813639882 0 0.053637293793970156 -0.0008751796565807015 0 0.053596257114576655 -0.00090786558537578647 0 0.053625025152858476 -0.00089520419721512078 0 0.053637293793970156 -0.0008751796565807015 0 0.053726631548053912 -0.0014423990763972219 0 0.053384699584822511 -0.0011738132233043666 0 0.053173932109930828 -0.0012267167311084109 0 0.053384699584822511 -0.0011738132233043666 0 0.053588198991975915 -0.0011732603346416882 0 0.053466564615282944 -0.001077451654289406 0 0.053726631548053912 -0.0014423990763972219 0 0.053384699584822511 -0.0011738132233043666 0 0.053588198991975915 -0.0011732603346416882 0 0.053726631548053912 -0.0014423990763972219 0 0.053588198991975915 -0.0011732603346416882 0 0.053718572548553313 -0.0012657191923272535 0 0.053588198991975915 -0.0011732603346416882 0 0.053664083702398918 -0.0010894033239435632 0 0.053718572548553313 -0.0012657191923272535 0 0.053588198991975915 -0.0011732603346416882 0 0.053547961593134012 -0.00096076070275259956 0 0.053664083702398918 -0.0010894033239435632 0 0.053547961593134012 -0.00096076070275259956 0 0.053664083702398918 -0.0010894033239435632 0 0.053797623487199978 -0.00095225174744218257 0 0.053588198991975915 -0.0011732603346416882 0 0.053547961593134012 -0.00096076070275259956 0 0.053466564615282944 -0.001077451654289406 0 0.053547961593134012 -0.00096076070275259956 0 0.053466564615282944 -0.001077451654289406 0 0.053344201590535927 -0.0010012334125412451 0 0.053384699584822511 -0.0011738132233043666 0 0.053466564615282944 -0.001077451654289406 0 0.053344201590535927 -0.0010012334125412451 0 0.053933197170461168 -0.0011625386067425569 0 0.053938724616197052 -0.0010506293468514954 0 0.053816786591877462 -0.0014008421414045144 0 0.0538223276730284 -0.0014207416659297288 0 0.053833910651718934 -0.0014291285436955306 0 0.053816786591877462 -0.0014008421414045144 0 0.053718572548553313 -0.0012657191923272535 0 0.053797623487199978 -0.00095225174744218257 0 0.053840001713319853 -0.0014187428963121339 0 0.053816786591877462 -0.0014008421414045144 0 0.0538223276730284 -0.0014207416659297288 0 0.053664083702398918 -0.0010894033239435632 0 0.053718572548553313 -0.0012657191923272535 0 0.053797623487199978 -0.00095225174744218257 0 0.053824592698464992 -0.001437209792238504 0 0.053833910651718934 -0.0014291285436955306 0 0.053836968203154263 -0.0014474705730830797 0 0.053938724616197052 -0.0010506293468514954 0 0.053965952412898789 -0.00076183525143991044 0 0.0538223276730284 -0.0014207416659297288 0 0.053824592698464992 -0.001437209792238504 0 0.053833910651718934 -0.0014291285436955306 0 0.053987079758739703 -0.0010072941950697233 0 0.053965952412898789 -0.00076183525143991044 0 0.053797623487199978 -0.00095225174744218257 0 0.053549507817507384 -0.00070402399197912332 0 0.053714511031146349 -0.00045012187480330341 0 0.053547961593134012 -0.00096076070275259956 0 0.053549507817507384 -0.00070402399197912332 0 0.053312139317858824 -0.00074743634971751935 0 0.053547961593134012 -0.00096076070275259956 0 0.053344201590535927 -0.0010012334125412451 0 0.053312139317858824 -0.00074743634971751935 0 0.053547961593134012 -0.00096076070275259956 0 0.053797623487199978 -0.00095225174744218257 0 0.053549507817507384 -0.00070402399197912332 0 0.053549507817507384 -0.00070402399197912332 0 0.053361148172872158 -0.00046802924150247954 0 0.053312139317858824 -0.00074743634971751935 0 0.053965952412898789 -0.00076183525143991044 0 0.053760571774693094 -0.00027321073719250216 0 0.053361148172872158 -0.00046802924150247954 0 0.053714511031146349 -0.00045012187480330341 0 0.053284173156718656 -8.5604096565346172e-06 0 0.053549507817507384 -0.00070402399197912332 0 0.053361148172872158 -0.00046802924150247954 0 0.053714511031146349 -0.00045012187480330341 0 0.053615377002668677 -0.0012245850357629632 0 0.053746205318633854 -0.001181218378071695 0 0.053585397062641808 -0.0010447942317843833 0 0.053704933519477305 -0.0013206125109398162 0 0.053615377002668677 -0.0012245850357629632 0 0.053746205318633854 -0.001181218378071695 0 0.054256959414063832 -0.00079146946331701675 0 0.05413318355113076 -0.00095135297117064882 0 0.05390196953404721 -0.0013082996513790973 0 0.054209735399210555 -0.00085712040886539917 0 0.054215686276274953 -0.0010068268693829857 0 0.05413318355113076 -0.00095135297117064882 0 0.05390196953404721 -0.0013082996513790973 0 0.05400287089080659 -0.0011419721155351773 0 0.05413318355113076 -0.00095135297117064882 0 0.054240400008604792 -0.00081855229176631223 0 0.05400287089080659 -0.0011419721155351773 0 0.053746205318633854 -0.001181218378071695 0 0.05390196953404721 -0.0013082996513790973 0 0.053790197453125306 -0.0013075206328951412 0 0.053704933519477305 -0.0013206125109398162 0 0.053746205318633854 -0.001181218378071695 0 0.053790197453125306 -0.0013075206328951412 0 0.053807104569408695 -0.0014330388313574945 0 0.05390196953404721 -0.0013082996513790973 0 0.053790197453125306 -0.0013075206328951412 0 0.053992740757546849 -0.0010822665781720603 0 0.053987079758739703 -0.0010072941950697233 0 0.053807104569408695 -0.0014330388313574945 0 0.053704933519477305 -0.0013206125109398162 0 0.053790197453125306 -0.0013075206328951412 0 0.045103104824780825 -0.0012119007518844132 0 0.045097452872864804 -0.0012190417602549982 0 0.045114782507827467 -0.0012331575509494151 0 0.045131431160987202 -0.0012267311788786818 0 0.045103104824780825 -0.0012119007518844132 0 0.045114782507827467 -0.0012331575509494151 0 0.045103104824780825 -0.0012119007518844132 0 0.045081452300170487 -0.0011958287786741201 0 0.045082611147007678 -0.0012044219675360868 0 0.04510471646514394 -0.001198303283668944 0 0.045103104824780825 -0.0012119007518844132 0 0.045081452300170487 -0.0011958287786741201 0 0.045069005041823769 -0.0011888384733089992 0 0.045081452300170487 -0.0011958287786741201 0 0.045082611147007678 -0.0012044219675360868 0 0.045103104824780825 -0.0012119007518844132 0 0.045082611147007678 -0.0012044219675360868 0 0.045097452872864804 -0.0012190417602549982 0 0.045082611147007678 -0.0012044219675360868 0 0.045097452872864804 -0.0012190417602549982 0 0.045084376161727689 -0.0012150934959983804 0 0.045097452872864804 -0.0012190417602549982 0 0.045084376161727689 -0.0012150934959983804 0 0.04509318199147043 -0.001227973798867202 0 0.045077791498251675 -0.0012215086402062013 0 0.045084376161727689 -0.0012150934959983804 0 0.045067305395652277 -0.0012054740801068836 0 0.047716229882577656 -0.0010831881223510491 0 0.04599716762924231 -0.0012546524993163276 0 0.045077791498251675 -0.0012215086402062013 0 0.045084376161727689 -0.0012150934959983804 0 0.04509318199147043 -0.001227973798867202 0 0.047716229882577656 -0.0010831881223510491 0 0.047382326497633555 -0.00097246099561940698 0 0.045082611147007678 -0.0012044219675360868 0 0.045084376161727689 -0.0012150934959983804 0 0.045067305395652277 -0.0012054740801068836 0 0.042802516048483549 -0.0020147534427263961 0 0.04599716762924231 -0.0012546524993163276 0 0.045069005041823769 -0.0011888384733089992 0 0.045082611147007678 -0.0012044219675360868 0 0.045067305395652277 -0.0012054740801068836 0 0.053695394906500479 -0.00079349040996150874 0 0.053680116469019767 -0.00093215764307028113 0 0.053647945572451901 -0.00089625442994683993 0 0.045102102540246616 -0.0015622558725508918 0 0.04599716762924231 -0.0012546524993163276 0 0.053680116469019767 -0.00093215764307028113 0 0.053656081611401611 -0.00092520693061980542 0 0.053650154973161494 -0.00094605807887688425 0 0.053641153278179594 -0.0009071888545284252 0 0.053656081611401611 -0.00092520693061980542 0 0.053650154973161494 -0.00094605807887688425 0 0.053680116469019767 -0.00093215764307028113 0 0.053647945572451901 -0.00089625442994683993 0 0.053656081611401611 -0.00092520693061980542 0 0.053641153278179594 -0.0009071888545284252 0 0.053647945572451901 -0.00089625442994683993 0 0.053656081611401611 -0.00092520693061980542 0 0.047402179245575889 -0.0018215045095363663 0 0.04643407045790069 1.2879436517098092e-05 0 0.045673697497402806 -0.00092403460771794922 0 0.053384699584822511 -0.0011738132233043666 0 0.053273543031039629 -0.0011848576698231872 0 0.053173932109930828 -0.0012267167311084109 0 0.053384699584822511 -0.0011738132233043666 0 0.053273543031039629 -0.0011848576698231872 0 0.053255205889487595 -0.0010978861444007751 0 0.053273543031039629 -0.0011848576698231872 0 0.053173932109930828 -0.0012267167311084109 0 0.053255205889487595 -0.0010978861444007751 0 0.04599716762924231 -0.0012546524993163276 0 0.04879253554528027 -0.00064512687605967098 0 0.052789040945054627 -0.0010336895019796312 0 0.053173932109930828 -0.0012267167311084109 0 0.053091724906619571 -0.0009689162015568514 0 0.047716229882577656 -0.0010831881223510491 0 0.04879253554528027 -0.00064512687605967098 0 0.053091724906619571 -0.0009689162015568514 0 0.053344201590535927 -0.0010012334125412451 0 0.053255205889487595 -0.0010978861444007751 0 0.053173932109930828 -0.0012267167311084109 0 0.053091724906619571 -0.0009689162015568514 0 0.053255205889487595 -0.0010978861444007751 0 0.053384699584822511 -0.0011738132233043666 0 0.053344201590535927 -0.0010012334125412451 0 0.053255205889487595 -0.0010978861444007751 0 0.053361148172872158 -0.00046802924150247954 0 0.053312139317858824 -0.00074743634971751935 0 0.052915822857498289 -0.00055230124780246599 0 0.053091724906619571 -0.0009689162015568514 0 0.053312139317858824 -0.00074743634971751935 0 0.052915822857498289 -0.00055230124780246599 0 0.053091724906619571 -0.0009689162015568514 0 0.053344201590535927 -0.0010012334125412451 0 0.053312139317858824 -0.00074743634971751935 0 0.052915822857498289 -0.00055230124780246599 0 0.052776992369729221 -8.3569218556787156e-05 0 0.053284173156718656 -8.5604096565346172e-06 0 0.053361148172872158 -0.00046802924150247954 0 0.052915822857498289 -0.00055230124780246599 0 0.053284173156718656 -8.5604096565346172e-06 0 0.052915822857498289 -0.00055230124780246599 0 0.052485776594685091 -0.00046048195326267642 0 0.052776992369729221 -8.3569218556787156e-05 0 0.045087358941238755 -0.0012237274720995159 0 0.04509318199147043 -0.001227973798867202 0 0.045103684087669203 -0.0012442065144323568 0 0.047716229882577656 -0.0010831881223510491 0 0.0494012558526594 -0.00061268269742889277 0 0.052789040945054627 -0.0010336895019796312 0 0.052915822857498289 -0.00055230124780246599 0 0.052485776594685091 -0.00046048195326267642 0 0.052789040945054627 -0.0010336895019796312 0 0.053091724906619571 -0.0009689162015568514 0 0.052915822857498289 -0.00055230124780246599 0 0.045102123273847709 -0.0012311620598216271 0 0.045103684087669203 -0.0012442065144323568 0 0.045114782507827467 -0.0012331575509494151 0 0.04509318199147043 -0.001227973798867202 0 0.045102123273847709 -0.0012311620598216271 0 0.045103684087669203 -0.0012442065144323568 0 0.045097452872864804 -0.0012190417602549982 0 0.04509318199147043 -0.001227973798867202 0 0.045102123273847709 -0.0012311620598216271 0 0.045097452872864804 -0.0012190417602549982 0 0.045102123273847709 -0.0012311620598216271 0 0.045114782507827467 -0.0012331575509494151 0 0.045103684087669203 -0.0012442065144323568 0 0.045125497351810123 -0.001249782305268186 0 0.045129852770874501 -0.0012668424595220237 0 0.045103684087669203 -0.0012442065144323568 0 0.045125497351810123 -0.001249782305268186 0 0.045114782507827467 -0.0012331575509494151 0 0.045140251002725555 -0.0012411000023460506 0 0.045125497351810123 -0.001249782305268186 0 0.045114782507827467 -0.0012331575509494151 0 0.05498333917071338 -6.0560859057151779e-05 0 0.055013080714620882 -7.555805877889638e-05 0 0.055001776210831139 -3.4841108379763606e-05 0 0.051548543791142556 -0.0001814290736455537 0 0.05388328272153451 -0.00033898968167821479 0 0.05496556764623086 9.7570320273849165e-05 0 0.054968450431033405 4.7953999517246259e-05 0 0.054997192508615837 3.4488446419047005e-05 0 0.045146118717199771 -0.0012576901999405135 0 0.045125497351810123 -0.001249782305268186 0 0.045129852770874501 -0.0012668424595220237 0 0.054981475750338404 -9.6728684796117936e-05 0 0.05498333917071338 -6.0560859057151779e-05 0 0.055013080714620882 -7.555805877889638e-05 0 0.050978193091920351 -0.0010071121519652083 0 0.051548543791142556 -0.0001814290736455537 0 0.052485776594685091 -0.00046048195326267642 0 0.052183726451618714 0.00011232035717838303 0 0.052776992369729221 -8.3569218556787156e-05 0 0.0494012558526594 -0.00061268269742889277 0 0.051548543791142556 -0.0001814290736455537 0 0.051548543791142556 -0.0001814290736455537 0 0.053814864525949163 -3.2724725832304586e-05 0 0.05496556764623086 9.7570320273849165e-05 0 0.054903367349629056 6.9762887287525449e-05 0 0.054968450431033405 4.7953999517246259e-05 0 0.052183726451618714 0.00011232035717838303 0 0.052856032523086717 0.00043084609783312791 0 0.052776992369729221 -8.3569218556787156e-05 0 0.052856032523086717 0.00043084609783312791 0 0.052776992369729221 -8.3569218556787156e-05 0 0.053284173156718656 -8.5604096565346172e-06 0 0.053814864525949163 -3.2724725832304586e-05 0 0.053760571774693094 -0.00027321073719250216 0 0.0549668569284473 6.8888498161795555e-05 0 0.05491412910353901 4.3650723493556884e-05 0 0.054813630761720931 0.00019525550332144705 0 0.054027048199436656 -0.00039469919696628127 0 0.054002968873153527 -0.0003198323207519758 0 0.054070823139969693 -0.00037602858068703094 0 0.053969961323985384 -0.00033536747128727992 0 0.054027048199436656 -0.00039469919696628127 0 0.054002968873153527 -0.0003198323207519758 0 0.053814864525949163 -3.2724725832304586e-05 0 0.054250307124213762 -1.0391270068006218e-05 0 0.054250307124213762 -1.0391270068006218e-05 0 0.05430532253561899 9.3849232494845169e-06 0 0.054955706758912239 4.8762927615898006e-05 0 0.054971160128783163 -1.318373780094305e-05 0 0.054926060357839292 -9.0242753327013357e-06 0 0.054955706758912239 4.8762927615898006e-05 0 0.05491412910353901 4.3650723493556884e-05 0 0.054926060357839292 -9.0242753327013357e-06 0 0.054971160128783163 -1.318373780094305e-05 0 0.054926060357839292 -9.0242753327013357e-06 0 0.054956945343035961 -3.6125073017127674e-05 0 0.054956945343035961 -3.6125073017127674e-05 0 0.055000018137577544 -2.5225878421487917e-08 0 0.054999699886569463 -1.0492197814625671e-07 0 0.054971160128783163 -1.318373780094305e-05 0 0.054956945343035961 -3.6125073017127674e-05 0 0.055000018137577544 -2.5225878421487917e-08 0 0.054926060357839292 -9.0242753327013357e-06 0 0.054956945343035961 -3.6125073017127674e-05 0 0.054848803571477187 -7.6456146403363365e-05 0 0.054971160128783163 -1.318373780094305e-05 0 0.055000018137577544 -2.5225878421487917e-08 0 0.055001557748652737 -6.3552946575413518e-06 0 0.054955706758912239 4.8762927615898006e-05 0 0.054971160128783163 -1.318373780094305e-05 0 0.055001557748652737 -6.3552946575413518e-06 0 0.054890395900556763 8.9977256155925216e-05 0 0.05485383882432443 7.3135156334963364e-05 0 0.054932313303250144 1.5541468206450819e-05 0 0.054890395900556763 8.9977256155925216e-05 0 0.054932313303250144 1.5541468206450819e-05 0 0.054943928057759286 3.4969286889505462e-05 0 0.054250307124213762 -1.0391270068006218e-05 0 0.05477720791985926 -6.2168720025646709e-05 0 0.053814864525949163 -3.2724725832304586e-05 0 0.054151182504245082 -0.0001848352962694142 0 0.054903367349629056 6.9762887287525449e-05 0 0.054968450431033405 4.7953999517246259e-05 0 0.054943928057759286 3.4969286889505462e-05 0 0.054932313303250144 1.5541468206450819e-05 0 0.054943928057759286 3.4969286889505462e-05 0 0.054983938814179227 1.8809835649747335e-05 0 0.054968450431033405 4.7953999517246259e-05 0 0.054943928057759286 3.4969286889505462e-05 0 0.054983938814179227 1.8809835649747335e-05 0 0.054932313303250144 1.5541468206450819e-05 0 0.054999889789904312 2.4747865184628165e-09 0 0.054983938814179227 1.8809835649747335e-05 0 0.055000018137577544 -2.5225878421487917e-08 0 0.055001557748652737 -6.3552946575413518e-06 0 0.0549999868905377 1.0403791027350632e-08 0 0.05477720791985926 -6.2168720025646709e-05 0 0.054999714043246911 -1.9450172240415044e-07 0 0.055000081693204174 -5.1228229814954013e-12 0 0.054999889789904312 2.4747865184628165e-09 0 0.054983938814179227 1.8809835649747335e-05 0 0.055000081693204174 -5.1228229814954013e-12 0 0.054983938814179227 1.8809835649747335e-05 0 0.054997192508615837 3.4488446419047005e-05 0 0.054968450431033405 4.7953999517246259e-05 0 0.054983938814179227 1.8809835649747335e-05 0 0.054997192508615837 3.4488446419047005e-05 0 0.054585883580371031 -0.00042379318874001618 0 0.05438624630449844 -0.00065057177382478589 0 0.054578142711242658 -0.00041201430780462921 0 0.054585883580371031 -0.00042379318874001618 0 0.054477084163515162 -0.00054604866392486847 0 0.05438624630449844 -0.00065057177382478589 0 0.054477084163515162 -0.00054604866392486847 0 0.054240400008604792 -0.00081855229176631223 0 0.05438624630449844 -0.00065057177382478589 0 0.05413318355113076 -0.00095135297117064882 0 0.054240400008604792 -0.00081855229176631223 0 0.05438624630449844 -0.00065057177382478589 0 0.054477084163515162 -0.00054604866392486847 0 0.054240400008604792 -0.00081855229176631223 0 0.054331545867717282 -0.00070823527088767154 0 0.054256959414063832 -0.00079146946331701675 0 0.05413318355113076 -0.00095135297117064882 0 0.05438624630449844 -0.00065057177382478589 0 0.054256959414063832 -0.00079146946331701675 0 0.05438624630449844 -0.00065057177382478589 0 0.054445103725788729 -0.00054439617006102521 0 0.054209735399210555 -0.00085712040886539917 0 0.054220958926450548 -0.00049395066291827176 0 0.054084759135457072 -0.00045501193964006959 0 0.054027048199436656 -0.00039469919696628127 0 0.054070823139969693 -0.00037602858068703094 0 0.053965952412898789 -0.00076183525143991044 0 0.054220958926450548 -0.00049395066291827176 0 0.054250307124213762 -1.0391270068006218e-05 0 0.054220958926450548 -0.00049395066291827176 0 0.054220958926450548 -0.00049395066291827176 0 0.054361200258821171 -0.00035729636827735333 0 0.05491412910353901 4.3650723493556884e-05 0 0.054813630761720931 0.00019525550332144705 0 0.054838473612947476 6.4077471818396869e-05 0 0.054445103725788729 -0.00054439617006102521 0 0.054560254154851703 -0.00035324882912238654 0 0.054578142711242658 -0.00041201430780462921 0 0.05438624630449844 -0.00065057177382478589 0 0.054445103725788729 -0.00054439617006102521 0 0.054578142711242658 -0.00041201430780462921 0 0.054585883580371031 -0.00042379318874001618 0 0.054578142711242658 -0.00041201430780462921 0 0.054752794853130921 -0.00022686351616033257 0 0.054578142711242658 -0.00041201430780462921 0 0.054725134327959765 -0.00021878242472803236 0 0.054752794853130921 -0.00022686351616033257 0 0.054725134327959765 -0.00021878242472803236 0 0.054752794853130921 -0.00022686351616033257 0 0.054854471765270599 -0.00010350980294401838 0 0.054560254154851703 -0.00035324882912238654 0 0.054725134327959765 -0.00021878242472803236 0 0.054848803571477187 -7.6456146403363365e-05 0 0.054926060357839292 -9.0242753327013357e-06 0 0.054838473612947476 6.4077471818396869e-05 0 0.054848803571477187 -7.6456146403363365e-05 0 0.054361200258821171 -0.00035729636827735333 0 0.05441354324135661 -0.00032525134083244563 0 0.05491412910353901 4.3650723493556884e-05 0 0.054926060357839292 -9.0242753327013357e-06 0 0.054838473612947476 6.4077471818396869e-05 0 0.054560254154851703 -0.00035324882912238654 0 0.054578142711242658 -0.00041201430780462921 0 0.054725134327959765 -0.00021878242472803236 0 0.054725134327959765 -0.00021878242472803236 0 0.054848803571477187 -7.6456146403363365e-05 0 0.054854471765270599 -0.00010350980294401838 0 0.054956945343035961 -3.6125073017127674e-05 0 0.054848803571477187 -7.6456146403363365e-05 0 0.054999699886569463 -1.0492197814625671e-07 0 0.054848803571477187 -7.6456146403363365e-05 0 0.054999699886569463 -1.0492197814625671e-07 0 0.054854471765270599 -0.00010350980294401838 0 0.054999699886569463 -1.0492197814625671e-07 0 0.054854471765270599 -0.00010350980294401838 0 0.054999597808293665 -1.8455564761277277e-07 0 0.054752794853130921 -0.00022686351616033257 0 0.054854471765270599 -0.00010350980294401838 0 0.054999597808293665 -1.8455564761277277e-07 0 0.054999597808293665 -1.8455564761277277e-07 0 0.054739858631338796 -0.00026086179145181623 0 0.054999720800186939 -6.7896337373689687e-08 0 0.054752794853130921 -0.00022686351616033257 0 0.054999597808293665 -1.8455564761277277e-07 0 0.054739858631338796 -0.00026086179145181623 0 0.054585883580371031 -0.00042379318874001618 0 0.054477084163515162 -0.00054604866392486847 0 0.054739858631338796 -0.00026086179145181623 0 0.054585883580371031 -0.00042379318874001618 0 0.054752794853130921 -0.00022686351616033257 0 0.054739858631338796 -0.00026086179145181623 0 0.054477084163515162 -0.00054604866392486847 0 0.054739858631338796 -0.00026086179145181623 0 0.054650444335880573 -0.00036631551271600245 0 0.054739858631338796 -0.00026086179145181623 0 0.054999720800186939 -6.7896337373689687e-08 0 0.054650444335880573 -0.00036631551271600245 0 0.054999720800186939 -6.7896337373689687e-08 0 0.054999279111515913 -6.7716896208766136e-07 0 0.054650444335880573 -0.00036631551271600245 0 0.054999279111515913 -6.7716896208766136e-07 0 0.054666124799137038 -0.00036432477967426045 0 0.054650444335880573 -0.00036631551271600245 0 0.054666124799137038 -0.00036432477967426045 0 0.054650444335880573 -0.00036631551271600245 0 0.054448031293903389 -0.00058556184068183303 0 0.054477084163515162 -0.00054604866392486847 0 0.054650444335880573 -0.00036631551271600245 0 0.054331545867717282 -0.00070823527088767154 0 0.054650444335880573 -0.00036631551271600245 0 0.054448031293903389 -0.00058556184068183303 0 0.054331545867717282 -0.00070823527088767154 0 0.054448031293903389 -0.00058556184068183303 0 0.054210247753987334 -0.00086376977531878727 0 0.054331545867717282 -0.00070823527088767154 0 0.054240400008604792 -0.00081855229176631223 0 0.054331545867717282 -0.00070823527088767154 0 0.05400287089080659 -0.0011419721155351773 0 0.054210247753987334 -0.00086376977531878727 0 0.054331545867717282 -0.00070823527088767154 0 0.05400287089080659 -0.0011419721155351773 0 0.054338105252321106 -0.00074504807219076183 0 0.054601178292789758 -0.00062320195680398173 0 0.054326914920756211 -0.00091099369427304945 0 0.054601178292789758 -0.00062320195680398173 0 0.054573540911400209 -0.00085956800679472321 0 0.054326914920756211 -0.00091099369427304945 0 0.054448031293903389 -0.00058556184068183303 0 0.054210247753987334 -0.00086376977531878727 0 0.054338105252321106 -0.00074504807219076183 0 0.054210247753987334 -0.00086376977531878727 0 0.054338105252321106 -0.00074504807219076183 0 0.053923594854923748 -0.0012382515262439927 0 0.054666124799137038 -0.00036432477967426045 0 0.054448031293903389 -0.00058556184068183303 0 0.054550354177009347 -0.00048761991374346431 0 0.054448031293903389 -0.00058556184068183303 0 0.054338105252321106 -0.00074504807219076183 0 0.054550354177009347 -0.00048761991374346431 0 0.054338105252321106 -0.00074504807219076183 0 0.054550354177009347 -0.00048761991374346431 0 0.054601178292789758 -0.00062320195680398173 0 0.054550354177009347 -0.00048761991374346431 0 0.054646137045167603 -0.00044106539975299864 0 0.054601178292789758 -0.00062320195680398173 0 0.054882703334296241 -9.9013458702519648e-05 0 0.05489317872453342 -0.00023100573114902406 0 0.055000087500532972 3.2813837070141802e-08 0 0.054977708770927558 -2.9293313753637185e-05 0 0.054999723660305436 -1.0381180330069329e-07 0 0.054550354177009347 -0.00048761991374346431 0 0.054677531423737269 -0.00033246257683727874 0 0.054646137045167603 -0.00044106539975299864 0 0.054666124799137038 -0.00036432477967426045 0 0.054550354177009347 -0.00048761991374346431 0 0.054677531423737269 -0.00033246257683727874 0 0.054999279111515913 -6.7716896208766136e-07 0 0.054666124799137038 -0.00036432477967426045 0 0.054677531423737269 -0.00033246257683727874 0 0.054999706180567355 -1.7573709897201411e-07 0 0.054882703334296241 -9.9013458702519648e-05 0 0.054977708770927558 -2.9293313753637185e-05 0 0.054999723660305436 -1.0381180330069329e-07 0 0.054895787839233365 -0.00013043917114650188 0 0.054999723660305436 -1.0381180330069329e-07 0 0.054911136940981042 -0.0001649084369385912 0 0.055000220774207291 -6.5537003024151038e-08 0 0.054999723660305436 -1.0381180330069329e-07 0 0.054911136940981042 -0.0001649084369385912 0 0.054895787839233365 -0.00013043917114650188 0 0.054911136940981042 -0.0001649084369385912 0 0.055000220774207291 -6.5537003024151038e-08 0 0.054976482455323904 -0.00017780159545445975 0 0.055000220774207291 -6.5537003024151038e-08 0 0.054976482455323904 -0.00017780159545445975 0 0.054864329158571257 -0.00013032410792424191 0 0.054563973303258503 -0.0007922418078353436 0 0.054480629181964418 -0.00060836002591549009 0 0.054280294843800439 -0.0006617858443131138 0 0.054563973303258503 -0.0007922418078353436 0 0.054715964416939933 -0.00063775808302885179 0 0.054842656333053158 -0.00049128828837249666 0 0.054911136940981042 -0.0001649084369385912 0 0.054976482455323904 -0.00017780159545445975 0 0.054842656333053158 -0.00049128828837249666 0 0.05464146355878554 -0.00043162460471159208 0 0.054668602549617945 -0.00044757589895201403 0 0.054715964416939933 -0.00063775808302885179 0 0.054480629181964418 -0.00060836002591549009 0 0.054697254397000655 -0.00066112197204047684 0 0.054757078062106591 -0.00065173917373151813 0 0.054715964416939933 -0.00063775808302885179 0 0.054789994195205798 -0.00059343420453221093 0 0.054715964416939933 -0.00063775808302885179 0 0.054842656333053158 -0.00049128828837249666 0 0.054789994195205798 -0.00059343420453221093 0 0.054757078062106591 -0.00065173917373151813 0 0.054715964416939933 -0.00063775808302885179 0 0.054697254397000655 -0.00066112197204047684 0 0.054757078062106591 -0.00065173917373151813 0 0.054765097743372911 -0.00072426665521229381 0 0.054697254397000655 -0.00066112197204047684 0 0.054563973303258503 -0.0007922418078353436 0 0.054715964416939933 -0.00063775808302885179 0 0.054480629181964418 -0.00060836002591549009 0 0.054646137045167603 -0.00044106539975299864 0 0.054701631020675476 -0.00052750587978515646 0 0.054601178292789758 -0.00062320195680398173 0 0.054646137045167603 -0.00044106539975299864 0 0.054701631020675476 -0.00052750587978515646 0 0.05482472624517485 -0.00046372937818174923 0 0.05489317872453342 -0.00023100573114902406 0 0.054931861545902065 -0.00030663432265676856 0 0.054701631020675476 -0.00052750587978515646 0 0.054760163855795824 -0.00055158319538546358 0 0.054695719419408602 -0.00065385570515516273 0 0.054911136940981042 -0.0001649084369385912 0 0.054842656333053158 -0.00049128828837249666 0 0.05482472624517485 -0.00046372937818174923 0 0.054911136940981042 -0.0001649084369385912 0 0.054895787839233365 -0.00013043917114650188 0 0.05482472624517485 -0.00046372937818174923 0 0.054842656333053158 -0.00049128828837249666 0 0.054807060641032003 -0.000535164904911253 0 0.054789994195205798 -0.00059343420453221093 0 0.054842656333053158 -0.00049128828837249666 0 0.05482472624517485 -0.00046372937818174923 0 0.054807060641032003 -0.000535164904911253 0 0.054701631020675476 -0.00052750587978515646 0 0.05482472624517485 -0.00046372937818174923 0 0.054760163855795824 -0.00055158319538546358 0 0.054807060641032003 -0.000535164904911253 0 0.054760163855795824 -0.00055158319538546358 0 0.054786551708855144 -0.00058094788411659098 0 0.05482472624517485 -0.00046372937818174923 0 0.054807060641032003 -0.000535164904911253 0 0.054760163855795824 -0.00055158319538546358 0 0.054760163855795824 -0.00055158319538546358 0 0.054757950347252005 -0.00064282665786593056 0 0.054695719419408602 -0.00065385570515516273 0 0.054760163855795824 -0.00055158319538546358 0 0.054757950347252005 -0.00064282665786593056 0 0.054786551708855144 -0.00058094788411659098 0 0.054807060641032003 -0.000535164904911253 0 0.054789994195205798 -0.00059343420453221093 0 0.054786551708855144 -0.00058094788411659098 0 0.054789994195205798 -0.00059343420453221093 0 0.054786551708855144 -0.00058094788411659098 0 0.054776397407880414 -0.00063847509894917936 0 0.054757950347252005 -0.00064282665786593056 0 0.054786551708855144 -0.00058094788411659098 0 0.054776397407880414 -0.00063847509894917936 0 0.054757078062106591 -0.00065173917373151813 0 0.054789994195205798 -0.00059343420453221093 0 0.054776397407880414 -0.00063847509894917936 0 0.054757078062106591 -0.00065173917373151813 0 0.054776397407880414 -0.00063847509894917936 0 0.054765097743372911 -0.00072426665521229381 0 0.054757950347252005 -0.00064282665786593056 0 0.054776397407880414 -0.00063847509894917936 0 0.054765097743372911 -0.00072426665521229381 0 0.054757950347252005 -0.00064282665786593056 0 0.054765097743372911 -0.00072426665521229381 0 0.05472962540926074 -0.00077284172970407366 0 0.054757950347252005 -0.00064282665786593056 0 0.05472962540926074 -0.00077284172970407366 0 0.054695719419408602 -0.00065385570515516273 0 0.05472962540926074 -0.00077284172970407366 0 0.054695719419408602 -0.00065385570515516273 0 0.054573540911400209 -0.00085956800679472321 0 0.054701631020675476 -0.00052750587978515646 0 0.054695719419408602 -0.00065385570515516273 0 0.054601178292789758 -0.00062320195680398173 0 0.054695719419408602 -0.00065385570515516273 0 0.054601178292789758 -0.00062320195680398173 0 0.054573540911400209 -0.00085956800679472321 0 0.05472962540926074 -0.00077284172970407366 0 0.054768527283614331 -0.00086679394586207631 0 0.054699643257292554 -0.0012759057473090566 0 0.05472962540926074 -0.00077284172970407366 0 0.054573540911400209 -0.00085956800679472321 0 0.054699643257292554 -0.0012759057473090566 0 0.054765097743372911 -0.00072426665521229381 0 0.05472962540926074 -0.00077284172970407366 0 0.054768527283614331 -0.00086679394586207631 0 0.054765097743372911 -0.00072426665521229381 0 0.054768527283614331 -0.00086679394586207631 0 0.054697254397000655 -0.00066112197204047684 0 0.056074865787810048 -0.0016459786243753765 0 0.054699643257292554 -0.0012759057473090566 0 0.055790190446166982 -0.0025753017686719363 0 0.054785277172109771 -0.0012863082945985245 0 0.054787278490244451 -0.0012754393441770117 0 0.054768527283614331 -0.00086679394586207631 0 0.054751919370638273 -0.00080176798156437622 0 0.054699643257292554 -0.0012759057473090566 0 0.054768527283614331 -0.00086679394586207631 0 0.054751919370638273 -0.00080176798156437622 0 0.054689610927501409 -0.00070300104924147784 0 0.054697254397000655 -0.00066112197204047684 0 0.054689610927501409 -0.00070300104924147784 0 0.054506494851072465 -0.00056857819786217546 0 0.054480629181964418 -0.00060836002591549009 0 0.054697254397000655 -0.00066112197204047684 0 0.054506494851072465 -0.00056857819786217546 0 0.054768527283614331 -0.00086679394586207631 0 0.054697254397000655 -0.00066112197204047684 0 0.054689610927501409 -0.00070300104924147784 0 0.054751919370638273 -0.00080176798156437622 0 0.054689610927501409 -0.00070300104924147784 0 0.054645526621817785 -0.00062990719737037154 0 0.054785277172109771 -0.0012863082945985245 0 0.053722676353053056 -0.0011206826880885343 0 0.053561684990276109 -0.00061016498687554033 0 0.053604219868000264 -0.00056295193882210861 0 0.053604287977403874 -0.00062393947783444118 0 0.053722676353053056 -0.0011206826880885343 0 0.053933548166302483 -0.00075482990002232397 0 0.054689610927501409 -0.00070300104924147784 0 0.054645526621817785 -0.00062990719737037154 0 0.054506494851072465 -0.00056857819786217546 0 0.052775625831923453 -0.00045443986069539029 0 0.052835371642733192 -0.00071353018807536559 0 0.053214065872968022 -0.00056120470432906799 0 0.053722676353053056 -0.0011206826880885343 0 0.053480188745292423 -0.00089466169196651376 0 0.052835371642733192 -0.00071353018807536559 0 0.052894251936594486 -0.00097741056376873152 0 0.053214065872968022 -0.00056120470432906799 0 0.05743748020994343 -0.0019832195079136053 0 0.056439304611167973 -0.0032700309802553133 0 0.055790190446166982 -0.0025753017686719363 0 0.052775625831923453 -0.00045443986069539029 0 0.052835371642733192 -0.00071353018807536559 0 0.052455931846941084 -0.00086204370873075458 0 0.053722676353053056 -0.0011206826880885343 0 0.051640254470146099 -0.0018155145819166362 0 0.056074865787810048 -0.0016459786243753765 0 0.05743748020994343 -0.0019832195079136053 0 0.055790190446166982 -0.0025753017686719363 0 0.051640254470146099 -0.0018155145819166362 0 0.048645164188873519 -0.0011933935200647613 0 0.0456934240431002 -0.0031880982007184114 0 0.04695903609923361 -0.0039827897357635755 0 0.046921996177511395 -0.0020696626637862559 0 0.052835371642733192 -0.00071353018807536559 0 0.052455931846941084 -0.00086204370873075458 0 0.052894251936594486 -0.00097741056376873152 0 0.046654609840668618 -0.0043957774892584142 0 0.0456934240431002 -0.0031880982007184114 0 0.043306928538591326 -0.0040718459083637871 0 0.051640254470146099 -0.0018155145819166362 0 0.05159268688408606 -0.0018628689470159092 0 0.046654609840668618 -0.0043957774892584142 0 0.0456934240431002 -0.0031880982007184114 0 0.04695903609923361 -0.0039827897357635755 0 0.054699643257292554 -0.0012759057473090566 0 0.054857831455560918 -0.002851408037395314 0 0.055790190446166982 -0.0025753017686719363 0 0.056439304611167973 -0.0032700309802553133 0 0.054857831455560918 -0.002851408037395314 0 0.055790190446166982 -0.0025753017686719363 0 0.051640254470146099 -0.0018155145819166362 0 0.052143733556745175 -0.0024323144382277498 0 0.04695903609923361 -0.0039827897357635755 0 0.04908635071890767 -0.0028074235986954412 0 0.046921996177511395 -0.0020696626637862559 0 0.046726752583415049 -0.0042993652763529478 0 0.050186025126239119 -0.0038915385841318123 0 0.04695903609923361 -0.0039827897357635755 0 0.050186025126239119 -0.0038915385841318123 0 0.04695903609923361 -0.0039827897357635755 0 0.04908635071890767 -0.0028074235986954412 0 0.050186025126239119 -0.0038915385841318123 0 0.04908635071890767 -0.0028074235986954412 0 0.051558453441976793 -0.0022564981118411266 0 0.054699643257292554 -0.0012759057473090566 0 0.054857831455560918 -0.002851408037395314 0 0.053243431291636605 -0.0024886521214995921 0 0.050186025126239119 -0.0038915385841318123 0 0.051558453441976793 -0.0022564981118411266 0 0.053243431291636605 -0.0024886521214995921 0 0.052143733556745175 -0.0024323144382277498 0 0.052362732780975141 -0.0025187071475773087 0 0.053243431291636605 -0.0024886521214995921 0 0.053046006722520467 -0.0020295475756510304 0 0.053530515369974156 -0.0018522166669644223 0 0.053046006722520467 -0.0020295475756510304 0 0.053455076957239181 -0.0015677033002396948 0 0.052807130764105648 -0.0014196047279619454 0 0.051558453441976793 -0.0022564981118411266 0 0.053243431291636605 -0.0024886521214995921 0 0.053046006722520467 -0.0020295475756510304 0 0.051558453441976793 -0.0022564981118411266 0 0.053046006722520467 -0.0020295475756510304 0 0.052807130764105648 -0.0014196047279619454 0 0.053046006722520467 -0.0020295475756510304 0 0.053455076957239181 -0.0015677033002396948 0 0.053530515369974156 -0.0018522166669644223 0 0.053775481091304332 -0.0015449161176911443 0 0.053455076957239181 -0.0015677033002396948 0 0.053530515369974156 -0.0018522166669644223 0 0.053775481091304332 -0.0015449161176911443 0 0.053455076957239181 -0.0015677033002396948 0 0.053673586593349643 -0.0013851210885524904 0 0.053775481091304332 -0.0015449161176911443 0 0.053530515369974156 -0.0018522166669644223 0 0.053780254984823105 -0.0015304752772711048 0 0.053243431291636605 -0.0024886521214995921 0 0.053530515369974156 -0.0018522166669644223 0 0.053703495786110354 -0.0016113024361054927 0 0.053530515369974156 -0.0018522166669644223 0 0.053703495786110354 -0.0016113024361054927 0 0.053780254984823105 -0.0015304752772711048 0 0.05390196953404721 -0.0013082996513790973 0 0.053780254984823105 -0.0015304752772711048 0 0.05400287089080659 -0.0011419721155351773 0 0.053703495786110354 -0.0016113024361054927 0 0.053780254984823105 -0.0015304752772711048 0 0.05400287089080659 -0.0011419721155351773 0 0.053703495786110354 -0.0016113024361054927 0 0.05400287089080659 -0.0011419721155351773 0 0.053923594854923748 -0.0012382515262439927 0 0.054210247753987334 -0.00086376977531878727 0 0.05400287089080659 -0.0011419721155351773 0 0.053923594854923748 -0.0012382515262439927 0 0.054338105252321106 -0.00074504807219076183 0 0.053923594854923748 -0.0012382515262439927 0 0.054326914920756211 -0.00091099369427304945 0 0.054573540911400209 -0.00085956800679472321 0 0.054699643257292554 -0.0012759057473090566 0 0.054109657271574685 -0.0013075265838202066 0 0.053923594854923748 -0.0012382515262439927 0 0.054326914920756211 -0.00091099369427304945 0 0.054109657271574685 -0.0013075265838202066 0 0.054573540911400209 -0.00085956800679472321 0 0.054326914920756211 -0.00091099369427304945 0 0.054109657271574685 -0.0013075265838202066 0 0.054699643257292554 -0.0012759057473090566 0 0.053243431291636605 -0.0024886521214995921 0 0.054109657271574685 -0.0013075265838202066 0 0.053243431291636605 -0.0024886521214995921 0 0.053703495786110354 -0.0016113024361054927 0 0.053923594854923748 -0.0012382515262439927 0 0.053243431291636605 -0.0024886521214995921 0 0.053923594854923748 -0.0012382515262439927 0 0.054109657271574685 -0.0013075265838202066 0 0.054995564093960725 3.1313341481279174e-07 0 0.054471403290345666 -9.2966210295836345e-05 0 0.054998712354863234 -5.8304414215748545e-07 0 0.054995564093960725 3.1313341481279174e-07 0 0.052693656245731718 0.00010165564867194237 0 0.044015126328985965 3.4312857235933878e-07 0 0.046812166979352685 -0.00015113967846235764 0 0.052693656245731718 0.00010165564867194237 0 0.044015126328985965 3.4312857235933878e-07 0 0.046812166979352685 -0.00015113967846235764 0 0.048485358309866076 0.00026405188541622098 0 0.052693656245731718 0.00010165564867194237 0 0.054995564093960725 3.1313341481279174e-07 0 0.052693656245731718 0.00010165564867194237 0 0.054471403290345666 -9.2966210295836345e-05 0 0.054042110031543286 0.00024093131513528503 0 0.052693656245731718 0.00010165564867194237 0 0.054471403290345666 -9.2966210295836345e-05 0 0.051433855708026548 -0.00024784637999854757 0 0.051581416134841303 -0.00017311582837080405 0 0.054471403290345666 -9.2966210295836345e-05 0 0.054341356024619404 -0.00025816048200512918 0 0.054269081759472794 -0.00011214741688725129 0 0.051433855708026548 -0.00024784637999854757 0 0.051634436812484565 -0.00032109611693068794 0 0.054042110031543286 0.00024093131513528503 0 0.054471403290345666 -9.2966210295836345e-05 0 0.054341356024619404 -0.00025816048200512918 0 0.046812166979352685 -0.00015113967846235764 0 0.048485358309866076 0.00026405188541622098 0 0.047825708197859036 -0.0011237427965270766 0 0.046812166979352685 -0.00015113967846235764 0 0.047825708197859036 -0.0011237427965270766 0 0.047574269611571782 0.00025968102756562686 0 0.047825708197859036 -0.0011237427965270766 0 0.050110748464180246 0.0001865472316487078 0 0.047574269611571782 0.00025968102756562686 0 0.051634436812484565 -0.00032109611693068794 0 0.052032539147801676 -0.000249791214731324 0 0.047825708197859036 -0.0011237427965270766 0 0.052362351514045648 -0.00078552760765184459 0 0.050110748464180246 0.0001865472316487078 0 0.054341356024619404 -0.00025816048200512918 0 0.052362351514045648 -0.00078552760765184459 0 0.053563665671258809 -0.00043215426125369774 0 0.052362351514045648 -0.00078552760765184459 0 0.053583155470382636 -0.00064061389733535213 0 0.053563665671258809 -0.00043215426125369774 0 0.052362351514045648 -0.00078552760765184459 0 0.053583155470382636 -0.00064061389733535213 0 0.053657582788649946 -0.00053272579290830407 0 0.052362351514045648 -0.00078552760765184459 0 0.053657582788649946 -0.00053272579290830407 0 0.052371118888466697 0.0004779254455045326 0 0.053583155470382636 -0.00064061389733535213 0 0.053563665671258809 -0.00043215426125369774 0 0.053895764276020164 -0.00058393790956846924 0 0.053563665671258809 -0.00043215426125369774 0 0.054260706751175336 -0.00015125680682793457 0 0.053895764276020164 -0.00058393790956846924 0 0.053563665671258809 -0.00043215426125369774 0 0.054269081759472794 -0.00011214741688725129 0 0.054260706751175336 -0.00015125680682793457 0 0.054341356024619404 -0.00025816048200512918 0 0.053563665671258809 -0.00043215426125369774 0 0.054269081759472794 -0.00011214741688725129 0 0.054998712354863234 -5.8304414215748545e-07 0 0.054260706751175336 -0.00015125680682793457 0 0.054864329158571257 -0.00013032410792424191 0 0.054471403290345666 -9.2966210295836345e-05 0 0.054269081759472794 -0.00011214741688725129 0 0.054998712354863234 -5.8304414215748545e-07 0 0.054269081759472794 -0.00011214741688725129 0 0.054998712354863234 -5.8304414215748545e-07 0 0.054260706751175336 -0.00015125680682793457 0 0.055000220774207291 -6.5537003024151038e-08 0 0.054998712354863234 -5.8304414215748545e-07 0 0.054864329158571257 -0.00013032410792424191 0 0.054469228795308404 -0.00036457381683011579 0 0.054530349315574621 -0.00039689045801640291 0 0.054563973303258503 -0.0007922418078353436 0 0.054280294843800439 -0.0006617858443131138 0 0.053973309092264513 -0.00072626723482362664 0 0.054280294843800439 -0.0006617858443131138 0 0.053973309092264513 -0.00072626723482362664 0 0.054178633751728968 -0.00055779207573009005 0 0.05464146355878554 -0.00043162460471159208 0 0.054530349315574621 -0.00039689045801640291 0 0.054260706751175336 -0.00015125680682793457 0 0.053973309092264513 -0.00072626723482362664 0 0.053895764276020164 -0.00058393790956846924 0 0.053973309092264513 -0.00072626723482362664 0 0.053895764276020164 -0.00058393790956846924 0 0.054178633751728968 -0.00055779207573009005 0 0.053903528018012056 -0.00069058588043473745 0 0.053924176246010196 -0.00069092104837949696 0 0.053583155470382636 -0.00064061389733535213 0 0.053657582788649946 -0.00053272579290830407 0 0.053685914079433822 -0.00054532654418055408 0 0.053583155470382636 -0.00064061389733535213 0 0.053895764276020164 -0.00058393790956846924 0 0.053685914079433822 -0.00054532654418055408 0 0.054480629181964418 -0.00060836002591549009 0 0.054178633751728968 -0.00055779207573009005 0 0.054506494851072465 -0.00056857819786217546 0 0.054480629181964418 -0.00060836002591549009 0 0.054280294843800439 -0.0006617858443131138 0 0.054178633751728968 -0.00055779207573009005 0 0.053685914079433822 -0.00054532654418055408 0 0.053604219868000264 -0.00056295193882210861 0 0.053649854470967984 -0.00055492966360594202 0 0.053924176246010196 -0.00069092104837949696 0 0.053933548166302483 -0.00075482990002232397 0 0.053657582788649946 -0.00053272579290830407 0 0.053685914079433822 -0.00054532654418055408 0 0.053649854470967984 -0.00055492966360594202 0 0.053657582788649946 -0.00053272579290830407 0 0.053649854470967984 -0.00055492966360594202 0 0.053669750424415311 -0.00056821005180667991 0 0.053628648024613083 -0.00059241943212143679 0 0.053635575268772051 -0.00069231608573065836 0 0.053669750424415311 -0.00056821005180667991 0 0.053649854470967984 -0.00055492966360594202 0 0.053628648024613083 -0.00059241943212143679 0 0.053669750424415311 -0.00056821005180667991 0 0.053604219868000264 -0.00056295193882210861 0 0.053628648024613083 -0.00059241943212143679 0 0.053604287977403874 -0.00062393947783444118 0 0.053604219868000264 -0.00056295193882210861 0 0.053649854470967984 -0.00055492966360594202 0 0.053628648024613083 -0.00059241943212143679 0 0.043306928538591326 -0.0040718459083637871 0 0.040145569308562973 -0.0033761606445457597 0 0.040414438603688277 -0.0032340631091117779 0 0.052894251936594486 -0.00097741056376873152 0 0.053379443788286768 -0.00081196330310617174 0 0.053325324327266402 -0.0010777962186310174 0 0.048645164188873519 -0.0011933935200647613 0 0.046413531178087775 -0.00014000715328303654 0 0.052894251936594486 -0.00097741056376873152 0 0.053214065872968022 -0.00056120470432906799 0 0.053379443788286768 -0.00081196330310617174 0 0.046257260839596331 0.00075515810418117727 0 0.046413531178087775 -0.00014000715328303654 0 0.053379443788286768 -0.00081196330310617174 0 0.053635575268772051 -0.00069231608573065836 0 0.05371829311541565 -0.00081333300461949799 0 0.045164826507014116 -0.00030324874820791971 0 0.045154857972363238 -0.00024267667732956149 0 0.045242061713580528 -0.00026881213594418587 0 0.053379443788286768 -0.00081196330310617174 0 0.05371829311541565 -0.00081333300461949799 0 0.053325324327266402 -0.0010777962186310174 0 0.053214065872968022 -0.00056120470432906799 0 0.053379443788286768 -0.00081196330310617174 0 0.053635575268772051 -0.00069231608573065836 0 0.053628648024613083 -0.00059241943212143679 0 0.053604287977403874 -0.00062393947783444118 0 0.053635575268772051 -0.00069231608573065836 0 0.053480188745292423 -0.00089466169196651376 0 0.05350645584120247 -0.00085526059610797379 0 0.046257260839596331 0.00075515810418117727 0 0.049864513047700391 0.00065452350200188251 0 0.053635575268772051 -0.00069231608573065836 0 0.05371829311541565 -0.00081333300461949799 0 0.053669750424415311 -0.00056821005180667991 0 0.051798110687181965 0.0045668084353505762 0 0.053123564720355516 0.0070274860842881462 0 0.053529734163015312 0.0025797739492552335 0 0.046257260839596331 0.00075515810418117727 0 0.042738266813291306 0.00097852593729724703 0 0.038309916169132201 0.0016753709266204922 0 0.039089231349289905 0.0012771009197503659 0 0.03858083830350368 0.0010131534557644636 0 0.038309916169132201 0.0016753709266204922 0 0.039089231349289905 0.0012771009197503659 0 0.039511229880255523 0.0024837482195411271 0 0.039089231349289905 0.0012771009197503659 0 0.039511229880255523 0.0024837482195411271 0 0.040062094554010594 0.0014988614322833551 0 0.046257260839596331 0.00075515810418117727 0 0.045304527965788079 0.0018499794703124111 0 0.051798110687181965 0.0045668084353505762 0 0.053123564720355516 0.0070274860842881462 0 0.049457075676994408 0.0054090606218121359 0 0.051798110687181965 0.0045668084353505762 0 0.049457075676994408 0.0054090606218121359 0 0.050560126588906427 0.003152237020653024 0 0.049457075676994408 0.0054090606218121359 0 0.050560126588906427 0.003152237020653024 0 0.048172334849076959 0.002080423882459229 0 0.050560126588906427 0.003152237020653024 0 0.05073689291099328 0.0014257442651068437 0 0.048172334849076959 0.002080423882459229 0 0.051798110687181965 0.0045668084353505762 0 0.050560126588906427 0.003152237020653024 0 0.053529734163015312 0.0025797739492552335 0 0.050560126588906427 0.003152237020653024 0 0.053529734163015312 0.0025797739492552335 0 0.05073689291099328 0.0014257442651068437 0 0.053657582788649946 -0.00053272579290830407 0 0.053529734163015312 0.0025797739492552335 0 0.052371118888466697 0.0004779254455045326 0 0.050893358225279725 4.7996194576285618e-05 0 0.049864513047700391 0.00065452350200188251 0 0.053529734163015312 0.0025797739492552335 0 0.052371118888466697 0.0004779254455045326 0 0.05073689291099328 0.0014257442651068437 0 0.050110748464180246 0.0001865472316487078 0 0.05073689291099328 0.0014257442651068437 0 0.047574269611571782 0.00025968102756562686 0 0.052362351514045648 -0.00078552760765184459 0 0.052371118888466697 0.0004779254455045326 0 0.050110748464180246 0.0001865472316487078 0 0.052371118888466697 0.0004779254455045326 0 0.050110748464180246 0.0001865472316487078 0 0.05073689291099328 0.0014257442651068437 0 0.05073689291099328 0.0014257442651068437 0 0.047574269611571782 0.00025968102756562686 0 0.048172334849076959 0.002080423882459229 0 0.046812166979352685 -0.00015113967846235764 0 0.046312628467292796 0.00048632804928465753 0 0.044915490724179372 0.00085018312154666381 0 0.046812166979352685 -0.00015113967846235764 0 0.047574269611571782 0.00025968102756562686 0 0.046312628467292796 0.00048632804928465753 0 0.047574269611571782 0.00025968102756562686 0 0.046312628467292796 0.00048632804928465753 0 0.046075678567773601 0.00099514194869921658 0 0.046075678567773601 0.00099514194869921658 0 0.044915490724179372 0.00085018312154666381 0 0.044283504198832625 0.0023896961183820947 0 0.046312628467292796 0.00048632804928465753 0 0.046075678567773601 0.00099514194869921658 0 0.044915490724179372 0.00085018312154666381 0 0.044915490724179372 0.00085018312154666381 0 0.044283504198832625 0.0023896961183820947 0 0.042537798631040756 0.002308341705188996 0 0.047574269611571782 0.00025968102756562686 0 0.046075678567773601 0.00099514194869921658 0 0.048172334849076959 0.002080423882459229 0 0.046075678567773601 0.00099514194869921658 0 0.044283504198832625 0.0023896961183820947 0 0.048172334849076959 0.002080423882459229 0 0.049457075676994408 0.0054090606218121359 0 0.044283504198832625 0.0023896961183820947 0 0.048172334849076959 0.002080423882459229 0 0.039511229880255523 0.0024837482195411271 0 0.041623005393499342 0.0019546637484841793 0 0.040062094554010594 0.0014988614322833551 0 0.039511229880255523 0.0024837482195411271 0 0.044283504198832625 0.0023896961183820947 0 0.041623005393499342 0.0019546637484841793 0 0.045304527965788079 0.0018499794703124111 0 0.04472237462679899 0.0018942472060700468 0 0.041623005393499342 0.0019546637484841793 0 0.040062094554010594 0.0014988614322833551 0 0.040545442851987912 0.001449885754556491 0 0.040062094554010594 0.0014988614322833551 0 0.040545442851987912 0.001449885754556491 0 0.0394052780366854 0.001161956479684914 0 0.039089231349289905 0.0012771009197503659 0 0.040062094554010594 0.0014988614322833551 0 0.0394052780366854 0.001161956479684914 0 0.040545442851987912 0.001449885754556491 0 0.042537798631040756 0.002308341705188996 0 0.0402493516595347 0.00098644221550116024 0 0.041623005393499342 0.0019546637484841793 0 0.040545442851987912 0.001449885754556491 0 0.042537798631040756 0.002308341705188996 0 0.041482347618321175 0.00093023201102232641 0 0.040460356723056708 0.00052619706528747405 0 0.044283504198832625 0.0023896961183820947 0 0.041623005393499342 0.0019546637484841793 0 0.042537798631040756 0.002308341705188996 0 0.041973406302435783 0.00098451784903676284 0 0.041482347618321175 0.00093023201102232641 0 0.044915490724179372 0.00085018312154666381 0 0.042801139780750522 0.00015014035347446833 0 0.044015126328985965 3.4312857235933878e-07 0 0.042801139780750522 0.00015014035347446833 0 0.044015126328985965 3.4312857235933878e-07 0 0.040627958113529643 -6.6962945312115275e-05 0 0.046812166979352685 -0.00015113967846235764 0 0.044915490724179372 0.00085018312154666381 0 0.044015126328985965 3.4312857235933878e-07 0 0.044015126328985965 3.4312857235933878e-07 0 0.03580120957192498 5.4069993974756597e-08 0 0.038115924758572756 -8.6856365343539855e-05 0 0.03580120957192498 5.4069993974756597e-08 0 0.038115924758572756 -8.6856365343539855e-05 0 0.034180251353960155 -6.5686569136993807e-05 0 0.038115924758572756 -8.6856365343539855e-05 0 0.036119627856469737 -0.00013012898702442329 0 0.034180251353960155 -6.5686569136993807e-05 0 0.038115924758572756 -8.6856365343539855e-05 0 0.038357584620056874 -8.5981683625371388e-05 0 0.036119627856469737 -0.00013012898702442329 0 0.044015126328985965 3.4312857235933878e-07 0 0.038115924758572756 -8.6856365343539855e-05 0 0.040627958113529643 -6.6962945312115275e-05 0 0.038115924758572756 -8.6856365343539855e-05 0 0.038357584620056874 -8.5981683625371388e-05 0 0.040627958113529643 -6.6962945312115275e-05 0 0.038108930387300108 0.00016458729217877366 0 0.0402493516595347 0.00098644221550116024 0 0.037863150584180064 0.0002949835033890652 0 0.038108930387300108 0.00016458729217877366 0 0.037863150584180064 0.0002949835033890652 0 0.037007935822837061 -1.4155733496434529e-05 0 0.040545442851987912 0.001449885754556491 0 0.0402493516595347 0.00098644221550116024 0 0.037863150584180064 0.0002949835033890652 0 0.039446080644286792 0.00014132219089097351 0 0.040460356723056708 0.00052619706528747405 0 0.038671372560284904 0.00094395916524660716 0 0.0394052780366854 0.001161956479684914 0 0.038614686133084754 0.00069078972165555501 0 0.038376350854641604 0.00093994336623276552 0 0.037823976941208586 0.000561651791515159 0 0.039089231349289905 0.0012771009197503659 0 0.038671372560284904 0.00094395916524660716 0 0.0394052780366854 0.001161956479684914 0 0.040545442851987912 0.001449885754556491 0 0.0394052780366854 0.001161956479684914 0 0.038614686133084754 0.00069078972165555501 0 0.038671372560284904 0.00094395916524660716 0 0.038614686133084754 0.00069078972165555501 0 0.037649633082405605 0.00050739576281532642 0 0.036909533305831223 0.00040227556736213146 0 0.03693640883582474 0.00047795331253673692 0 0.037649633082405605 0.00050739576281532642 0 0.037863150584180064 0.0002949835033890652 0 0.037007935822837061 -1.4155733496434529e-05 0 0.035894151273551798 -0.00022787907282796366 0 0.038614686133084754 0.00069078972165555501 0 0.036909533305831223 0.00040227556736213146 0 0.037649633082405605 0.00050739576281532642 0 0.037823976941208586 0.000561651791515159 0 0.036925052950348626 0.00035129853941007796 0 0.039446080644286792 0.00014132219089097351 0 0.038966905499096587 -3.3993115101555443e-06 0 0.038108930387300108 0.00016458729217877366 0 0.037007935822837061 -1.4155733496434529e-05 0 0.036119627856469737 -0.00013012898702442329 0 0.037007935822837061 -1.4155733496434529e-05 0 0.036119627856469737 -0.00013012898702442329 0 0.035894151273551798 -0.00022787907282796366 0 0.036119627856469737 -0.00013012898702442329 0 0.034806517860456507 2.5688939661764501e-05 0 0.034180251353960155 -6.5686569136993807e-05 0 0.036119627856469737 -0.00013012898702442329 0 0.035894151273551798 -0.00022787907282796366 0 0.034806517860456507 2.5688939661764501e-05 0 0.036909533305831223 0.00040227556736213146 0 0.036467261581857646 0.0005250937772494933 0 0.035757433728007042 0.00060035246854955046 0 0.036909533305831223 0.00040227556736213146 0 0.03693640883582474 0.00047795331253673692 0 0.036467261581857646 0.0005250937772494933 0 0.03693640883582474 0.00047795331253673692 0 0.03717474721910595 0.0008339871947423607 0 0.036533439397815247 0.00074027021559730326 0 0.03693640883582474 0.00047795331253673692 0 0.036467261581857646 0.0005250937772494933 0 0.036533439397815247 0.00074027021559730326 0 0.036467261581857646 0.0005250937772494933 0 0.036533439397815247 0.00074027021559730326 0 0.035757433728007042 0.00060035246854955046 0 0.03717474721910595 0.0008339871947423607 0 0.03718375860247243 0.0011640735446849008 0 0.036533439397815247 0.00074027021559730326 0 0.03717474721910595 0.0008339871947423607 0 0.037769636997537104 0.0014421270459353168 0 0.03718375860247243 0.0011640735446849008 0 0.037769636997537104 0.0014421270459353168 0 0.037785176827420913 0.0015987554500119304 0 0.03718375860247243 0.0011640735446849008 0 0.03717474721910595 0.0008339871947423607 0 0.037843233584838411 0.00065308968003619091 0 0.037769636997537104 0.0014421270459353168 0 0.03693640883582474 0.00047795331253673692 0 0.03717474721910595 0.0008339871947423607 0 0.037243544355472363 0.00035018986402531185 0 0.03717474721910595 0.0008339871947423607 0 0.037843233584838411 0.00065308968003619091 0 0.037243544355472363 0.00035018986402531185 0 0.037843233584838411 0.00065308968003619091 0 0.037243544355472363 0.00035018986402531185 0 0.038327558819836204 -0.00030344003492406791 0 0.03693640883582474 0.00047795331253673692 0 0.037243544355472363 0.00035018986402531185 0 0.037649633082405605 0.00050739576281532642 0 0.037243544355472363 0.00035018986402531185 0 0.037649633082405605 0.00050739576281532642 0 0.037676740983942442 0.00072434213671008314 0 0.038671372560284904 0.00094395916524660716 0 0.037649633082405605 0.00050739576281532642 0 0.037676740983942442 0.00072434213671008314 0 0.039089231349289905 0.0012771009197503659 0 0.038671372560284904 0.00094395916524660716 0 0.03858083830350368 0.0010131534557644636 0 0.038671372560284904 0.00094395916524660716 0 0.037676740983942442 0.00072434213671008314 0 0.037127144313669778 0.0013929648124916976 0 0.04018466089997369 0.0014367954861947603 0 0.042738266813291306 0.00097852593729724703 0 0.037243544355472363 0.00035018986402531185 0 0.037676740983942442 0.00072434213671008314 0 0.037127144313669778 0.0013929648124916976 0 0.037243544355472363 0.00035018986402531185 0 0.037413185569747889 -0.002376513661737821 0 0.038327558819836204 -0.00030344003492406791 0 0.0411796953311096 0.00057674809904081361 0 0.042738266813291306 0.00097852593729724703 0 0.037413185569747889 -0.002376513661737821 0 0.038327558819836204 -0.00030344003492406791 0 0.039154357489635104 -0.0012068315553490946 0 0.038327558819836204 -0.00030344003492406791 0 0.03921479924288427 -0.00030531625055175624 0 0.039154357489635104 -0.0012068315553490946 0 0.03921479924288427 -0.00030531625055175624 0 0.04037900252532222 -0.00031257323367118377 0 0.039061200215701301 0.00053620560274320083 0 0.03921479924288427 -0.00030531625055175624 0 0.039154357489635104 -0.0012068315553490946 0 0.04037900252532222 -0.00031257323367118377 0 0.037413185569747889 -0.002376513661737821 0 0.039154357489635104 -0.0012068315553490946 0 0.039863274088240766 -0.0024357135647247092 0 0.042738266813291306 0.00097852593729724703 0 0.046413531178087775 -0.00014000715328303654 0 0.037413185569747889 -0.002376513661737821 0 0.039863274088240766 -0.0024357135647247092 0 0.040169107716689509 -0.0033249565039472949 0 0.039154357489635104 -0.0012068315553490946 0 0.039863274088240766 -0.0024357135647247092 0 0.040642223520563084 -0.0015151826230717456 0 0.043306928538591326 -0.0040718459083637871 0 0.042113099102219366 -0.0025222933149506941 0 0.040414438603688277 -0.0032340631091117779 0 0.042113099102219366 -0.0025222933149506941 0 0.040414438603688277 -0.0032340631091117779 0 0.040896653828696679 -0.0022766816168383578 0 0.039863274088240766 -0.0024357135647247092 0 0.040414438603688277 -0.0032340631091117779 0 0.040896653828696679 -0.0022766816168383578 0 0.039863274088240766 -0.0024357135647247092 0 0.040169107716689509 -0.0033249565039472949 0 0.040414438603688277 -0.0032340631091117779 0 0.046413531178087775 -0.00014000715328303654 0 0.046371255072791447 -0.00016113626943967083 0 0.039863274088240766 -0.0024357135647247092 0 0.040896653828696679 -0.0022766816168383578 0 0.040642223520563084 -0.0015151826230717456 0 0.040896653828696679 -0.0022766816168383578 0 0.041450594432479365 -0.0017913375528199734 0 0.040642223520563084 -0.0015151826230717456 0 0.042113099102219366 -0.0025222933149506941 0 0.040896653828696679 -0.0022766816168383578 0 0.041450594432479365 -0.0017913375528199734 0 0.042113099102219366 -0.0025222933149506941 0 0.041450594432479365 -0.0017913375528199734 0 0.042057213864782776 -0.00097311683896810571 0 0.041450594432479365 -0.0017913375528199734 0 0.040642223520563084 -0.0015151826230717456 0 0.042057213864782776 -0.00097311683896810571 0 0.040642223520563084 -0.0015151826230717456 0 0.04037900252532222 -0.00031257323367118377 0 0.042057213864782776 -0.00097311683896810571 0 0.039154357489635104 -0.0012068315553490946 0 0.040642223520563084 -0.0015151826230717456 0 0.04037900252532222 -0.00031257323367118377 0 0.04037900252532222 -0.00031257323367118377 0 0.04211591660224908 0.00018626200749282477 0 0.042057213864782776 -0.00097311683896810571 0 0.04037900252532222 -0.00031257323367118377 0 0.041392380479467 0.0014641218453179141 0 0.04211591660224908 0.00018626200749282477 0 0.04037900252532222 -0.00031257323367118377 0 0.041392380479467 0.0014641218453179141 0 0.039061200215701301 0.00053620560274320083 0 0.041392380479467 0.0014641218453179141 0 0.039061200215701301 0.00053620560274320083 0 0.037769636997537104 0.0014421270459353168 0 0.037843233584838411 0.00065308968003619091 0 0.039061200215701301 0.00053620560274320083 0 0.037769636997537104 0.0014421270459353168 0 0.037843233584838411 0.00065308968003619091 0 0.038327558819836204 -0.00030344003492406791 0 0.039061200215701301 0.00053620560274320083 0 0.038327558819836204 -0.00030344003492406791 0 0.03921479924288427 -0.00030531625055175624 0 0.039061200215701301 0.00053620560274320083 0 0.040714072435879108 0.00071388734369336551 0 0.037769636997537104 0.0014421270459353168 0 0.038364010404913391 0.0020463157923908608 0 0.037769636997537104 0.0014421270459353168 0 0.038364010404913391 0.0020463157923908608 0 0.037785176827420913 0.0015987554500119304 0 0.041679979079497734 0.00096967530097343479 0 0.040009147866992223 0.0015372448081218291 0 0.038364010404913391 0.0020463157923908608 0 0.037356039937901403 0.0018792528352157933 0 0.036547326185171987 0.0029246130687424036 0 0.040714072435879108 0.00071388734369336551 0 0.038364010404913391 0.0020463157923908608 0 0.042503974482472479 0.0027964829680218314 0 0.039282540627256814 0.002397676488164103 0 0.039795941720599755 0.0023533914080364573 0 0.037356039937901403 0.0018792528352157933 0 0.037889155202754488 0.0015560762398330269 0 0.037747183219768971 0.0013768242112866976 0 0.038364010404913391 0.0020463157923908608 0 0.037356039937901403 0.0018792528352157933 0 0.037889155202754488 0.0015560762398330269 0 0.038364010404913391 0.0020463157923908608 0 0.037785176827420913 0.0015987554500119304 0 0.037889155202754488 0.0015560762398330269 0 0.037785176827420913 0.0015987554500119304 0 0.037889155202754488 0.0015560762398330269 0 0.037342217937108541 0.0014473287355854776 0 0.034010421581302949 0.0027019075873751341 0 0.033867745826649656 0.0030721023425324375 0 0.037889155202754488 0.0015560762398330269 0 0.037394724887554021 0.0023951540520428644 0 0.037342217937108541 0.0014473287355854776 0 0.037889155202754488 0.0015560762398330269 0 0.037747183219768971 0.0013768242112866976 0 0.037394724887554021 0.0023951540520428644 0 0.030641833341438492 0.003660556838488226 0 0.030643984405902203 0.0041403000044526583 0 0.030418486961788074 0.0041865538468237908 0 0.030641833341438492 0.003660556838488226 0 0.030643984405902203 0.0041403000044526583 0 0.031372916696927919 0.0038660587634598751 0 0.030643984405902203 0.0041403000044526583 0 0.031231935811264371 0.0047247655733436552 0 0.029974216489229495 0.0042764436230347518 0 0.030643984405902203 0.0041403000044526583 0 0.030418486961788074 0.0041865538468237908 0 0.029974216489229495 0.0042764436230347518 0 0.030641833341438492 0.003660556838488226 0 0.030418486961788074 0.0041865538468237908 0 0.030702704063267045 0.0044294086713900886 0 0.030418486961788074 0.0041865538468237908 0 0.031492743211684424 0.0035904004720256227 0 0.030853570609449002 0.0031656752871639464 0 0.030418486961788074 0.0041865538468237908 0 0.030702704063267045 0.0044294086713900886 0 0.031492743211684424 0.0035904004720256227 0 0.031492743211684424 0.0035904004720256227 0 0.033138425424908198 0.0037351392677380775 0 0.032117614380047177 0.0035005875912690913 0 0.037394724887554021 0.0023951540520428644 0 0.033138425424908198 0.0037351392677380775 0 0.035172375273501366 0.0021683387953124731 0 0.033867745826649656 0.0030721023425324375 0 0.033589244588946507 0.0032907201793973134 0 0.030702704063267045 0.0044294086713900886 0 0.031492743211684424 0.0035904004720256227 0 0.033138425424908198 0.0037351392677380775 0 0.033138425424908198 0.0037351392677380775 0 0.035172375273501366 0.0021683387953124731 0 0.03378206680241197 0.0025203042964923126 0 0.035172375273501366 0.0021683387953124731 0 0.035054568340644715 0.0014141115642177767 0 0.03378206680241197 0.0025203042964923126 0 0.035054568340644715 0.0014141115642177767 0 0.034000453881485704 0.0010391101114006849 0 0.03378206680241197 0.0025203042964923126 0 0.035054568340644715 0.0014141115642177767 0 0.034993134657695622 0.000910472350479593 0 0.03581231318702733 0.00098632469490464968 0 0.035054568340644715 0.0014141115642177767 0 0.034993134657695622 0.000910472350479593 0 0.034000453881485704 0.0010391101114006849 0 0.035054568340644715 0.0014141115642177767 0 0.036229863030259185 0.0014731119951878655 0 0.03581231318702733 0.00098632469490464968 0 0.035172375273501366 0.0021683387953124731 0 0.035054568340644715 0.0014141115642177767 0 0.036229863030259185 0.0014731119951878655 0 0.037394724887554021 0.0023951540520428644 0 0.035172375273501366 0.0021683387953124731 0 0.036229863030259185 0.0014731119951878655 0 0.037394724887554021 0.0023951540520428644 0 0.036229863030259185 0.0014731119951878655 0 0.037342217937108541 0.0014473287355854776 0 0.036229863030259185 0.0014731119951878655 0 0.036604631196808637 0.001053875596717052 0 0.037342217937108541 0.0014473287355854776 0 0.036604631196808637 0.001053875596717052 0 0.037342217937108541 0.0014473287355854776 0 0.03718375860247243 0.0011640735446849008 0 0.037785176827420913 0.0015987554500119304 0 0.037342217937108541 0.0014473287355854776 0 0.03718375860247243 0.0011640735446849008 0 0.036604631196808637 0.001053875596717052 0 0.03718375860247243 0.0011640735446849008 0 0.036533439397815247 0.00074027021559730326 0 0.036604631196808637 0.001053875596717052 0 0.036533439397815247 0.00074027021559730326 0 0.03581231318702733 0.00098632469490464968 0 0.036533439397815247 0.00074027021559730326 0 0.035757433728007042 0.00060035246854955046 0 0.03581231318702733 0.00098632469490464968 0 0.034993134657695622 0.000910472350479593 0 0.035757433728007042 0.00060035246854955046 0 0.03581231318702733 0.00098632469490464968 0 0.036229863030259185 0.0014731119951878655 0 0.036604631196808637 0.001053875596717052 0 0.03581231318702733 0.00098632469490464968 0 0.035894151273551798 -0.00022787907282796366 0 0.034806517860456507 2.5688939661764501e-05 0 0.034498841515428293 0.00064414407259762076 0 0.036925052950348626 0.00035129853941007796 0 0.036451395026308016 0.00048835551864966141 0 0.036909533305831223 0.00040227556736213146 0 0.035757433728007042 0.00060035246854955046 0 0.034498841515428293 0.00064414407259762076 0 0.034806517860456507 2.5688939661764501e-05 0 0.034189326391184556 0.00032857743445079683 0 0.034498841515428293 0.00064414407259762076 0 0.034993134657695622 0.000910472350479593 0 0.035757433728007042 0.00060035246854955046 0 0.034498841515428293 0.00064414407259762076 0 0.034806517860456507 2.5688939661764501e-05 0 0.033753423860303521 0.00015678566910784422 0 0.034180251353960155 -6.5686569136993807e-05 0 0.034806517860456507 2.5688939661764501e-05 0 0.033753423860303521 0.00015678566910784422 0 0.034189326391184556 0.00032857743445079683 0 0.03358446579648823 0.00052816111413323409 0 0.032675590009073496 0.00037566622153328068 0 0.032289825776949714 0.0001045616124728817 0 0.033753423860303521 0.00015678566910784422 0 0.03358446579648823 0.00052816111413323409 0 0.032289825776949714 0.0001045616124728817 0 0.033753423860303521 0.00015678566910784422 0 0.034189326391184556 0.00032857743445079683 0 0.03358446579648823 0.00052816111413323409 0 0.03358446579648823 0.00052816111413323409 0 0.034000453881485704 0.0010391101114006849 0 0.032675590009073496 0.00037566622153328068 0 0.034189326391184556 0.00032857743445079683 0 0.03358446579648823 0.00052816111413323409 0 0.034498841515428293 0.00064414407259762076 0 0.03358446579648823 0.00052816111413323409 0 0.034498841515428293 0.00064414407259762076 0 0.034000453881485704 0.0010391101114006849 0 0.034993134657695622 0.000910472350479593 0 0.034498841515428293 0.00064414407259762076 0 0.034000453881485704 0.0010391101114006849 0 0.032408905146130935 0.0010167818580713341 0 0.031947354115660236 0.001399147141123032 0 0.033138425424908198 0.0037351392677380775 0 0.03378206680241197 0.0025203042964923126 0 0.032365150073961929 0.0039258597208193741 0 0.034000453881485704 0.0010391101114006849 0 0.031654939864053516 7.0028975134113445e-05 0 0.032675590009073496 0.00037566622153328068 0 0.034000453881485704 0.0010391101114006849 0 0.03378206680241197 0.0025203042964923126 0 0.032365150073961929 0.0039258597208193741 0 0.033138425424908198 0.0037351392677380775 0 0.032365150073961929 0.0039258597208193741 0 0.032117614380047177 0.0035005875912690913 0 0.031654939864053516 7.0028975134113445e-05 0 0.031337346679860476 2.5435349841555576e-05 0 0.030140297035174866 -9.5236709485398905e-05 0 0.031654939864053516 7.0028975134113445e-05 0 0.031337346679860476 2.5435349841555576e-05 0 0.032675590009073496 0.00037566622153328068 0 0.031337346679860476 2.5435349841555576e-05 0 0.032675590009073496 0.00037566622153328068 0 0.032289825776949714 0.0001045616124728817 0 0.032289825776949714 0.0001045616124728817 0 0.029954413756585169 -6.0393257025204813e-05 0 0.029705596357691724 -2.8066855786121792e-06 0 0.031337346679860476 2.5435349841555576e-05 0 0.032289825776949714 0.0001045616124728817 0 0.029954413756585169 -6.0393257025204813e-05 0 0.03580120957192498 5.4069993974756597e-08 0 0.029705596357691724 -2.8066855786121792e-06 0 0.034180251353960155 -6.5686569136993807e-05 0 0.032289825776949714 0.0001045616124728817 0 0.029705596357691724 -2.8066855786121792e-06 0 0.034180251353960155 -6.5686569136993807e-05 0 0.033753423860303521 0.00015678566910784422 0 0.032289825776949714 0.0001045616124728817 0 0.034180251353960155 -6.5686569136993807e-05 0 0.053004764809913604 -0.00057573554781425106 0 0.053082307355769562 -0.00059856098035426688 0 0.053046421365073232 -0.00066173969857187889 0 0.0442416405174536 -0.00084071947722113237 0 0.044813641146195751 -0.00092622312199980143 0 0.0442416405174536 -0.00084071947722113237 0 0.042092770716294525 0.001072866631901089 0 0.053218315767858876 0.0010709144849800772 0 0.050449049599947282 0.0016991152780181018 0 0.051690770902940053 0.0005269637529107591 0 0.033900047049499178 0.0025861747805884417 0 0.033544116010149033 0.0027916002490596301 0 0.033759678869929144 0.0027605355162990401 0 0.033544116010149033 0.0027916002490596301 0 0.033759678869929144 0.0027605355162990401 0 0.033696948225554822 0.0027948492840251839 0 0.033823262967348333 0.0028197744057939459 0 0.033759678869929144 0.0027605355162990401 0 0.033696948225554822 0.0027948492840251839 0 0.033823262967348333 0.0028197744057939459 0 0.033759678869929144 0.0027605355162990401 0 0.033952958657591792 0.0028116908991466494 0 0.033900047049499178 0.0025861747805884417 0 0.033759678869929144 0.0027605355162990401 0 0.033952958657591792 0.0028116908991466494 0 0.0442416405174536 -0.00084071947722113237 0 0.042314531704102085 0.001349983221538632 0 0.053018160093170452 -0.00058656675819242535 0 0.053056665536835697 -0.00037304962153446314 0 0.053102524916136852 -0.00049878165878201126 0 0.053056665536835697 -0.00037304962153446314 0 0.053178092413929234 -0.00034639171352042963 0 0.053149208766631727 -0.00041796552658896234 0 0.053178092413929234 -0.00034639171352042963 0 0.053230390732823998 -0.00040361199776476822 0 0.053258183411704879 -0.00035790614888879871 0 0.053178092413929234 -0.00034639171352042963 0 0.053230390732823998 -0.00040361199776476822 0 0.053149208766631727 -0.00041796552658896234 0 0.053230390732823998 -0.00040361199776476822 0 0.053172541138683097 -0.00047401742279698652 0 0.053149208766631727 -0.00041796552658896234 0 0.053230390732823998 -0.00040361199776476822 0 0.053172541138683097 -0.00047401742279698652 0 0.05326876120613671 -0.0004958876687480388 0 0.053172541138683097 -0.00047401742279698652 0 0.053149208766631727 -0.00041796552658896234 0 0.053102524916136852 -0.00049878165878201126 0 0.053056665536835697 -0.00037304962153446314 0 0.053149208766631727 -0.00041796552658896234 0 0.053102524916136852 -0.00049878165878201126 0 0.053277679616064791 -0.00039026189911700213 0 0.053333856852052407 -0.00039702486136424485 0 0.053258183411704879 -0.00035790614888879871 0 0.053230390732823998 -0.00040361199776476822 0 0.053333856852052407 -0.00039702486136424485 0 0.053258183411704879 -0.00035790614888879871 0 0.053230390732823998 -0.00040361199776476822 0 0.053333856852052407 -0.00039702486136424485 0 0.05326876120613671 -0.0004958876687480388 0 0.053333856852052407 -0.00039702486136424485 0 0.05326876120613671 -0.0004958876687480388 0 0.053452803016990812 -0.00066165915797260797 0 0.05326876120613671 -0.0004958876687480388 0 0.053452803016990812 -0.00066165915797260797 0 0.05327930786499447 -0.00061849301753860567 0 0.053452803016990812 -0.00066165915797260797 0 0.05327930786499447 -0.00061849301753860567 0 0.053399106571155541 -0.00078490108890770874 0 0.053102524916136852 -0.00049878165878201126 0 0.053169346366308802 -0.0005555193572200981 0 0.053082307355769562 -0.00059856098035426688 0 0.053018160093170452 -0.00058656675819242535 0 0.053102524916136852 -0.00049878165878201126 0 0.053082307355769562 -0.00059856098035426688 0 0.053172541138683097 -0.00047401742279698652 0 0.053102524916136852 -0.00049878165878201126 0 0.053169346366308802 -0.0005555193572200981 0 0.053172541138683097 -0.00047401742279698652 0 0.05326876120613671 -0.0004958876687480388 0 0.053169346366308802 -0.0005555193572200981 0 0.05326876120613671 -0.0004958876687480388 0 0.053169346366308802 -0.0005555193572200981 0 0.05327930786499447 -0.00061849301753860567 0 0.053200067997144919 -0.00067528321315014244 0 0.05327930786499447 -0.00061849301753860567 0 0.053399106571155541 -0.00078490108890770874 0 0.053169346366308802 -0.0005555193572200981 0 0.053200067997144919 -0.00067528321315014244 0 0.05327930786499447 -0.00061849301753860567 0 0.053169346366308802 -0.0005555193572200981 0 0.053200067997144919 -0.00067528321315014244 0 0.053082307355769562 -0.00059856098035426688 0 0.053200067997144919 -0.00067528321315014244 0 0.053082307355769562 -0.00059856098035426688 0 0.053046421365073232 -0.00066173969857187889 0 0.053200067997144919 -0.00067528321315014244 0 0.053046421365073232 -0.00066173969857187889 0 0.053255678262224153 -0.00094266995640400442 0 0.053200067997144919 -0.00067528321315014244 0 0.053255678262224153 -0.00094266995640400442 0 0.053399106571155541 -0.00078490108890770874 0 0.053046421365073232 -0.00066173969857187889 0 0.053255678262224153 -0.00094266995640400442 0 0.052844538649358258 -0.00063725989010196148 0 0.053645022174155718 -0.00091454513013612942 0 0.053452803016990812 -0.00066165915797260797 0 0.053399106571155541 -0.00078490108890770874 0 0.053255678262224153 -0.00094266995640400442 0 0.053399106571155541 -0.00078490108890770874 0 0.053549948335015106 -0.0010980764777353692 0 0.053645022174155718 -0.00091454513013612942 0 0.053399106571155541 -0.00078490108890770874 0 0.053549948335015106 -0.0010980764777353692 0 0.053455076957239181 -0.0015677033002396948 0 0.053673586593349643 -0.0013851210885524904 0 0.053549948335015106 -0.0010980764777353692 0 0.053741258487800647 -0.0011140881989503584 0 0.053673586593349643 -0.0013851210885524904 0 0.053549948335015106 -0.0010980764777353692 0 0.053455076957239181 -0.0015677033002396948 0 0.053255678262224153 -0.00094266995640400442 0 0.053549948335015106 -0.0010980764777353692 0 0.053455076957239181 -0.0015677033002396948 0 0.053255678262224153 -0.00094266995640400442 0 0.052807130764105648 -0.0014196047279619454 0 0.052807130764105648 -0.0014196047279619454 0 0.052844538649358258 -0.00063725989010196148 0 0.051703172305352568 -0.0010548345182626955 0 0.053255678262224153 -0.00094266995640400442 0 0.052807130764105648 -0.0014196047279619454 0 0.052844538649358258 -0.00063725989010196148 0 0.0442416405174536 -0.00084071947722113237 0 0.045189853264177619 -0.00034473095746648973 0 0.053004764809913604 -0.00057573554781425106 0 0.053046421365073232 -0.00066173969857187889 0 0.052844538649358258 -0.00063725989010196148 0 0.053218315767858876 0.0010709144849800772 0 0.051690770902940053 0.0005269637529107591 0 0.052844538649358258 -0.00063725989010196148 0 0.051690770902940053 0.0005269637529107591 0 0.051703172305352568 -0.0010548345182626955 0 0.04910071288363814 -0.0011833676954977946 0 0.051690770902940053 0.0005269637529107591 0 0.052844538649358258 -0.00063725989010196148 0 0.051703172305352568 -0.0010548345182626955 0 0.051558453441976793 -0.0022564981118411266 0 0.052807130764105648 -0.0014196047279619454 0 0.051703172305352568 -0.0010548345182626955 0 0.051558453441976793 -0.0022564981118411266 0 0.051703172305352568 -0.0010548345182626955 0 0.04910071288363814 -0.0011833676954977946 0 0.04908635071890767 -0.0028074235986954412 0 0.051558453441976793 -0.0022564981118411266 0 0.04910071288363814 -0.0011833676954977946 0 0.04908635071890767 -0.0028074235986954412 0 0.04910071288363814 -0.0011833676954977946 0 0.046921996177511395 -0.0020696626637862559 0 0.046642259573809949 -0.00086943761868440213 0 0.044763157658858098 -0.00014242912073220138 0 0.04910071288363814 -0.0011833676954977946 0 0.045172710367528235 -0.00055819270002418293 0 0.047778288761554918 0.00043960317079073686 0 0.04910071288363814 -0.0011833676954977946 0 0.046921996177511395 -0.0020696626637862559 0 0.045388167753464305 0.00044372371049527284 0 0.050449049599947282 0.0016991152780181018 0 0.051690770902940053 0.0005269637529107591 0 0.04910071288363814 -0.0011833676954977946 0 0.050449049599947282 0.0016991152780181018 0 0.04910071288363814 -0.0011833676954977946 0 0.047778288761554918 0.00043960317079073686 0 0.0456934240431002 -0.0031880982007184114 0 0.043306928538591326 -0.0040718459083637871 0 0.044247038601587942 -0.0020450315591243142 0 0.042113099102219366 -0.0025222933149506941 0 0.044247038601587942 -0.0020450315591243142 0 0.042057213864782776 -0.00097311683896810571 0 0.043306928538591326 -0.0040718459083637871 0 0.042113099102219366 -0.0025222933149506941 0 0.044247038601587942 -0.0020450315591243142 0 0.046921996177511395 -0.0020696626637862559 0 0.044247038601587942 -0.0020450315591243142 0 0.045388167753464305 0.00044372371049527284 0 0.0456934240431002 -0.0031880982007184114 0 0.046921996177511395 -0.0020696626637862559 0 0.044247038601587942 -0.0020450315591243142 0 0.044247038601587942 -0.0020450315591243142 0 0.045388167753464305 0.00044372371049527284 0 0.042057213864782776 -0.00097311683896810571 0 0.045388167753464305 0.00044372371049527284 0 0.04211591660224908 0.00018626200749282477 0 0.042057213864782776 -0.00097311683896810571 0 0.040714072435879108 0.00071388734369336551 0 0.044611479385318231 0.0014106510640226745 0 0.042503974482472479 0.0027964829680218314 0 0.041679979079497734 0.00096967530097343479 0 0.044763157658858098 -0.00014242912073220138 0 0.041392380479467 0.0014641218453179141 0 0.045388167753464305 0.00044372371049527284 0 0.04211591660224908 0.00018626200749282477 0 0.040714072435879108 0.00071388734369336551 0 0.045172710367528235 -0.00055819270002418293 0 0.044611479385318231 0.0014106510640226745 0 0.045172710367528235 -0.00055819270002418293 0 0.044611479385318231 0.0014106510640226745 0 0.047778288761554918 0.00043960317079073686 0 0.044611479385318231 0.0014106510640226745 0 0.042503974482472479 0.0027964829680218314 0 0.047015307669360233 0.0024947002481784135 0 0.039795941720599755 0.0023533914080364573 0 0.040778160724507698 0.0019976918536787629 0 0.035280839404338064 0.0025558610357433952 0 0.036547326185171987 0.0029246130687424036 0 0.034242645438402192 0.0032088008097551682 0 0.042092770716294525 0.001072866631901089 0 0.040778160724507698 0.0019976918536787629 0 0.050449049599947282 0.0016991152780181018 0 0.047778288761554918 0.00043960317079073686 0 0.047015307669360233 0.0024947002481784135 0 0.044611479385318231 0.0014106510640226745 0 0.047778288761554918 0.00043960317079073686 0 0.047015307669360233 0.0024947002481784135 0 0.035280839404338064 0.0025558610357433952 0 0.034242645438402192 0.0032088008097551682 0 0.033509125049000957 0.0025065134921162637 0 0.033544116010149033 0.0027916002490596301 0 0.034242645438402192 0.0032088008097551682 0 0.033509125049000957 0.0025065134921162637 0 0.033544116010149033 0.0027916002490596301 0 0.033509125049000957 0.0025065134921162637 0 0.033696948225554822 0.0027948492840251839 0 0.033509125049000957 0.0025065134921162637 0 0.033592861035805971 0.0029926966451451764 0 0.033696948225554822 0.0027948492840251839 0 0.033509125049000957 0.0025065134921162637 0 0.033049137262868886 0.0031831811511696148 0 0.033592861035805971 0.0029926966451451764 0 0.033509125049000957 0.0025065134921162637 0 0.033049137262868886 0.0031831811511696148 0 0.031827376289729321 0.0028480924034950763 0 0.033685955136601241 0.0025054604791845958 0 0.033838019622556337 0.0025062299165560771 0 0.033049137262868886 0.0031831811511696148 0 0.032204221536548998 0.003581466699503886 0 0.032714743207790595 0.0039481569377757316 0 0.033049137262868886 0.0031831811511696148 0 0.033592861035805971 0.0029926966451451764 0 0.033557368794035383 0.0034965034866816379 0 0.033049137262868886 0.0031831811511696148 0 0.033557368794035383 0.0034965034866816379 0 0.032714743207790595 0.0039481569377757316 0 0.037356039937901403 0.0018792528352157933 0 0.037747183219768971 0.0013768242112866976 0 0.035746201510898641 0.0014049714149519154 0 0.037356039937901403 0.0018792528352157933 0 0.036547326185171987 0.0029246130687424036 0 0.035746201510898641 0.0014049714149519154 0 0.035280839404338064 0.0025558610357433952 0 0.036547326185171987 0.0029246130687424036 0 0.035746201510898641 0.0014049714149519154 0 0.035280839404338064 0.0025558610357433952 0 0.033509125049000957 0.0025065134921162637 0 0.035746201510898641 0.0014049714149519154 0 0.031827376289729321 0.0028480924034950763 0 0.032204221536548998 0.003581466699503886 0 0.031372916696927919 0.0038660587634598751 0 0.033049137262868886 0.0031831811511696148 0 0.031827376289729321 0.0028480924034950763 0 0.032204221536548998 0.003581466699503886 0 0.030641833341438492 0.003660556838488226 0 0.031827376289729321 0.0028480924034950763 0 0.031372916696927919 0.0038660587634598751 0 0.034010421581302949 0.0027019075873751341 0 0.033838019622556337 0.0025062299165560771 0 0.032204221536548998 0.003581466699503886 0 0.031372916696927919 0.0038660587634598751 0 0.031989970623711582 0.0041783369090505427 0 0.032204221536548998 0.003581466699503886 0 0.031989970623711582 0.0041783369090505427 0 0.032714743207790595 0.0039481569377757316 0 0.031989970623711582 0.0041783369090505427 0 0.032505313918996102 0.004710093373311533 0 0.031231935811264371 0.0047247655733436552 0 0.027755847259605688 0.0052176735929880215 0 0.028703988316776896 0.0050447716749992006 0 0.030643984405902203 0.0041403000044526583 0 0.031372916696927919 0.0038660587634598751 0 0.031231935811264371 0.0047247655733436552 0 0.031372916696927919 0.0038660587634598751 0 0.031989970623711582 0.0041783369090505427 0 0.031231935811264371 0.0047247655733436552 0 0.034209346284532559 0.004179245015170305 0 0.033695325707111111 0.0042470229232395833 0 0.033426053026524155 0.003715855310785071 0 0.032714743207790595 0.0039481569377757316 0 0.033559516327775991 0.0044879817590065098 0 0.031989970623711582 0.0041783369090505427 0 0.032714743207790595 0.0039481569377757316 0 0.032505313918996102 0.004710093373311533 0 0.032714743207790595 0.0039481569377757316 0 0.032505313918996102 0.004710093373311533 0 0.033559516327775991 0.0044879817590065098 0 0.023042017300810038 0.0064354048049450668 0 0.020014380487159561 0.0068932397658674309 0 0.021525716956696847 0.0048831597627030819 0 0.027755847259605688 0.0052176735929880215 0 0.026820801150897435 0.0051855855725370685 0 0.033559516327775991 0.0044879817590065098 0 0.03450239302230506 0.0043065178917050927 0 0.034120660417203186 0.0039441828546631598 0 0.020014380487159561 0.0068932397658674309 0 0.017204442261396058 0.007317275687174947 0 0.018125977955765846 0.0056825792007643818 0 0.026820801150897435 0.0051855855725370685 0 0.026194392432478106 0.0047831558519085887 0 0.017204442261396058 0.007317275687174947 0 0.016214592160305165 0.0056286224922484432 0 0.018125977955765846 0.0056825792007643818 0 0.03450239302230506 0.0043065178917050927 0 0.03460266602183501 0.0039828096078183238 0 0.034947299741835698 0.0039931804549953303 0 0.03450239302230506 0.0043065178917050927 0 0.03460266602183501 0.0039828096078183238 0 0.034120660417203186 0.0039441828546631598 0 0.034491360610872934 0.0036973339512729711 0 0.034120660417203186 0.0039441828546631598 0 0.03412736998997818 0.0034737731889923134 0 0.03460266602183501 0.0039828096078183238 0 0.034491360610872934 0.0036973339512729711 0 0.034120660417203186 0.0039441828546631598 0 0.03460266602183501 0.0039828096078183238 0 0.034491360610872934 0.0036973339512729711 0 0.034716609277534075 0.0037244983270777396 0 0.033426053026524155 0.003715855310785071 0 0.033559516327775991 0.0044879817590065098 0 0.034120660417203186 0.0039441828546631598 0 0.033426053026524155 0.003715855310785071 0 0.034120660417203186 0.0039441828546631598 0 0.03412736998997818 0.0034737731889923134 0 0.034209346284532559 0.004179245015170305 0 0.035762611698213771 0.0040308423833730145 0 0.033592861035805971 0.0029926966451451764 0 0.033557368794035383 0.0034965034866816379 0 0.033870007042616987 0.0031659794818845498 0 0.033870007042616987 0.0031659794818845498 0 0.033895293018561284 0.002932242869202838 0 0.034045281369631405 0.0030353658783695307 0 0.034491360610872934 0.0036973339512729711 0 0.03412736998997818 0.0034737731889923134 0 0.034824709055823418 0.0032253384806573506 0 0.035762611698213771 0.0040308423833730145 0 0.039862806704670545 0.003428363637088286 0 0.034491360610872934 0.0036973339512729711 0 0.034824709055823418 0.0032253384806573506 0 0.034716609277534075 0.0037244983270777396 0 0.033952958657591792 0.0028116908991466494 0 0.033895293018561284 0.002932242869202838 0 0.034045281369631405 0.0030353658783695307 0 0.033823262967348333 0.0028197744057939459 0 0.033952958657591792 0.0028116908991466494 0 0.033895293018561284 0.002932242869202838 0 0.033823262967348333 0.0028197744057939459 0 0.033895293018561284 0.002932242869202838 0 0.033696948225554822 0.0027948492840251839 0 0.033870007042616987 0.0031659794818845498 0 0.033895293018561284 0.002932242869202838 0 0.033696948225554822 0.0027948492840251839 0 0.033592861035805971 0.0029926966451451764 0 0.033870007042616987 0.0031659794818845498 0 0.033696948225554822 0.0027948492840251839 0 0.053277679616064791 -0.00039026189911700213 0 0.053258183411704879 -0.00035790614888879871 0 0.053215941080835848 -0.0003021041403731489 0 0.043499061925432181 0.00065095699923601116 0 0.040345744511382266 0.0023717324588676055 0 0.053178092413929234 -0.00034639171352042963 0 0.053199401076775024 -0.00014128271508576798 0 0.053063305560128692 -9.1963796122769028e-05 0 0.041556622560003337 0.0022564432821122258 0 0.040345744511382266 0.0023717324588676055 0 0.053178092413929234 -0.00034639171352042963 0 0.053258183411704879 -0.00035790614888879871 0 0.053215941080835848 -0.0003021041403731489 0 0.042314531704102085 0.001349983221538632 0 0.039862806704670545 0.003428363637088286 0 0.053056665536835697 -0.00037304962153446314 0 0.053178092413929234 -0.00034639171352042963 0 0.053063305560128692 -9.1963796122769028e-05 0 0.040345744511382266 0.0023717324588676055 0 0.036547460009434415 0.0030889990176938605 0 0.040345744511382266 0.0023717324588676055 0 0.039862806704670545 0.003428363637088286 0 0.034824709055823418 0.0032253384806573506 0 0.034716609277534075 0.0037244983270777396 0 0.034947299741835698 0.0039931804549953303 0 0.034832966579767394 0.0032039890082668551 0 0.035308453703017564 0.0034943535856411566 0 0.03497826163468027 0.0038413409329506091 0 0.035203458979005155 0.0030686960724746319 0 0.034832966579767394 0.0032039890082668551 0 0.035308453703017564 0.0034943535856411566 0 0.039862806704670545 0.003428363637088286 0 0.038992247590152386 0.0033007242010046275 0 0.036547460009434415 0.0030889990176938605 0 0.036298649667298878 0.0033005784159022577 0 0.043499061925432181 0.00065095699923601116 0 0.036547460009434415 0.0030889990176938605 0 0.040665442769673155 0.00057364983918322071 0 0.038567615813571043 0.001342752644173813 0 0.038871980375476581 0.0025240898301388355 0 0.034912316012450081 0.0011827408072147339 0 0.034911301301782403 0.00096571873052691008 0 0.035236471649716335 0.00093385713381468358 0 0.036547460009434415 0.0030889990176938605 0 0.027284017271244819 0.0034625844712856853 0 0.034911301301782403 0.00096571873052691008 0 0.035236471649716335 0.00093385713381468358 0 0.035176720925295189 0.00063872580834992371 0 0.03450239302230506 0.0043065178917050927 0 0.035437612341180279 0.0041290618221168284 0 0.034947299741835698 0.0039931804549953303 0 0.035282130448542316 0.0035090506142862357 0 0.035437612341180279 0.0041290618221168284 0 0.03497826163468027 0.0038413409329506091 0 0.026194392432478106 0.0047831558519085887 0 0.027284017271244819 0.0034625844712856853 0 0.034832966579767394 0.0032039890082668551 0 0.03497826163468027 0.0038413409329506091 0 0.034947299741835698 0.0039931804549953303 0 0.03460266602183501 0.0039828096078183238 0 0.034716609277534075 0.0037244983270777396 0 0.034947299741835698 0.0039931804549953303 0 0.035437612341180279 0.0041290618221168284 0 0.03497826163468027 0.0038413409329506091 0 0.034947299741835698 0.0039931804549953303 0 0.017204442261396058 0.007317275687174947 0 0.014456633991703511 0.0077865600902278327 0 0.016214592160305165 0.0056286224922484432 0 0.027284017271244819 0.0034625844712856853 0 0.020115243940097689 0.0025802850459787749 0 0.014456633991703511 0.0077865600902278327 0 0.013681235984741183 0.0048957503857624861 0 0.016214592160305165 0.0056286224922484432 0 0.012660791752991006 0.0039030199659649207 0 0.01347223349933058 0.0044100679049277232 0 0.013123545742501045 0.0031193094153380472 0 0.013681235984741183 0.0048957503857624861 0 0.016214592160305165 0.0056286224922484432 0 0.016137255650722267 0.0038850953153788284 0 0.016137255650722267 0.0038850953153788284 0 0.015138151217799663 0.0023713268961889035 0 0.0171949078752964 0.0023653042348592305 0 0.013681235984741183 0.0048957503857624861 0 0.016137255650722267 0.0038850953153788284 0 0.015138151217799663 0.0023713268961889035 0 0.013681235984741183 0.0048957503857624861 0 0.015138151217799663 0.0023713268961889035 0 0.012924554128478656 0.001905831485611119 0 0.015138151217799663 0.0023713268961889035 0 0.01462089055498606 0.00037791726500056855 0 0.012924554128478656 0.001905831485611119 0 0.015138151217799663 0.0023713268961889035 0 0.016259960008655136 0.0010835244281152323 0 0.01462089055498606 0.00037791726500056855 0 0.015138151217799663 0.0023713268961889035 0 0.016259960008655136 0.0010835244281152323 0 0.0171949078752964 0.0023653042348592305 0 0.016259960008655136 0.0010835244281152323 0 0.01462089055498606 0.00037791726500056855 0 0.016928874917283704 -0.00057318572305232183 0 0.01462089055498606 0.00037791726500056855 0 0.012924554128478656 0.001905831485611119 0 0.012824786804012502 0.00055645785691192814 0 0.01462089055498606 0.00037791726500056855 0 0.012824786804012502 0.00055645785691192814 0 0.013078308561719059 -0.0010041416448197734 0 0.019028690868468017 -0.00018818841988149499 0 0.017689704325313863 0.00089791680487791607 0 0.019032944302102315 0.0022018612919394993 0 0.016259960008655136 0.0010835244281152323 0 0.017689704325313863 0.00089791680487791607 0 0.016928874917283704 -0.00057318572305232183 0 0.019028690868468017 -0.00018818841988149499 0 0.017689704325313863 0.00089791680487791607 0 0.016928874917283704 -0.00057318572305232183 0 0.017689704325313863 0.00089791680487791607 0 0.0171949078752964 0.0023653042348592305 0 0.019032944302102315 0.0022018612919394993 0 0.016259960008655136 0.0010835244281152323 0 0.017689704325313863 0.00089791680487791607 0 0.0171949078752964 0.0023653042348592305 0 0.019028690868468017 -0.00018818841988149499 0 0.019032944302102315 0.0022018612919394993 0 0.020966197227494616 0.00098326500853363288 0 0.019032944302102315 0.0022018612919394993 0 0.01766015983542997 0.0040944639736776763 0 0.019590138205362814 0.0044766110815440321 0 0.019032944302102315 0.0022018612919394993 0 0.019590138205362814 0.0044766110815440321 0 0.021162054591385045 0.0029369177596839384 0 0.0171949078752964 0.0023653042348592305 0 0.019032944302102315 0.0022018612919394993 0 0.01766015983542997 0.0040944639736776763 0 0.016137255650722267 0.0038850953153788284 0 0.0171949078752964 0.0023653042348592305 0 0.01766015983542997 0.0040944639736776763 0 0.016214592160305165 0.0056286224922484432 0 0.01766015983542997 0.0040944639736776763 0 0.018125977955765846 0.0056825792007643818 0 0.016214592160305165 0.0056286224922484432 0 0.016137255650722267 0.0038850953153788284 0 0.01766015983542997 0.0040944639736776763 0 0.01766015983542997 0.0040944639736776763 0 0.018125977955765846 0.0056825792007643818 0 0.019590138205362814 0.0044766110815440321 0 0.020014380487159561 0.0068932397658674309 0 0.018125977955765846 0.0056825792007643818 0 0.019590138205362814 0.0044766110815440321 0 0.020014380487159561 0.0068932397658674309 0 0.019590138205362814 0.0044766110815440321 0 0.021525716956696847 0.0048831597627030819 0 0.023042017300810038 0.0064354048049450668 0 0.021525716956696847 0.0048831597627030819 0 0.023983072052536573 0.003644927110991571 0 0.021525716956696847 0.0048831597627030819 0 0.021162054591385045 0.0029369177596839384 0 0.023983072052536573 0.003644927110991571 0 0.021162054591385045 0.0029369177596839384 0 0.023983072052536573 0.003644927110991571 0 0.022752161657153852 0.0017975497020257297 0 0.019590138205362814 0.0044766110815440321 0 0.021525716956696847 0.0048831597627030819 0 0.021162054591385045 0.0029369177596839384 0 0.026374003887317098 0.0057360704247029666 0 0.023983072052536573 0.003644927110991571 0 0.026993431209838936 0.0032241401643421049 0 0.023042017300810038 0.0064354048049450668 0 0.026374003887317098 0.0057360704247029666 0 0.023983072052536573 0.003644927110991571 0 0.026993431209838936 0.0032241401643421049 0 0.026246843699026755 0.00088320480911042521 0 0.029339713424201427 0.0022184063453896605 0 0.023983072052536573 0.003644927110991571 0 0.026993431209838936 0.0032241401643421049 0 0.026246843699026755 0.00088320480911042521 0 0.023983072052536573 0.003644927110991571 0 0.026246843699026755 0.00088320480911042521 0 0.022752161657153852 0.0017975497020257297 0 0.026246843699026755 0.00088320480911042521 0 0.022752161657153852 0.0017975497020257297 0 0.023167768889708416 3.3614209768278567e-05 0 0.026291651462053575 0.001931688438086927 0 0.023167768889708416 3.3614209768278567e-05 0 0.02559278197921484 -0.0014137965382291868 0 0.026535131963561595 0.0014108299017010341 0 0.025205038455640722 0.00075994995726125908 0 0.026291651462053575 0.001931688438086927 0 0.027250294385577526 0.00029871146053586688 0 0.02559278197921484 -0.0014137965382291868 0 0.021162054591385045 0.0029369177596839384 0 0.020966197227494616 0.00098326500853363288 0 0.022752161657153852 0.0017975497020257297 0 0.019032944302102315 0.0022018612919394993 0 0.021162054591385045 0.0029369177596839384 0 0.020966197227494616 0.00098326500853363288 0 0.020966197227494616 0.00098326500853363288 0 0.022752161657153852 0.0017975497020257297 0 0.023167768889708416 3.3614209768278567e-05 0 0.020966197227494616 0.00098326500853363288 0 0.023167768889708416 3.3614209768278567e-05 0 0.020808397896731737 -0.0010477134673299463 0 0.019028690868468017 -0.00018818841988149499 0 0.020966197227494616 0.00098326500853363288 0 0.020808397896731737 -0.0010477134673299463 0 0.020808397896731737 -0.0010477134673299463 0 0.02224663595124305 -0.001869477313706415 0 0.021380633751354555 -0.0034336815717467602 0 0.023167768889708416 3.3614209768278567e-05 0 0.020808397896731737 -0.0010477134673299463 0 0.02224663595124305 -0.001869477313706415 0 0.019794161393368287 -0.0035513080303501044 0 0.020651601897738629 -0.0031120716449896612 0 0.02224663595124305 -0.001869477313706415 0 0.021380633751354555 -0.0034336815717467602 0 0.022854338251663445 -0.0024269441009319281 0 0.020808397896731737 -0.0010477134673299463 0 0.021380633751354555 -0.0034336815717467602 0 0.018791850612180104 -0.0020350592356963657 0 0.022815548234513153 -0.0022997343275667627 0 0.022240068539775643 -0.0024491540894872833 0 0.02247280416692872 -0.0022275263495811523 0 0.022815548234513153 -0.0022997343275667627 0 0.022854338251663445 -0.0024269441009319281 0 0.02247280416692872 -0.0022275263495811523 0 0.023965915710556996 -0.0015299565809551202 0 0.024877707672398528 -0.0012211913373600131 0 0.027250294385577526 0.00029871146053586688 0 0.02559278197921484 -0.0014137965382291868 0 0.028517025354984623 -0.00046470679823791398 0 0.02224663595124305 -0.001869477313706415 0 0.022815548234513153 -0.0022997343275667627 0 0.022854338251663445 -0.0024269441009319281 0 0.023245611514585915 -0.0016655786803084407 0 0.023965915710556996 -0.0015299565809551202 0 0.023167768889708416 3.3614209768278567e-05 0 0.02224663595124305 -0.001869477313706415 0 0.02559278197921484 -0.0014137965382291868 0 0.018797917909191903 -0.0035437184421702322 0 0.019688369826782424 -0.0037169083576137668 0 0.019201436279585374 -0.0042551429610325183 0 0.020651601897738629 -0.0031120716449896612 0 0.021261607881084013 -0.0027793948877227696 0 0.018797917909191903 -0.0035437184421702322 0 0.019688369826782424 -0.0037169083576137668 0 0.020216073088684564 -0.002845317174649017 0 0.019688369826782424 -0.0037169083576137668 0 0.019981829022898748 -0.0044264672513119581 0 0.019201436279585374 -0.0042551429610325183 0 0.018797917909191903 -0.0035437184421702322 0 0.019201436279585374 -0.0042551429610325183 0 0.018445603179424362 -0.0044397843179894729 0 0.019201436279585374 -0.0042551429610325183 0 0.018445603179424362 -0.0044397843179894729 0 0.019434937282219254 -0.0057314249911375936 0 0.018690676536373515 -0.0045303887113217357 0 0.018734483899035308 -0.004489785160060507 0 0.018445603179424362 -0.0044397843179894729 0 0.018258754360781691 -0.00454523995039759 0 0.018116583981826532 -0.0045949133820173326 0 0.020368665877644361 -0.0052084537143078603 0 0.020348278743105554 -0.0058732790865140732 0 0.019434937282219254 -0.0057314249911375936 0 0.019981829022898748 -0.0044264672513119581 0 0.019201436279585374 -0.0042551429610325183 0 0.019434937282219254 -0.0057314249911375936 0 0.019981829022898748 -0.0044264672513119581 0 0.020368665877644361 -0.0052084537143078603 0 0.019434937282219254 -0.0057314249911375936 0 0.018171627921058947 -0.0042015566334928055 0 0.018232532427788835 -0.0044353606395861134 0 0.018367105792697742 -0.0041931986435240582 0 0.019794161393368287 -0.0035513080303501044 0 0.019222866287778414 -0.00379375718483147 0 0.018171627921058947 -0.0042015566334928055 0 0.018445603179424362 -0.0044397843179894729 0 0.018232532427788835 -0.0044353606395861134 0 0.018171627921058947 -0.0042015566334928055 0 0.018797917909191903 -0.0035437184421702322 0 0.018445603179424362 -0.0044397843179894729 0 0.018232532427788835 -0.0044353606395861134 0 0.018162986277569685 -0.0046031916170934314 0 0.018116583981826532 -0.0045949133820173326 0 0.018445603179424362 -0.0044397843179894729 0 0.018232532427788835 -0.0044353606395861134 0 0.018116583981826532 -0.0045949133820173326 0 0.018232532427788835 -0.0044353606395861134 0 0.018367105792697742 -0.0041931986435240582 0 0.018162986277569685 -0.0046031916170934314 0 0.018367105792697742 -0.0041931986435240582 0 0.017521659308418803 -0.0045806318762546096 0 0.017996274661484062 -0.004804720077587846 0 0.018367105792697742 -0.0041931986435240582 0 0.017996274661484062 -0.004804720077587846 0 0.018162986277569685 -0.0046031916170934314 0 0.018367105792697742 -0.0041931986435240582 0 0.016725356077677243 -0.0038537319301844807 0 0.016808741394752951 -0.0024982191463935985 0 0.018367105792697742 -0.0041931986435240582 0 0.017521659308418803 -0.0045806318762546096 0 0.016725356077677243 -0.0038537319301844807 0 0.016907722321778534 -0.0046091502904287993 0 0.017521659308418803 -0.0045806318762546096 0 0.016725356077677243 -0.0038537319301844807 0 0.016907722321778534 -0.0046091502904287993 0 0.017521659308418803 -0.0045806318762546096 0 0.017551113388267075 -0.0050374128358332887 0 0.013841343652821719 -0.0045184053509705197 0 0.013968003528621395 -0.004402218081473494 0 0.014916479100857733 -0.0063173833000143391 0 0.016907722321778534 -0.0046091502904287993 0 0.01587654875922892 -0.0046213294648002447 0 0.017551113388267075 -0.0050374128358332887 0 0.014871982845297884 -0.0042551789332183256 0 0.015811651593521495 -0.0054679029211285313 0 0.012722044187992197 -0.0055360653454008465 0 0.01189070040958708 -0.0062739471606856273 0 0.013841343652821719 -0.0045184053509705197 0 0.01285420955434436 -0.0058722895482624035 0 0.012809705466299245 -0.0042987677303915955 0 0.013841343652821719 -0.0045184053509705197 0 0.013728679052001404 -0.0028375462406213642 0 0.012809705466299245 -0.0042987677303915955 0 0.013841343652821719 -0.0045184053509705197 0 0.013968003528621395 -0.004402218081473494 0 0.013728679052001404 -0.0028375462406213642 0 0.014871982845297884 -0.0042551789332183256 0 0.014295055466473366 -0.0034975393695587894 0 0.01587654875922892 -0.0046213294648002447 0 0.016725356077677243 -0.0038537319301844807 0 0.013728679052001404 -0.0028375462406213642 0 0.016907722321778534 -0.0046091502904287993 0 0.01587654875922892 -0.0046213294648002447 0 0.016725356077677243 -0.0038537319301844807 0 0.016725356077677243 -0.0038537319301844807 0 0.013728679052001404 -0.0028375462406213642 0 0.016808741394752951 -0.0024982191463935985 0 0.013728679052001404 -0.0028375462406213642 0 0.015016831915938536 -0.0012911474875764778 0 0.016808741394752951 -0.0024982191463935985 0 0.013728679052001404 -0.0028375462406213642 0 0.015016831915938536 -0.0012911474875764778 0 0.013078308561719059 -0.0010041416448197734 0 0.01462089055498606 0.00037791726500056855 0 0.015016831915938536 -0.0012911474875764778 0 0.013078308561719059 -0.0010041416448197734 0 0.01462089055498606 0.00037791726500056855 0 0.015016831915938536 -0.0012911474875764778 0 0.016928874917283704 -0.00057318572305232183 0 0.015016831915938536 -0.0012911474875764778 0 0.016928874917283704 -0.00057318572305232183 0 0.016808741394752951 -0.0024982191463935985 0 0.016928874917283704 -0.00057318572305232183 0 0.018791850612180104 -0.0020350592356963657 0 0.016808741394752951 -0.0024982191463935985 0 0.019028690868468017 -0.00018818841988149499 0 0.020808397896731737 -0.0010477134673299463 0 0.018791850612180104 -0.0020350592356963657 0 0.019028690868468017 -0.00018818841988149499 0 0.016928874917283704 -0.00057318572305232183 0 0.018791850612180104 -0.0020350592356963657 0 0.018367105792697742 -0.0041931986435240582 0 0.018791850612180104 -0.0020350592356963657 0 0.016808741394752951 -0.0024982191463935985 0 0.021380633751354555 -0.0034336815717467602 0 0.018367105792697742 -0.0041931986435240582 0 0.018791850612180104 -0.0020350592356963657 0 0.029705596357691724 -2.8066855786121792e-06 0 0.021835187539457332 7.6376233966287603e-06 0 0.027650212805115034 -9.8494529971937669e-05 0 0.021825525427671209 7.2667190191671707e-07 0 0.022850240847567017 0.00029652064180062614 0 0.02182102067122723 2.2142837195727303e-06 0 0.01907643798763092 0.00063339482079751233 0 0.019975769137687411 -0.00013026594031083119 0 0.026861412412568217 0.0023805246395559258 0 0.027650212805115034 -9.8494529971937669e-05 0 0.02977035185700605 0.0017526443026738977 0 0.021835187539457332 7.6376233966287603e-06 0 0.026861412412568217 0.0023805246395559258 0 0.027650212805115034 -9.8494529971937669e-05 0 0.029954413756585169 -6.0393257025204813e-05 0 0.029705596357691724 -2.8066855786121792e-06 0 0.027650212805115034 -9.8494529971937669e-05 0 0.029954413756585169 -6.0393257025204813e-05 0 0.027650212805115034 -9.8494529971937669e-05 0 0.030140297035174866 -9.5236709485398905e-05 0 0.027650212805115034 -9.8494529971937669e-05 0 0.030140297035174866 -9.5236709485398905e-05 0 0.02977035185700605 0.0017526443026738977 0 0.031287666057758172 0.0016813657748674703 0 0.030898440830483855 0.0020419467483161957 0 0.031337346679860476 2.5435349841555576e-05 0 0.029954413756585169 -6.0393257025204813e-05 0 0.030140297035174866 -9.5236709485398905e-05 0 0.032365150073961929 0.0039258597208193741 0 0.032117614380047177 0.0035005875912690913 0 0.031846193611769588 0.0025273480378258709 0 0.031947354115660236 0.001399147141123032 0 0.031287666057758172 0.0016813657748674703 0 0.032117614380047177 0.0035005875912690913 0 0.031846193611769588 0.0025273480378258709 0 0.03157978247521856 0.0031211870185237651 0 0.031846193611769588 0.0025273480378258709 0 0.03109934786545945 0.0020069949232755058 0 0.031349180900027952 0.0025327502109892684 0 0.031846193611769588 0.0025273480378258709 0 0.031349180900027952 0.0025327502109892684 0 0.03157978247521856 0.0031211870185237651 0 0.031130147579672848 0.0020318636190775441 0 0.03109934786545945 0.0020069949232755058 0 0.031207974283935899 0.0021300911690930575 0 0.031130147579672848 0.0020318636190775441 0 0.030929996662137433 0.0020743154693037159 0 0.031192964202836085 0.0019799306465042407 0 0.031130147579672848 0.0020318636190775441 0 0.03109934786545945 0.0020069949232755058 0 0.030929996662137433 0.0020743154693037159 0 0.03109934786545945 0.0020069949232755058 0 0.030929996662137433 0.0020743154693037159 0 0.030538407889894075 0.0021104031269379049 0 0.03109934786545945 0.0020069949232755058 0 0.02977035185700605 0.0017526443026738977 0 0.030538407889894075 0.0021104031269379049 0 0.031846193611769588 0.0025273480378258709 0 0.03109934786545945 0.0020069949232755058 0 0.02977035185700605 0.0017526443026738977 0 0.026861412412568217 0.0023805246395559258 0 0.02977035185700605 0.0017526443026738977 0 0.030201034829101865 0.0029244644630240027 0 0.022850240847567017 0.00029652064180062614 0 0.023319153184782764 0.00012283916218952195 0 0.01907643798763092 0.00063339482079751233 0 0.017470272728790211 0.00015998997622215691 0 0.017123936788991267 0.00030766108750206791 0 0.02977035185700605 0.0017526443026738977 0 0.030201034829101865 0.0029244644630240027 0 0.030538407889894075 0.0021104031269379049 0 0.017470272728790211 0.00015998997622215691 0 0.017123936788991267 0.00030766108750206791 0 0.01719201856460428 0.00010819259027784023 0 0.017123936788991267 0.00030766108750206791 0 0.01719201856460428 0.00010819259027784023 0 0.017045331669378664 0.00014144962490239321 0 0.030201034829101865 0.0029244644630240027 0 0.030864230017229041 0.0022884668008201583 0 0.03136352074195671 0.0020653370711495281 0 0.023319153184782764 0.00012283916218952195 0 0.023062395208488896 -0.00069441357517315548 0 0.017123936788991267 0.00030766108750206791 0 0.017045331669378664 0.00014144962490239321 0 0.016893303251885049 8.3251061126327259e-05 0 0.031163922408667163 0.0020645919879525871 0 0.030864230017229041 0.0022884668008201583 0 0.031300101939780098 0.0020345313254814617 0 0.030864230017229041 0.0022884668008201583 0 0.031300101939780098 0.0020345313254814617 0 0.03136352074195671 0.0020653370711495281 0 0.031163922408667163 0.0020645919879525871 0 0.031071188877331173 0.0020967553847213282 0 0.030864230017229041 0.0022884668008201583 0 0.031071188877331173 0.0020967553847213282 0 0.030929996662137433 0.0020743154693037159 0 0.030864230017229041 0.0022884668008201583 0 0.031071188877331173 0.0020967553847213282 0 0.030929996662137433 0.0020743154693037159 0 0.031192964202836085 0.0019799306465042407 0 0.031163922408667163 0.0020645919879525871 0 0.031071188877331173 0.0020967553847213282 0 0.031223477497825676 0.0019728363868774593 0 0.030929996662137433 0.0020743154693037159 0 0.030538407889894075 0.0021104031269379049 0 0.030864230017229041 0.0022884668008201583 0 0.030201034829101865 0.0029244644630240027 0 0.030538407889894075 0.0021104031269379049 0 0.030864230017229041 0.0022884668008201583 0 0.031311182295435669 0.0018299357250438142 0 0.03095485090536838 0.001498196344150793 0 0.030488065984617584 0.00066181197927407827 0 0.023062395208488896 -0.00069441357517315548 0 0.025133727961771431 -0.00085384763867830385 0 0.031077431728481368 0.0017445803266861945 0 0.03095485090536838 0.001498196344150793 0 0.03088096045458525 0.0016152666492173003 0 0.031077431728481368 0.0017445803266861945 0 0.03088096045458525 0.0016152666492173003 0 0.031112442320498937 0.0018989119391340003 0 0.031077431728481368 0.0017445803266861945 0 0.031176602608059465 0.001885300900697861 0 0.031112442320498937 0.0018989119391340003 0 0.031192964202836085 0.0019799306465042407 0 0.031176602608059465 0.001885300900697861 0 0.031112442320498937 0.0018989119391340003 0 0.031071188877331173 0.0020967553847213282 0 0.031192964202836085 0.0019799306465042407 0 0.031223477497825676 0.0019728363868774593 0 0.031192964202836085 0.0019799306465042407 0 0.031223477497825676 0.0019728363868774593 0 0.031176602608059465 0.001885300900697861 0 0.031223477497825676 0.0019728363868774593 0 0.031176602608059465 0.001885300900697861 0 0.031213280134007666 0.0018253304138292582 0 0.031077431728481368 0.0017445803266861945 0 0.031176602608059465 0.001885300900697861 0 0.031213280134007666 0.0018253304138292582 0 0.031213280134007666 0.0018253304138292582 0 0.031311182295435669 0.0018299357250438142 0 0.03095485090536838 0.001498196344150793 0 0.031163922408667163 0.0020645919879525871 0 0.031223477497825676 0.0019728363868774593 0 0.031258067733138682 0.0019634200611787834 0 0.031163922408667163 0.0020645919879525871 0 0.031258067733138682 0.0019634200611787834 0 0.031300101939780098 0.0020345313254814617 0 0.031223477497825676 0.0019728363868774593 0 0.031213280134007666 0.0018253304138292582 0 0.031258067733138682 0.0019634200611787834 0 0.031213280134007666 0.0018253304138292582 0 0.031275460422737031 0.0019237903636701932 0 0.031311182295435669 0.0018299357250438142 0 0.031258067733138682 0.0019634200611787834 0 0.031275460422737031 0.0019237903636701932 0 0.031300101939780098 0.0020345313254814617 0 0.031213280134007666 0.0018253304138292582 0 0.031258067733138682 0.0019634200611787834 0 0.031275460422737031 0.0019237903636701932 0 0.02309429294135891 -0.00066124634515581007 0 0.023062395208488896 -0.00069441357517315548 0 0.031275460422737031 0.0019237903636701932 0 0.031300101939780098 0.0020345313254814617 0 0.031311182295435669 0.0018299357250438142 0 0.031077431728481368 0.0017445803266861945 0 0.031213280134007666 0.0018253304138292582 0 0.03095485090536838 0.001498196344150793 0 0.03095485090536838 0.001498196344150793 0 0.030701217624722506 0.0012796254269262558 0 0.030488065984617584 0.00066181197927407827 0 0.03095485090536838 0.001498196344150793 0 0.030701217624722506 0.0012796254269262558 0 0.03088096045458525 0.0016152666492173003 0 0.030483626184842367 0.0013255607971235533 0 0.030080975491214308 0.0010166484719324649 0 0.030488065984617584 0.00066181197927407827 0 0.030701217624722506 0.0012796254269262558 0 0.030483626184842367 0.0013255607971235533 0 0.030488065984617584 0.00066181197927407827 0 0.030483626184842367 0.0013255607971235533 0 0.030696410647730415 0.0018063333183034463 0 0.029879766202347422 0.0017072290041715934 0 0.03088096045458525 0.0016152666492173003 0 0.030696410647730415 0.0018063333183034463 0 0.031112442320498937 0.0018989119391340003 0 0.030701217624722506 0.0012796254269262558 0 0.030483626184842367 0.0013255607971235533 0 0.03088096045458525 0.0016152666492173003 0 0.030483626184842367 0.0013255607971235533 0 0.03088096045458525 0.0016152666492173003 0 0.030696410647730415 0.0018063333183034463 0 0.030696410647730415 0.0018063333183034463 0 0.030847789999702131 0.0023294180057881375 0 0.031112442320498937 0.0018989119391340003 0 0.030696410647730415 0.0018063333183034463 0 0.030847789999702131 0.0023294180057881375 0 0.029879766202347422 0.0017072290041715934 0 0.030847789999702131 0.0023294180057881375 0 0.031112442320498937 0.0018989119391340003 0 0.031207974283935899 0.0021300911690930575 0 0.030847789999702131 0.0023294180057881375 0 0.031207974283935899 0.0021300911690930575 0 0.031349180900027952 0.0025327502109892684 0 0.031130147579672848 0.0020318636190775441 0 0.031192964202836085 0.0019799306465042407 0 0.031207974283935899 0.0021300911690930575 0 0.031192964202836085 0.0019799306465042407 0 0.031112442320498937 0.0018989119391340003 0 0.031207974283935899 0.0021300911690930575 0 0.03109934786545945 0.0020069949232755058 0 0.031207974283935899 0.0021300911690930575 0 0.031349180900027952 0.0025327502109892684 0 0.031349180900027952 0.0025327502109892684 0 0.03157978247521856 0.0031211870185237651 0 0.030853570609449002 0.0031656752871639464 0 0.031492743211684424 0.0035904004720256227 0 0.032117614380047177 0.0035005875912690913 0 0.03157978247521856 0.0031211870185237651 0 0.031492743211684424 0.0035904004720256227 0 0.03157978247521856 0.0031211870185237651 0 0.030853570609449002 0.0031656752871639464 0 0.030847789999702131 0.0023294180057881375 0 0.031349180900027952 0.0025327502109892684 0 0.030853570609449002 0.0031656752871639464 0 0.030853570609449002 0.0031656752871639464 0 0.029974216489229495 0.0042764436230347518 0 0.029339713424201427 0.0022184063453896605 0 0.030847789999702131 0.0023294180057881375 0 0.030853570609449002 0.0031656752871639464 0 0.028954960683914018 0.0028710934226256844 0 0.029506233773385519 0.0028085660973695809 0 0.028536486306101883 0.0023567533270560056 0 0.030418486961788074 0.0041865538468237908 0 0.030853570609449002 0.0031656752871639464 0 0.029974216489229495 0.0042764436230347518 0 0.028703988316776896 0.0050447716749992006 0 0.029272960911669511 0.0048730745656890553 0 0.026374003887317098 0.0057360704247029666 0 0.026993431209838936 0.0032241401643421049 0 0.029974216489229495 0.0042764436230347518 0 0.026993431209838936 0.0032241401643421049 0 0.029974216489229495 0.0042764436230347518 0 0.029339713424201427 0.0022184063453896605 0 0.026291651462053575 0.001931688438086927 0 0.028954960683914018 0.0028710934226256844 0 0.028460419583512721 0.0011364184445593636 0 0.026535131963561595 0.0014108299017010341 0 0.028536486306101883 0.0023567533270560056 0 0.030847789999702131 0.0023294180057881375 0 0.028954960683914018 0.0028710934226256844 0 0.029879766202347422 0.0017072290041715934 0 0.028954960683914018 0.0028710934226256844 0 0.029879766202347422 0.0017072290041715934 0 0.028460419583512721 0.0011364184445593636 0 0.029879766202347422 0.0017072290041715934 0 0.029477679902388657 0.00062417585832183562 0 0.028460419583512721 0.0011364184445593636 0 0.030483626184842367 0.0013255607971235533 0 0.029879766202347422 0.0017072290041715934 0 0.030080975491214308 0.0010166484719324649 0 0.029879766202347422 0.0017072290041715934 0 0.030080975491214308 0.0010166484719324649 0 0.029477679902388657 0.00062417585832183562 0 0.030080975491214308 0.0010166484719324649 0 0.029477679902388657 0.00062417585832183562 0 0.030488065984617584 0.00066181197927407827 0 0.026291651462053575 0.001931688438086927 0 0.027250294385577526 0.00029871146053586688 0 0.028460419583512721 0.0011364184445593636 0 0.027250294385577526 0.00029871146053586688 0 0.028460419583512721 0.0011364184445593636 0 0.028517025354984623 -0.00046470679823791398 0 0.029477679902388657 0.00062417585832183562 0 0.028460419583512721 0.0011364184445593636 0 0.028517025354984623 -0.00046470679823791398 0 0.021261607881084013 -0.0027793948877227696 0 0.02154698569949531 -0.0026488548405901981 0 0.022240068539775643 -0.0024491540894872833 0 0.02247280416692872 -0.0022275263495811523 0 0.021924093450075649 -0.0024562182354507631 0 0.020216073088684564 -0.002845317174649017 0 0.021924093450075649 -0.0024562182354507631 0 0.02116987455441733 -0.0031350112753826937 0 0.029477679902388657 0.00062417585832183562 0 0.028517025354984623 -0.00046470679823791398 0 0.030488065984617584 0.00066181197927407827 0 0.024877707672398528 -0.0012211913373600131 0 0.025133727961771431 -0.00085384763867830385 0 0.022240068539775643 -0.0024491540894872833 0 0.021924093450075649 -0.0024562182354507631 0 0.021872948688436412 -0.0024926014272819929 0 0.021924093450075649 -0.0024562182354507631 0 0.02116987455441733 -0.0031350112753826937 0 0.021812426346408464 -0.0030407501318975047 0 0.021924093450075649 -0.0024562182354507631 0 0.021812426346408464 -0.0030407501318975047 0 0.021927031995918476 -0.00257224231810775 0 0.02116987455441733 -0.0031350112753826937 0 0.021812426346408464 -0.0030407501318975047 0 0.021299264253884679 -0.0036733048954942643 0 0.021812426346408464 -0.0030407501318975047 0 0.021299264253884679 -0.0036733048954942643 0 0.021979760053233616 -0.0044017799332600731 0 0.02116987455441733 -0.0031350112753826937 0 0.021299264253884679 -0.0036733048954942643 0 0.020555881314027989 -0.0037250054375540056 0 0.020216073088684564 -0.002845317174649017 0 0.02116987455441733 -0.0031350112753826937 0 0.020555881314027989 -0.0037250054375540056 0 0.019688369826782424 -0.0037169083576137668 0 0.020216073088684564 -0.002845317174649017 0 0.020555881314027989 -0.0037250054375540056 0 0.019688369826782424 -0.0037169083576137668 0 0.019981829022898748 -0.0044264672513119581 0 0.020555881314027989 -0.0037250054375540056 0 0.019981829022898748 -0.0044264672513119581 0 0.020555881314027989 -0.0037250054375540056 0 0.020942364043171263 -0.004462770673593932 0 0.019981829022898748 -0.0044264672513119581 0 0.020942364043171263 -0.004462770673593932 0 0.020368665877644361 -0.0052084537143078603 0 0.021299264253884679 -0.0036733048954942643 0 0.020555881314027989 -0.0037250054375540056 0 0.020942364043171263 -0.004462770673593932 0 0.020942364043171263 -0.004462770673593932 0 0.020368665877644361 -0.0052084537143078603 0 0.021199299792382359 -0.0056878944259852746 0 0.020368665877644361 -0.0052084537143078603 0 0.021199299792382359 -0.0056878944259852746 0 0.020348278743105554 -0.0058732790865140732 0 0.020942364043171263 -0.004462770673593932 0 0.021979760053233616 -0.0044017799332600731 0 0.021199299792382359 -0.0056878944259852746 0 0.016640610309611566 0.00015804199562461716 0 0.016638855910755153 4.9535735358959048e-05 0 0.016580317174420604 6.7182520903648783e-05 0 0.019227868017754446 -0.0020778207265101886 0 0.018449899452369675 -0.0024714363484122904 0 0.021299264253884679 -0.0036733048954942643 0 0.020942364043171263 -0.004462770673593932 0 0.021979760053233616 -0.0044017799332600731 0 0.016640610309611566 0.00015804199562461716 0 0.016696548116593862 0.00010231085810876998 0 0.016638855910755153 4.9535735358959048e-05 0 0.016696548116593862 0.00010231085810876998 0 0.016735148440036273 0.00018001535879824592 0 0.016775349380356287 0.00013526486382478976 0 0.016640610309611566 0.00015804199562461716 0 0.016696548116593862 0.00010231085810876998 0 0.016735148440036273 0.00018001535879824592 0 0.016640610309611566 0.00015804199562461716 0 0.016735148440036273 0.00018001535879824592 0 0.016695915692572741 0.00023142963202402479 0 0.018061746540366564 -0.00013250644089207275 0 0.019993346175665623 -0.0016050471910108621 0 0.016971810453509442 -9.9694119459086311e-05 0 0.016881584384687242 -6.9594248504122971e-05 0 0.016957341500741924 -8.1508536320431025e-05 0 0.016881584384687242 -6.9594248504122971e-05 0 0.016930010507316424 -1.3215584889894377e-05 0 0.016957341500741924 -8.1508536320431025e-05 0 0.021812426346408464 -0.0030407501318975047 0 0.021979760053233616 -0.0044017799332600731 0 0.022165280185133668 -0.0031230840546807559 0 0.019227868017754446 -0.0020778207265101886 0 0.019993346175665623 -0.0016050471910108621 0 0.021979760053233616 -0.0044017799332600731 0 0.022630099006490777 -0.0031710274813507352 0 0.022165280185133668 -0.0031230840546807559 0 0.019993346175665623 -0.0016050471910108621 0 0.020435566420694107 -0.0020430665721755852 0 0.022679543964231174 -0.0023581253752295119 0 0.022052624889726969 -0.0026634125885496105 0 0.021872948688436412 -0.0024926014272819929 0 0.022630099006490777 -0.0031710274813507352 0 0.022165280185133668 -0.0031230840546807559 0 0.022052624889726969 -0.0026634125885496105 0 0.021812426346408464 -0.0030407501318975047 0 0.022165280185133668 -0.0031230840546807559 0 0.022052624889726969 -0.0026634125885496105 0 0.021812426346408464 -0.0030407501318975047 0 0.022052624889726969 -0.0026634125885496105 0 0.021927031995918476 -0.00257224231810775 0 0.021924093450075649 -0.0024562182354507631 0 0.021927031995918476 -0.00257224231810775 0 0.021872948688436412 -0.0024926014272819929 0 0.022052624889726969 -0.0026634125885496105 0 0.021927031995918476 -0.00257224231810775 0 0.021872948688436412 -0.0024926014272819929 0 0.023062395208488896 -0.00069441357517315548 0 0.019993346175665623 -0.0016050471910108621 0 0.022679543964231174 -0.0023581253752295119 0 0.022301930931375429 -0.0029765394047910577 0 0.022052624889726969 -0.0026634125885496105 0 0.016893303251885049 8.3251061126327259e-05 0 0.016881584384687242 -6.9594248504122971e-05 0 0.016930010507316424 -1.3215584889894377e-05 0 0.016893303251885049 8.3251061126327259e-05 0 0.016930010507316424 -1.3215584889894377e-05 0 0.016947188148636324 3.1853191354182704e-05 0 0.017045548348038977 -1.2325312728410262e-05 0 0.016978687082759392 -2.4938150191369138e-05 0 0.016995880191428833 6.4101953998705515e-05 0 0.017045548348038977 -1.2325312728410262e-05 0 0.017094530537268247 -3.2988832498340009e-05 0 0.017020694699190195 -6.886887037419949e-05 0 0.017045548348038977 -1.2325312728410262e-05 0 0.016978687082759392 -2.4938150191369138e-05 0 0.017020694699190195 -6.886887037419949e-05 0 0.016930010507316424 -1.3215584889894377e-05 0 0.016978687082759392 -2.4938150191369138e-05 0 0.016957341500741924 -8.1508536320431025e-05 0 0.016930010507316424 -1.3215584889894377e-05 0 0.016978687082759392 -2.4938150191369138e-05 0 0.016947188148636324 3.1853191354182704e-05 0 0.016893303251885049 8.3251061126327259e-05 0 0.016947188148636324 3.1853191354182704e-05 0 0.016995880191428833 6.4101953998705515e-05 0 0.017045331669378664 0.00014144962490239321 0 0.016893303251885049 8.3251061126327259e-05 0 0.016995880191428833 6.4101953998705515e-05 0 0.016978687082759392 -2.4938150191369138e-05 0 0.016947188148636324 3.1853191354182704e-05 0 0.016995880191428833 6.4101953998705515e-05 0 0.017045331669378664 0.00014144962490239321 0 0.016995880191428833 6.4101953998705515e-05 0 0.017118282021573256 5.2369078671344869e-05 0 0.017045548348038977 -1.2325312728410262e-05 0 0.016995880191428833 6.4101953998705515e-05 0 0.017118282021573256 5.2369078671344869e-05 0 0.017470272728790211 0.00015998997622215691 0 0.01719201856460428 0.00010819259027784023 0 0.017203500108848857 6.8231946081605662e-07 0 0.01719201856460428 0.00010819259027784023 0 0.017045331669378664 0.00014144962490239321 0 0.017118282021573256 5.2369078671344869e-05 0 0.017470272728790211 0.00015998997622215691 0 0.017203500108848857 6.8231946081605662e-07 0 0.016867426147011297 -0.00012466428075339861 0 0.01719201856460428 0.00010819259027784023 0 0.017118282021573256 5.2369078671344869e-05 0 0.017203500108848857 6.8231946081605662e-07 0 0.017118282021573256 5.2369078671344869e-05 0 0.017203500108848857 6.8231946081605662e-07 0 0.017094530537268247 -3.2988832498340009e-05 0 0.017045548348038977 -1.2325312728410262e-05 0 0.017118282021573256 5.2369078671344869e-05 0 0.017094530537268247 -3.2988832498340009e-05 0 0.017203500108848857 6.8231946081605662e-07 0 0.017094530537268247 -3.2988832498340009e-05 0 0.017039146761837865 -8.5188979729198904e-05 0 0.017094530537268247 -3.2988832498340009e-05 0 0.017039146761837865 -8.5188979729198904e-05 0 0.017020694699190195 -6.886887037419949e-05 0 0.017039146761837865 -8.5188979729198904e-05 0 0.016964893155425001 -0.00011321985757693889 0 0.016859630100879826 -0.00012053921679499684 0 0.017039146761837865 -8.5188979729198904e-05 0 0.016964893155425001 -0.00011321985757693889 0 0.017020694699190195 -6.886887037419949e-05 0 0.016971810453509442 -9.9694119459086311e-05 0 0.016964893155425001 -0.00011321985757693889 0 0.016957341500741924 -8.1508536320431025e-05 0 0.016964893155425001 -0.00011321985757693889 0 0.017020694699190195 -6.886887037419949e-05 0 0.016957341500741924 -8.1508536320431025e-05 0 0.016978687082759392 -2.4938150191369138e-05 0 0.017020694699190195 -6.886887037419949e-05 0 0.016957341500741924 -8.1508536320431025e-05 0 0.016971810453509442 -9.9694119459086311e-05 0 0.016964893155425001 -0.00011321985757693889 0 0.016967701868910459 -2.1133802831362954e-07 0 0.018061746540366564 -0.00013250644089207275 0 0.017439750471887179 0.00020132188010858561 0 0.016775349380356287 0.00013526486382478976 0 0.016820235776043 0.00019007484521149022 0 0.016747166531087335 8.6280004888008612e-05 0 0.016696548116593862 0.00010231085810876998 0 0.016775349380356287 0.00013526486382478976 0 0.016747166531087335 8.6280004888008612e-05 0 0.017439750471887179 0.00020132188010858561 0 0.017282749356171068 0.00027019752094518821 0 0.016967701868910459 -2.1133802831362954e-07 0 0.016818710695896747 3.864633640050982e-05 0 0.016820235776043 0.00019007484521149022 0 0.016967701868910459 -2.1133802831362954e-07 0 0.016818710695896747 3.864633640050982e-05 0 0.016859630100879826 -0.00012053921679499684 0 0.016964893155425001 -0.00011321985757693889 0 0.016967701868910459 -2.1133802831362954e-07 0 0.016859630100879826 -0.00012053921679499684 0 0.016859630100879826 -0.00012053921679499684 0 0.016745133898258449 -0.00021893406483232907 0 0.016485990963258403 -2.3232526781279046e-05 0 0.016818710695896747 3.864633640050982e-05 0 0.016859630100879826 -0.00012053921679499684 0 0.016485990963258403 -2.3232526781279046e-05 0 0.016818710695896747 3.864633640050982e-05 0 0.016485990963258403 -2.3232526781279046e-05 0 0.016530828850917903 0.00046792116209329272 0 0.016485990963258403 -2.3232526781279046e-05 0 0.014948510931324009 1.2752526634293104e-07 0 0.016530828850917903 0.00046792116209329272 0 0.014938807278000938 -3.6360966018197422e-07 0 0.014258492983052947 -0.00020481509237939128 0 0.016745133898258449 -0.00021893406483232907 0 0.016485990963258403 -2.3232526781279046e-05 0 0.014948510931324009 1.2752526634293104e-07 0 0.016745133898258449 -0.00021893406483232907 0 0.014948510931324009 1.2752526634293104e-07 0 0.017095663251086184 -4.5977252189242569e-07 0 0.016745133898258449 -0.00021893406483232907 0 0.017095663251086184 -4.5977252189242569e-07 0 0.016867426147011297 -0.00012466428075339861 0 0.017106707171488975 1.0139715794070759e-06 0 0.019435838025548505 -0.0004934695117018099 0 0.019463202430448249 -1.7193227838741735e-06 0 0.017104191963180707 -3.7812898048822335e-07 0 0.017574951698693751 -0.00018941919286154439 0 0.017039146761837865 -8.5188979729198904e-05 0 0.016745133898258449 -0.00021893406483232907 0 0.016867426147011297 -0.00012466428075339861 0 0.017039146761837865 -8.5188979729198904e-05 0 0.016859630100879826 -0.00012053921679499684 0 0.016745133898258449 -0.00021893406483232907 0 0.017429984431051412 1.0823035555420488e-05 0 0.017574951698693751 -0.00018941919286154439 0 0.017203500108848857 6.8231946081605662e-07 0 0.017039146761837865 -8.5188979729198904e-05 0 0.016867426147011297 -0.00012466428075339861 0 0.01907643798763092 0.00063339482079751233 0 0.017470272728790211 0.00015998997622215691 0 0.019435838025548505 -0.0004934695117018099 0 0.01907643798763092 0.00063339482079751233 0 0.019435838025548505 -0.0004934695117018099 0 0.019975769137687411 -0.00013026594031083119 0 0.02182102067122723 2.2142837195727303e-06 0 0.019975769137687411 -0.00013026594031083119 0 0.019463202430448249 -1.7193227838741735e-06 0 0.019435838025548505 -0.0004934695117018099 0 0.019975769137687411 -0.00013026594031083119 0 0.019463202430448249 -1.7193227838741735e-06 0 0.0090032367001090657 -0.00015727646860775715 0 0.0078208046546201695 1.1329509774229256e-06 0 0.0097471706701914088 0.001015670823379611 0 0.0078141058776764385 3.012871690418678e-07 0 0.0074075724006200617 0.00014353914106868376 0 0.0090032367001090657 -0.00015727646860775715 0 0.010671391248652823 0.0010121960830806812 0 0.0097471706701914088 0.001015670823379611 0 0.010762012199386764 0.00053588384151762969 0 0.010985331313331218 0.0005712541352657116 0 0.010671391248652823 0.0010121960830806812 0 0.010762012199386764 0.00053588384151762969 0 0.010985331313331218 0.0005712541352657116 0 0.011056401864459652 0.00024417534348688776 0 0.010176867664462703 0.00025295538627752073 0 0.01042093094671071 0.00056376119558856018 0 0.010762012199386764 0.00053588384151762969 0 0.011056401864459652 0.00024417534348688776 0 0.011126457247135202 -0.00011995225667504438 0 0.011056401864459652 0.00024417534348688776 0 0.011126457247135202 -0.00011995225667504438 0 0.011272953409441086 -0.00011952378403734944 0 0.010762012199386764 0.00053588384151762969 0 0.01006447910415751 8.4576846793404206e-07 0 0.011126457247135202 -0.00011995225667504438 0 0.010176867664462703 0.00025295538627752073 0 0.010059898466443104 1.4830851663973526e-07 0 0.0090032367001090657 -0.00015727646860775715 0 0.0078208046546201695 1.1329509774229256e-06 0 0.010054880729275531 -1.2059783867301089e-06 0 0.012499087560597644 -1.1778066320343526e-06 0 0.011751416849102053 0.00011879241194360015 0 0.011126457247135202 -0.00011995225667504438 0 0.01006447910415751 8.4576846793404206e-07 0 0.012499087560597644 -1.1778066320343526e-06 0 0.011126457247135202 -0.00011995225667504438 0 0.014937299856707019 1.5491181867828361e-06 0 0.012499087560597644 -1.1778066320343526e-06 0 0.011751416849102053 0.00011879241194360015 0 0.011751416849102053 0.00011879241194360015 0 0.011126457247135202 -0.00011995225667504438 0 0.011272953409441086 -0.00011952378403734944 0 0.014258492983052947 -0.00020481509237939128 0 0.014139807062651194 -0.00012830901967682954 0 0.016891475724870441 -6.4340322849063434e-06 0 0.016820235776043 0.00019007484521149022 0 0.016771885061754005 -2.6112557742059402e-05 0 0.016530828850917903 0.00046792116209329272 0 0.016891475724870441 -6.4340322849063434e-06 0 0.016820235776043 0.00019007484521149022 0 0.016818710695896747 3.864633640050982e-05 0 0.016530828850917903 0.00046792116209329272 0 0.016820235776043 0.00019007484521149022 0 0.016820235776043 0.00019007484521149022 0 0.016747166531087335 8.6280004888008612e-05 0 0.016771885061754005 -2.6112557742059402e-05 0 0.016891475724870441 -6.4340322849063434e-06 0 0.016771885061754005 -2.6112557742059402e-05 0 0.016773424010160083 -0.00049569528546038232 0 0.014139807062651194 -0.00012830901967682954 0 0.014144434517793569 -1.3403491139571463e-05 0 0.011056401864459652 0.00024417534348688776 0 0.011272953409441086 -0.00011952378403734944 0 0.011287486604687393 0.00033299931890170078 0 0.011272953409441086 -0.00011952378403734944 0 0.01187772592544066 0.00026320680123036042 0 0.011287486604687393 0.00033299931890170078 0 0.010985331313331218 0.0005712541352657116 0 0.011056401864459652 0.00024417534348688776 0 0.011287486604687393 0.00033299931890170078 0 0.010985331313331218 0.0005712541352657116 0 0.011287486604687393 0.00033299931890170078 0 0.011538167671850745 0.00082348232987141539 0 0.010985331313331218 0.0005712541352657116 0 0.011538167671850745 0.00082348232987141539 0 0.010671391248652823 0.0010121960830806812 0 0.01187772592544066 0.00026320680123036042 0 0.011287486604687393 0.00033299931890170078 0 0.011538167671850745 0.00082348232987141539 0 0.01187772592544066 0.00026320680123036042 0 0.011538167671850745 0.00082348232987141539 0 0.01257276008113788 0.00088430585530637016 0 0.016773424010160083 -0.00049569528546038232 0 0.016615237606548865 -0.00079893059622743764 0 0.016570842737056599 -0.00060982850699929279 0 0.014144434517793569 -1.3403491139571463e-05 0 0.01392044927779898 3.6762757570828177e-05 0 0.016615237606548865 -0.00079893059622743764 0 0.016570842737056599 -0.00060982850699929279 0 0.016519710006836823 -0.00079288275431252104 0 0.016773424010160083 -0.00049569528546038232 0 0.016570842737056599 -0.00060982850699929279 0 0.01660793879754021 -0.00030123875256793988 0 0.016872234677653645 -0.000881635384805287 0 0.016851013249971934 -0.0010388135383037416 0 0.016771885061754005 -2.6112557742059402e-05 0 0.016773424010160083 -0.00049569528546038232 0 0.01660793879754021 -0.00030123875256793988 0 0.016747166531087335 8.6280004888008612e-05 0 0.016771885061754005 -2.6112557742059402e-05 0 0.016681298137701809 -4.964365548376697e-06 0 0.016696548116593862 0.00010231085810876998 0 0.016747166531087335 8.6280004888008612e-05 0 0.016681298137701809 -4.964365548376697e-06 0 0.016696548116593862 0.00010231085810876998 0 0.016681298137701809 -4.964365548376697e-06 0 0.016638855910755153 4.9535735358959048e-05 0 0.016851013249971934 -0.0010388135383037416 0 0.016901396018274981 -0.0015272020346118842 0 0.016681298137701809 -4.964365548376697e-06 0 0.016638855910755153 4.9535735358959048e-05 0 0.016610943267881026 -1.4027570911195665e-05 0 0.016570842737056599 -0.00060982850699929279 0 0.01660793879754021 -0.00030123875256793988 0 0.016523459156717206 -0.00049502507339898682 0 0.016610943267881026 -1.4027570911195665e-05 0 0.016568902384025381 7.4737494162158924e-06 0 0.01652928574207391 -2.4489764780391419e-05 0 0.016523459156717206 -0.00049502507339898682 0 0.016267573916366979 -0.00053603220720067196 0 0.016493450755438874 -0.00078535375379866035 0 0.016901396018274981 -0.0015272020346118842 0 0.017491377890560173 -0.0025281071094243267 0 0.016638855910755153 4.9535735358959048e-05 0 0.016610943267881026 -1.4027570911195665e-05 0 0.016568902384025381 7.4737494162158924e-06 0 0.016638855910755153 4.9535735358959048e-05 0 0.016568902384025381 7.4737494162158924e-06 0 0.016580317174420604 6.7182520903648783e-05 0 0.021199299792382359 -0.0056878944259852746 0 0.020348278743105554 -0.0058732790865140732 0 0.020417252387241153 -0.0069446603499466993 0 0.016568902384025381 7.4737494162158924e-06 0 0.016580317174420604 6.7182520903648783e-05 0 0.01652928574207391 -2.4489764780391419e-05 0 0.018449899452369675 -0.0024714363484122904 0 0.017491377890560173 -0.0025281071094243267 0 0.020348278743105554 -0.0058732790865140732 0 0.020417252387241153 -0.0069446603499466993 0 0.019434937282219254 -0.0057314249911375936 0 0.018328504556575611 -0.0046657776401410229 0 0.018324437027783799 -0.0046750954874161255 0 0.018257730775796916 -0.0046278924328903622 0 0.016484724246399723 -0.00069127985524142851 0 0.016468764191996919 -0.00069343620702264075 0 0.016473640018463222 -0.0007811537194860373 0 0.017491377890560173 -0.0025281071094243267 0 0.017353422041252925 -0.0026697421217994921 0 0.016468764191996919 -0.00069343620702264075 0 0.016473640018463222 -0.0007811537194860373 0 0.016198104972324722 -0.0010650005786468986 0 0.017491377890560173 -0.0025281071094243267 0 0.016874450131555703 -0.0016752827466458612 0 0.016484724246399723 -0.00069127985524142851 0 0.016473640018463222 -0.0007811537194860373 0 0.016493450755438874 -0.00078535375379866035 0 0.016485020310238147 -0.00090599745383285418 0 0.01654663988231235 -0.0010230429687252351 0 0.016198104972324722 -0.0010650005786468986 0 0.016473640018463222 -0.0007811537194860373 0 0.016485020310238147 -0.00090599745383285418 0 0.016198104972324722 -0.0010650005786468986 0 0.016493450755438874 -0.00078535375379866035 0 0.016499915732973675 -0.00086998717325698321 0 0.01654663988231235 -0.0010230429687252351 0 0.016485020310238147 -0.00090599745383285418 0 0.016493450755438874 -0.00078535375379866035 0 0.01654663988231235 -0.0010230429687252351 0 0.016473640018463222 -0.0007811537194860373 0 0.016485020310238147 -0.00090599745383285418 0 0.016493450755438874 -0.00078535375379866035 0 0.016570842737056599 -0.00060982850699929279 0 0.016523459156717206 -0.00049502507339898682 0 0.016493450755438874 -0.00078535375379866035 0 0.016570842737056599 -0.00060982850699929279 0 0.016493450755438874 -0.00078535375379866035 0 0.016519710006836823 -0.00079288275431252104 0 0.016493450755438874 -0.00078535375379866035 0 0.016499915732973675 -0.00086998717325698321 0 0.016519710006836823 -0.00079288275431252104 0 0.016499915732973675 -0.00086998717325698321 0 0.016519710006836823 -0.00079288275431252104 0 0.016492096087263843 -0.00082679842974816122 0 0.014476045507605045 -0.0018727778899445438 0 0.014030813772934796 -0.0017593154348166402 0 0.01654663988231235 -0.0010230429687252351 0 0.016947869401032829 -0.0016287017463978721 0 0.016341496877804965 -0.0016769313654322292 0 0.016499915732973675 -0.00086998717325698321 0 0.01654663988231235 -0.0010230429687252351 0 0.016492096087263843 -0.00082679842974816122 0 0.016453722564496238 -0.0019500284583408329 0 0.016736607719302705 -0.0021035069080754423 0 0.016229830878786444 -0.0021188360551890328 0 0.016453722564496238 -0.0019500284583408329 0 0.016947869401032829 -0.0016287017463978721 0 0.016736607719302705 -0.0021035069080754423 0 0.016453722564496238 -0.0019500284583408329 0 0.016947869401032829 -0.0016287017463978721 0 0.016341496877804965 -0.0016769313654322292 0 0.016519710006836823 -0.00079288275431252104 0 0.016492096087263843 -0.00082679842974816122 0 0.016510803254243686 -0.0008811349000459438 0 0.016947869401032829 -0.0016287017463978721 0 0.017252053563980848 -0.0020700045053753317 0 0.016736607719302705 -0.0021035069080754423 0 0.014030813772934796 -0.0017593154348166402 0 0.012227502358361226 -0.00089819822105924438 0 0.012227502358361226 -0.00089819822105924438 0 0.011169674284125975 -0.0023451133388232882 0 0.0087208602648516688 0.00049364284761365946 0 0.0068001441565092823 -0.0012625043437187371 0 0.0085148201509916074 -0.0012760371035112185 0 0.016736607719302705 -0.0021035069080754423 0 0.016661673816870035 -0.0026488366931005387 0 0.016229830878786444 -0.0021188360551890328 0 0.017252053563980848 -0.0020700045053753317 0 0.016736607719302705 -0.0021035069080754423 0 0.016661673816870035 -0.0026488366931005387 0 0.0068001441565092823 -0.0012625043437187371 0 0.0064055655477482203 -0.0028005660658146996 0 0.0079527874581376574 -0.0028993326401440863 0 0.0057008337765140568 -0.0041882900513807563 0 0.0064055655477482203 -0.0028005660658146996 0 0.0079527874581376574 -0.0028993326401440863 0 0.001709910069610221 -0.0024057547630195303 0 0.0048085624692051753 -0.0012326265492210102 0 0.0016945927584513143 -0.00029085667309369768 0 0.0017357819149103589 -0.00028819521805643504 0 0.001759454259265916 1.114316233248652e-05 0 0.001972119966930828 -0.00020684792755710222 0 0.001759454259265916 1.114316233248652e-05 0 0.0023253475331788676 1.6216349278844957e-05 0 0.0017357819149103589 -0.00028819521805643504 0 0.001972119966930828 -0.00020684792755710222 0 0.001759454259265916 1.114316233248652e-05 0 0.0079527874581376574 -0.0028993326401440863 0 0.0085148201509916074 -0.0012760371035112185 0 0.010190249261588841 -0.0016170963395329746 0 0.0068001441565092823 -0.0012625043437187371 0 0.0079527874581376574 -0.0028993326401440863 0 0.0085148201509916074 -0.0012760371035112185 0 0.0048085624692051753 -0.0012326265492210102 0 0.0077286722941220581 -5.6844676572396769e-07 0 0.001759454259265916 1.114316233248652e-05 0 0.0024753800808109236 0.00056487127443612844 0 0.0023253475331788676 1.6216349278844957e-05 0 0.0024753800808109236 0.00056487127443612844 0 0.0023253475331788676 1.6216349278844957e-05 0 0.002914094138602543 3.3593244794128085e-05 0 0.0026824634596593708 -0.00047927216806421211 0 0.0023253475331788676 1.6216349278844957e-05 0 0.002914094138602543 3.3593244794128085e-05 0 0.0077286722941220581 -5.6844676572396769e-07 0 0.007732923405012508 0.00040225020761632761 0 0.0028996338732554042 0.00014811391467377033 0 0.0032426136334127624 0.00020110261332009449 0 0.0032026370865036176 7.858076632090499e-05 0 0.0028996338732554042 0.00014811391467377033 0 0.002914094138602543 3.3593244794128085e-05 0 0.0032026370865036176 7.858076632090499e-05 0 0.0077286722941220581 -5.6844676572396769e-07 0 0.0067711037767981307 0.00060756306991009896 0 0.012680384112672773 0.0021995872889593862 0 0.012546222344184055 0.001576831382945973 0 0.012027124132192746 0.0018344710161451194 0 0.012546222344184055 0.001576831382945973 0 0.01202908172326015 0.0013495562989025772 0 0.012027124132192746 0.0018344710161451194 0 0.012227502358361226 -0.00089819822105924438 0 0.0077286722941220581 -5.6844676572396769e-07 0 0.0087208602648516688 0.00049364284761365946 0 0.0085148201509916074 -0.0012760371035112185 0 0.010190249261588841 -0.0016170963395329746 0 0.013196368005290898 0.0014777128700637578 0 0.012680384112672773 0.0021995872889593862 0 0.012546222344184055 0.001576831382945973 0 0.016615237606548865 -0.00079893059622743764 0 0.016519710006836823 -0.00079288275431252104 0 0.016510803254243686 -0.0008811349000459438 0 0.01392044927779898 3.6762757570828177e-05 0 0.012227502358361226 -0.00089819822105924438 0 0.01257276008113788 0.00088430585530637016 0 0.013196368005290898 0.0014777128700637578 0 0.012546222344184055 0.001576831382945973 0 0.01257276008113788 0.00088430585530637016 0 0.012546222344184055 0.001576831382945973 0 0.01202908172326015 0.0013495562989025772 0 0.011538167671850745 0.00082348232987141539 0 0.01257276008113788 0.00088430585530637016 0 0.01202908172326015 0.0013495562989025772 0 0.011538167671850745 0.00082348232987141539 0 0.01202908172326015 0.0013495562989025772 0 0.011376773400929178 0.0015625245954261826 0 0.011538167671850745 0.00082348232987141539 0 0.011376773400929178 0.0015625245954261826 0 0.010671391248652823 0.0010121960830806812 0 0.0035772800272014615 0.0001135589149419031 0 0.0034949429178720761 2.4326174460559298e-05 0 0.0036617788885034063 -0.00023436865502949393 0 0.007535754565270435 0.00037349454106099672 0 0.007732923405012508 0.00040225020761632761 0 0.01202908172326015 0.0013495562989025772 0 0.011376773400929178 0.0015625245954261826 0 0.012027124132192746 0.0018344710161451194 0 0.0035772800272014615 0.0001135589149419031 0 0.0032426136334127624 0.00020110261332009449 0 0.0034949429178720761 2.4326174460559298e-05 0 0.0032426136334127624 0.00020110261332009449 0 0.0032026370865036176 7.858076632090499e-05 0 0.0034949429178720761 2.4326174460559298e-05 0 0.0033755601772189978 -0.00012698880598153891 0 0.002914094138602543 3.3593244794128085e-05 0 0.0032026370865036176 7.858076632090499e-05 0 0.0033755601772189978 -0.00012698880598153891 0 0.0032026370865036176 7.858076632090499e-05 0 0.0034949429178720761 2.4326174460559298e-05 0 0.0010042054764162439 -0.0002949539338795216 0 0.0009366926551214904 -0.00017278048591521075 0 0.0033755601772189978 -0.00012698880598153891 0 0.0034949429178720761 2.4326174460559298e-05 0 0.0034507276908697748 0.00025259405544228285 0 0.0034949429178720761 2.4326174460559298e-05 0 0.0034507276908697748 0.00025259405544228285 0 0.0036617788885034063 -0.00023436865502949393 0 0.0034507276908697748 0.00025259405544228285 0 0.0016812844071311781 4.6476070778032164e-05 0 0.0036617788885034063 -0.00023436865502949393 0 -0.0016746911057396363 -1.3629429855866212e-06 0 -0.00041503474884683079 -0.00018602324963594416 0 0.0014891277574549636 1.4273584180599848e-06 0 -0.001784389388091687 6.1814616019441066e-05 0 -0.00041503474884683079 -0.00018602324963594416 0 0.0016812844071311781 4.6476070778032164e-05 0 0.0009366926551214904 -0.00017278048591521075 0 0.0010225600430035936 -0.00012123297184612322 0 -0.00041503474884683079 -0.00018602324963594416 0 0.0016812844071311781 4.6476070778032164e-05 0 0.0014891277574549636 1.4273584180599848e-06 0 0.0016812844071311781 4.6476070778032164e-05 0 0.0014891277574549636 1.4273584180599848e-06 0 0.0046527013715044543 -1.8568599711618135e-06 0 0.0016812844071311781 4.6476070778032164e-05 0 0.0046527013715044543 -1.8568599711618135e-06 0 0.0036617788885034063 -0.00023436865502949393 0 0.0046527013715044543 -1.8568599711618135e-06 0 0.0036617788885034063 -0.00023436865502949393 0 0.0046062634452511773 0.00024848304358122898 0 0.0035772800272014615 0.0001135589149419031 0 0.0036617788885034063 -0.00023436865502949393 0 0.0046062634452511773 0.00024848304358122898 0 0.011376773400929178 0.0015625245954261826 0 0.010671391248652823 0.0010121960830806812 0 0.0097471706701914088 0.001015670823379611 0 0.007535754565270435 0.00037349454106099672 0 0.0074075724006200617 0.00014353914106868376 0 0.0078102886140704961 2.6855179747970056e-06 0 0.0046527013715044543 -1.8568599711618135e-06 0 0.0046062634452511773 0.00024848304358122898 0 0.014790293950028434 -0.0098244929471960427 0 0.016174378843149782 -0.010133119768287782 0 0.016221047748706682 -0.0082558024827974596 0 0.014790293950028434 -0.0098244929471960427 0 0.013918336544359443 -0.0082690898319843047 0 0.016221047748706682 -0.0082558024827974596 0 0.016174378843149782 -0.010133119768287782 0 0.016221047748706682 -0.0082558024827974596 0 0.017603017648137712 -0.010225764686180989 0 0.016490871375379114 -0.0065504228784054371 0 0.016557773722171945 -0.0074794315329171236 0 0.016174378843149782 -0.010133119768287782 0 0.017603017648137712 -0.010225764686180989 0 0.016865783242982796 -0.011640685969552509 0 0.016174378843149782 -0.010133119768287782 0 0.015629712249942904 -0.010703101597144883 0 0.016865783242982796 -0.011640685969552509 0 0.015629712249942904 -0.010703101597144883 0 0.014673554033244577 -0.011187827227693034 0 0.016865783242982796 -0.011640685969552509 0 0.014790293950028434 -0.0098244929471960427 0 0.016174378843149782 -0.010133119768287782 0 0.015629712249942904 -0.010703101597144883 0 0.014790293950028434 -0.0098244929471960427 0 0.015629712249942904 -0.010703101597144883 0 0.014673554033244577 -0.011187827227693034 0 0.014328024848330153 -0.010236514081790622 0 0.013533138798944961 -0.010230745886908631 0 0.014790293950028434 -0.0098244929471960427 0 0.014673554033244577 -0.011187827227693034 0 0.012243072745993728 -0.010597438023118036 0 0.012243072745993728 -0.010597438023118036 0 0.013918336544359443 -0.0082690898319843047 0 0.011762009865599232 -0.00826739224730276 0 0.014790293950028434 -0.0098244929471960427 0 0.012243072745993728 -0.010597438023118036 0 0.013918336544359443 -0.0082690898319843047 0 0.013918336544359443 -0.0082690898319843047 0 0.01325586259677598 -0.0065877748176879974 0 0.014916479100857733 -0.0063173833000143391 0 0.013918336544359443 -0.0082690898319843047 0 0.011762009865599232 -0.00826739224730276 0 0.01325586259677598 -0.0065877748176879974 0 0.013841343652821719 -0.0045184053509705197 0 0.01325586259677598 -0.0065877748176879974 0 0.011470304683035532 -0.0061016552470461319 0 0.011762009865599232 -0.00826739224730276 0 0.01325586259677598 -0.0065877748176879974 0 0.011470304683035532 -0.0061016552470461319 0 0.013841343652821719 -0.0045184053509705197 0 0.01325586259677598 -0.0065877748176879974 0 0.014916479100857733 -0.0063173833000143391 0 0.017521659308418803 -0.0045806318762546096 0 0.017551113388267075 -0.0050374128358332887 0 0.017996274661484062 -0.004804720077587846 0 0.017551113388267075 -0.0050374128358332887 0 0.018247714957035671 -0.0047089488737165584 0 0.017996274661484062 -0.004804720077587846 0 0.015811651593521495 -0.0054679029211285313 0 0.016490871375379114 -0.0065504228784054371 0 0.013918336544359443 -0.0082690898319843047 0 0.014916479100857733 -0.0063173833000143391 0 0.016221047748706682 -0.0082558024827974596 0 0.018247714957035671 -0.0047089488737165584 0 0.017996274661484062 -0.004804720077587846 0 0.01804972778839713 -0.004710149200107921 0 0.017996274661484062 -0.004804720077587846 0 0.018162986277569685 -0.0046031916170934314 0 0.01804972778839713 -0.004710149200107921 0 0.018162986277569685 -0.0046031916170934314 0 0.01804972778839713 -0.004710149200107921 0 0.018116583981826532 -0.0045949133820173326 0 0.017759019211004742 -0.0046356330852540791 0 0.01804972778839713 -0.004710149200107921 0 0.018116583981826532 -0.0045949133820173326 0 0.017759019211004742 -0.0046356330852540791 0 0.01804972778839713 -0.004710149200107921 0 0.017976996973860789 -0.0042556376665186359 0 0.018247714957035671 -0.0047089488737165584 0 0.01804972778839713 -0.004710149200107921 0 0.017976996973860789 -0.0042556376665186359 0 0.017491377890560173 -0.0025281071094243267 0 0.018734483899035308 -0.004489785160060507 0 0.018328504556575611 -0.0046657776401410229 0 0.018258754360781691 -0.00454523995039759 0 0.018257730775796916 -0.0046278924328903622 0 0.018258754360781691 -0.00454523995039759 0 0.018116583981826532 -0.0045949133820173326 0 0.018257730775796916 -0.0046278924328903622 0 0.018116583981826532 -0.0045949133820173326 0 0.018173969134386472 -0.0046950045586143952 0 0.018257730775796916 -0.0046278924328903622 0 0.017759019211004742 -0.0046356330852540791 0 0.018116583981826532 -0.0045949133820173326 0 0.018173969134386472 -0.0046950045586143952 0 0.01729692678471096 -0.0036940680147399081 0 0.017142105858785745 -0.0034895984906108376 0 0.017353422041252925 -0.0026697421217994921 0 0.017142105858785745 -0.0034895984906108376 0 0.018324437027783799 -0.0046750954874161255 0 0.018173969134386472 -0.0046950045586143952 0 0.018257730775796916 -0.0046278924328903622 0 0.014512470180876364 -0.0051634186232771074 0 0.016060996293442743 -0.0049752829457524869 0 0.015384961227512149 -0.0036962591124588447 0 0.017353422041252925 -0.0026697421217994921 0 0.016649328680402899 -0.0026513370219770158 0 0.017759019211004742 -0.0046356330852540791 0 0.016060996293442743 -0.0049752829457524869 0 0.016868049488663318 -0.0040614404180136969 0 0.015384961227512149 -0.0036962591124588447 0 0.016868049488663318 -0.0040614404180136969 0 0.016305160288200567 -0.0032550299013223132 0 0.016060996293442743 -0.0049752829457524869 0 0.015384961227512149 -0.0036962591124588447 0 0.016868049488663318 -0.0040614404180136969 0 0.015384961227512149 -0.0036962591124588447 0 0.016305160288200567 -0.0032550299013223132 0 0.016172229401503632 -0.0021168361514767018 0 0.016868049488663318 -0.0040614404180136969 0 0.016305160288200567 -0.0032550299013223132 0 0.017243415196706514 -0.0033907181531525484 0 0.016569794292471275 -0.0027087855787167321 0 0.016305160288200567 -0.0032550299013223132 0 0.017243415196706514 -0.0033907181531525484 0 0.016569794292471275 -0.0027087855787167321 0 0.016305160288200567 -0.0032550299013223132 0 0.016172229401503632 -0.0021168361514767018 0 0.016649328680402899 -0.0026513370219770158 0 0.016586990270970669 -0.0024481120069606396 0 0.01654663988231235 -0.0010230429687252351 0 0.016198104972324722 -0.0010650005786468986 0 0.016341496877804965 -0.0016769313654322292 0 0.016198104972324722 -0.0010650005786468986 0 0.016341496877804965 -0.0016769313654322292 0 0.016172229401503632 -0.0021168361514767018 0 0.018247714957035671 -0.0047089488737165584 0 0.017976996973860789 -0.0042556376665186359 0 0.018376729072899629 -0.003699827413331191 0 0.017759019211004742 -0.0046356330852540791 0 0.016868049488663318 -0.0040614404180136969 0 0.017976996973860789 -0.0042556376665186359 0 0.016868049488663318 -0.0040614404180136969 0 0.017976996973860789 -0.0042556376665186359 0 0.017243415196706514 -0.0033907181531525484 0 0.017243415196706514 -0.0033907181531525484 0 0.018376729072899629 -0.003699827413331191 0 0.017589162366296183 -0.0020668996974711408 0 0.016569794292471275 -0.0027087855787167321 0 0.017243415196706514 -0.0033907181531525484 0 0.016938843654883417 -0.0025428958890185921 0 0.016557773722171945 -0.0074794315329171236 0 0.015445170802381529 -0.0083278314487415135 0 0.017976996973860789 -0.0042556376665186359 0 0.017243415196706514 -0.0033907181531525484 0 0.018376729072899629 -0.003699827413331191 0 0.015445170802381529 -0.0083278314487415135 0 0.015432202914333814 -0.009831104133226156 0 0.014666172056006775 -0.01131584902246076 0 0.014393059357145101 -0.011467234020505389 0 0.014228557986993665 -0.011210099663080822 0 0.017603017648137712 -0.010225764686180989 0 0.018962074745327281 -0.012130283066546307 0 0.016865783242982796 -0.011640685969552509 0 0.015445170802381529 -0.0083278314487415135 0 0.015417221449770036 -0.0072650999588428468 0 0.017243415196706514 -0.0033907181531525484 0 0.016938843654883417 -0.0025428958890185921 0 0.017589162366296183 -0.0020668996974711408 0 0.016938843654883417 -0.0025428958890185921 0 0.017589162366296183 -0.0020668996974711408 0 0.01645201412607443 -0.0020647905211925283 0 0.015084970575601295 -0.0077039914863036947 0 0.014897296335463271 -0.0074432892879573503 0 0.014638179555703481 -0.007593322927996725 0 0.014666172056006775 -0.01131584902246076 0 0.014828266615889863 -0.011536670587066757 0 0.014393059357145101 -0.011467234020505389 0 0.014430856489813045 -0.0081233277530537995 0 0.013810331738316202 -0.0099971799603079444 0 0.014345219764667537 -0.011735236593955754 0 0.014132036660676417 -0.011871235245165365 0 0.014299776329176074 -0.011911477873064532 0 0.015445170802381529 -0.0083278314487415135 0 0.014430856489813045 -0.0081233277530537995 0 0.014828266615889863 -0.011536670587066757 0 0.014393059357145101 -0.011467234020505389 0 0.014480724977186225 -0.011748787453678784 0 0.014393059357145101 -0.011467234020505389 0 0.014480724977186225 -0.011748787453678784 0 0.014198089295604238 -0.011668584452263153 0 0.016341496877804965 -0.0016769313654322292 0 0.016198566187177414 -0.0019570806567881203 0 0.016172229401503632 -0.0021168361514767018 0 0.016453722564496238 -0.0019500284583408329 0 0.016198566187177414 -0.0019570806567881203 0 0.016229830878786444 -0.0021188360551890328 0 0.016453722564496238 -0.0019500284583408329 0 0.016341496877804965 -0.0016769313654322292 0 0.016198566187177414 -0.0019570806567881203 0 0.016198566187177414 -0.0019570806567881203 0 0.016209397955469992 -0.0018869703388655183 0 0.016229830878786444 -0.0021188360551890328 0 0.017589162366296183 -0.0020668996974711408 0 0.016304634747298426 -0.0017642164200040954 0 0.01645201412607443 -0.0020647905211925283 0 0.016198566187177414 -0.0019570806567881203 0 0.016181980412624367 -0.0019837755853439327 0 0.016209397955469992 -0.0018869703388655183 0 0.016181980412624367 -0.0019837755853439327 0 0.016209397955469992 -0.0018869703388655183 0 0.01645201412607443 -0.0020647905211925283 0 0.016209397955469992 -0.0018869703388655183 0 0.016304634747298426 -0.0017642164200040954 0 0.01645201412607443 -0.0020647905211925283 0 0.015439604723733194 -0.0072410424484344116 0 0.015417221449770036 -0.0072650999588428468 0 0.016198566187177414 -0.0019570806567881203 0 0.016181980412624367 -0.0019837755853439327 0 0.016172229401503632 -0.0021168361514767018 0 0.016181980412624367 -0.0019837755853439327 0 0.016172229401503632 -0.0021168361514767018 0 0.01645201412607443 -0.0020647905211925283 0 0.016569794292471275 -0.0027087855787167321 0 0.016172229401503632 -0.0021168361514767018 0 0.01645201412607443 -0.0020647905211925283 0 0.016569794292471275 -0.0027087855787167321 0 0.016938843654883417 -0.0025428958890185921 0 0.01645201412607443 -0.0020647905211925283 0 0.016209397955469992 -0.0018869703388655183 0 0.016203111827841149 -0.0018756809740852756 0 0.016229830878786444 -0.0021188360551890328 0 0.014430856489813045 -0.0081233277530537995 0 0.015417221449770036 -0.0072650999588428468 0 0.015150514241873114 -0.0022350762471802393 0 0.015599595635557762 -0.0019700692209412016 0 0.015559489686550262 -0.0022629473678055412 0 0.015150514241873114 -0.0022350762471802393 0 0.015559489686550262 -0.0022629473678055412 0 0.015674050012298362 -0.0025534388520287578 0 0.015150514241873114 -0.0022350762471802393 0 0.015674050012298362 -0.0025534388520287578 0 0.015569262518879808 -0.0028112987668652062 0 0.014430856489813045 -0.0081233277530537995 0 0.011448816846803078 -0.0073453445079070838 0 0.015559489686550262 -0.0022629473678055412 0 0.015674050012298362 -0.0025534388520287578 0 0.015813874602118354 -0.0022916274916775672 0 0.015599595635557762 -0.0019700692209412016 0 0.015559489686550262 -0.0022629473678055412 0 0.015813874602118354 -0.0022916274916775672 0 0.016661673816870035 -0.0026488366931005387 0 0.016100628171302093 -0.0024918105401311361 0 0.016229830878786444 -0.0021188360551890328 0 0.015599595635557762 -0.0019700692209412016 0 0.015813874602118354 -0.0022916274916775672 0 0.016229830878786444 -0.0021188360551890328 0 0.015417221449770036 -0.0072650999588428468 0 0.015393552031573977 -0.0067003168781089506 0 0.015813874602118354 -0.0022916274916775672 0 0.016100628171302093 -0.0024918105401311361 0 0.016229830878786444 -0.0021188360551890328 0 0.015674050012298362 -0.0025534388520287578 0 0.015813874602118354 -0.0022916274916775672 0 0.016100628171302093 -0.0024918105401311361 0 0.011169674284125975 -0.0023451133388232882 0 0.0081631487189391568 -0.0054978644673399661 0 0.016661673816870035 -0.0026488366931005387 0 0.016073838765357583 -0.0028321547114917435 0 0.015970308302296492 -0.0033187117956450349 0 0.016661673816870035 -0.0026488366931005387 0 0.016100628171302093 -0.0024918105401311361 0 0.016073838765357583 -0.0028321547114917435 0 0.0068001441565092823 -0.0012625043437187371 0 0.0064055655477482203 -0.0028005660658146996 0 0.0048690166699793787 -0.0030314392232504558 0 0.015674050012298362 -0.0025534388520287578 0 0.016100628171302093 -0.0024918105401311361 0 0.016073838765357583 -0.0028321547114917435 0 0.016073838765357583 -0.0028321547114917435 0 0.015579068814949026 -0.0027813401410016546 0 0.015970308302296492 -0.0033187117956450349 0 0.011448816846803078 -0.0073453445079070838 0 0.0099736050635109152 -0.0086806704649686761 0 0.01447341276963314 -0.011917152101489366 0 0.01438596884501128 -0.012135467955677695 0 0.014299776329176074 -0.011911477873064532 0 0.011448816846803078 -0.0073453445079070838 0 0.0081631487189391568 -0.0054978644673399661 0 0.015674050012298362 -0.0025534388520287578 0 0.016073838765357583 -0.0028321547114917435 0 0.015579068814949026 -0.0027813401410016546 0 0.011659385814325691 -0.0069355213690191712 0 0.011448816846803078 -0.0073453445079070838 0 0.0072634795609742659 -0.0087822673913247884 0 0.0081631487189391568 -0.0054978644673399661 0 0.0090064845611554888 -0.0088023616052450397 0 0.0092507342592345575 -0.0074093157527856668 0 0.010731303325896649 -0.007215890431406094 0 0.0098334515585663061 -0.0059679412772694019 0 0.0092507342592345575 -0.0074093157527856668 0 0.010731303325896649 -0.007215890431406094 0 0.0057008337765140568 -0.0041882900513807563 0 0.0064055655477482203 -0.0028005660658146996 0 0.0048690166699793787 -0.0030314392232504558 0 0.0058918250105224378 -0.0061289997386226791 0 0.0070815691877624664 -0.005675679040904138 0 0.0062756072239122176 -0.0045645103826893706 0 0.001709910069610221 -0.0024057547630195303 0 0.0081631487189391568 -0.0054978644673399661 0 0.013810331738316202 -0.0099971799603079444 0 0.013612329459609954 -0.010840035605085625 0 0.014132036660676417 -0.011871235245165365 0 0.014062294949129897 -0.012058510956533493 0 0.013927735681640805 -0.012005997150287039 0 0.014132036660676417 -0.011871235245165365 0 0.014213697794553191 -0.012057110639433037 0 0.014062294949129897 -0.012058510956533493 0 0.014132036660676417 -0.011871235245165365 0 0.014299776329176074 -0.011911477873064532 0 0.014213697794553191 -0.012057110639433037 0 0.01438596884501128 -0.012135467955677695 0 0.014299776329176074 -0.011911477873064532 0 0.014213697794553191 -0.012057110639433037 0 0.014345219764667537 -0.011735236593955754 0 0.01447341276963314 -0.011917152101489366 0 0.014299776329176074 -0.011911477873064532 0 0.01438596884501128 -0.012135467955677695 0 0.014213697794553191 -0.012057110639433037 0 0.014259299242046298 -0.01218754278570334 0 0.014298411852799314 -0.0123477203459988 0 0.01438596884501128 -0.012135467955677695 0 0.014259299242046298 -0.01218754278570334 0 0.014213697794553191 -0.012057110639433037 0 0.014259299242046298 -0.01218754278570334 0 0.014129929937461403 -0.012210235965510704 0 0.014129929937461403 -0.012210235965510704 0 0.014062294949129897 -0.012058510956533493 0 0.01388427318842617 -0.012214313198605801 0 0.014213697794553191 -0.012057110639433037 0 0.014129929937461403 -0.012210235965510704 0 0.014062294949129897 -0.012058510956533493 0 0.01388427318842617 -0.012214313198605801 0 0.0137326210083831 -0.01213027830232347 0 0.013927735681640805 -0.012005997150287039 0 0.014062294949129897 -0.012058510956533493 0 0.01388427318842617 -0.012214313198605801 0 0.013927735681640805 -0.012005997150287039 0 0.013638999870328551 -0.012278331513402881 0 0.01388427318842617 -0.012214313198605801 0 0.0137326210083831 -0.01213027830232347 0 0.013529217881296173 -0.011103339658448445 0 0.013612329459609954 -0.010840035605085625 0 0.0137326210083831 -0.01213027830232347 0 0.014101628858730635 -0.011952918104738024 0 0.013579271663998744 -0.011696503619854011 0 0.014480724977186225 -0.011748787453678784 0 0.014101628858730635 -0.011952918104738024 0 0.014198089295604238 -0.011668584452263153 0 0.014101628858730635 -0.011952918104738024 0 0.014198089295604238 -0.011668584452263153 0 0.013927310150549918 -0.01150718763765609 0 0.014393059357145101 -0.011467234020505389 0 0.014198089295604238 -0.011668584452263153 0 0.013927310150549918 -0.01150718763765609 0 0.014101628858730635 -0.011952918104738024 0 0.013927310150549918 -0.01150718763765609 0 0.013579271663998744 -0.011696503619854011 0 0.013927310150549918 -0.01150718763765609 0 0.013761265620567804 -0.011128913125930416 0 0.013579271663998744 -0.011696503619854011 0 0.014328024848330153 -0.010236514081790622 0 0.015432202914333814 -0.009831104133226156 0 0.013454773567874089 -0.011791020033030368 0 0.01317080783092728 -0.012456972425925075 0 0.013657320900924341 -0.011072169142519411 0 0.013761265620567804 -0.011128913125930416 0 0.014228557986993665 -0.011210099663080822 0 0.013927310150549918 -0.01150718763765609 0 0.013761265620567804 -0.011128913125930416 0 0.014228557986993665 -0.011210099663080822 0 0.014393059357145101 -0.011467234020505389 0 0.013927310150549918 -0.01150718763765609 0 0.014228557986993665 -0.011210099663080822 0 0.012243072745993728 -0.010597438023118036 0 0.012677113820246113 -0.011859769249088362 0 0.011087696562779206 -0.012259478049098391 0 0.013657320900924341 -0.011072169142519411 0 0.012243072745993728 -0.010597438023118036 0 0.012677113820246113 -0.011859769249088362 0 0.013761265620567804 -0.011128913125930416 0 0.012677113820246113 -0.011859769249088362 0 0.013179108686868264 -0.013122550880455833 0 0.013657320900924341 -0.011072169142519411 0 0.013761265620567804 -0.011128913125930416 0 0.012677113820246113 -0.011859769249088362 0 0.012677113820246113 -0.011859769249088362 0 0.013179108686868264 -0.013122550880455833 0 0.011858614085736647 -0.01312408832872039 0 0.012677113820246113 -0.011859769249088362 0 0.011858614085736647 -0.01312408832872039 0 0.011087696562779206 -0.012259478049098391 0 0.011858614085736647 -0.01312408832872039 0 0.010755526230747468 -0.013979001829850827 0 0.011087696562779206 -0.012259478049098391 0 0.011858614085736647 -0.01312408832872039 0 0.012251470301073394 -0.01527477434697035 0 0.010755526230747468 -0.013979001829850827 0 0.0137326210083831 -0.01213027830232347 0 0.013579271663998744 -0.011696503619854011 0 0.013429454789121643 -0.012174596541908982 0 0.013179108686868264 -0.013122550880455833 0 0.011858614085736647 -0.01312408832872039 0 0.012251470301073394 -0.01527477434697035 0 0.01317080783092728 -0.012456972425925075 0 0.012561097635414855 -0.013632648307353968 0 0.013638999870328551 -0.012278331513402881 0 0.0137326210083831 -0.01213027830232347 0 0.013429454789121643 -0.012174596541908982 0 0.012251470301073394 -0.01527477434697035 0 0.010380012576548584 -0.015287533300994277 0 0.010755526230747468 -0.013979001829850827 0 0.010667511530302386 -0.016334755709420567 0 0.012251470301073394 -0.01527477434697035 0 0.010380012576548584 -0.015287533300994277 0 0.010380012576548584 -0.015287533300994277 0 0.0093157778421641725 -0.015468860882675907 0 0.0095223300498413453 -0.014272666358787909 0 0.0097160804394635543 -0.016357396260221094 0 0.010380012576548584 -0.015287533300994277 0 0.0093157778421641725 -0.015468860882675907 0 0.0083310932495591471 -0.016283696606925805 0 0.0093157778421641725 -0.015468860882675907 0 0.0084053369562638418 -0.014825764541012931 0 0.0093157778421641725 -0.015468860882675907 0 0.0095223300498413453 -0.014272666358787909 0 0.0084053369562638418 -0.014825764541012931 0 0.0095223300498413453 -0.014272666358787909 0 0.0087247518300674568 -0.013606057203729097 0 0.0084053369562638418 -0.014825764541012931 0 0.0095223300498413453 -0.014272666358787909 0 0.0087247518300674568 -0.013606057203729097 0 0.0095960812032488112 -0.012659600115155009 0 0.010380012576548584 -0.015287533300994277 0 0.0095223300498413453 -0.014272666358787909 0 0.010755526230747468 -0.013979001829850827 0 0.0095223300498413453 -0.014272666358787909 0 0.010755526230747468 -0.013979001829850827 0 0.0095960812032488112 -0.012659600115155009 0 0.0083310932495591471 -0.016283696606925805 0 0.0071242497437345835 -0.015453225104396512 0 0.0084053369562638418 -0.014825764541012931 0 0.0071242497437345835 -0.015453225104396512 0 0.0084053369562638418 -0.014825764541012931 0 0.0074847574068619494 -0.013858214426140526 0 0.0087247518300674568 -0.013606057203729097 0 0.0084053369562638418 -0.014825764541012931 0 0.0074847574068619494 -0.013858214426140526 0 0.0074847574068619494 -0.013858214426140526 0 0.0064378052195031479 -0.01328274457521938 0 0.0060124757729782324 -0.01435642626605857 0 0.0071242497437345835 -0.015453225104396512 0 0.0074847574068619494 -0.013858214426140526 0 0.0060124757729782324 -0.01435642626605857 0 0.0079100074021217232 -0.012107490421319235 0 0.0060703762333560243 -0.012049720281580776 0 0.0064378052195031479 -0.01328274457521938 0 0.0074847574068619494 -0.013858214426140526 0 0.0079100074021217232 -0.012107490421319235 0 0.0064378052195031479 -0.01328274457521938 0 0.0087247518300674568 -0.013606057203729097 0 0.0074847574068619494 -0.013858214426140526 0 0.0079100074021217232 -0.012107490421319235 0 0.0087247518300674568 -0.013606057203729097 0 0.0079100074021217232 -0.012107490421319235 0 0.0095960812032488112 -0.012659600115155009 0 0.0079100074021217232 -0.012107490421319235 0 0.0096202062042071296 -0.011293175064781179 0 0.0083227839888152834 -0.010781210658150176 0 0.0079100074021217232 -0.012107490421319235 0 0.0067690182135965735 -0.010766274478752504 0 0.0060703762333560243 -0.012049720281580776 0 0.0079100074021217232 -0.012107490421319235 0 0.0083227839888152834 -0.010781210658150176 0 0.0067690182135965735 -0.010766274478752504 0 0.012243072745993728 -0.010597438023118036 0 0.011087696562779206 -0.012259478049098391 0 0.0096202062042071296 -0.011293175064781179 0 0.010755526230747468 -0.013979001829850827 0 0.011087696562779206 -0.012259478049098391 0 0.0095960812032488112 -0.012659600115155009 0 0.0079100074021217232 -0.012107490421319235 0 0.0095960812032488112 -0.012659600115155009 0 0.0096202062042071296 -0.011293175064781179 0 0.011087696562779206 -0.012259478049098391 0 0.0095960812032488112 -0.012659600115155009 0 0.0096202062042071296 -0.011293175064781179 0 0.012243072745993728 -0.010597438023118036 0 0.0096202062042071296 -0.011293175064781179 0 0.010073716434217206 -0.0096423464789915526 0 0.012243072745993728 -0.010597438023118036 0 0.011762009865599232 -0.00826739224730276 0 0.010073716434217206 -0.0096423464789915526 0 0.011762009865599232 -0.00826739224730276 0 0.010073716434217206 -0.0096423464789915526 0 0.0095778281268292121 -0.00779475691893417 0 0.010073716434217206 -0.0096423464789915526 0 0.0079974048310881268 -0.0094002364108612384 0 0.0095778281268292121 -0.00779475691893417 0 0.0096202062042071296 -0.011293175064781179 0 0.010073716434217206 -0.0096423464789915526 0 0.0083227839888152834 -0.010781210658150176 0 0.010073716434217206 -0.0096423464789915526 0 0.0083227839888152834 -0.010781210658150176 0 0.0079974048310881268 -0.0094002364108612384 0 0.0087954694969635608 -0.0090343862250122572 0 0.0079331529266322039 -0.0097866984191672356 0 0.0083227839888152834 -0.010781210658150176 0 0.0079974048310881268 -0.0094002364108612384 0 0.0067690182135965735 -0.010766274478752504 0 0.0073096216407069889 -0.0084997800525166388 0 0.0091063643695568734 -0.0092395096772178321 0 0.0067690182135965735 -0.010766274478752504 0 0.0087954694969635608 -0.0090343862250122572 0 0.010351119375086818 -0.0076512583261292557 0 0.0091063643695568734 -0.0092395096772178321 0 0.0090318830915311551 -0.0072630128389357526 0 0.011113302246626926 -0.0075488195561775372 0 0.0073096216407069889 -0.0084997800525166388 0 0.0090318830915311551 -0.0072630128389357526 0 0.0064333962050655497 -0.0065357567773006138 0 0.0073096216407069889 -0.0084997800525166388 0 0.0091063643695568734 -0.0092395096772178321 0 0.0090318830915311551 -0.0072630128389357526 0 0.0090318830915311551 -0.0072630128389357526 0 0.0064333962050655497 -0.0065357567773006138 0 0.0086149834396457951 -0.0054475218975290497 0 0.0090318830915311551 -0.0072630128389357526 0 0.010844373423402881 -0.0052618488232986588 0 0.0086149834396457951 -0.0054475218975290497 0 0.0090318830915311551 -0.0072630128389357526 0 0.011113302246626926 -0.0075488195561775372 0 0.010844373423402881 -0.0052618488232986588 0 0.01285420955434436 -0.0058722895482624035 0 0.011113302246626926 -0.0075488195561775372 0 0.010844373423402881 -0.0052618488232986588 0 0.01189070040958708 -0.0062739471606856273 0 0.010351119375086818 -0.0076512583261292557 0 0.011762009865599232 -0.00826739224730276 0 0.011470304683035532 -0.0061016552470461319 0 0.0095778281268292121 -0.00779475691893417 0 0.0039219014955996787 -0.0078397829635460624 0 0.0035641229129514049 -0.0063266443924933713 0 0.0047301767437138301 -0.0068628983765620637 0 0.0039219014955996787 -0.0078397829635460624 0 0.002436594216259272 -0.0078700203430726156 0 0.0035641229129514049 -0.0063266443924933713 0 0.0021706348680768555 -0.003748411360709668 0 0.0019722710792812606 -0.0046960798597224596 0 0.0023197124851354958 -0.0078995928621898547 0 0.0025487038917550698 -0.0074080851035028903 0 0.0035641229129514049 -0.0063266443924933713 0 0.011176953820589652 -0.0020793068318557748 0 0.011201811639967002 -0.0020447118673448221 0 0.011254476639113473 -0.002104386408595582 0 0.0021706348680768555 -0.003748411360709668 0 0.0017982151690684161 -0.002708579870727968 0 -0.0020022757765265796 -0.0036314003147220756 0 -0.0021695157926449205 -0.0038419356086280029 0 -0.0020703362411444077 -0.0038609018497209172 0 0.011176953820589652 -0.0020793068318557748 0 0.011182364780181123 -0.002129756389491659 0 0.011254476639113473 -0.002104386408595582 0 0.0023197124851354958 -0.0078995928621898547 0 0.0025487038917550698 -0.0074080851035028903 0 0.0023290181212945278 -0.0070145077597288125 0 0.0021706348680768555 -0.003748411360709668 0 0.0041855715021425176 -0.0037442464099818828 0 0.0041988658009598856 -0.0038261057696754104 0 0.0041855715021425176 -0.0037442464099818828 0 0.0023259870506678292 -0.0070198586586574371 0 0.0035641229129514049 -0.0063266443924933713 0 0.0023140721000136019 -0.0043639418999008141 0 0.0079724029250393454 -0.0032108871298761315 0 0.0077127683114614374 -0.002724568171119678 0 0.0079927056837951031 -0.0025112423616771755 0 0.0025487038917550698 -0.0074080851035028903 0 0.0023259870506678292 -0.0070198586586574371 0 0.0035641229129514049 -0.0063266443924933713 0 0.011182364780181123 -0.002129756389491659 0 0.011254476639113473 -0.002104386408595582 0 0.011267713828523776 -0.0022263292903731031 0 0.0041855715021425176 -0.0037442464099818828 0 0.007199888973242332 -0.0032646737470064394 0 0.0041855715021425176 -0.0037442464099818828 0 0.0055365857087393252 -0.0032171285918429012 0 0.0035641229129514049 -0.0063266443924933713 0 0.0047301767437138301 -0.0068628983765620637 0 0.004333007417619425 -0.0049422847150858715 0 0.0047301767437138301 -0.0068628983765620637 0 0.0064333962050655497 -0.0065357567773006138 0 0.004333007417619425 -0.0049422847150858715 0 0.0073096216407069889 -0.0084997800525166388 0 0.0064333962050655497 -0.0065357567773006138 0 0.0053272547301047883 -0.0086595943629389615 0 0.0047301767437138301 -0.0068628983765620637 0 0.0064333962050655497 -0.0065357567773006138 0 0.0053272547301047883 -0.0086595943629389615 0 0.0039219014955996787 -0.0078397829635460624 0 0.0047301767437138301 -0.0068628983765620637 0 0.0053272547301047883 -0.0086595943629389615 0 0.0039219014955996787 -0.0078397829635460624 0 0.0053272547301047883 -0.0086595943629389615 0 0.0038270807210474792 -0.0095711361515388883 0 0.0053272547301047883 -0.0086595943629389615 0 0.0049958093017513118 -0.010838114141596553 0 0.0038270807210474792 -0.0095711361515388883 0 0.0073096216407069889 -0.0084997800525166388 0 0.0053272547301047883 -0.0086595943629389615 0 0.0067690182135965735 -0.010766274478752504 0 0.0053272547301047883 -0.0086595943629389615 0 0.0067690182135965735 -0.010766274478752504 0 0.0049958093017513118 -0.010838114141596553 0 0.0049958093017513118 -0.010838114141596553 0 0.0038270807210474792 -0.0095711361515388883 0 0.0037570502446534677 -0.011542139582720042 0 0.0038270807210474792 -0.0095711361515388883 0 0.0024964705365287695 -0.010466839773151554 0 0.0037570502446534677 -0.011542139582720042 0 0.0039219014955996787 -0.0078397829635460624 0 0.002436594216259272 -0.0078700203430726156 0 0.0038270807210474792 -0.0095711361515388883 0 0.002436594216259272 -0.0078700203430726156 0 0.0038270807210474792 -0.0095711361515388883 0 0.0024964705365287695 -0.010466839773151554 0 -0.0020022757765265796 -0.0036314003147220756 0 -0.0020703362411444077 -0.0038609018497209172 0 -0.0020263744730848595 -0.0046768806658263927 0 0.0021706348680768555 -0.003748411360709668 0 -0.00081813187776736058 -0.0069526949498828258 0 -0.0020703362411444077 -0.0038609018497209172 0 -0.0020263744730848595 -0.0046768806658263927 0 -0.0025637582817229832 -0.0043367729625816819 0 -0.0021706948581746155 -0.0038422898588453599 0 -0.0020703362411444077 -0.0038609018497209172 0 -0.0025637582817229832 -0.0043367729625816819 0 0.0017982151690684161 -0.002708579870727968 0 0.0017484177997636175 -0.0027058036631544724 0 -0.0020263744730848595 -0.0046768806658263927 0 -0.0024939005974497349 -0.0052644944080958997 0 -0.0025087062685586717 -0.0047762137821179169 0 -0.0020263744730848595 -0.0046768806658263927 0 -0.0020419598701394235 -0.0057037622874763294 0 -0.0024939005974497349 -0.0052644944080958997 0 0.0024964705365287695 -0.010466839773151554 0 0.0037570502446534677 -0.011542139582720042 0 0.002549948989179947 -0.012830536826026199 0 -0.00081813187776736058 -0.0069526949498828258 0 -0.0046577791172174518 -0.0069441579518434082 0 0.0037570502446534677 -0.011542139582720042 0 0.0040953803668282614 -0.012874570691981382 0 0.0047537981051997864 -0.012230831470921353 0 0.0037570502446534677 -0.011542139582720042 0 0.0040953803668282614 -0.012874570691981382 0 0.002549948989179947 -0.012830536826026199 0 0.0040953803668282614 -0.012874570691981382 0 0.002549948989179947 -0.012830536826026199 0 0.0041747809019534602 -0.014323854026916306 0 -0.016249790159170892 -0.0023335058325431135 0 -0.016378730355545042 -0.0019387824554783974 0 -0.015253165829472481 -0.0031343151104485135 0 -0.0047592602076369636 -0.0067775128533495181 0 -0.0046577791172174518 -0.0069441579518434082 0 -0.016249790159170892 -0.0023335058325431135 0 -0.016672443715319434 -0.0029191095900788417 0 -0.016807007877365894 -0.0024262445568428302 0 -0.016249790159170892 -0.0023335058325431135 0 -0.016248626232555505 -0.0022447678600497679 0 -0.016807007877365894 -0.0024262445568428302 0 -0.0046577791172174518 -0.0069441579518434082 0 -0.0076222587604785072 -0.0043761354831079215 0 -0.016248626232555505 -0.0022447678600497679 0 -0.016948027818276944 -0.0016381309289737361 0 -0.016807007877365894 -0.0024262445568428302 0 0.0067690182135965735 -0.010766274478752504 0 0.0049958093017513118 -0.010838114141596553 0 0.0060703762333560243 -0.012049720281580776 0 0.0049958093017513118 -0.010838114141596553 0 0.0060703762333560243 -0.012049720281580776 0 0.0047537981051997864 -0.012230831470921353 0 0.0049958093017513118 -0.010838114141596553 0 0.0037570502446534677 -0.011542139582720042 0 0.0047537981051997864 -0.012230831470921353 0 0.0060703762333560243 -0.012049720281580776 0 0.0047537981051997864 -0.012230831470921353 0 0.0052038100650108384 -0.013388779531693387 0 0.0040953803668282614 -0.012874570691981382 0 0.0047537981051997864 -0.012230831470921353 0 0.0052038100650108384 -0.013388779531693387 0 0.0060703762333560243 -0.012049720281580776 0 0.0052038100650108384 -0.013388779531693387 0 0.0064378052195031479 -0.01328274457521938 0 0.0052038100650108384 -0.013388779531693387 0 0.0064378052195031479 -0.01328274457521938 0 0.0060124757729782324 -0.01435642626605857 0 0.0052038100650108384 -0.013388779531693387 0 0.0060124757729782324 -0.01435642626605857 0 0.0041747809019534602 -0.014323854026916306 0 0.0040953803668282614 -0.012874570691981382 0 0.0052038100650108384 -0.013388779531693387 0 0.0041747809019534602 -0.014323854026916306 0 0.005608579235976077 -0.015765671572894029 0 0.0060124757729782324 -0.01435642626605857 0 0.0041747809019534602 -0.014323854026916306 0 -0.00014309058667270986 -0.011760026574132462 0 -0.0032477210574185971 -0.0088932613189124324 0 -0.0065881089221535702 -0.0070241185357131806 0 -0.013094891297014745 -0.0029467463856967797 0 -0.012726541198363379 -0.0062874502870474795 0 0.005608579235976077 -0.015765671572894029 0 0.0071242497437345835 -0.015453225104396512 0 0.0060124757729782324 -0.01435642626605857 0 -0.016697046987709581 -0.0036382702809121823 0 -0.015253165829472481 -0.0031343151104485135 0 -0.016247066810356339 -0.0046874681173249512 0 -0.016697046987709581 -0.0036382702809121823 0 -0.016241291067059543 -0.0029789249494493316 0 -0.015253165829472481 -0.0031343151104485135 0 -0.016249790159170892 -0.0023335058325431135 0 -0.016672443715319434 -0.0029191095900788417 0 -0.016241291067059543 -0.0029789249494493316 0 -0.016697046987709581 -0.0036382702809121823 0 -0.016672443715319434 -0.0029191095900788417 0 -0.016241291067059543 -0.0029789249494493316 0 -0.016249790159170892 -0.0023335058325431135 0 -0.016241291067059543 -0.0029789249494493316 0 -0.015253165829472481 -0.0031343151104485135 0 -0.0046577791172174518 -0.0069441579518434082 0 -0.0032477210574185971 -0.0088932613189124324 0 -0.013094891297014745 -0.0029467463856967797 0 -0.015253165829472481 -0.0031343151104485135 0 -0.016247066810356339 -0.0046874681173249512 0 -0.016378730355545042 -0.0019387824554783974 0 -0.013094891297014745 -0.0029467463856967797 0 -0.015253165829472481 -0.0031343151104485135 0 -0.013094891297014745 -0.0029467463856967797 0 -0.012726541198363379 -0.0062874502870474795 0 -0.016247066810356339 -0.0046874681173249512 0 -0.016697046987709581 -0.0036382702809121823 0 -0.016247066810356339 -0.0046874681173249512 0 -0.017192611651813405 -0.0045409161296581027 0 -0.016697046987709581 -0.0036382702809121823 0 -0.017192611651813405 -0.0045409161296581027 0 -0.017451922010423074 -0.0039288566634198057 0 -0.016697046987709581 -0.0036382702809121823 0 -0.017303557423952266 -0.0033133121601045109 0 -0.017451922010423074 -0.0039288566634198057 0 -0.016697046987709581 -0.0036382702809121823 0 -0.016672443715319434 -0.0029191095900788417 0 -0.017303557423952266 -0.0033133121601045109 0 -0.017451922010423074 -0.0039288566634198057 0 -0.017727159908134223 -0.0038797147700740907 0 -0.017583567641299369 -0.0033842079357865088 0 -0.017303557423952266 -0.0033133121601045109 0 -0.017451922010423074 -0.0039288566634198057 0 -0.017583567641299369 -0.0033842079357865088 0 -0.017727159908134223 -0.0038797147700740907 0 -0.017823911582256803 -0.0035785778121466849 0 -0.017583567641299369 -0.0033842079357865088 0 -0.017451922010423074 -0.0039288566634198057 0 -0.017593413019144643 -0.0043448580811856303 0 -0.017727159908134223 -0.0038797147700740907 0 -0.017192611651813405 -0.0045409161296581027 0 -0.017451922010423074 -0.0039288566634198057 0 -0.017593413019144643 -0.0043448580811856303 0 -0.017593413019144643 -0.0043448580811856303 0 -0.01795846080102052 -0.0041709490140323215 0 -0.017727159908134223 -0.0038797147700740907 0 -0.01795846080102052 -0.0041709490140323215 0 -0.018138140383752284 -0.0038824064212147312 0 -0.017914725881017727 -0.0038795776492065947 0 -0.01795846080102052 -0.0041709490140323215 0 -0.017727159908134223 -0.0038797147700740907 0 -0.017914725881017727 -0.0038795776492065947 0 -0.01795846080102052 -0.0041709490140323215 0 -0.018138140383752284 -0.0038824064212147312 0 -0.018410308768406429 -0.0043039354613889705 0 -0.018138140383752284 -0.0038824064212147312 0 -0.018410308768406429 -0.0043039354613889705 0 -0.018312581740750414 -0.0036489963885090828 0 -0.018138140383752284 -0.0038824064212147312 0 -0.017783146891871496 -0.0034662731034296743 0 -0.018312581740750414 -0.0036489963885090828 0 -0.015669842717860309 -0.0048990582027124818 0 -0.01459001965579017 -0.0047907939416122862 0 -0.018138140383752284 -0.0038824064212147312 0 -0.017823911582256803 -0.0035785778121466849 0 -0.017861079967898968 -0.0032659363265623727 0 -0.018138140383752284 -0.0038824064212147312 0 -0.017914725881017727 -0.0038795776492065947 0 -0.017823911582256803 -0.0035785778121466849 0 -0.017727159908134223 -0.0038797147700740907 0 -0.017914725881017727 -0.0038795776492065947 0 -0.017823911582256803 -0.0035785778121466849 0 -0.018138140383752284 -0.0038824064212147312 0 -0.017783146891871496 -0.0034662731034296743 0 -0.017633040236724389 -0.0034305870611133099 0 -0.017823911582256803 -0.0035785778121466849 0 -0.017861079967898968 -0.0032659363265623727 0 -0.017704391388331152 -0.003327100533196905 0 -0.017783146891871496 -0.0034662731034296743 0 -0.017633040236724389 -0.0034305870611133099 0 -0.017645051788182535 -0.0034776275649965635 0 -0.0079254977543968749 -0.0035902888196841076 0 -0.012596475933437589 -0.0050179374653553342 0 -0.017783146891871496 -0.0034662731034296743 0 -0.018230654550049921 -0.0028752746099882302 0 -0.018312581740750414 -0.0036489963885090828 0 -0.012065728912480809 -0.0014900869108505574 0 -0.0079254977543968749 -0.0035902888196841076 0 -0.017438641284526154 -0.0035114653021044028 0 -0.017645051788182535 -0.0034776275649965635 0 -0.017612859700658966 -0.0035402252189388915 0 -0.017783146891871496 -0.0034662731034296743 0 -0.017438641284526154 -0.0035114653021044028 0 -0.017645051788182535 -0.0034776275649965635 0 -0.017633040236724389 -0.0034305870611133099 0 -0.017645051788182535 -0.0034776275649965635 0 -0.017665427491981047 -0.0035411983315877722 0 -0.017645051788182535 -0.0034776275649965635 0 -0.017612859700658966 -0.0035402252189388915 0 -0.017665427491981047 -0.0035411983315877722 0 -0.017492724096686021 -0.0028201860735417982 0 -0.017606788967721526 -0.0031977181879030421 0 -0.017407490026062795 -0.0031609255858592263 0 -0.01006238912210749 -0.003601076471718148 0 -0.012336745543746761 -0.0023988836825704755 0 -0.017633040236724389 -0.0034305870611133099 0 -0.017665427491981047 -0.0035411983315877722 0 -0.017744211747005949 -0.0035381294750155938 0 -0.01789375129876522 -0.0012210953811124445 0 -0.017504982459807191 -0.0015809766941727191 0 -0.01764122790335686 -0.0021110344738667183 0 -0.01459001965579017 -0.0047907939416122862 0 -0.01006238912210749 -0.003601076471718148 0 -0.017861079967898968 -0.0032659363265623727 0 -0.017492724096686021 -0.0028201860735417982 0 -0.017606788967721526 -0.0031977181879030421 0 -0.01789375129876522 -0.0012210953811124445 0 -0.017504982459807191 -0.0015809766941727191 0 -0.017681037362521575 -0.0009449981562255432 0 -0.0024939005974497349 -0.0052644944080958997 0 -0.0025087062685586717 -0.0047762137821179169 0 -0.0029524397517801983 -0.0048254013168866376 0 -0.0076222587604785072 -0.0043761354831079215 0 -0.0083731122003553628 -0.0036331492079413989 0 -0.016948027818276944 -0.0016381309289737361 0 -0.017504982459807191 -0.0015809766941727191 0 -0.017681037362521575 -0.0009449981562255432 0 -0.016948027818276944 -0.0016381309289737361 0 -0.017504982459807191 -0.0015809766941727191 0 -0.01764122790335686 -0.0021110344738667183 0 -0.017303557423952266 -0.0033133121601045109 0 -0.016807007877365894 -0.0024262445568428302 0 -0.01764122790335686 -0.0021110344738667183 0 -0.012958716369981671 -0.0022688534844635296 0 -0.012336745543746761 -0.0023988836825704755 0 -0.016948027818276944 -0.0016381309289737361 0 -0.016807007877365894 -0.0024262445568428302 0 -0.01764122790335686 -0.0021110344738667183 0 -0.016672443715319434 -0.0029191095900788417 0 -0.017303557423952266 -0.0033133121601045109 0 -0.016807007877365894 -0.0024262445568428302 0 -0.017303557423952266 -0.0033133121601045109 0 -0.017583567641299369 -0.0033842079357865088 0 -0.017407490026062795 -0.0031609255858592263 0 -0.017704391388331152 -0.003327100533196905 0 -0.017583567641299369 -0.0033842079357865088 0 -0.017606788967721526 -0.0031977181879030421 0 -0.017823911582256803 -0.0035785778121466849 0 -0.017704391388331152 -0.003327100533196905 0 -0.017583567641299369 -0.0033842079357865088 0 -0.017861079967898968 -0.0032659363265623727 0 -0.017704391388331152 -0.003327100533196905 0 -0.017606788967721526 -0.0031977181879030421 0 -0.017583567641299369 -0.0033842079357865088 0 -0.017606788967721526 -0.0031977181879030421 0 -0.017407490026062795 -0.0031609255858592263 0 -0.011259173937497605 -0.0065218790261739861 0 -0.011916998990383293 -0.0066157831737072093 0 -0.011892088257174064 -0.005932370334213284 0 -0.011916998990383293 -0.0066157831737072093 0 -0.011892088257174064 -0.005932370334213284 0 -0.012661240100665116 -0.0063923454267860369 0 -0.011892088257174064 -0.005932370334213284 0 -0.013011279678584566 -0.0058245060430331666 0 -0.012661240100665116 -0.0063923454267860369 0 -0.011916998990383293 -0.0066157831737072093 0 -0.012661240100665116 -0.0063923454267860369 0 -0.012501080810315288 -0.0069067149401410705 0 -0.012661240100665116 -0.0063923454267860369 0 -0.013188900986786925 -0.006678443110115991 0 -0.012501080810315288 -0.0069067149401410705 0 -0.012661240100665116 -0.0063923454267860369 0 -0.013188900986786925 -0.006678443110115991 0 -0.01322059922585911 -0.0060550631287362806 0 -0.013188900986786925 -0.006678443110115991 0 -0.01322059922585911 -0.0060550631287362806 0 -0.013532542996684809 -0.0062903178188598672 0 -0.013378992529445024 -0.0058477495786427389 0 -0.013724664345574341 -0.0056303431012270982 0 -0.013800939083239561 -0.0053605802154843545 0 -0.013011279678584566 -0.0058245060430331666 0 -0.013774887706593663 -0.0061755465057356587 0 -0.013011279678584566 -0.0058245060430331666 0 -0.012661240100665116 -0.0063923454267860369 0 -0.013774887706593663 -0.0061755465057356587 0 -0.01322059922585911 -0.0060550631287362806 0 -0.013832082587131563 -0.0057228204763953294 0 -0.013532542996684809 -0.0062903178188598672 0 -0.013832082587131563 -0.0057228204763953294 0 -0.013532542996684809 -0.0062903178188598672 0 -0.013890934801459897 -0.00671086611898519 0 -0.013724664345574341 -0.0056303431012270982 0 -0.014562704516773835 -0.0050383775557118378 0 -0.014562704516773835 -0.0050383775557118378 0 -0.012596475933437589 -0.0050179374653553342 0 -0.013188900986786925 -0.006678443110115991 0 -0.013532542996684809 -0.0062903178188598672 0 -0.013890934801459897 -0.00671086611898519 0 -0.013188900986786925 -0.006678443110115991 0 -0.013890934801459897 -0.00671086611898519 0 -0.013432218123529911 -0.007262874316773373 0 -0.013982592944784027 -0.0078269484620607736 0 -0.013890934801459897 -0.00671086611898519 0 -0.013432218123529911 -0.007262874316773373 0 -0.013982592944784027 -0.0078269484620607736 0 -0.013432218123529911 -0.007262874316773373 0 -0.013053525471493653 -0.0079047216859682978 0 -0.013053525471493653 -0.0079047216859682978 0 -0.012888658970617676 -0.0072943283248764505 0 -0.012320368189926349 -0.0076047026461416815 0 -0.013432218123529911 -0.007262874316773373 0 -0.013053525471493653 -0.0079047216859682978 0 -0.012888658970617676 -0.0072943283248764505 0 -0.013188900986786925 -0.006678443110115991 0 -0.013432218123529911 -0.007262874316773373 0 -0.012888658970617676 -0.0072943283248764505 0 -0.013188900986786925 -0.006678443110115991 0 -0.012888658970617676 -0.0072943283248764505 0 -0.012501080810315288 -0.0069067149401410705 0 -0.012888658970617676 -0.0072943283248764505 0 -0.012501080810315288 -0.0069067149401410705 0 -0.012320368189926349 -0.0076047026461416815 0 -0.012501080810315288 -0.0069067149401410705 0 -0.012320368189926349 -0.0076047026461416815 0 -0.011980521269316568 -0.0070767639989745982 0 -0.011916998990383293 -0.0066157831737072093 0 -0.012501080810315288 -0.0069067149401410705 0 -0.011980521269316568 -0.0070767639989745982 0 -0.013053525471493653 -0.0079047216859682978 0 -0.012320368189926349 -0.0076047026461416815 0 -0.01245132581691873 -0.008489029507495853 0 -0.012320368189926349 -0.0076047026461416815 0 -0.011655810816055143 -0.0074762793703324918 0 -0.011980521269316568 -0.0070767639989745982 0 -0.012320368189926349 -0.0076047026461416815 0 -0.011655810816055143 -0.0074762793703324918 0 -0.011800849015214034 -0.0082006079012085457 0 -0.011655810816055143 -0.0074762793703324918 0 -0.011447255902486476 -0.006893830395267463 0 -0.011980521269316568 -0.0070767639989745982 0 -0.011259173937497605 -0.0065218790261739861 0 -0.011916998990383293 -0.0066157831737072093 0 -0.011447255902486476 -0.006893830395267463 0 -0.011006755910689442 -0.0072892197821125184 0 -0.011655810816055143 -0.0074762793703324918 0 -0.011447255902486476 -0.006893830395267463 0 -0.011916998990383293 -0.0066157831737072093 0 -0.011447255902486476 -0.006893830395267463 0 -0.011980521269316568 -0.0070767639989745982 0 -0.01093631243665104 -0.0085920056316592455 0 -0.011728548489875418 -0.008896929061032675 0 -0.011370127429430592 -0.0096876612137356752 0 -0.0084825985936895689 -0.0087817134020239714 0 -0.0095722307781484252 -0.0078697570765884697 0 -0.01093631243665104 -0.0085920056316592455 0 -0.011655810816055143 -0.0074762793703324918 0 -0.011800849015214034 -0.0082006079012085457 0 -0.01093631243665104 -0.0085920056316592455 0 -0.011728548489875418 -0.008896929061032675 0 -0.011800849015214034 -0.0082006079012085457 0 -0.011728548489875418 -0.008896929061032675 0 -0.011800849015214034 -0.0082006079012085457 0 -0.01245132581691873 -0.008489029507495853 0 -0.012320368189926349 -0.0076047026461416815 0 -0.011800849015214034 -0.0082006079012085457 0 -0.01245132581691873 -0.008489029507495853 0 -0.011728548489875418 -0.008896929061032675 0 -0.012623016114353956 -0.009660038348762964 0 -0.011370127429430592 -0.0096876612137356752 0 -0.011728548489875418 -0.008896929061032675 0 -0.01245132581691873 -0.008489029507495853 0 -0.012623016114353956 -0.009660038348762964 0 0.0070023359101228115 -0.0028094079706611863 0 0.0070791885197356566 -0.0033365965492307055 0 0.0074298210092409948 -0.0033533053943246727 0 -0.01245132581691873 -0.008489029507495853 0 -0.013351374366274919 -0.0087006473215924286 0 -0.012623016114353956 -0.009660038348762964 0 -0.0041581034359216788 -0.0056252556278519336 0 -0.0021705036284785373 -0.0060786588523769414 0 -0.013053525471493653 -0.0079047216859682978 0 -0.01245132581691873 -0.008489029507495853 0 -0.013351374366274919 -0.0087006473215924286 0 -0.0079254977543968749 -0.0035902888196841076 0 -0.0041581034359216788 -0.0056252556278519336 0 -0.013982592944784027 -0.0078269484620607736 0 -0.013053525471493653 -0.0079047216859682978 0 -0.013351374366274919 -0.0087006473215924286 0 0.0065181364279102028 -0.0022622502859755609 0 0.0070023359101228115 -0.0028094079706611863 0 0.006541473581541302 -0.0029121458884340109 0 0.0070023359101228115 -0.0028094079706611863 0 0.0067847996243318564 -0.0032351828003149858 0 0.006541473581541302 -0.0029121458884340109 0 0.0070023359101228115 -0.0028094079706611863 0 0.0067847996243318564 -0.0032351828003149858 0 0.0070791885197356566 -0.0033365965492307055 0 0.0067847996243318564 -0.0032351828003149858 0 0.006541473581541302 -0.0029121458884340109 0 0.0065571314149155523 -0.0035668033544572239 0 0.0067847996243318564 -0.0032351828003149858 0 0.0068695819260734259 -0.0035786188939093094 0 0.0070791885197356566 -0.0033365965492307055 0 0.0067847996243318564 -0.0032351828003149858 0 0.0068695819260734259 -0.0035786188939093094 0 0.0065571314149155523 -0.0035668033544572239 0 0.0025937988020435969 -0.0048068694197527066 0 0.0017553531930078366 -0.0048190313820457393 0 0.0068695819260734259 -0.0035786188939093094 0 0.0070785508110080735 -0.0039402631371628517 0 0.0065788929211871598 -0.0035657487858812859 0 0.005045576471619205 -0.005452379919272542 0 0.0017553531930078366 -0.0048190313820457393 0 0.0068695819260734259 -0.0035786188939093094 0 0.0070785508110080735 -0.0039402631371628517 0 0.0072569474409961881 -0.0036553942232500688 0 0.008017888035944944 -0.00447873722262963 0 0.0083806764476785003 -0.0048399818265805897 0 0.0084120542132649669 -0.0041719565940795738 0 0.0070785508110080735 -0.0039402631371628517 0 0.0072569474409961881 -0.0036553942232500688 0 0.0074895020987008456 -0.0039350507923503128 0 0.0072569474409961881 -0.0036553942232500688 0 0.0070791885197356566 -0.0033365965492307055 0 0.0074298210092409948 -0.0033533053943246727 0 0.0068695819260734259 -0.0035786188939093094 0 0.0072569474409961881 -0.0036553942232500688 0 0.0070791885197356566 -0.0033365965492307055 0 -0.0021705036284785373 -0.0060786588523769414 0 -3.0715784709940276e-05 -0.0061789083563445332 0 -0.012623016114353956 -0.009660038348762964 0 -0.011801615927780089 -0.010665848308697674 0 -0.011370127429430592 -0.0096876612137356752 0 0.0072569474409961881 -0.0036553942232500688 0 0.0074298210092409948 -0.0033533053943246727 0 0.0077359311290981173 -0.0038261851014278351 0 0.0072569474409961881 -0.0036553942232500688 0 0.0074895020987008456 -0.0039350507923503128 0 0.0077359311290981173 -0.0038261851014278351 0 0.0074895020987008456 -0.0039350507923503128 0 0.0077359311290981173 -0.0038261851014278351 0 0.0076463789691962559 -0.0040366094610957831 0 -0.010678714525630233 -0.010732131553192798 0 -0.011801615927780089 -0.010665848308697674 0 -0.011370127429430592 -0.0096876612137356752 0 -0.010678714525630233 -0.010732131553192798 0 -0.010934841194571613 -0.011675474816462318 0 -0.011801615927780089 -0.010665848308697674 0 -0.008129907903154758 -0.0031573400419259855 0 -0.0063060592564209124 -0.0039880605369424131 0 -0.0026336776735550005 -0.0032558062442161334 0 -0.0025855289807838813 -0.0027779587719717765 0 -0.0022941542680615075 -0.0036326949821626647 0 -0.0027964620567997177 -0.0030917120428250533 0 -0.0026336776735550005 -0.0032558062442161334 0 -0.0025855289807838813 -0.0027779587719717765 0 -0.0027964620567997177 -0.0030917120428250533 0 -0.0026336776735550005 -0.0032558062442161334 0 -0.0028553985977739552 -0.0035178461972197859 0 -0.0034801572188951288 -0.0033904959947180912 0 -0.003164001037193903 -0.0029712578709190276 0 -0.0028553985977739552 -0.0035178461972197859 0 -0.0027964620567997177 -0.0030917120428250533 0 -0.003164001037193903 -0.0029712578709190276 0 -0.0028553985977739552 -0.0035178461972197859 0 0.0017982151690684161 -0.002708579870727968 0 -0.0032558909714633984 -0.0032528907915318319 0 -0.0032558909714633984 -0.0032528907915318319 0 -0.0083731122003553628 -0.0036331492079413989 0 -0.0027964620567997177 -0.0030917120428250533 0 -0.003164001037193903 -0.0029712578709190276 0 -0.0028409462785621213 -0.0025372488306763079 0 -0.0025637582817229832 -0.0043367729625816819 0 -0.0025087062685586717 -0.0047762137821179169 0 -0.0029524397517801983 -0.0048254013168866376 0 -0.0020263744730848595 -0.0046768806658263927 0 -0.0025637582817229832 -0.0043367729625816819 0 -0.0025087062685586717 -0.0047762137821179169 0 -0.01006238912210749 -0.003601076471718148 0 -0.0083731122003553628 -0.0036331492079413989 0 -0.01006238912210749 -0.003601076471718148 0 -0.008129907903154758 -0.0031573400419259855 0 -0.0083731122003553628 -0.0036331492079413989 0 -0.008129907903154758 -0.0031573400419259855 0 -0.0027964620567997177 -0.0030917120428250533 0 -0.0028409462785621213 -0.0025372488306763079 0 -0.0025855289807838813 -0.0027779587719717765 0 -0.0095515646762296576 -0.002584621622875424 0 -0.010007118678289403 -0.0031700273069537365 0 -0.0090556049535049452 -0.0040877805063354571 0 -0.017665427491981047 -0.0035411983315877722 0 -0.017744211747005949 -0.0035381294750155938 0 -0.017725964622752086 -0.003642977066140076 0 -0.017665427491981047 -0.0035411983315877722 0 -0.017725964622752086 -0.003642977066140076 0 -0.017586972497558872 -0.0036605202199452643 0 -0.017612859700658966 -0.0035402252189388915 0 -0.017665427491981047 -0.0035411983315877722 0 -0.017586972497558872 -0.0036605202199452643 0 -0.0079254977543968749 -0.0035902888196841076 0 -0.0036578080309879121 -0.0037245757279009161 0 -0.017438641284526154 -0.0035114653021044028 0 -0.017586972497558872 -0.0036605202199452643 0 -0.017371249666537223 -0.0037376311523339804 0 -0.017438641284526154 -0.0035114653021044028 0 -0.017612859700658966 -0.0035402252189388915 0 -0.017586972497558872 -0.0036605202199452643 0 -0.017586972497558872 -0.0036605202199452643 0 -0.017371249666537223 -0.0037376311523339804 0 -0.017570901280918233 -0.0038151752913261026 0 -0.017371249666537223 -0.0037376311523339804 0 -0.017570901280918233 -0.0038151752913261026 0 -0.017340742022910909 -0.0040097354806065801 0 -0.017725964622752086 -0.003642977066140076 0 -0.017586972497558872 -0.0036605202199452643 0 -0.017570901280918233 -0.0038151752913261026 0 -0.008129907903154758 -0.0031573400419259855 0 -0.0058345394943747743 -0.002591432943751245 0 -0.0027005252038435749 -0.0025374447818744899 0 -0.0020120553114620471 -0.0031798598163637389 0 -0.0022941542680615075 -0.0036326949821626647 0 -0.0020120553114620471 -0.0031798598163637389 0 -0.0022057918271503425 -0.0036713922186873572 0 -0.0013417841058232312 -0.0038344112333439156 0 -0.0020120553114620471 -0.0031798598163637389 0 -0.0022941542680615075 -0.0036326949821626647 0 -0.0022057918271503425 -0.0036713922186873572 0 0.014164601063679451 -0.003143314525273912 0 0.013814531042074149 -0.0029023132211269316 0 0.013393785397779235 -0.0030181058870003556 0 -0.0058345394943747743 -0.002591432943751245 0 0.0013640292716380117 -0.0045810787264190253 0 -0.017371249666537223 -0.0037376311523339804 0 -0.017317501339277591 -0.0040270196969804531 0 -0.017340742022910909 -0.0040097354806065801 0 -0.0036578080309879121 -0.0037245757279009161 0 0.0017553531930078366 -0.0048190313820457393 0 0.0066791027627672644 -0.0033623007478686415 0 0.0013640292716380117 -0.0045810787264190253 0 0.013814531042074149 -0.0029023132211269316 0 0.013339596788572128 -0.0029662606718064356 0 0.013393785397779235 -0.0030181058870003556 0 0.0017553531930078366 -0.0048190313820457393 0 0.0013640292716380117 -0.0045810787264190253 0 0.0017553531930078366 -0.0048190313820457393 0 0.0085668492116919917 -0.0032019280604408239 0 0.013814531042074149 -0.0029023132211269316 0 0.013339596788572128 -0.0029662606718064356 0 0.013733836183100782 -0.0023737800908531139 0 0.013339596788572128 -0.0029662606718064356 0 0.013733836183100782 -0.0023737800908531139 0 0.01340389178994042 -0.001931472110141637 0 0.014164601063679451 -0.003143314525273912 0 0.013814531042074149 -0.0029023132211269316 0 0.014221702514771778 -0.0022275555832164898 0 0.0066791027627672644 -0.0033623007478686415 0 0.010584045630134827 -0.0022754745081791268 0 0.013814531042074149 -0.0029023132211269316 0 0.013733836183100782 -0.0023737800908531139 0 0.014221702514771778 -0.0022275555832164898 0 0.011439660021863477 -0.0020941523591167899 0 0.011358161490253023 -0.0021626999101453039 0 0.011451116208642292 -0.0022194250781637573 0 0.011439660021863477 -0.0020941523591167899 0 0.011358161490253023 -0.0021626999101453039 0 0.011328696676860471 -0.0020682872135795263 0 0.0066791027627672644 -0.0033623007478686415 0 0.0042705687886986903 -0.0029976696706012743 0 -0.0026336776735550005 -0.0032558062442161334 0 -0.0022941542680615075 -0.0036326949821626647 0 -0.0028553985977739552 -0.0035178461972197859 0 -0.0022941542680615075 -0.0036326949821626647 0 -0.0022057918271503425 -0.0036713922186873572 0 -0.0028553985977739552 -0.0035178461972197859 0 0.011201811639967002 -0.0020447118673448221 0 0.011328696676860471 -0.0020682872135795263 0 0.011254476639113473 -0.002104386408595582 0 0.0017982151690684161 -0.002708579870727968 0 0.0042705687886986903 -0.0029976696706012743 0 0.011358161490253023 -0.0021626999101453039 0 0.011328696676860471 -0.0020682872135795263 0 0.011254476639113473 -0.002104386408595582 0 0.011358161490253023 -0.0021626999101453039 0 0.011254476639113473 -0.002104386408595582 0 0.011267713828523776 -0.0022263292903731031 0 0.011267713828523776 -0.0022263292903731031 0 0.011361613631159782 -0.0022950644339595808 0 0.011391266067455922 -0.0022615810870298824 0 0.007199888973242332 -0.0032646737470064394 0 0.0089222926768801909 -0.0024933230761334055 0 0.011358161490253023 -0.0021626999101453039 0 0.011267713828523776 -0.0022263292903731031 0 0.011391266067455922 -0.0022615810870298824 0 0.0077127683114614374 -0.002724568171119678 0 0.0074467430908631109 -0.00223490308426306 0 0.0078084038850004377 -0.0021972132743626003 0 0.0074467430908631109 -0.00223490308426306 0 0.0075820312898275313 -0.0018785516205179695 0 0.0078084038850004377 -0.0021972132743626003 0 0.011438585961874068 -0.0022962209781055825 0 0.011391266067455922 -0.0022615810870298824 0 0.011438534823411393 -0.0023646525442370435 0 0.011361613631159782 -0.0022950644339595808 0 0.011438585961874068 -0.0022962209781055825 0 0.011433836398983432 -0.0023232716075299105 0 0.011361613631159782 -0.0022950644339595808 0 0.011438585961874068 -0.0022962209781055825 0 0.011391266067455922 -0.0022615810870298824 0 0.011358161490253023 -0.0021626999101453039 0 0.011391266067455922 -0.0022615810870298824 0 0.011451116208642292 -0.0022194250781637573 0 0.014221702514771778 -0.0022275555832164898 0 0.013889438321993911 -0.0018355775408365593 0 0.014297032445891368 -0.0012935575338560372 0 0.010584045630134827 -0.0022754745081791268 0 0.013186377985610008 -0.0015656670878414697 0 0.011391266067455922 -0.0022615810870298824 0 0.011451116208642292 -0.0022194250781637573 0 0.011438534823411393 -0.0023646525442370435 0 0.013733836183100782 -0.0023737800908531139 0 0.014221702514771778 -0.0022275555832164898 0 0.013889438321993911 -0.0018355775408365593 0 0.013733836183100782 -0.0023737800908531139 0 0.013889438321993911 -0.0018355775408365593 0 0.01340389178994042 -0.001931472110141637 0 0.0085668492116919917 -0.0032019280604408239 0 0.013622637508783272 -0.0023372355374001196 0 0.01340389178994042 -0.001931472110141637 0 0.013829297683367364 -0.0013364256174447722 0 0.013481717604673853 -0.00087230178264175243 0 0.0084120542132649669 -0.0041719565940795738 0 0.0082696567178481162 -0.0039725783720598084 0 0.0084156171803585478 -0.0038884489635797213 0 0.013889438321993911 -0.0018355775408365593 0 0.01340389178994042 -0.001931472110141637 0 0.013829297683367364 -0.0013364256174447722 0 0.013889438321993911 -0.0018355775408365593 0 0.013829297683367364 -0.0013364256174447722 0 0.014297032445891368 -0.0012935575338560372 0 0.011438585961874068 -0.0022962209781055825 0 0.011438534823411393 -0.0023646525442370435 0 0.011483069082450045 -0.0022028292330254001 0 0.011438534823411393 -0.0023646525442370435 0 0.011483069082450045 -0.0022028292330254001 0 0.011512490936699499 -0.00086333413256976365 0 0.013186377985610008 -0.0015656670878414697 0 0.01597762190096242 -0.00045730073051115103 0 0.011483069082450045 -0.0022028292330254001 0 0.011695774789122882 -0.0014513285579754644 0 0.011512490936699499 -0.00086333413256976365 0 0.014297032445891368 -0.0012935575338560372 0 0.013965645888464667 -0.0008272413231533649 0 0.014368669347457716 -0.00033885139177890395 0 0.013829297683367364 -0.0013364256174447722 0 0.014297032445891368 -0.0012935575338560372 0 0.013965645888464667 -0.0008272413231533649 0 0.013829297683367364 -0.0013364256174447722 0 0.013965645888464667 -0.0008272413231533649 0 0.013481717604673853 -0.00087230178264175243 0 0.013965645888464667 -0.0008272413231533649 0 0.013481717604673853 -0.00087230178264175243 0 0.013904255723129859 -0.00034655617218952016 0 0.0082696567178481162 -0.0039725783720598084 0 0.0090725703594816531 -0.0048247445232743854 0 0.0079564685253417818 -0.0067941212674413314 0 0.013622637508783272 -0.0023372355374001196 0 0.020801641836111631 0.00073242958573491428 0 0.013481717604673853 -0.00087230178264175243 0 0.013904255723129859 -0.00034655617218952016 0 0.01355922291463171 0.00019872923907631639 0 0.013904255723129859 -0.00034655617218952016 0 0.014019388110268125 0.0001003113060989093 0 0.01355922291463171 0.00019872923907631639 0 0.011695774789122882 -0.0014513285579754644 0 0.011512490936699499 -0.00086333413256976365 0 0.011788163347253999 -0.0011670538997784873 0 0.011512490936699499 -0.00086333413256976365 0 0.011951857851374403 -0.00085494826881097003 0 0.011788163347253999 -0.0011670538997784873 0 0.013965645888464667 -0.0008272413231533649 0 0.013904255723129859 -0.00034655617218952016 0 0.014368669347457716 -0.00033885139177890395 0 0.013904255723129859 -0.00034655617218952016 0 0.014156925695507144 -8.0568008655943846e-05 0 0.014019388110268125 0.0001003113060989093 0 0.013904255723129859 -0.00034655617218952016 0 0.014368669347457716 -0.00033885139177890395 0 0.014156925695507144 -8.0568008655943846e-05 0 0.012097308970128413 -0.00030693752751479424 0 0.012838655546860984 -0.00020000471629473456 0 0.012065368522544044 0.00050779233188975393 0 0.011951857851374403 -0.00085494826881097003 0 0.012838655546860984 -0.00020000471629473456 0 0.012635440552151038 -0.0020466785456161626 0 0.012838655546860984 -0.00020000471629473456 0 0.014253762349277202 -0.00067426128523274563 0 0.012635440552151038 -0.0020466785456161626 0 0.012097308970128413 -0.00030693752751479424 0 0.011951857851374403 -0.00085494826881097003 0 0.012838655546860984 -0.00020000471629473456 0 0.011512490936699499 -0.00086333413256976365 0 0.012097308970128413 -0.00030693752751479424 0 0.012065368522544044 0.00050779233188975393 0 0.011512490936699499 -0.00086333413256976365 0 0.012097308970128413 -0.00030693752751479424 0 0.011951857851374403 -0.00085494826881097003 0 0.011951857851374403 -0.00085494826881097003 0 0.011788163347253999 -0.0011670538997784873 0 0.012264943566506396 -0.0016006923581397114 0 0.010574365289563568 -0.0017821095883746292 0 0.010431920903152035 -0.0017903585210756886 0 0.012838655546860984 -0.00020000471629473456 0 0.014253762349277202 -0.00067426128523274563 0 0.013392628323809525 0.00049549340924997208 0 0.010514614315804654 -0.00066641668221772705 0 0.010431920903152035 -0.0017903585210756886 0 0.0075953492072259833 -0.0013767894856103644 0 0.0075820312898275313 -0.0018785516205179695 0 0.0071735811055212177 -0.0017417394435745772 0 0.0074467430908631109 -0.00223490308426306 0 0.0075820312898275313 -0.0018785516205179695 0 0.0071735811055212177 -0.0017417394435745772 0 0.0075953492072259833 -0.0013767894856103644 0 0.0075820312898275313 -0.0018785516205179695 0 0.0078856481361197963 -0.0018352575298778376 0 0.0089222926768801909 -0.0024933230761334055 0 0.010431920903152035 -0.0017903585210756886 0 0.011483069082450045 -0.0022028292330254001 0 0.011695774789122882 -0.0014513285579754644 0 0.012264943566506396 -0.0016006923581397114 0 0.011438585961874068 -0.0022962209781055825 0 0.011483069082450045 -0.0022028292330254001 0 0.011433836398983432 -0.0023232716075299105 0 0.010662908279249933 -0.0017233876910778137 0 0.010431920903152035 -0.0017903585210756886 0 0.011695774789122882 -0.0014513285579754644 0 0.011788163347253999 -0.0011670538997784873 0 0.012264943566506396 -0.0016006923581397114 0 0.0040321221713394565 -0.0066473993862958703 0 0.008300093832273427 -0.0045763574855756002 0 0.016511842255788192 -0.0005249632985957288 0 0.013510581665118922 -0.0025671935709819546 0 0.015054472311775091 -0.0027224371329706075 0 0.0061732769466630814 -0.006816367790248674 0 0.011332052961240536 -0.0037063328230447796 0 0.01356325096617312 -0.0025285924546922618 0 0.011981743700838311 -0.0026827088341474115 0 0.012158027187964167 -0.0035208108867166221 0 0.01356325096617312 -0.0025285924546922618 0 0.013311163786674685 -0.0022210134216923928 0 0.011981743700838311 -0.0026827088341474115 0 0.0040321221713394565 -0.0066473993862958703 0 -3.0715784709940276e-05 -0.0061789083563445332 0 0.0078674893967324369 -0.0041038160637469484 0 0.0077359311290981173 -0.0038261851014278351 0 0.0076463789691962559 -0.0040366094610957831 0 0.0078674893967324369 -0.0041038160637469484 0 0.0076463789691962559 -0.0040366094610957831 0 0.0075993610346420477 -0.0041403439036889773 0 0.0076463789691962559 -0.0040366094610957831 0 0.0076282010965842209 -0.0041507705400773837 0 0.0075993610346420477 -0.0041403439036889773 0 0.0074895020987008456 -0.0039350507923503128 0 0.0076463789691962559 -0.0040366094610957831 0 0.0076282010965842209 -0.0041507705400773837 0 0.011981743700838311 -0.0026827088341474115 0 0.010471742735182322 -0.0031449209084192077 0 0.012158027187964167 -0.0035208108867166221 0 0.0076282010965842209 -0.0041507705400773837 0 0.0075993610346420477 -0.0041403439036889773 0 0.0078631539776077685 -0.0039217180686824411 0 0.008300093832273427 -0.0045763574855756002 0 0.0089119863159914832 -0.0040960478021002328 0 0.0078631539776077685 -0.0039217180686824411 0 0.0079845496024334404 -0.0041921525457890478 0 0.0081947802241896222 -0.0040524276007494501 0 0.0076282010965842209 -0.0041507705400773837 0 0.0078631539776077685 -0.0039217180686824411 0 0.0079845496024334404 -0.0041921525457890478 0 0.008017888035944944 -0.00447873722262963 0 0.0076282010965842209 -0.0041507705400773837 0 0.0079845496024334404 -0.0041921525457890478 0 0.0070785508110080735 -0.0039402631371628517 0 0.0074895020987008456 -0.0039350507923503128 0 0.0076282010965842209 -0.0041507705400773837 0 0.005045576471619205 -0.005452379919272542 0 0.0057725868417557828 -0.0054147743216564044 0 0.008017888035944944 -0.00447873722262963 0 0.0084120542132649669 -0.0041719565940795738 0 0.0079845496024334404 -0.0041921525457890478 0 0.0084120542132649669 -0.0041719565940795738 0 0.0079845496024334404 -0.0041921525457890478 0 0.0081947802241896222 -0.0040524276007494501 0 0.0084120542132649669 -0.0041719565940795738 0 0.0081947802241896222 -0.0040524276007494501 0 0.0084156171803585478 -0.0038884489635797213 0 0.0078631539776077685 -0.0039217180686824411 0 0.0081947802241896222 -0.0040524276007494501 0 0.0084156171803585478 -0.0038884489635797213 0 0.010471742735182322 -0.0031449209084192077 0 0.0084156171803585478 -0.0038884489635797213 0 0.0096383174743111567 -0.0041563616080206095 0 0.0096383174743111567 -0.0041563616080206095 0 0.0090725703594816531 -0.0048247445232743854 0 0.010592741710056617 -0.0047260163177174751 0 0.0089119863159914832 -0.0040960478021002328 0 0.0088087034693552207 -0.0040606499930294117 0 0.0082696567178481162 -0.0039725783720598084 0 0.0084156171803585478 -0.0038884489635797213 0 0.0090725703594816531 -0.0048247445232743854 0 0.0084156171803585478 -0.0038884489635797213 0 0.0096383174743111567 -0.0041563616080206095 0 0.0090725703594816531 -0.0048247445232743854 0 0.0090725703594816531 -0.0048247445232743854 0 0.0096555514617732135 -0.0059893545937947821 0 0.010592741710056617 -0.0047260163177174751 0 0.0090725703594816531 -0.0048247445232743854 0 0.0096555514617732135 -0.0059893545937947821 0 0.0079564685253417818 -0.0067941212674413314 0 0.010592741710056617 -0.0047260163177174751 0 0.011648947664741796 -0.0056570907808042095 0 0.012838859991991055 -0.0050524573753527287 0 0.0096555514617732135 -0.0059893545937947821 0 0.010592741710056617 -0.0047260163177174751 0 0.010991760680841329 -0.0063143234557749318 0 0.010592741710056617 -0.0047260163177174751 0 0.010991760680841329 -0.0063143234557749318 0 0.011648947664741796 -0.0056570907808042095 0 0.010991760680841329 -0.0063143234557749318 0 0.011648947664741796 -0.0056570907808042095 0 0.011905824304279373 -0.006276864362237183 0 0.010471742735182322 -0.0031449209084192077 0 0.010592741710056617 -0.0047260163177174751 0 0.012158027187964167 -0.0035208108867166221 0 0.010471742735182322 -0.0031449209084192077 0 0.0096383174743111567 -0.0041563616080206095 0 0.010592741710056617 -0.0047260163177174751 0 0.011253154307674677 -0.0038734022473575869 0 0.011332052961240536 -0.0037063328230447796 0 0.010592741710056617 -0.0047260163177174751 0 0.013243456892766124 -0.0038686139914043769 0 0.012838859991991055 -0.0050524573753527287 0 0.010592741710056617 -0.0047260163177174751 0 0.013510581665118922 -0.0025671935709819546 0 0.013243456892766124 -0.0038686139914043769 0 0.013243456892766124 -0.0038686139914043769 0 0.012838859991991055 -0.0050524573753527287 0 0.014528095607841776 -0.0042421308896451468 0 0.011648947664741796 -0.0056570907808042095 0 0.013025685075612562 -0.0060921501902905361 0 0.012838859991991055 -0.0050524573753527287 0 0.011648947664741796 -0.0056570907808042095 0 0.011905824304279373 -0.006276864362237183 0 0.013025685075612562 -0.0060921501902905361 0 0.013025685075612562 -0.0060921501902905361 0 0.012838859991991055 -0.0050524573753527287 0 0.014306044977146101 -0.0054103967833566352 0 0.012838859991991055 -0.0050524573753527287 0 0.014306044977146101 -0.0054103967833566352 0 0.014528095607841776 -0.0042421308896451468 0 0.014306044977146101 -0.0054103967833566352 0 0.015582888020598335 -0.0049303033844617476 0 0.014528095607841776 -0.0042421308896451468 0 0.013025685075612562 -0.0060921501902905361 0 0.014306044977146101 -0.0054103967833566352 0 0.015598712944246317 -0.0067434538230799271 0 0.014306044977146101 -0.0054103967833566352 0 0.015582888020598335 -0.0049303033844617476 0 0.015598712944246317 -0.0067434538230799271 0 0.016075118471015219 -0.003293523625781621 0 0.015582888020598335 -0.0049303033844617476 0 0.014528095607841776 -0.0042421308896451468 0 0.013243456892766124 -0.0038686139914043769 0 0.014528095607841776 -0.0042421308896451468 0 0.015054472311775091 -0.0027224371329706075 0 0.013510581665118922 -0.0025671935709819546 0 0.013243456892766124 -0.0038686139914043769 0 0.015054472311775091 -0.0027224371329706075 0 0.016075118471015219 -0.003293523625781621 0 0.014528095607841776 -0.0042421308896451468 0 0.015054472311775091 -0.0027224371329706075 0 0.016075118471015219 -0.003293523625781621 0 0.016296207850106957 -0.0021840265350836696 0 0.015054472311775091 -0.0027224371329706075 0 0.051026951160841168 0.0023553476897598185 0 0.0510653015588182 0.0023939977488560099 0 0.051078579091488253 0.0023495337321347239 0 0.0510653015588182 0.0023939977488560099 0 0.051078579091488253 0.0023495337321347239 0 0.050970514284547457 0.0023485217788268365 0 0.048558514843213274 0.0025078640742343368 0 0.048949550338534271 0.0040139049257043825 0 0.046235262832179061 0.0036150225726493236 0 0.048558514843213274 0.0025078640742343368 0 0.046235262832179061 0.0036150225726493236 0 0.04591849307005872 0.0030227859270806146 0 0.032441122070773806 -0.0016085131095429797 0 0.032823798472633586 0.00062343311334897328 0 0.047289389076851387 0.00098530766876553225 0 0.035469977280994117 0.0014280190664854731 0 0.013025685075612562 -0.0060921501902905361 0 0.015598712944246317 -0.0067434538230799271 0 0.011777735125820457 -0.0071665628916987682 0 0.011905824304279373 -0.006276864362237183 0 0.013025685075612562 -0.0060921501902905361 0 0.011777735125820457 -0.0071665628916987682 0 0.0510653015588182 0.0023939977488560099 0 0.050866578575597537 0.0024677576357772244 0 0.050970514284547457 0.0023485217788268365 0 0.035469977280994117 0.0014280190664854731 0 0.037688470029806284 0.0022748631061124199 0 0.050866578575597537 0.0024677576357772244 0 0.050795618765671242 0.0023576515830282317 0 0.050970514284547457 0.0023485217788268365 0 0.030758488772954475 -0.00030325260454185121 0 0.031304053467753105 -0.00041922732400661189 0 0.03115301235910508 0.0004566766643490301 0 0.032823798472633586 0.00062343311334897328 0 0.026520336195501128 0.00076845553709465827 0 0.010991760680841329 -0.0063143234557749318 0 0.011777735125820457 -0.0071665628916987682 0 0.0097532933861688136 -0.0072864893803041659 0 0.034025894657065001 0.0022203987682602486 0 0.033331519261237653 0.00090106806192033202 0 0.030174642160189877 0.0015668780505428352 0 0.032823798472633586 0.00062343311334897328 0 0.035469977280994117 0.0014280190664854731 0 0.010991760680841329 -0.0063143234557749318 0 0.011905824304279373 -0.006276864362237183 0 0.011777735125820457 -0.0071665628916987682 0 0.0096555514617732135 -0.0059893545937947821 0 0.010991760680841329 -0.0063143234557749318 0 0.0097532933861688136 -0.0072864893803041659 0 0.035469977280994117 0.0014280190664854731 0 0.026520336195501128 0.00076845553709465827 0 0.02420139790745136 -0.00019815465990301532 0 0.02291660507119803 7.0764613910106414e-05 0 0.022899966899312851 -0.0004198633147919053 0 0.031304053467753105 -0.00041922732400661189 0 0.031615267599282404 0.00012399111752310176 0 0.031975695639103255 -0.00029920722107382045 0 0.026520336195501128 0.00076845553709465827 0 0.022916907245860717 0.00049196274936573676 0 0.026520336195501128 0.00076845553709465827 0 0.020801641836111631 0.00073242958573491428 0 0.0096555514617732135 -0.0059893545937947821 0 0.0097532933861688136 -0.0072864893803041659 0 0.0079564685253417818 -0.0067941212674413314 0 0.031304053467753105 -0.00041922732400661189 0 0.031615267599282404 0.00012399111752310176 0 0.03115301235910508 0.0004566766643490301 0 0.031551545369200171 0.0012156931027944458 0 0.03115301235910508 0.0004566766643490301 0 0.032027863047515176 0.0007588838700002806 0 0.031615267599282404 0.00012399111752310176 0 0.03115301235910508 0.0004566766643490301 0 0.032027863047515176 0.0007588838700002806 0 0.037697876963555775 0.0022307960371581439 0 0.037688470029806284 0.0022748631061124199 0 0.050898356686042902 0.0021555166205613633 0 0.050680374288253768 0.0022266805516387546 0 0.050859061057233076 0.0022706373007536015 0 0.050898356686042902 0.0021555166205613633 0 0.050859061057233076 0.0022706373007536015 0 0.050984480631731735 0.0022537660530913477 0 0.050795618765671242 0.0023576515830282317 0 0.050859061057233076 0.0022706373007536015 0 0.050970514284547457 0.0023485217788268365 0 0.050680374288253768 0.0022266805516387546 0 0.050795618765671242 0.0023576515830282317 0 0.050859061057233076 0.0022706373007536015 0 0.050970514284547457 0.0023485217788268365 0 0.050984480631731735 0.0022537660530913477 0 0.051087623169780147 0.0022877206288531991 0 0.050859061057233076 0.0022706373007536015 0 0.050970514284547457 0.0023485217788268365 0 0.050984480631731735 0.0022537660530913477 0 0.050898356686042902 0.0021555166205613633 0 0.050984480631731735 0.0022537660530913477 0 0.051109704496466866 0.0021825166995154549 0 0.051222645232907225 0.0022205424507737619 0 0.051109704496466866 0.0021825166995154549 0 0.051087623169780147 0.0022877206288531991 0 0.050984480631731735 0.0022537660530913477 0 0.051109704496466866 0.0021825166995154549 0 0.051087623169780147 0.0022877206288531991 0 0.051078579091488253 0.0023495337321347239 0 0.050970514284547457 0.0023485217788268365 0 0.051087623169780147 0.0022877206288531991 0 0.051136182659645736 0.0023103584325071462 0 0.051078579091488253 0.0023495337321347239 0 0.051087623169780147 0.0022877206288531991 0 0.019475591924962884 0.0021374642028598018 0 0.020526111001433468 0.0010740889861679897 0 0.019475591924962884 0.0021374642028598018 0 0.027239027091758607 0.0014115984513956652 0 0.022878863673495013 0.0022836914321761035 0 0.023633633419694284 0.002380660495860859 0 0.023613776463192158 0.001390884044795176 0 0.02708001493738426 0.0023772116260036714 0 0.027365759859081816 0.0026515985742985994 0 0.027388134760319458 0.002329880374578209 0 0.01476141919789666 0.0029262061445331196 0 0.014791926212205804 0.0021395263621588221 0 0.01365604703639089 0.0018651292514484951 0 0.018790166527320115 0.0027476881729229718 0 0.019475591924962884 0.0021374642028598018 0 0.014791926212205804 0.0021395263621588221 0 0.013574775036799732 0.0018513836829523319 0 0.014282424794762738 0.00095951142038311571 0 0.0183026193611199 0.0019346951164259166 0 0.019475591924962884 0.0021374642028598018 0 0.014253762349277202 -0.00067426128523274563 0 0.014282424794762738 0.00095951142038311571 0 0.01580773340289867 0.00066955201773475899 0 0.019475591924962884 0.0021374642028598018 0 0.018904374860435062 0.0024043483810088835 0 0.014253762349277202 -0.00067426128523274563 0 0.014282424794762738 0.00095951142038311571 0 0.013392628323809525 0.00049549340924997208 0 0.013536664714389041 0.0018835747951272317 0 0.014282424794762738 0.00095951142038311571 0 0.013392628323809525 0.00049549340924997208 0 0.01361687499507179 0.0019355625298621464 0 0.012065368522544044 0.00050779233188975393 0 0.011555005928034998 0.0016513853018473095 0 0.012838655546860984 -0.00020000471629473456 0 0.013392628323809525 0.00049549340924997208 0 0.012065368522544044 0.00050779233188975393 0 0.013536664714389041 0.0018835747951272317 0 0.013392628323809525 0.00049549340924997208 0 0.012065368522544044 0.00050779233188975393 0 0.019475591924962884 0.0021374642028598018 0 0.017049681485032227 0.00068737000915992821 0 0.014156925695507144 -8.0568008655943846e-05 0 0.014019388110268125 0.0001003113060989093 0 0.014409998495227368 0.00058317745339459708 0 0.011512490936699499 -0.00086333413256976365 0 0.012065368522544044 0.00050779233188975393 0 0.011555005928034998 0.0016513853018473095 0 0.01597762190096242 -0.00045730073051115103 0 0.020526111001433468 0.0010740889861679897 0 0.014368669347457716 -0.00033885139177890395 0 0.014156925695507144 -8.0568008655943846e-05 0 0.014409998495227368 0.00058317745339459708 0 0.022916907245860717 0.00049196274936573676 0 0.020526111001433468 0.0010740889861679897 0 0.014019388110268125 0.0001003113060989093 0 0.013619036056040621 0.00043402718088896166 0 0.014409998495227368 0.00058317745339459708 0 0.014019388110268125 0.0001003113060989093 0 0.013612755926605796 0.00019444691826356358 0 0.013619036056040621 0.00043402718088896166 0 0.019363258114161713 0.00090924198155800846 0 0.020801641836111631 0.00073242958573491428 0 0.020801641836111631 0.00073242958573491428 0 0.022916907245860717 0.00049196274936573676 0 0.022916907245860717 0.00049196274936573676 0 0.028457798629087989 0.0006881390173300515 0 0.026978477139720281 0.00069815162518205081 0 0.026950616617174513 0.00065184092937038262 0 0.026993932109755935 0.00062173820912836788 0 0.031615267599282404 0.00012399111752310176 0 0.031975695639103255 -0.00029920722107382045 0 0.032027863047515176 0.0007588838700002806 0 0.026978477139720281 0.00069815162518205081 0 0.026916577412803278 0.00068857803293987871 0 0.026950616617174513 0.00065184092937038262 0 0.026916577412803278 0.00068857803293987871 0 0.026950616617174513 0.00065184092937038262 0 0.026926194199524873 0.00061617081392446437 0 0.020526111001433468 0.0010740889861679897 0 0.027239027091758607 0.0014115984513956652 0 0.026950616617174513 0.00065184092937038262 0 0.026926194199524873 0.00061617081392446437 0 0.026993932109755935 0.00062173820912836788 0 0.032077275795414174 0.0018210158942800997 0 0.031551545369200171 0.0012156931027944458 0 0.032027863047515176 0.0007588838700002806 0 0.033206565515778073 0.00073747061294845192 0 0.028457798629087989 0.0006881390173300515 0 0.027015317200626277 0.00053236863539202314 0 0.026993932109755935 0.00062173820912836788 0 0.026967383453354431 0.00057479705552080209 0 0.032649221032152904 0.0011118040748011187 0 0.027239027091758607 0.0014115984513956652 0 0.026926194199524873 0.00061617081392446437 0 0.026993932109755935 0.00062173820912836788 0 0.026967383453354431 0.00057479705552080209 0 0.034585792366349934 0.0012632812968393415 0 0.034660892286232391 0.004316014298553719 0 0.035961078825197522 0.0027337654661294397 0 0.027239027091758607 0.0014115984513956652 0 0.030412948765320667 0.0010729476624259542 0 0.027846450526265876 0.0014926857077472032 0 0.027842760913907694 0.0020925204851833241 0 0.027297687008706831 0.0019176474955766238 0 0.027365759859081816 0.0026515985742985994 0 0.027842760913907694 0.0020925204851833241 0 0.027388134760319458 0.002329880374578209 0 0.027842760913907694 0.0020925204851833241 0 0.027388134760319458 0.002329880374578209 0 0.027297687008706831 0.0019176474955766238 0 0.02708001493738426 0.0023772116260036714 0 0.027388134760319458 0.002329880374578209 0 0.027297687008706831 0.0019176474955766238 0 0.02708001493738426 0.0023772116260036714 0 0.027297687008706831 0.0019176474955766238 0 0.026815192872881245 0.0021277554942410633 0 0.027242770191132665 0.001435019227422599 0 0.026825888794915029 0.0016179085450269747 0 0.027297687008706831 0.0019176474955766238 0 0.021188598018260847 0.0030145983814715096 0 0.021808417257910485 0.0030873342588394696 0 0.02151802523994505 0.0012165334089562932 0 0.026825888794915029 0.0016179085450269747 0 0.027297687008706831 0.0019176474955766238 0 0.026815192872881245 0.0021277554942410633 0 0.022936960081253885 0.002334927977218237 0 0.016906200141054283 0.0025689139058154009 0 0.021188598018260847 0.0030145983814715096 0 0.02151802523994505 0.0012165334089562932 0 0.021158878978031499 0.00088243355448325051 0 0.018760305335753298 0.0030951554713484868 0 0.015385027913040148 0.0024833734261556092 0 0.011423192440296321 0.0025667168772406318 0 0.015385027913040148 0.0024833734261556092 0 0.0086858643154129524 0.0035851251299700263 0 0.0076883271198507014 0.0025906399999937753 0 0.0085439776837982397 0.0026365719467482279 0 0.0098202805584528471 0.0045944207982512092 0 0.0098809027026841249 0.0045993574807683549 0 0.009904999399456476 0.0046497429875996428 0 0.008249247033879175 0.0023271242657705287 0 0.0079959359581478397 0.0020197011440309469 0 0.0087003196366143756 0.0020515723355892328 0 0.008249247033879175 0.0023271242657705287 0 0.0076883271198507014 0.0025906399999937753 0 0.0085439776837982397 0.0026365719467482279 0 0.008249247033879175 0.0023271242657705287 0 0.0079959359581478397 0.0020197011440309469 0 0.0076883271198507014 0.0025906399999937753 0 0.015385027913040148 0.0024833734261556092 0 0.013817716181879089 0.0017770370010739764 0 0.016906200141054283 0.0025689139058154009 0 0.013406266965740182 0.0016978707936167272 0 0.0078058606640452957 0.0025961173010537872 0 0.0076253898649414169 0.0024386569657385009 0 0.0075653754516197321 0.001634107733056025 0 0.01476141919789666 0.0029262061445331196 0 0.015810492971557125 0.003910069092119722 0 0.015804617016645508 0.0023100118678502672 0 0.0079959359581478397 0.0020197011440309469 0 0.0076883271198507014 0.0025906399999937753 0 0.0075797320904668264 0.001541055860462855 0 0.015385027913040148 0.0024833734261556092 0 0.016906200141054283 0.0025689139058154009 0 0.018790166527320115 0.0027476881729229718 0 0.016906200141054283 0.0025689139058154009 0 0.0078058606640452957 0.0025961173010537872 0 0.0075797320904668264 0.001541055860462855 0 0.0075653754516197321 0.001634107733056025 0 0.014791926212205804 0.0021395263621588221 0 0.015804617016645508 0.0023100118678502672 0 0.01580773340289867 0.00066955201773475899 0 0.01476141919789666 0.0029262061445331196 0 0.014791926212205804 0.0021395263621588221 0 0.015804617016645508 0.0023100118678502672 0 0.0075797320904668264 0.001541055860462855 0 0.0075653754516197321 0.001634107733056025 0 0.0075587200921808373 0.00086291379199973444 0 0.0079959359581478397 0.0020197011440309469 0 0.0084038080992282025 0.0015823053054126195 0 0.0087003196366143756 0.0020515723355892328 0 0.0079959359581478397 0.0020197011440309469 0 0.0075797320904668264 0.001541055860462855 0 0.0084038080992282025 0.0015823053054126195 0 0.0075797320904668264 0.001541055860462855 0 0.0084038080992282025 0.0015823053054126195 0 0.0075587200921808373 0.00086291379199973444 0 0.0084038080992282025 0.0015823053054126195 0 0.0084226761975049521 0.00064664291315236363 0 0.0075228099734912625 0.00082030837595672328 0 0.0094868613722837638 0.00040699049132160545 0 0.010349293958926659 0.0005254971175784654 0 0.014791926212205804 0.0021395263621588221 0 0.014282424794762738 0.00095951142038311571 0 0.01580773340289867 0.00066955201773475899 0 0.013406266965740182 0.0016978707936167272 0 0.010349293958926659 0.0005254971175784654 0 0.0093414305834578666 0.0013614350061966875 0 0.010104523186493325 0.00071928104333869559 0 0.0092281706296570808 0.00044514948295072633 0 0.0084038080992282025 0.0015823053054126195 0 0.0084226761975049521 0.00064664291315236363 0 0.0093414305834578666 0.0013614350061966875 0 0.0084226761975049521 0.00064664291315236363 0 0.0093414305834578666 0.0013614350061966875 0 0.0092281706296570808 0.00044514948295072633 0 0.0084038080992282025 0.0015823053054126195 0 0.0093414305834578666 0.0013614350061966875 0 0.0087003196366143756 0.0020515723355892328 0 0.0093414305834578666 0.0013614350061966875 0 0.0093204256364988036 0.0023072893220554345 0 0.0087003196366143756 0.0020515723355892328 0 0.0093414305834578666 0.0013614350061966875 0 0.0093204256364988036 0.0023072893220554345 0 0.010003117030462342 0.0020716877730521284 0 0.0093204256364988036 0.0023072893220554345 0 0.0098370852497936621 0.0027948907204534252 0 0.010003117030462342 0.0020716877730521284 0 0.0093204256364988036 0.0023072893220554345 0 0.0087003196366143756 0.0020515723355892328 0 0.0085439776837982397 0.0026365719467482279 0 0.0093204256364988036 0.0023072893220554345 0 0.0085439776837982397 0.0026365719467482279 0 0.0091740133499958985 0.0030190796617575767 0 0.008249247033879175 0.0023271242657705287 0 0.0087003196366143756 0.0020515723355892328 0 0.0085439776837982397 0.0026365719467482279 0 0.0086858643154129524 0.0035851251299700263 0 0.0085439776837982397 0.0026365719467482279 0 0.0091740133499958985 0.0030190796617575767 0 0.0094130236680315966 0.0036801732035988233 0 0.0086858643154129524 0.0035851251299700263 0 0.0091740133499958985 0.0030190796617575767 0 0.0093204256364988036 0.0023072893220554345 0 0.0091740133499958985 0.0030190796617575767 0 0.0098370852497936621 0.0027948907204534252 0 0.0097913602126659151 0.003468672262216266 0 0.0094130236680315966 0.0036801732035988233 0 0.0091740133499958985 0.0030190796617575767 0 0.0097913602126659151 0.003468672262216266 0 0.0091740133499958985 0.0030190796617575767 0 0.0098370852497936621 0.0027948907204534252 0 0.0097913602126659151 0.003468672262216266 0 0.0098370852497936621 0.0027948907204534252 0 0.010404866055755984 0.0032967555256181742 0 0.0098370852497936621 0.0027948907204534252 0 0.010404866055755984 0.0032967555256181742 0 0.010424753790205942 0.0026201785178035118 0 0.010404866055755984 0.0032967555256181742 0 0.011066089777441303 0.002983910036336598 0 0.010424753790205942 0.0026201785178035118 0 0.011066629769603592 0.0038669879321642656 0 0.010404866055755984 0.0032967555256181742 0 0.011066089777441303 0.002983910036336598 0 0.011066629769603592 0.0038669879321642656 0 0.011066089777441303 0.002983910036336598 0 0.011962142329384444 0.0034487954274925996 0 0.010798830518673136 0.0021029461230897706 0 0.011797132659545713 0.0024862238660877359 0 0.011299105097543295 0.0015950750513845052 0 0.011066089777441303 0.002983910036336598 0 0.010798830518673136 0.0021029461230897706 0 0.010424753790205942 0.0026201785178035118 0 0.011066089777441303 0.002983910036336598 0 0.010798830518673136 0.0021029461230897706 0 0.011797132659545713 0.0024862238660877359 0 0.010798830518673136 0.0021029461230897706 0 0.010003117030462342 0.0020716877730521284 0 0.010424753790205942 0.0026201785178035118 0 0.0098370852497936621 0.0027948907204534252 0 0.010003117030462342 0.0020716877730521284 0 0.010424753790205942 0.0026201785178035118 0 0.013123545742501045 0.0031193094153380472 0 0.011962142329384444 0.0034487954274925996 0 0.011797132659545713 0.0024862238660877359 0 0.012660791752991006 0.0039030199659649207 0 0.013123545742501045 0.0031193094153380472 0 0.011962142329384444 0.0034487954274925996 0 0.011066089777441303 0.002983910036336598 0 0.011962142329384444 0.0034487954274925996 0 0.011797132659545713 0.0024862238660877359 0 0.013123545742501045 0.0031193094153380472 0 0.011797132659545713 0.0024862238660877359 0 0.012924554128478656 0.001905831485611119 0 0.020115243940097689 0.0025802850459787749 0 0.018065293697387734 0.0018510121418832783 0 0.012924554128478656 0.001905831485611119 0 0.01154695967032425 0.00090858182934007643 0 0.012824786804012502 0.00055645785691192814 0 0.011797132659545713 0.0024862238660877359 0 0.012924554128478656 0.001905831485611119 0 0.011299105097543295 0.0015950750513845052 0 0.012924554128478656 0.001905831485611119 0 0.011299105097543295 0.0015950750513845052 0 0.01154695967032425 0.00090858182934007643 0 0.01154695967032425 0.00090858182934007643 0 0.012824786804012502 0.00055645785691192814 0 0.011931623327998143 -0.00054514051158598804 0 0.011299105097543295 0.0015950750513845052 0 0.01154695967032425 0.00090858182934007643 0 0.010823738079009071 0.00090647950350011277 0 0.0093414305834578666 0.0013614350061966875 0 0.010003117030462342 0.0020716877730521284 0 0.010383345333301323 0.001362127400646037 0 0.010798830518673136 0.0021029461230897706 0 0.010003117030462342 0.0020716877730521284 0 0.010383345333301323 0.001362127400646037 0 0.010798830518673136 0.0021029461230897706 0 0.011299105097543295 0.0015950750513845052 0 0.010383345333301323 0.001362127400646037 0 0.011299105097543295 0.0015950750513845052 0 0.010383345333301323 0.001362127400646037 0 0.010823738079009071 0.00090647950350011277 0 0.010823738079009071 0.00090647950350011277 0 0.010104523186493325 0.00071928104333869559 0 0.010878432291027477 0.00020759317597452277 0 0.01154695967032425 0.00090858182934007643 0 0.010823738079009071 0.00090647950350011277 0 0.010878432291027477 0.00020759317597452277 0 0.010383345333301323 0.001362127400646037 0 0.010823738079009071 0.00090647950350011277 0 0.010104523186493325 0.00071928104333869559 0 0.0093414305834578666 0.0013614350061966875 0 0.010383345333301323 0.001362127400646037 0 0.010104523186493325 0.00071928104333869559 0 0.007865273048422574 -0.00017135498876268075 0 0.010878432291027477 0.00020759317597452277 0 0.0093322821365351971 -0.0011374882590872385 0 0.010104523186493325 0.00071928104333869559 0 0.0098842417255715423 9.2436864301303129e-05 0 0.010878432291027477 0.00020759317597452277 0 0.0087923802974277949 -0.00043144469342770828 0 0.0097463885422769576 -0.00013865494412398623 0 0.010878432291027477 0.00020759317597452277 0 0.010849191498174458 -0.00044441087950714442 0 0.0093322821365351971 -0.0011374882590872385 0 0.010849191498174458 -0.00044441087950714442 0 0.0093322821365351971 -0.0011374882590872385 0 0.0097527375333635868 -0.0029819113406773269 0 0.010510099306572235 -0.0012304982456681755 0 0.0097757270199787926 -0.0030245310043207413 0 0.010450121200493656 -0.0014283110679404437 0 0.010810530162996051 -0.0025248762357243312 0 0.0095996969832306805 -0.0034833054087822007 0 0.0093322821365351971 -0.0011374882590872385 0 0.0097527375333635868 -0.0029819113406773269 0 0.0072649220122405263 -0.0025920591461781415 0 0.007865273048422574 -0.00017135498876268075 0 0.0093322821365351971 -0.0011374882590872385 0 0.0072649220122405263 -0.0025920591461781415 0 0.012824786804012502 0.00055645785691192814 0 0.013078308561719059 -0.0010041416448197734 0 0.011931623327998143 -0.00054514051158598804 0 0.013078308561719059 -0.0010041416448197734 0 0.011931623327998143 -0.00054514051158598804 0 0.011641598638564191 -0.0018535362841333042 0 0.010915465841990104 -0.00024720636838598158 0 0.010510099306572235 -0.0012304982456681755 0 0.01154695967032425 0.00090858182934007643 0 0.010450121200493656 -0.0014283110679404437 0 0.011931623327998143 -0.00054514051158598804 0 0.01154695967032425 0.00090858182934007643 0 0.010878432291027477 0.00020759317597452277 0 0.010849191498174458 -0.00044441087950714442 0 0.010450121200493656 -0.0014283110679404437 0 0.011931623327998143 -0.00054514051158598804 0 0.011641598638564191 -0.0018535362841333042 0 0.010810530162996051 -0.0025248762357243312 0 0.011641598638564191 -0.0018535362841333042 0 0.011570463820113565 -0.0033164594667668352 0 0.010450121200493656 -0.0014283110679404437 0 0.010810530162996051 -0.0025248762357243312 0 0.011641598638564191 -0.0018535362841333042 0 0.013728679052001404 -0.0028375462406213642 0 0.013078308561719059 -0.0010041416448197734 0 0.011641598638564191 -0.0018535362841333042 0 0.013728679052001404 -0.0028375462406213642 0 0.011641598638564191 -0.0018535362841333042 0 0.011570463820113565 -0.0033164594667668352 0 0.013728679052001404 -0.0028375462406213642 0 0.012809705466299245 -0.0042987677303915955 0 0.011570463820113565 -0.0033164594667668352 0 0.012809705466299245 -0.0042987677303915955 0 0.011570463820113565 -0.0033164594667668352 0 0.010844373423402881 -0.0052618488232986588 0 0.011570463820113565 -0.0033164594667668352 0 0.010844373423402881 -0.0052618488232986588 0 0.0095996969832306805 -0.0034833054087822007 0 0.010810530162996051 -0.0025248762357243312 0 0.011570463820113565 -0.0033164594667668352 0 0.0095996969832306805 -0.0034833054087822007 0 0.01285420955434436 -0.0058722895482624035 0 0.012809705466299245 -0.0042987677303915955 0 0.010844373423402881 -0.0052618488232986588 0 0.0097527375333635868 -0.0029819113406773269 0 0.0086149834396457951 -0.0054475218975290497 0 0.0072649220122405263 -0.0025920591461781415 0 0.0097757270199787926 -0.0030245310043207413 0 0.0093265718301402817 -0.0041196138967322772 0 0.010844373423402881 -0.0052618488232986588 0 0.0095996969832306805 -0.0034833054087822007 0 0.0086149834396457951 -0.0054475218975290497 0 0.0064333962050655497 -0.0065357567773006138 0 0.0086149834396457951 -0.0054475218975290497 0 0.0060908773912889862 -0.0043929728527772076 0 0.0086149834396457951 -0.0054475218975290497 0 0.0060908773912889862 -0.0043929728527772076 0 0.0072649220122405263 -0.0025920591461781415 0 0.0060908773912889862 -0.0043929728527772076 0 0.0072649220122405263 -0.0025920591461781415 0 0.0044859850068055557 -0.0030371750375283208 0 0.0064333962050655497 -0.0065357567773006138 0 0.0060908773912889862 -0.0043929728527772076 0 0.004333007417619425 -0.0049422847150858715 0 0.0060908773912889862 -0.0043929728527772076 0 0.0044859850068055557 -0.0030371750375283208 0 0.004333007417619425 -0.0049422847150858715 0 0.0044859850068055557 -0.0030371750375283208 0 0.004333007417619425 -0.0049422847150858715 0 0.0023140721000136019 -0.0043639418999008141 0 0.0035641229129514049 -0.0063266443924933713 0 0.004333007417619425 -0.0049422847150858715 0 0.0023140721000136019 -0.0043639418999008141 0 0.0077127683114614374 -0.002724568171119678 0 0.0079927056837951031 -0.0025112423616771755 0 0.0078084038850004377 -0.0021972132743626003 0 0.0055365857087393252 -0.0032171285918429012 0 0.0071487912025758361 -0.0018509051106035434 0 0.0079927056837951031 -0.0025112423616771755 0 0.0078084038850004377 -0.0021972132743626003 0 0.0080091791595080109 -0.0018040489204272138 0 0.0044859850068055557 -0.0030371750375283208 0 0.0023140721000136019 -0.0043639418999008141 0 0.0023118914753994936 -0.0016320643683183887 0 0.0071487912025758361 -0.0018509051106035434 0 0.0073119267282260366 -0.0010855254995295266 0 0.0044859850068055557 -0.0030371750375283208 0 0.0023118914753994936 -0.0016320643683183887 0 0.0050132538419121863 -0.00091471682387509758 0 0.0075953492072259833 -0.0013767894856103644 0 0.0078856481361197963 -0.0018352575298778376 0 0.0080134945975953234 -0.0018027532802606413 0 0.0075820312898275313 -0.0018785516205179695 0 0.0078084038850004377 -0.0021972132743626003 0 0.0078856481361197963 -0.0018352575298778376 0 0.0078084038850004377 -0.0021972132743626003 0 0.0078856481361197963 -0.0018352575298778376 0 0.0080091791595080109 -0.0018040489204272138 0 0.0071780556688924189 -0.0018452026134693775 0 0.0071487912025758361 -0.0018509051106035434 0 0.010349293958926659 0.0005254971175784654 0 0.0071487912025758361 -0.0018509051106035434 0 0.010514614315804654 -0.00066641668221772705 0 0.010349293958926659 0.0005254971175784654 0 0.0075953492072259833 -0.0013767894856103644 0 0.0080282090515841238 -0.0010078000196180835 0 0.0080134945975953234 -0.0018027532802606413 0 0.0084226761975049521 0.00064664291315236363 0 0.0075183853647518215 -0.00052221066815545962 0 0.0087218139193355262 -0.00021223738310441245 0 0.0084226761975049521 0.00064664291315236363 0 0.0075228099734912625 0.00082030837595672328 0 0.0075183853647518215 -0.00052221066815545962 0 0.0084226761975049521 0.00064664291315236363 0 0.0092281706296570808 0.00044514948295072633 0 0.0087218139193355262 -0.00021223738310441245 0 0.0098842417255715423 9.2436864301303129e-05 0 0.0092281706296570808 0.00044514948295072633 0 0.0087218139193355262 -0.00021223738310441245 0 0.0087923802974277949 -0.00043144469342770828 0 0.0073119267282260366 -0.0010855254995295266 0 0.010104523186493325 0.00071928104333869559 0 0.0098842417255715423 9.2436864301303129e-05 0 0.0092281706296570808 0.00044514948295072633 0 0.007865273048422574 -0.00017135498876268075 0 0.0072649220122405263 -0.0025920591461781415 0 0.0050132538419121863 -0.00091471682387509758 0 0.0072649220122405263 -0.0025920591461781415 0 0.0044859850068055557 -0.0030371750375283208 0 0.0050132538419121863 -0.00091471682387509758 0 
</DataArray>
</PointData>
<CellData Scalars="region_id,cross_section_updated," Vectors="" Tensors="stress,">
<DataArray type="Float64" Name="region_id" format="ascii">
5 5 6 5 5 5 5 6 5 5 5 5 5 5 5 5 5 5 5 5 6 5 5 5 5 6 5 5 5 5 5 5 5 6 5 5 5 5 5 5 5 5 6 5 5 5 5 5 5 5 5 5 5 5 6 6 5 5 5 5 5 5 5 5 6 5 5 5 5 5 5 5 5 5 5 5 5 5 5 5 5 5 5 5 5 5 5 6 5 5 5 5 5 5 5 5 5 5 5 6 5 5 5 6 5 5 5 5 5 5 5 5 5 5 5 5 5 5 5 5 5 5 5 5 5 5 5 5 5 5 5 5 5 5 5 5 5 5 5 5 5 5 5 5 5 5 5 5 5 6 5 6 5 5 5 5 5 5 5 5 5 5 5 5 5 5 5 5 5 5 5 5 5 5 5 5 5 5 6 5 5 6 5 6 5 5 5 5 5 5 5 5 5 5 5 5 5 5 6 5 6 5 5 5 5 5 5 5 6 5 6 5 5 5 5 5 5 6 5 5 6 5 5 5 5 5 5 6 6 5 5 6 5 6 5 6 6 5 5 5 6 5 5 5 5 5 5 5 5 5 5 5 5 5 6 5 5 5 5 5 5 5 6 5 5 5 5 5 5 5 6 5 5 5 5 6 5 5 5 5 5 5 6 5 5 5 6 5 5 5 5 5 5 5 6 5 5 5 5 5 5 6 5 5 5 5 5 5 6 5 5 5 5 5 5 5 6 5 5 5 5 5 5 5 5 5 5 5 5 5 5 5 5 5 5 5 5 5 6 6 5 5 5 5 5 6 5 5 5 5 5 5 5 6 5 6 5 5 5 6 5 5 5 6 5 6 5 5 5 5 5 5 5 6 5 5 5 5 5 5 5 6 5 5 5 6 5 5 5 5 5 5 5 5 5 5 5 5 5 5 5 5 5 5 5 5 5 5 5 5 5 5 5 5 5 5 5 5 6 5 5 5 5 5 5 5 5 5 5 5 5 5 5 5 5 5 5 5 5 5 5 5 5 5 5 5 5 5 5 5 5 6 5 5 5 5 5 5 5 5 5 5 5 5 5 5 5 5 5 5 5 5 6 5 5 5 5 5 5 5 6 5 5 5 5 5 6 5 5 6 5 6 5 5 5 5 6 5 5 6 5 5 5 5 5 5 6 5 5 5 5 5 5 5 5 5 5 5 5 5 5 5 5 5 5 5 6 5 5 5 5 5 5 5 5 5 5 5 6 6 5 5 5 5 5 5 5 5 5 5 5 5 5 5 5 5 5 5 5 5 5 6 5 6 6 5 5 6 5 5 5 5 5 5 5 5 5 5 5 5 5 6 5 5 5 5 5 5 5 6 6 5 5 5 5 5 5 5 5 6 6 5 5 5 6 5 5 5 5 5 5 5 5 5 5 5 5 5 5 5 5 5 5 5 5 5 5 5 5 5 5 5 5 5 5 5 5 5 5 5 6 5 5 6 5 5 5 5 6 5 5 5 6 5 5 5 6 5 5 6 5 5 5 5 5 5 5 5 5 5 5 5 5 5 5 5 5 5 5 5 5 6 5 5 5 6 5 5 5 5 5 6 5 5 5 5 5 5 6 5 5 5 5 5 5 5 5 5 5 5 5 5 5 5 5 5 5 6 5 5 5 5 5 5 5 5 5 5 5 5 5 5 5 5 5 5 5 5 5 6 5 5 5 5 5 5 5 5 5 5 5 5 5 5 5 6 5 5 5 5 5 5 5 5 5 5 5 5 5 5 5 5 5 5 6 5 5 5 5 5 5 5 6 5 5 5 5 5 5 5 5 5 5 5 5 5 5 5 5 5 5 5 5 5 6 5 5 5 5 5 5 5 5 5 6 5 5 5 5 5 5 5 5 6 5 5 5 5 5 5 5 5 5 5 5 5 5 5 5 5 5 5 5 6 5 5 5 5 5 6 5 5 5 6 5 5 5 5 5 5 6 5 5 5 5 5 5 5 5 5 5 6 5 5 5 5 5 5 5 5 5 5 5 5 6 5 6 5 5 5 5 5 5 5 6 5 6 5 5 5 5 5 5 5 5 5 5 5 5 5 5 5 5 5 5 5 5 5 5 5 5 5 5 5 5 5 5 5 5 5 5 5 5 5 5 5 5 5 5 5 5 5 6 6 5 5 6 5 5 5 5 5 5 5 5 5 5 5 5 5 5 5 5 6 5 5 5 5 6 5 5 6 5 5 5 5 5 5 6 5 6 5 5 6 5 5 5 5 5 5 5 5 5 5 6 5 5 5 5 5 6 6 5 5 5 5 6 5 5 6 5 6 5 5 5 5 5 6 5 5 6 5 5 5 5 5 5 5 5 5 5 5 5 6 5 5 5 5 5 5 5 5 5 5 5 5 5 5 5 6 5 6 5 6 6 5 6 5 5 6 5 5 5 5 5 5 6 5 6 5 5 6 5 5 5 6 5 5 6 5 5 5 5 5 6 5 5 6 5 5 5 5 5 6 5 6 5 5 6 5 5 6 5 5 5 5 5 5 5 5 6 5 5 5 5 5 5 5 5 5 5 6 5 5 5 5 6 5 5 6 5 5 5 5 5 6 5 5 5 5 5 6 5 6 5 5 5 5 5 5 6 5 5 5 5 5 5 5 5 6 6 6 5 5 5 5 6 5 6 5 5 5 6 6 5 5 5 6 5 5 5 6 5 6 5 6 6 5 6 5 5 5 5 6 5 5 5 6 5 6 5 6 5 5 5 5 5 5 5 6 5 5 5 5 6 5 5 5 5 5 5 5 5 6 5 6 6 5 5 5 6 5 5 5 5 6 6 5 5 6 6 5 5 5 5 5 6 5 5 5 5 5 5 5 5 6 5 6 5 5 5 5 5 5 5 5 5 5 5 5 5 5 5 5 5 6 5 5 5 5 5 5 5 5 5 5 5 5 5 5 5 5 5 5 5 5 5 5 5 5 5 6 5 6 5 5 5 5 5 6 6 5 5 5 5 6 6 5 6 5 5 6 5 5 6 5 5 5 5 6 6 5 5 5 5 5 5 5 5 6 5 5 6 5 5 5 6 5 5 6 5 5 5 5 5 5 6 5 5 5 5 5 5 6 5 5 5 5 5 6 5 5 6 6 5 5 6 5 5 6 5 5 5 5 5 5 5 5 5 5 5 5 6 5 6 5 5 6 5 5 5 5 5 5 6 5 5 5 6 6 6 5 5 5 6 6 5 6 6 5 5 6 5 5 6 5 6 5 6 5 5 5 6 6 5 5 6 6 6 6 5 5 5 6 6 5 5 6 6 6 5 6 6 5 5 6 5 6 6 5 6 5 5 6 5 6 6 5 5 5 5 6 6 5 5 6 5 5 5 6 5 5 5 5 5 5 5 5 5 5 5 5 5 5 5 5 5 5 5 5 5 5 5 5 5 5 5 5 5 5 5 5 5 5 5 5 5 5 5 5 5 5 5 5 5 5 5 5 5 5 5 5 5 5 5 5 5 5 6 5 6 5 5 5 5 5 5 5 5 5 5 5 5 5 5 6 5 5 5 5 5 5 5 5 5 5 6 5 5 5 5 5 5 5 5 5 5 5 5 5 5 5 5 5 5 5 5 5 5 5 5 5 5 5 5 5 5 5 5 5 5 5 5 5 5 5 5 5 5 5 5 5 5 6 5 5 5 6 5 6 5 5 5 5 5 6 5 6 5 5 5 5 5 5 5 5 5 5 5 5 5 5 5 5 5 5 5 5 5 5 5 5 5 6 5 5 5 5 5 5 6 5 6 5 5 5 6 5 5 6 5 5 5 5 5 5 5 5 5 5 5 5 5 5 5 5 5 5 5 5 5 5 5 5 5 5 5 5 5 5 5 5 5 5 5 5 5 6 5 6 5 5 5 5 5 5 5 5 5 5 6 5 5 5 5 5 5 5 5 5 5 5 5 5 5 5 5 5 6 5 5 5 6 6 5 6 5 5 5 5 5 5 5 5 6 5 5 5 5 6 5 5 5 5 5 5 5 6 5 5 6 5 6 5 5 6 5 5 6 6 5 5 5 5 5 5 5 5 5 5 5 5 5 5 5 6 5 6 5 5 5 6 5 6 5 5 5 5 5 5 5 5 5 5 5 5 6 5 6 5 5 5 5 5 5 5 5 6 5 5 6 5 5 5 6 6 5 5 5 5 5 5 5 5 5 5 5 5 5 5 5 5 5 5 5 5 5 6 5 5 5 5 5 6 5 6 5 5 5 5 6 5 5 6 5 5 5 5 5 6 5 5 5 5 6 5 5 5 5 5 5 5 6 5 5 5 6 5 5 5 5 5 5 5 5 5 5 5 6 5 5 5 5 5 5 5 5 6 5 5 5 5 5 5 6 5 5 5 5 5 5 6 5 5 5 5 5 5 5 5 5 5 5 6 5 5 5 6 5 5 5 6 5 6 5 5 5 5 5 5 6 5 5 5 5 5 5 5 5 5 5 5 5 5 5 5 6 5 5 5 5 5 6 5 5 5 5 5 5 5 5 6 5 5 5 5 5 5 5 5 5 5 5 5 5 5 5 5 6 5 5 5 5 6 5 5 5 5 5 5 5 5 5 5 5 5 5 5 5 5 5 5 5 5 5 5 5 5 5 5 6 5 5 5 6 5 6 5 5 5 5 6 5 6 5 5 5 5 5 6 5 5 5 5 5 5 5 5 5 6 5 5 5 5 5 5 5 5 5 5 5 5 5 5 5 5 5 5 5 5 5 5 5 5 6 6 5 5 5 5 5 6 5 5 5 6 5 5 5 6 5 5 6 5 6 5 5 5 5 6 5 5 5 5 6 6 5 5 5 5 5 5 5 5 5 5 5 5 6 5 5 5 5 6 5 5 5 5 5 6 5 5 6 5 5 5 5 5 5 5 5 5 5 5 5 5 5 5 5 6 5 5 6 5 5 5 6 5 5 5 5 5 5 5 5 5 5 5 6 5 5 5 5 5 5 5 5 5 5 5 5 5 5 5 5 6 5 5 6 5 6 5 5 6 5 6 5 6 5 5 5 5 5 5 5 5 5 5 5 5 5 6 5 6 6 5 5 6 6 5 5 6 6 5 5 5 6 5 6 5 5 6 5 5 5 5 6 6 5 6 5 5 6 6 5 5 6 5 5 5 6 5 5 5 6 6 6 5 5 6 5 6 6 5 5 5 5 5 5 5 5 5 5 5 6 6 5 6 5 6 5 6 5 5 5 6 5 5 5 5 5 6 5 5 5 5 5 5 5 5 5 5 5 5 5 5 5 5 5 5 5 5 5 5 5 5 6 5 5 5 5 5 5 5 5 5 5 5 5 5 5 5 5 5 5 6 5 5 5 5 5 5 5 5 5 5 5 6 5 5 5 5 5 6 5 5 5 5 5 5 5 5 5 5 5 5 5 5 6 5 5 5 5 5 5 5 5 5 5 5 5 5 5 6 5 6 5 5 5 5 6 5 5 5 5 5 5 5 5 5 5 5 5 6 5 6 5 5 5 5 6 5 5 5 5 5 5 5 6 5 5 5 5 5 5 5 6 5 5 5 6 5 6 5 5 5 5 5 5 5 5 5 6 5 5 5 5 5 5 5 5 5 5 5 5 5 5 5 5 5 5 5 5 5 5 5 5 5 5 5 5 5 5 5 5 5 5 5 5 5 5 5 5 5 5 5 6 5 5 6 5 5 5 5 5 5 5 5 5 5 6 5 5 5 5 5 6 5 5 6 5 5 5 5 5 5 6 5 5 5 5 6 5 5 6 5 6 5 5 5 5 5 5 5 5 5 5 5 6 5 6 5 5 5 5 6 5 5 5 5 5 5 5 5 5 5 5 5 5 5 5 5 5 5 5 5 5 6 5 5 5 5 6 5 5 5 5 5 5 5 6 5 5 5 5 5 6 5 5 5 6 5 5 5 6 5 5 6 5 5 5 6 5 5 6 5 5 5 5 5 5 5 5 5 5 5 5 5 5 5 5 5 5 5 5 5 5 5 5 5 5 5 5 5 5 5 6 5 5 5 5 5 5 5 5 5 5 5 6 5 5 5 5 5 5 5 5 5 5 5 5 5 5 5 6 6 5 5 5 6 5 5 5 5 6 5 5 6 5 5 5 5 5 5 5 5 5 5 5 5 5 6 6 5 5 5 5 5 5 5 5 5 5 5 6 5 5 6 5 5 5 5 5 5 5 5 5 5 5 5 5 5 5 5 5 5 5 6 5 5 5 6 5 5 5 5 5 6 5 5 5 5 5 5 5 5 5 5 5 5 5 5 5 5 5 5 5 5 6 5 5 6 5 5 5 5 5 5 5 5 5 5 5 5 5 5 5 5 5 5 5 6 5 5 5 5 5 5 5 5 5 5 5 5 5 5 5 5 5 5 5 5 5 5 5 5 5 5 5 5 5 5 5 5 6 5 5 5 5 5 5 6 5 5 5 5 5 6 5 5 5 5 6 5 5 5 5 5 5 5 5 5 5 5 5 5 5 5 5 5 5 5 5 5 5 6 5 5 5 5 5 5 5 6 5 5 6 5 5 6 5 5 5 5 5 5 6 5 5 5 5 5 5 5 5 5 5 6 5 6 5 5 5 5 5 5 5 5 6 5 5 6 5 5 5 6 5 5 5 6 5 5 5 6 6 5 5 6 5 5 6 5 5 6 5 5 5 5 5 5 5 5 5 6 5 5 5 6 5 5 5 6 5 5 5 6 5 6 5 5 6 5 5 5 5 5 5 5 5 6 5 5 6 5 5 5 5 5 5 5 5 5 5 5 5 5 6 5 6 5 5 5 6 6 5 6 5 5 5 5 6 5 6 5 5 5 5 5 5 5 5 5 6 5 5 5 5 5 5 5 5 5 5 5 5 5 5 5 5 5 5 5 5 5 5 5 5 5 5 5 5 6 5 5 5 5 5 5 6 5 5 5 5 5 5 6 5 5 5 5 5 5 6 5 5 5 6 5 5 5 6 5 5 6 5 5 5 5 5 5 6 5 5 5 6 6 5 5 5 5 5 5 5 5 5 5 5 5 5 5 5 5 5 6 5 5 5 5 5 5 5 6 5 5 5 5 5 6 5 5 5 5 5 6 5 5 6 5 5 5 5 6 5 5 5 5 5 5 6 5 6 5 6 6 5 6 5 5 5 6 5 5 5 5 5 6 5 5 5 6 5 5 5 5 6 6 6 5 5 5 5 6 6 5 6 5 5 5 5 5 5 6 5 6 5 5 6 5 5 5 6 5 5 6 5 5 5 5 5 5 5 5 5 5 5 5 6 5 5 5 5 6 5 5 5 5 6 5 5 5 5 5 5 5 5 5 6 6 6 5 5 5 6 6 5 5 6 5 6 5 5 5 5 5 5 5 6 5 5 5 5 5 5 5 5 5 5 5 5 5 5 5 5 6 5 5 5 5 5 5 5 5 5 6 5 5 6 5 6 5 6 5 5 6 5 5 5 6 6 5 5 6 5 5 5 6 5 5 5 5 6 5 5 5 5 5 5 5 5 5 5 5 6 6 5 5 5 5 5 5 5 5 5 5 5 5 5 5 5 5 5 5 5 5 5 5 5 5 5 5 5 5 5 5 5 5 6 5 5 5 5 5 5 5 5 5 5 5 5 5 5 5 5 5 5 5 6 5 5 5 5 5 5 6 6 5 5 6 6 5 5 5 6 5 5 5 5 5 5 5 5 5 5 5 5 5 5 5 5 5 5 5 5 5 5 5 6 5 6 5 6 5 5 5 5 5 5 6 5 6 6 5 5 6 5 5 5 5 5 5 6 6 5 5 6 6 5 5 6 6 5 5 5 5 5 5 5 5 6 5 5 5 5 5 6 5 5 6 5 5 5 6 5 5 5 5 5 5 5 5 5 5 5 5 5 5 5 5 5 5 5 5 5 5 5 5 5 5 5 5 5 5 5 5 5 5 6 5 5 6 5 6 6 5 5 5 5 5 5 5 5 5 6 5 5 5 5 5 6 5 5 5 5 5 5 5 6 5 5 5 5 5 5 5 5 6 5 5 5 5 5 6 5 5 5 5 5 5 5 5 5 5 5 5 5 5 5 5 5 5 5 5 5 5 5 5 5 5 5 5 5 5 6 6 5 5 5 5 5 5 5 6 5 5 5 6 5 6 5 5 5 5 5 5 5 5 5 5 5 5 5 5 5 5 5 5 5 5 5 6 5 5 5 5 5 5 6 5 5 5 5 5 5 5 6 5 5 6 5 5 5 5 5 5 6 5 5 5 6 5 5 6 6 5 5 5 5 5 5 5 5 5 5 5 5 5 5 5 5 5 5 5 5 5 5 5 5 5 5 5 5 6 5 5 5 5 5 5 5 5 5 5 5 5 5 5 5 5 5 5 5 6 5 5 5 6 6 5 5 5 5 5 6 5 5 5 6 5 5 5 5 5 6 5 5 5 5 5 5 5 5 5 5 5 5 5 5 5 5 5 5 5 5 5 6 5 5 5 5 5 5 6 5 5 5 5 5 5 5 5 5 5 5 5 6 5 5 5 5 6 5 6 5 5 5 5 5 5 5 5 5 5 5 5 5 6 5 5 5 5 5 6 5 5 5 5 5 5 6 5 5 5 5 5 5 5 5 5 5 5 5 6 5 5 6 5 5 6 5 5 6 5 5 5 5 5 5 5 5 5 5 6 5 5 5 5 5 5 5 5 6 5 5 5 6 5 5 5 6 5 5 6 5 5 5 6 5 5 5 5 5 6 5 6 5 5 5 5 6 6 5 5 5 6 5 5 5 5 6 5 5 5 5 5 5 5 5 5 5 5 5 5 5 5 6 5 5 6 6 5 5 5 5 6 5 5 5 5 5 5 6 5 5 5 5 5 5 6 5 5 5 5 5 5 5 5 6 5 5 5 5 5 5 5 5 5 5 6 5 5 6 5 5 6 5 5 5 5 5 6 6 5 5 6 6 5 6 5 6 5 6 6 5 5 6 5 6 5 6 5 6 5 6 5 5 6 5 6 5 6 5 5 5 5 5 5 6 5 5 5 6 5 5 5 5 5 5 5 5 5 6 5 5 6 5 6 5 6 5 5 5 6 6 5 5 5 5 5 5 5 5 5 5 5 6 5 5 5 5 5 6 5 5 5 5 5 5 5 5 5 5 5 5 5 5 5 5 5 6 5 5 5 5 5 5 6 5 5 5 6 5 5 6 5 5 5 6 5 6 6 5 5 5 5 5 5 5 5 5 6 5 5 5 5 5 5 5 6 5 6 5 6 5 5 5 5 5 5 5 5 5 5 5 5 5 5 5 5 5 5 5 5 5 5 5 5 5 5 5 5 5 5 5 5 5 5 5 5 5 6 5 5 6 6 5 5 5 5 6 5 5 5 5 5 6 5 5 6 6 5 5 5 5 5 5 6 5 6 5 5 6 6 5 6 5 5 5 6 5 5 5 5 6 5 5 5 6 5 5 6 6 5 5 5 6 5 5 5 5 6 5 5 6 5 5 5 6 5 5 6 5 5 5 6 5 6 5 5 6 5 5 6 6 5 5 6 5 6 6 5 5 5 5 6 5 5 5 5 6 5 5 5 5 5 5 5 5 5 5 5 5 6 5 5 5 5 6 5 6 5 5 5 5 5 6 6 6 5 5 5 5 5 5 5 5 6 5 5 5 5 5 5 6 5 5 5 5 6 5 5 5 5 5 5 5 5 5 5 5 5 5 5 5 5 5 5 6 5 6 5 5 6 6 5 6 5 5 6 5 6 5 6 5 6 5 5 5 5 6 5 5 5 6 5 5 5 5 5 5 5 5 5 5 5 5 5 5 5 5 5 5 5 5 5 5 5 5 5 6 5 5 5 5 5 6 5 5 5 5 5 5 5 5 5 5 5 6 5 5 5 5 5 6 5 5 6 6 5 5 5 6 5 5 6 6 5 6 5 5 5 5 5 5 5 5 5 5 5 5 5 5 5 5 6 5 5 5 5 6 5 5 5 5 5 5 5 5 6 6 5 5 6 5 5 5 5 5 5 5 5 5 6 6 5 5 6 5 5 5 6 5 5 5 5 5 5 5 5 5 5 5 5 5 5 5 5 5 5 5 5 5 5 5 5 5 5 6 5 5 5 5 5 5 5 5 5 5 5 5 5 5 5 5 5 5 5 5 6 5 5 5 6 6 5 5 5 6 5 5 6 5 5 5 5 5 6 5 6 5 5 5 5 5 5 5 5 6 5 5 5 6 5 5 6 5 6 5 5 5 6 5 5 5 6 5 5 5 5 5 5 5 5 5 5 5 5 5 5 5 5 5 6 5 5 5 5 5 5 5 5 5 6 5 5 5 5 5 5 5 5 6 5 5 5 5 5 5 5 5 5 5 5 5 5 6 5 5 5 6 5 5 5 5 5 5 5 5 5 5 5 5 5 5 5 5 5 5 5 6 5 5 5 6 5 6 5 5 5 6 5 5 5 6 6 5 5 5 5 5 5 5 5 5 5 5 5 5 5 5 5 5 5 5 5 5 5 6 5 5 5 5 6 5 5 5 5 6 5 5 5 5 5 5 5 6 5 5 5 5 6 5 5 5 5 5 5 6 5 5 5 5 5 5 6 5 5 5 6 5 5 5 5 5 5 5 5 5 6 5 5 5 5 5 5 6 5 5 5 5 5 5 5 5 5 5 5 6 5 5 6 5 5 5 5 5 6 5 5 6 5 5 5 5 5 5 5 6 6 5 5 5 5 6 5 5 5 5 5 5 6 5 5 5 5 5 5 5 5 5 5 6 5 5 5 5 5 5 5 5 5 5 5 5 6 5 6 5 5 5 6 5 5 6 5 5 5 5 6 5 5 5 5 5 6 5 5 5 5 5 5 5 5 6 5 5 5 5 6 5 5 5 5 5 5 5 6 5 5 5 5 5 5 5 5 5 5 6 5 5 5 6 5 6 5 5 5 5 5 5 6 5 6 5 6 5 5 5 5 6 5 5 5 5 5 5 5 5 5 5 5 5 5 5 6 5 6 5 5 5 5 5 5 5 6 5 5 5 5 5 5 5 5 5 5 5 5 5 6 5 5 5 5 6 5 5 5 5 5 5 5 5 5 5 5 5 5 5 5 5 5 5 5 5 5 5 5 5 6 5 5 5 5 6 5 5 5 6 5 5 6 5 5 6 5 5 5 5 5 5 5 5 5 5 5 5 5 5 5 6 5 5 6 5 5 5 5 5 5 5 6 5 5 5 5 5 6 5 5 5 6 5 5 5 6 5 5 5 5 5 5 5 6 5 5 5 6 5 6 6 5 5 5 5 5 6 5 5 5 5 5 5 5 5 5 5 6 5 5 5 5 5 5 5 5 5 5 5 5 5 5 5 5 5 5 5 5 5 5 5 5 5 5 5 5 5 5 5 5 5 5 5 5 5 6 5 5 5 5 5 5 5 5 5 5 5 5 5 5 5 5 6 5 5 5 5 5 5 5 5 5 6 5 5 5 5 5 5 5 6 5 5 5 5 5 5 5 5 5 5 5 5 5 5 5 5 5 5 5 5 5 6 5 5 5 5 5 5 5 5 5 5 5 5 5 5 5 5 5 6 5 5 5 5 5 5 5 5 5 5 5 5 5 5 5 5 5 5 5 5 5 5 5 5 5 5 5 5 5 5 5 5 5 5 5 5 5 5 5 5 5 5 5 5 5 5 6 5 5 5 5 5 5 5 5 5 5 5 5 5 6 5 6 5 5 5 5 5 6 5 5 5 5 5 6 6 5 5 5 5 5 5 5 5 5 5 5 5 5 5 5 5 5 6 6 5 5 5 5 5 5 6 5 6 5 5 5 5 5 5 5 5 5 6 5 5 5 5 5 5 5 5 5 5 5 5 5 5 5 5 5 5 5 6 5 5 5 5 5 6 5 6 5 5 5 5 5 5 5 6 5 5 5 6 5 5 5 6 5 5 6 5 5 5 6 5 5 6 5 6 5 6 5 5 6 5 5 5 5 5 5 5 5 5 5 5 5 5 5 5 5 5 5 5 5 5 6 5 6 5 5 5 5 5 5 5 6 5 5 5 5 5 5 5 5 5 5 5 5 5 5 5 5 5 5 5 6 5 5 5 6 5 5 5 5 5 5 5 5 5 5 6 5 5 5 5 6 5 5 6 5 5 5 5 5 6 5 5 5 5 6 5 6 5 5 6 5 5 5 5 5 5 5 6 5 5 6 5 6 5 5 5 5 5 5 5 5 5 5 5 5 5 5 5 5 5 5 6 5 5 5 5 5 5 5 6 5 5 5 5 6 5 5 5 5 5 5 5 5 5 6 5 5 5 5 6 5 5 5 5 5 5 5 5 5 5 5 5 6 5 5 5 5 5 5 5 5 5 6 5 5 5 5 5 5 5 5 5 5 5 5 6 5 5 6 5 5 5 5 5 5 5 5 5 6 6 6 5 5 5 6 5 5 5 5 5 5 6 5 5 5 6 6 5 5 5 5 5 5 5 5 5 5 5 5 6 5 5 5 6 6 5 5 5 5 5 6 5 5 5 5 6 5 5 5 5 6 5 5 5 5 5 6 6 6 5 5 5 6 6 5 5 5 5 5 5 5 5 5 6 6 5 5 5 6 6 5 5 5 5 5 5 5 5 5 5 5 5 5 5 5 5 5 6 5 6 5 5 5 5 6 5 5 5 5 5 5 5 6 5 5 5 5 5 5 5 6 5 5 6 5 6 6 5 5 5 6 6 5 5 5 6 6 5 5 5 5 5 5 5 5 5 5 6 5 5 5 5 5 5 5 6 5 5 5 5 6 5 5 5 5 5 5 6 5 5 5 5 6 5 6 5 5 5 5 5 5 5 5 5 5 5 5 5 5 6 5 5 5 5 5 5 5 6 5 5 5 5 6 5 5 5 6 5 5 5 5 5 5 5 5 5 5 5 5 5 5 5 5 5 5 5 5 5 5 6 5 6 5 5 6 5 5 5 6 5 5 6 5 5 5 5 5 5 5 5 5 5 5 5 5 5 5 5 5 5 5 5 6 6 6 5 5 5 5 5 5 5 5 5 5 5 5 5 6 5 5 5 6 5 5 6 5 5 5 5 6 5 5 6 6 5 5 5 5 6 5 5 6 5 6 5 5 5 5 5 5 5 5 5 5 5 5 6 5 5 5 5 5 5 5 6 5 6 5 5 5 5 6 5 5 5 5 5 5 5 5 5 5 5 5 5 5 5 5 5 5 5 5 5 5 5 6 5 5 5 6 5 6 5 5 5 6 5 5 5 5 5 6 5 5 6 5 5 5 5 5 5 5 5 6 5 5 5 5 5 6 5 5 5 5 5 5 5 5 5 5 5 5 5 5 6 5 5 5 5 6 5 5 5 5 5 5 5 5 5 5 5 5 6 5 5 5 5 6 5 5 5 5 5 5 5 5 5 5 5 5 5 6 5 5 6 5 5 5 6 5 5 5 5 5 5 5 5 5 5 5 5 5 6 6 5 6 6 5 5 5 6 6 5 6 5 6 5 6 5 5 5 6 5 6 5 5 5 5 6 5 5 5 5 5 5 6 5 5 5 5 5 6 5 5 6 5 5 6 5 5 6 5 5 5 5 5 6 5 6 5 5 5 5 5 5 5 5 5 5 5 5 5 6 5 5 6 5 5 5 5 5 5 5 5 5 6 5 5 5 5 5 5 5 5 5 6 5 5 6 5 6 5 5 5 5 5 5 5 6 5 5 5 5 5 5 5 6 5 6 5 5 6 5 5 5 6 5 5 5 5 6 5 5 5 5 5 6 5 5 5 5 5 5 5 5 5 5 5 5 5 5 5 5 5 5 5 5 5 6 5 5 6 5 5 5 6 5 5 5 5 6 5 5 5 5 5 5 5 5 5 5 5 5 5 5 5 5 5 5 5 5 5 5 5 6 5 5 5 5 5 5 6 5 5 5 5 5 5 5 5 5 5 5 5 5 6 5 6 5 5 6 5 5 5 5 6 6 5 6 5 6 5 5 5 5 5 6 5 5 6 6 5 5 5 5 5 6 5 5 6 5 5 5 5 5 5 5 5 6 6 5 5 5 6 5 6 5 5 5 5 5 6 5 6 5 5 5 5 5 6 6 5 5 5 5 6 5 5 5 5 6 5 5 5 5 5 5 5 5 5 5 5 5 5 5 5 5 5 6 5 5 6 5 5 5 6 5 5 5 5 5 5 5 5 5 5 5 5 5 5 5 5 5 5 5 6 5 5 5 5 5 5 5 5 5 5 5 5 5 5 6 6 5 5 5 6 5 5 5 5 5 6 5 5 5 5 5 5 5 5 5 5 5 6 5 5 6 5 5 5 5 5 5 5 5 5 5 6 5 5 5 6 5 6 5 6 5 5 5 6 6 5 6 5 5 6 5 5 6 6 5 5 5 6 5 5 6 5 6 5 5 5 6 5 5 6 6 5 6 5 5 6 5 6 5 5 5 5 5 5 5 5 5 6 5 5 5 5 5 6 5 5 5 5 5 5 5 5 5 5 6 5 5 5 5 6 6 5 5 6 5 6 5 5 5 5 5 6 5 5 6 5 6 5 5 5 5 5 5 5 6 5 5 5 5 5 5 5 5 5 6 5 6 5 6 5 6 5 5 5 5 6 5 5 5 5 5 6 6 5 5 5 5 5 5 6 5 5 5 5 5 6 5 5 5 5 6 5 5 6 5 6 5 5 5 6 5 6 5 5 6 6 6 5 5 5 5 5 5 6 6 6 5 5 5 5 6 5 6 5 6 5 5 5 5 5 5 6 5 5 5 5 5 5 5 5 5 5 5 5 5 5 5 5 5 5 5 5 5 5 5 5 5 5 5 5 5 5 5 5 5 5 5 5 5 5 5 5 5 5 5 5 5 5 5 5 5 6 5 5 5 6 6 5 5 5 5 5 5 5 5 5 5 5 5 5 5 5 5 5 5 5 6 5 5 5 5 5 5 5 6 5 5 6 5 5 6 5 5 6 5 6 5 5 6 5 5 5 6 5 6 5 6 6 5 5 5 6 6 5 5 6 5 5 6 5 5 5 5 5 5 5 5 5 5 5 5 6 5 5 5 5 6 5 5 5 5 6 5 5 5 5 5 5 5 5 5 6 5 6 5 5 5 5 6 5 5 5 6 5 5 5 5 5 5 6 5 5 6 5 5 5 6 5 5 5 5 5 5 5 6 5 5 5 5 5 6 5 5 5 5 5 5 5 5 5 5 5 5 5 5 5 6 5 5 5 5 5 6 5 5 6 5 6 5 5 5 5 6 6 5 5 6 5 5 5 5 5 5 5 5 5 5 5 6 5 6 5 5 5 5 5 6 5 5 5 6 5 5 5 6 5 5 5 5 5 5 5 5 5 5 5 5 5 6 5 5 5 5 5 5 5 6 5 6 5 5 5 5 5 5 5 6 6 5 5 5 5 5 5 5 5 5 6 5 5 5 5 5 5 6 6 6 5 6 5 5 5 5 5 5 6 5 6 5 6 5 6 5 5 5 5 5 5 6 5 5 6 5 5 5 5 6 5 5 5 5 5 5 5 5 5 5 5 5 5 5 5 5 5 5 5 5 5 6 5 6 5 5 5 5 5 5 5 5 5 5 5 5 5 5 5 5 5 5 5 5 5 5 5 5 5 5 5 5 5 5 5 5 5 5 5 5 5 5 5 5 5 5 5 5 5 5 5 5 5 5 5 5 5 5 5 5 5 5 6 5 5 5 5 5 5 5 5 5 5 5 5 5 5 5 5 5 5 5 5 5 5 5 6 5 5 5 6 5 6 5 5 5 5 5 5 5 5 5 5 5 5 5 5 5 5 5 5 5 5 5 5 5 5 5 5 5 5 5 5 5 5 5 5 5 5 5 5 5 6 5 6 5 5 5 5 5 5 5 5 5 5 5 5 5 5 5 5 5 5 5 5 5 5 5 5 5 6 5 5 5 5 5 5 5 5 5 5 5 5 5 5 5 5 5 5 5 5 5 5 5 5 5 5 5 5 5 5 5 5 5 5 5 5 5 5 5 5 5 5 5 5 5 5 5 5 5 5 5 5 5 5 5 5 5 5 5 5 5 5 5 5 5 5 5 5 5 6 5 5 5 5 5 5 5 6 5 5 6 5 5 5 5 5 5 5 5 5 5 5 5 5 5 5 5 5 5 5 5 6 5 5 5 5 5 5 5 5 5 5 5 5 5 5 5 5 5 5 5 5 5 5 5 5 5 5 5 5 5 5 5 5 6 5 5 5 5 6 5 6 5 5 5 5 5 5 6 5 5 6 5 5 6 6 5 6 5 5 5 6 5 5 5 5 5 5 5 5 5 5 5 5 5 5 5 6 5 5 5 5 5 5 5 5 6 5 5 5 5 5 5 5 5 5 5 5 5 5 5 5 5 5 5 5 5 5 5 5 5 5 5 5 5 5 5 5 5 5 5 5 5 6 5 5 5 5 5 5 5 6 5 5 6 5 6 5 5 5 5 5 5 5 5 5 5 5 6 6 5 5 6 5 5 6 6 5 5 5 5 6 5 6 5 5 6 5 6 6 5 6 5 6 5 5 5 5 5 5 5 6 5 6 5 5 5 5 5 6 5 5 5 6 5 5 6 5 6 5 6 6 5 5 6 5 5 5 5 5 5 6 5 5 5 5 5 5 5 5 6 6 5 5 5 6 5 5 5 5 6 6 5 6 5 5 5 6 5 5 5 5 5 5 5 5 5 5 5 5 5 5 5 5 6 5 5 5 5 5 5 6 5 6 5 5 5 6 6 5 5 6 5 6 5 5 5 5 5 5 5 5 5 5 5 5 6 6 5 5 5 5 5 6 5 5 5 5 5 5 5 6 5 5 5 6 5 6 5 5 6 5 5 5 5 5 5 5 5 5 6 5 5 6 5 5 5 5 5 5 5 5 5 5 5 6 5 5 5 5 5 5 5 5 5 5 5 5 5 5 5 5 5 5 5 5 5 5 6 5 5 5 5 5 5 5 5 5 5 5 6 5 5 5 5 6 5 5 5 5 5 5 5 5 5 5 5 6 5 5 5 5 5 6 5 6 5 5 5 5 5 5 5 5 5 6 5 5 6 5 5 6 5 5 5 5 6 5 5 5 5 5 5 5 5 5 5 5 5 5 5 5 5 5 5 5 5 5 6 5 5 6 5 6 5 5 5 5 5 5 5 5 5 6 5 5 6 6 6 5 5 5 6 5 5 5 5 5 5 6 6 5 6 5 5 6 5 5 6 5 5 5 5 6 5 5 5 5 6 5 5 5 5 5 5 5 5 5 5 5 6 5 5 6 5 6 6 5 5 6 6 6 5 5 5 5 5 5 5 5 5 5 6 5 5 5 5 5 5 5 5 5 6 5 5 5 5 5 6 5 5 5 5 5 5 5 5 5 5 6 5 5 5 5 5 5 5 5 5 5 5 5 5 5 5 5 5 5 5 5 5 5 5 5 6 6 5 5 5 5 5 5 5 5 6 5 5 5 5 5 5 5 5 5 5 5 5 5 5 5 5 6 5 5 5 5 6 5 5 5 6 6 5 5 5 5 5 5 6 5 6 5 5 5 6 5 5 5 5 5 5 5 5 6 5 6 6 5 5 5 5 5 5 5 5 5 5 5 5 6 5 5 6 5 6 5 5 5 5 5 5 5 5 5 5 5 5 5 5 5 5 5 5 5 5 5 5 5 6 5 5 5 5 5 6 5 5 5 5 5 5 5 5 5 5 6 5 5 5 6 5 5 5 5 5 5 5 5 5 5 5 6 6 5 5 5 5 5 6 5 5 5 6 5 5 5 5 5 5 5 5 5 5 6 5 5 5 5 5 5 5 6 6 5 6 5 5 5 5 6 5 5 5 5 5 6 5 5 5 5 5 5 5 5 5 5 6 5 5 5 5 5 5 5 5 5 5 6 5 5 5 5 5 5 5 6 5 5 5 5 5 5 5 5 5 5 5 5 5 5 5 5 5 5 5 5 6 5 5 5 6 5 5 5 5 5 5 5 5 5 5 5 5 5 6 5 6 6 5 6 6 5 5 5 5 5 6 5 5 5 5 5 5 5 6 5 5 6 5 5 6 5 5 6 5 5 6 6 6 6 5 5 6 6 5 5 6 5 5 6 5 5 5 5 6 6 6 6 5 5 5 6 5 6 5 6 5 6 6 5 5 5 5 5 5 5 6 5 5 6 5 6 5 5 6 6 5 5 5 5 5 5 5 5 5 5 5 5 5 5 5 5 5 6 5 5 5 5 5 5 5 5 5 5 5 5 5 5 5 5 5 6 5 5 5 5 5 5 5 5 5 5 5 5 5 5 6 6 5 5 5 5 6 5 6 5 5 5 6 6 5 6 5 5 5 5 5 5 5 5 5 5 5 5 5 5 5 5 5 5 5 6 5 6 5 5 5 5 6 5 5 5 5 5 5 5 5 5 5 5 5 5 5 5 5 5 5 5 5 6 5 5 5 5 5 5 5 5 5 5 5 5 5 5 6 5 5 5 5 5 5 5 5 5 5 5 5 5 5 5 5 5 5 5 5 5 5 5 5 5 5 5 5 5 5 5 5 5 5 5 5 5 5 5 5 5 5 5 5 5 5 5 5 5 5 5 5 5 5 5 5 5 5 5 5 5 5 6 5 5 5 6 5 5 6 5 5 5 5 5 5 5 5 5 5 5 6 5 5 5 5 6 5 5 5 5 5 5 5 5 5 5 5 5 5 5 5 5 5 5 5 5 5 5 5 5 5 5 5 5 5 6 5 5 5 5 6 5 5 5 5 5 5 5 5 5 5 6 5 5 6 5 5 5 5 5 5 5 5 5 5 5 5 6 5 5 5 5 5 5 5 5 6 5 5 5 5 5 5 5 5 5 5 6 5 6 5 5 5 6 5 5 5 6 5 6 5 6 6 5 5 5 5 5 6 5 5 5 5 5 5 5 5 5 5 5 5 5 5 5 5 5 5 5 5 5 5 5 6 5 5 6 5 5 5 6 5 6 5 5 5 5 5 5 5 5 5 5 5 5 6 5 5 5 5 5 5 5 5 5 5 5 5 5 5 5 5 5 5 5 6 5 5 5 5 5 5 5 5 5 5 5 5 5 5 5 5 5 5 5 5 5 5 5 5 5 5 5 6 5 5 5 5 5 5 5 5 5 5 5 5 5 5 5 5 5 5 6 5 5 5 6 5 5 5 6 6 5 5 5 5 5 6 5 5 5 5 5 5 5 6 6 5 5 5 6 5 6 5 5 5 5 5 5 6 6 5 5 6 6 5 5 5 5 5 5 5 5 5 5 6 5 5 5 5 5 5 6 5 5 5 5 5 5 5 5 5 5 5 5 5 5 5 5 5 6 5 5 5 5 6 5 5 6 5 5 5 5 5 5 5 5 5 5 5 6 5 6 5 6 5 5 5 5 5 5 5 5 5 5 5 5 5 5 5 5 5 5 5 6 5 5 6 5 5 5 6 5 5 6 5 5 5 5 6 5 5 5 5 5 5 5 6 5 5 5 5 5 5 5 5 5 5 5 5 5 5 5 5 5 5 5 5 5 5 5 5 5 5 5 5 5 6 5 5 5 5 5 5 5 5 5 5 5 5 5 5 5 5 5 5 5 5 5 5 5 5 5 5 5 5 5 5 5 5 5 5 5 5 5 6 6 6 5 5 6 5 5 5 6 5 6 5 5 5 5 5 6 5 5 5 5 5 5 5 6 5 5 5 5 5 5 5 5 5 5 5 5 5 5 6 5 5 5 6 5 6 5 5 5 5 5 5 5 5 6 5 5 5 5 5 5 5 6 5 6 5 6 5 5 5 5 5 5 5 5 6 5 5 6 6 6 5 6 5 6 5 5 5 5 5 5 5 5 5 5 5 5 5 5 5 5 5 5 5 5 5 6 5 5 6 6 5 5 5 6 5 5 5 5 5 5 5 6 5 6 5 5 5 5 6 5 5 6 5 5 5 5 5 5 5 6 5 5 6 5 5 5 6 5 5 5 5 5 5 5 5 5 6 5 5 5 5 5 5 6 5 5 6 5 5 5 5 6 5 5 5 5 5 5 6 6 6 5 5 5 6 5 6 5 6 5 5 5 5 5 5 6 5 5 5 6 5 5 5 6 5 5 5 5 5 5 5 5 5 5 5 5 6 5 5 5 6 5 5 5 5 5 6 6 5 5 6 5 6 6 6 5 5 5 6 5 5 5 5 5 6 5 5 5 5 5 5 5 5 5 5 5 5 6 5 5 5 5 5 5 6 5 5 6 5 5 6 5 5 5 5 5 6 5 5 6 5 6 5 6 5 5 5 5 5 5 6 5 5 5 5 6 5 5 5 5 5 5 5 5 5 5 6 5 5 5 5 5 6 5 5 5 5 5 5 5 5 5 5 5 5 5 5 5 6 5 5 5 5 5 6 5 6 5 5 5 5 5 6 5 5 5 5 5 6 5 5 5 5 5 6 5 5 5 5 5 5 5 5 5 5 6 5 6 5 6 5 5 6 5 5 5 5 5 5 5 5 6 5 6 5 5 5 5 5 5 5 5 5 5 6 5 5 5 5 5 5 5 5 5 5 6 5 5 5 6 5 6 6 5 5 5 6 5 5 5 6 6 5 5 5 5 5 5 5 5 5 5 6 6 5 5 5 5 5 6 5 5 5 5 5 5 5 5 5 5 6 5 6 6 6 5 5 5 5 5 5 5 5 6 5 5 5 5 5 5 5 5 5 5 5 5 5 5 5 5 5 5 5 5 5 5 5 5 5 5 5 5 5 6 5 5 5 5 6 5 5 5 5 5 5 5 5 6 5 5 5 5 5 5 5 5 6 5 5 5 5 5 5 5 5 5 5 5 5 5 5 5 5 5 5 5 5 5 5 5 5 5 5 6 5 5 5 5 5 5 6 5 6 5 5 6 5 5 5 6 5 6 5 5 5 6 5 5 5 6 5 5 5 5 5 5 6 5 5 5 5 5 5 5 5 5 5 5 5 5 5 5 5 5 5 5 5 5 5 5 5 5 5 5 6 5 6 5 5 5 5 6 5 5 5 5 5 5 5 5 5 5 5 5 5 6 5 5 6 5 5 6 5 5 5 5 5 6 5 5 5 5 5 5 5 5 6 5 6 5 5 5 5 5 6 6 5 5 6 5 5 5 6 5 5 5 5 5 5 5 6 5 5 5 5 5 5 5 5 5 5 5 5 5 5 5 5 6 5 5 5 5 5 6 5 6 5 5 5 5 5 5 5 5 5 5 5 5 6 5 6 5 5 5 5 5 5 6 6 5 5 5 5 5 5 5 5 5 5 5 5 5 5 5 5 5 5 5 5 5 6 5 5 6 5 5 5 5 5 6 5 5 5 5 5 5 6 5 5 5 5 5 5 5 5 5 5 5 5 5 5 5 5 6 5 5 6 5 5 5 5 6 5 5 5 5 5 5 5 5 5 5 5 6 5 5 5 5 5 5 5 5 5 5 5 5 5 5 5 5 5 5 5 6 5 5 5 5 5 5 5 5 5 5 5 5 6 5 5 5 5 5 5 5 5 5 5 5 5 5 6 6 5 5 5 5 5 5 6 5 5 5 5 5 5 5 5 5 5 5 5 5 5 5 5 5 5 5 5 5 5 5 5 5 5 5 5 5 5 5 5 5 5 5 6 5 5 5 5 5 5 5 5 6 5 5 5 5 5 5 5 5 5 5 5 5 6 5 5 5 5 6 5 6 5 5 5 5 5 5 5 5 6 5 5 5 5 5 5 5 5 5 5 6 5 5 5 6 5 5 6 5 5 5 5 6 5 5 6 5 5 5 5 5 5 5 5 6 5 5 5 6 5 5 5 5 5 5 5 6 5 6 5 6 5 6 6 5 5 5 6 6 6 5 5 6 5 5 5 6 5 5 5 5 6 5 5 5 5 5 5 5 5 5 5 5 5 5 5 5 5 5 5 5 5 5 5 5 5 5 5 5 5 5 5 5 5 5 5 5 5 5 5 6 5 5 5 5 5 5 5 5 6 5 5 5 5 6 5 5 6 5 5 6 5 5 5 5 6 5 5 5 5 5 6 5 5 5 5 5 5 5 5 5 5 5 5 5 6 6 5 5 5 6 5 5 5 5 5 5 5 5 5 5 5 5 5 5 6 5 5 5 5 5 5 6 5 5 6 5 5 5 5 5 5 5 5 5 5 6 5 5 5 5 5 6 5 5 5 5 5 5 5 5 5 5 6 5 5 5 5 5 5 5 5 5 5 5 5 5 5 5 6 5 5 5 5 5 5 5 5 5 5 5 5 5 5 5 5 5 5 5 5 5 5 5 6 5 6 5 5 5 6 5 5 5 5 5 5 5 5 5 6 5 5 5 6 5 5 5 5 5 5 5 5 5 5 5 5 5 5 5 5 6 5 5 5 5 5 6 5 5 5 6 5 6 5 5 5 5 5 5 6 5 5 5 5 5 5 5 5 5 5 5 5 5 5 5 5 5 5 5 5 5 5 5 5 5 5 5 6 5 5 6 5 5 5 5 5 5 5 6 5 5 5 5 6 5 5 6 5 5 5 5 5 5 6 5 5 5 6 5 5 5 6 5 5 5 5 5 6 5 5 5 5 5 6 5 5 5 5 5 5 5 5 6 5 5 6 5 5 5 5 6 5 5 5 5 6 5 5 5 5 6 5 5 5 6 5 6 5 5 5 5 5 5 5 5 5 5 6 5 5 5 5 5 5 5 6 6 5 5 5 5 5 6 5 5 5 5 5 6 5 5 5 6 5 5 6 5 5 6 5 5 5 6 5 5 5 5 5 5 6 5 5 5 5 5 6 5 5 5 5 5 6 5 5 5 5 5 5 6 5 5 5 5 6 5 5 5 5 5 6 5 5 5 5 5 5 5 5 5 5 6 5 5 5 5 5 5 5 6 5 5 5 5 6 6 5 5 6 5 5 5 5 5 5 5 6 5 5 5 5 5 5 5 6 5 6 5 5 6 5 5 5 5 6 5 6 5 5 5 5 5 5 5 5 5 5 6 5 5 5 5 5 6 5 5 5 6 5 5 5 5 6 5 5 6 5 5 5 5 5 6 5 6 5 6 6 5 5 5 5 6 6 5 5 5 5 5 5 5 5 5 5 5 5 5 6 5 5 5 5 5 5 6 6 5 5 5 5 5 5 5 5 5 5 5 5 5 6 5 5 5 5 5 5 5 5 5 5 5 5 5 5 5 5 5 5 5 5 5 5 5 5 5 5 5 5 5 5 5 5 5 6 5 5 6 5 5 5 5 5 5 5 6 5 5 5 6 5 5 6 5 5 5 6 6 5 5 5 5 6 6 5 5 5 5 5 5 5 5 5 5 5 5 5 5 6 5 5 6 5 5 5 6 5 5 5 5 6 5 5 6 5 5 5 5 5 5 5 5 5 5 5 6 5 5 5 5 5 5 5 6 5 5 5 5 5 5 5 5 5 5 5 5 5 5 5 5 5 5 6 5 5 5 5 5 5 6 5 6 5 5 5 5 5 6 5 5 6 5 5 5 6 5 5 5 6 5 5 5 5 5 5 5 5 5 5 5 5 5 5 6 5 5 5 5 6 6 5 5 5 5 5 5 5 5 5 5 5 5 5 5 5 5 5 5 5 6 5 5 5 5 5 5 5 5 6 5 6 5 5 5 5 5 5 5 6 5 6 5 5 5 5 5 6 5 5 5 5 5 5 6 5 5 5 5 5 6 6 5 5 5 6 6 6 5 5 5 5 5 6 5 5 5 5 5 6 5 5 5 5 6 5 6 6 5 6 6 5 5 5 6 5 5 5 6 5 5 5 6 5 5 5 6 5 5 5 5 5 5 5 5 6 5 5 5 6 5 5 5 5 5 5 6 5 5 5 5 5 5 6 5 5 5 5 5 5 5 5 5 5 5 5 5 5 6 5 6 5 5 5 6 5 5 6 5 6 5 6 5 5 6 5 5 5 5 5 5 6 5 5 5 5 6 5 5 5 5 5 5 6 5 5 5 5 5 5 5 5 5 5 6 5 5 5 5 5 5 5 5 5 5 5 5 5 5 5 5 5 5 5 6 6 5 5 5 6 5 5 6 5 5 6 5 5 6 5 5 6 6 5 5 5 5 6 5 5 5 5 5 5 5 5 5 5 5 6 6 5 5 5 6 5 6 5 6 5 5 5 5 5 6 5 5 6 5 6 5 5 6 6 6 5 5 5 5 6 5 5 6 5 6 5 5 6 5 5 5 5 5 5 5 5 6 5 6 6 5 5 5 5 5 6 6 5 5 5 6 6 5 5 5 5 5 5 5 5 6 5 6 5 5 5 5 5 5 5 5 5 5 5 5 5 5 5 5 5 5 5 5 5 5 5 5 5 5 5 5 5 6 5 5 5 5 5 5 5 5 5 5 5 5 5 5 5 6 5 5 6 5 5 5 5 5 6 5 5 5 5 5 5 5 5 5 5 5 5 5 6 5 5 5 5 5 5 5 5 5 6 5 5 6 5 5 5 5 6 6 6 5 5 5 5 5 6 5 5 5 
</DataArray>
<DataArray type="Float64" Name="stress" NumberOfComponents="9" format="ascii">
2771143773.1554871 -795653.64138412825 0 -795653.64138412825 1092634.5624069283 0 0 0 0 3461974777.4746704 -977934229.36015475 0 -977934229.36015475 -121183.13229362364 0 0 0 0 6157259.6920415871 -1072541.1553269848 0 -1072541.1553269848 -201295.91772292776 0 0 0 0 3231342215.4645615 -954697459.37345934 0 -954697459.37345934 74085621.00967586 0 0 0 0 2430104486.2813721 -355989723.76120055 0 -355989723.76120055 1351049.3496983699 0 0 0 0 2269337546.2333221 -688772672.12141633 0 -688772672.12141633 -218351875.00849307 0 0 0 0 2382191027.6193848 -487221225.30621386 0 -487221225.30621386 134856553.23903775 0 0 0 0 6352591.2499829866 -887038.46535942331 0 -887038.46535942331 -357451.02074499906 0 0 0 0 2712001204.3566666 -494101661.42263258 0 -494101661.42263258 -402223099.82343704 0 0 0 0 2484735776.8072662 -823258397.89785004 0 -823258397.89785004 -610456180.90468562 0 0 0 0 2485928131.7719851 -681684731.96131289 0 -681684731.96131289 -235598952.01854324 0 0 0 0 1724599388.9716492 -817919423.55755496 0 -817919423.55755496 -39867235.321010768 0 0 0 0 2209844930.611145 -902345337.23416793 0 -902345337.23416793 -56573352.425973266 0 0 0 0 2354506603.8978577 -1626945643.633451 0 -1626945643.633451 -126678837.16046804 0 0 0 0 3461448024.2577896 -1186760509.043087 0 -1186760509.043087 -566805608.34691274 0 0 0 0 806310861.943573 -293255966.27972281 0 -293255966.27972281 226557569.41323227 0 0 0 0 1784082807.2388458 -673845895.52047276 0 -673845895.52047276 86035387.117486864 0 0 0 0 999248055.00605774 -492306601.86456418 0 -492306601.86456418 112711388.72917299 0 0 0 0 1047259217.2436066 -78535062.799048811 0 -78535062.799048811 15387442.596592546 0 0 0 0 574546371.07830811 -399078465.07106823 0 -399078465.07106823 287556084.69292784 0 0 0 0 658232.87442041375 -123569.18150829524 0 -123569.18150829524 302841.91923467728 0 0 0 0 1940973929.4398499 -295929577.59674394 0 -295929577.59674394 -171449918.70637631 0 0 0 0 1868012481.1737289 -334431957.09614372 0 -334431957.09614372 112106539.90686369 0 0 0 0 2192925645.2342377 -581768747.90545142 0 -581768747.90545142 77171082.165634766 0 0 0 0 1965397397.8396606 -316775678.99846011 0 -316775678.99846011 -589257.39594202407 0 0 0 0 1467935.8430200536 -428267.12767796218 0 -428267.12767796218 178629.46165387749 0 0 0 0 688922560.89523315 -92327568.618446171 0 -92327568.618446171 -28190253.782096416 0 0 0 0 1786705637.1697159 -406459397.84141588 0 -406459397.84141588 53418997.357654475 0 0 0 0 632535565.8520813 -86491528.895838395 0 -86491528.895838395 -88424.301904407359 0 0 0 0 574652540.45677185 -110917337.62280539 0 -110917337.62280539 6622129.7855876386 0 0 0 0 574725995.69108272 -177778145.05827701 0 -177778145.05827701 -43961520.035434097 0 0 0 0 645550706.96272278 -120300129.77235407 0 -120300129.77235407 -18703364.635626227 0 0 0 0 230040456.76673889 137641148.23109806 0 137641148.23109806 -115760347.80762613 0 0 0 0 1216139.0706796199 465115.55958281085 0 465115.55958281085 -80079.257435236708 0 0 0 0 140662686.46884155 -135166297.04223153 0 -135166297.04223153 83044547.513570145 0 0 0 0 355090737.30633545 -108575679.89117868 0 -108575679.89117868 31238.406446776662 0 0 0 0 343751515.16392517 -221334044.74033904 0 -221334044.74033904 38153955.577067435 0 0 0 0 358350531.14173889 -99047668.721840307 0 -99047668.721840307 25175428.88768895 0 0 0 0 856109799.81878662 -407848727.53094411 0 -407848727.53094411 155292234.24474084 0 0 0 0 1465223988.8356476 -599083487.3433274 0 -599083487.3433274 21383493.732173264 0 0 0 0 873439491.97462463 -35524594.261361003 0 -35524594.261361003 -264500002.04807472 0 0 0 0 499892275.6152935 -132689634.58255532 0 -132689634.58255532 -43630111.786557913 0 0 0 0 2623850.5835495517 1331208.2609008886 0 1331208.2609008886 132277.72683237237 0 0 0 0 465383894.19384956 -5518094.4902663976 0 -5518094.4902663976 -83374399.242850065 0 0 0 0 102143388.72047424 11659800.899231434 0 11659800.899231434 -51019162.072439671 0 0 0 0 555280025.31744385 40613375.315002441 0 40613375.315002441 -139606660.86205578 0 0 0 0 181093751.00027466 -36178744.272039533 0 -36178744.272039533 -65877228.349113226 0 0 0 0 607066486.49475098 182301329.91052532 0 182301329.91052532 -97906225.35848999 0 0 0 0 877956562.10237122 24481538.742302656 0 24481538.742302656 -280665267.24637985 0 0 0 0 1512396063.1199799 -190584903.16854993 0 -190584903.16854993 -94047910.432323411 0 0 0 0 948257768.89027405 17211001.934872091 0 17211001.934872091 29925271.00221628 0 0 0 0 592486113.47052002 -164027167.83436298 0 -164027167.83436298 152606199.45680812 0 0 0 0 561915400.05773163 -371976617.07805163 0 -371976617.07805163 153349381.36421236 0 0 0 0 1137026.209312439 181918115.81609356 0 181918115.81609356 -118404080.72520876 0 0 0 0 2802669.1027249768 1768526.4612477943 0 1768526.4612477943 528275.05367775087 0 0 0 0 -185059.78586823493 40817.038358218968 0 40817.038358218968 478566.11744318227 0 0 0 0 1169547136.2575235 -256817284.19251695 0 -256817284.19251695 395795563.38537228 0 0 0 0 1190402050.3154602 -502181190.9072932 0 -502181190.9072932 134978124.73660237 0 0 0 0 826504660.15960693 -54586327.913778245 0 -54586327.913778245 284969697.06032586 0 0 0 0 795659690.4956665 -68325382.862754464 0 -68325382.862754464 42685974.87320435 0 0 0 0 771200083.89700317 -169699083.40870261 0 -169699083.40870261 149572002.81602061 0 0 0 0 -278127067.09980583 113822647.97503018 0 113822647.97503018 162814395.60250854 0 0 0 0 670482466.89117432 393828358.61433119 0 393828358.61433119 22084946.569811344 0 0 0 0 455650632.55360413 85111130.861764878 0 85111130.861764878 124442804.31041431 0 0 0 0 675668.35756547563 1231549.8455905691 0 1231549.8455905691 2089338.7488312933 0 0 0 0 682173134.84129333 74659977.634461522 0 74659977.634461522 -24843907.589229107 0 0 0 0 493772099.4712677 76917813.433592796 0 76917813.433592796 -13618716.364095211 0 0 0 0 451952875.4997673 -48925686.945210189 0 -48925686.945210189 35646775.331949711 0 0 0 0 575330355.2950058 -97751817.618307233 0 -97751817.618307233 53085192.885427475 0 0 0 0 1008592865.4879456 240165811.34379911 0 240165811.34379911 -21917083.67950201 0 0 0 0 678377320.62864685 60978849.367823601 0 60978849.367823601 -88886106.45232296 0 0 0 0 506476524.43871307 245322534.80257273 0 245322534.80257273 -25541734.649837494 0 0 0 0 71639335.561187744 130434697.2341671 0 130434697.2341671 15442645.139365673 0 0 0 0 42981312.830322266 -249617650.16737914 0 -249617650.16737914 204163578.52209878 0 0 0 0 387278844.06507874 4744034.7664198875 0 4744034.7664198875 125056693.53571248 0 0 0 0 229569171.62696838 210934001.76604128 0 210934001.76604128 -88133386.290096283 0 0 0 0 455221280.16145706 189257589.88194942 0 189257589.88194942 430011190.93131638 0 0 0 0 1033111176.54599 99412989.317308426 0 99412989.317308426 185120456.19714689 0 0 0 0 999045835.32897949 137109553.06715798 0 137109553.06715798 192153188.89692783 0 0 0 0 673515919.97158813 -216844964.35749531 0 -216844964.35749531 470483479.29834652 0 0 0 0 381327105.84577179 150291987.47137237 0 150291987.47137237 55795779.910045624 0 0 0 0 190159077.1524353 -208437033.43888044 0 -208437033.43888044 -77901824.759922266 0 0 0 0 211500380.97579956 86719052.75084734 0 86719052.75084734 -181184782.2497673 0 0 0 0 579930642.41015625 -248172578.56077266 0 -248172578.56077266 72678203.615891457 0 0 0 0 579410228.31875002 150534670.45899904 0 150534670.45899904 -79140932.639972687 0 0 0 0 613402812.71250153 115662500.7757566 0 115662500.7757566 -70470267.775434971 0 0 0 0 -319118788.51959229 -37875479.643582582 0 -37875479.643582582 249660327.37419462 0 0 0 0 361668.32202266809 562782.22758240625 0 562782.22758240625 1387265.3816766264 0 0 0 0 221909719.33023071 -284203264.36839366 0 -284203264.36839366 -142884583.16197455 0 0 0 0 127224597.06533813 -356761824.50893784 0 -356761824.50893784 -237073840.95425624 0 0 0 0 353826156.30953217 -169768067.96516368 0 -169768067.96516368 -286321136.34697104 0 0 0 0 270731510.57550049 81170371.817291021 0 81170371.817291021 101689174.94313264 0 0 0 0 359567398.61259079 -381239771.05840641 0 -381239771.05840641 -352082809.53041363 0 0 0 0 166422698.70541382 -162606815.09944189 0 -162606815.09944189 -51966811.802309036 0 0 0 0 5861190.5634307861 -497074896.55399728 0 -497074896.55399728 -117782296.65502143 0 0 0 0 -105144389.2795105 -372986172.63156557 0 -372986172.63156557 -311885343.55550599 0 0 0 0 -4580329.3308563232 -550787554.22400784 0 -550787554.22400784 -416518913.16558981 0 0 0 0 -401359711.76759338 -491877611.02881408 0 -491877611.02881408 -282193740.11528969 0 0 0 0 -396485340.48840332 -587434824.2522409 0 -587434824.2522409 -287348494.68275738 0 0 0 0 4987990.1675900053 -2829394.6111386828 0 -2829394.6111386828 2572931.2255611592 0 0 0 0 3465077360.0713959 -161969521.38554177 0 -161969521.38554177 80625858.542906106 0 0 0 0 2803803490.7325096 -1018203210.9785527 0 -1018203210.9785527 371081694.69790876 0 0 0 0 -623681098.11219788 -431954416.83805013 0 -431954416.83805013 -252236888.5067358 0 0 0 0 1677223.1590007436 -965777.65431376174 0 -965777.65431376174 1085802.2437688797 0 0 0 0 -1092461102.3619385 -278744226.37004662 0 -278744226.37004662 -228554618.97178173 0 0 0 0 5512041884.0420685 -1958326415.211544 0 -1958326415.211544 617170357.53758407 0 0 0 0 -2746611349.7919464 -750617625.79644954 0 -750617625.79644954 754595430.74333346 0 0 0 0 135303868.05465698 -545900464.03886175 0 -545900464.03886175 -356731445.14649153 0 0 0 0 -489029090.03540039 -885372034.42259145 0 -885372034.42259145 -92194137.456429482 0 0 0 0 73663965.093276978 -539447126.65675199 0 -539447126.65675199 303548901.19108677 0 0 0 0 -902853557.16732788 -1815207850.738564 0 -1815207850.738564 934932765.8597647 0 0 0 0 271899255.75027466 -749901108.85093868 0 -749901108.85093868 -111814114.23622169 0 0 0 0 2074730312.282135 -2183383666.0479536 0 -2183383666.0479536 481121411.77625346 0 0 0 0 3466249300.6725845 -3128159685.9524584 0 -3128159685.9524584 1064570222.8090682 0 0 0 0 2500185697.4677811 -1736432127.5231912 0 -1736432127.5231912 -23704833.24459653 0 0 0 0 2104968340.1229248 -1549210031.3683228 0 -1549210031.3683228 -101726406.24061173 0 0 0 0 1484252704.4648895 -1057385732.229454 0 -1057385732.229454 249821000.90985593 0 0 0 0 870344094.3920517 -894285786.29309881 0 -894285786.29309881 206492669.9753789 0 0 0 0 1553295036.2899933 -1935372617.3526256 0 -1935372617.3526256 372051399.12470555 0 0 0 0 984288229.15827942 -478477386.14708114 0 -478477386.14708114 226423932.02400589 0 0 0 0 668271837.59039307 -396137414.25317156 0 -396137414.25317156 149292224.95655179 0 0 0 0 613394413.96899414 -429222467.19281173 0 -429222467.19281173 249857519.47806767 0 0 0 0 885037104.77281761 -275351221.02705067 0 -275351221.02705067 205443130.82063085 0 0 0 0 637225610.61172485 -220706013.30163598 0 -220706013.30163598 195806729.34535083 0 0 0 0 742935325.75598907 -268625828.9967165 0 -268625828.9967165 116584799.29024506 0 0 0 0 575274191.84481812 -154066241.35607499 0 -154066241.35607499 -82490788.476499319 0 0 0 0 404457197.41837311 -181925046.4890416 0 -181925046.4890416 105416139.37824059 0 0 0 0 438656243.74710274 -462776748.65458238 0 -462776748.65458238 141265413.7563026 0 0 0 0 497664947.78445435 -365462986.2297802 0 -365462986.2297802 -99137758.399855375 0 0 0 0 711685275.64091492 -862529819.65519631 0 -862529819.65519631 405215569.27002561 0 0 0 0 -9688869.9503936768 39441953.272147834 0 39441953.272147834 -36163382.212706119 0 0 0 0 1160911.7330169678 55677527.5586868 0 55677527.5586868 -88307420.916922763 0 0 0 0 -75210821.159759521 114372881.13869171 0 114372881.13869171 -114098099.51225665 0 0 0 0 70035504.962890625 51682125.02533906 0 51682125.02533906 -128600269.97132391 0 0 0 0 62519164.208547592 18054314.781881094 0 18054314.781881094 -123115484.63011327 0 0 0 0 107968444.02027893 12431457.509681493 0 12431457.509681493 -121916195.67204468 0 0 0 0 20330153.574234009 64947407.062620699 0 64947407.062620699 -118705852.22465508 0 0 0 0 2652079.6520843506 47459743.70506826 0 47459743.70506826 -132200378.40795958 0 0 0 0 180237985.80300903 27701003.196654584 0 27701003.196654584 373292.641526683 0 0 0 0 112591889.61077118 79164391.680021286 0 79164391.680021286 -13544264.106348604 0 0 0 0 51059113.347953796 32152995.958119623 0 32152995.958119623 -5936378.3943040296 0 0 0 0 76198233.604137421 22221896.03808663 0 22221896.03808663 -93793878.615125075 0 0 0 0 39645804.557411194 55545678.45278766 0 55545678.45278766 -23933229.174051285 0 0 0 0 53047501.286460876 36746329.141994052 0 36746329.141994052 -89405.279857033325 0 0 0 0 40204357.081679583 39880646.346452624 0 39880646.346452624 -77696991.371697992 0 0 0 0 72406410.411846161 8182132.1019177884 0 8182132.1019177884 -200639532.3012414 0 0 0 0 53733421.887832642 33333624.687571809 0 33333624.687571809 -98252451.596775144 0 0 0 0 32613896.743682861 -7679502.888866812 0 -7679502.888866812 -86491290.528641343 0 0 0 0 -19206173.744674683 -94888519.83981818 0 -94888519.83981818 -181575907.86138377 0 0 0 0 879487.94654649496 750780.88405711949 0 750780.88405711949 399202.28735235269 0 0 0 0 -51217113.592391968 -122583892.77708113 0 -122583892.77708113 -187178666.88344094 0 0 0 0 953052.95341818035 382800.18938677013 0 382800.18938677013 -823473.59570315573 0 0 0 0 74718320.405410767 -40190744.180668533 0 -40190744.180668533 -325494894.27025241 0 0 0 0 72910053.32598877 71207290.725621045 0 71207290.725621045 -98486875.868563831 0 0 0 0 59219174.589027405 87625504.529149711 0 87625504.529149711 -10970.637888976868 0 0 0 0 107063456.72965622 -11651415.035557415 0 -11651415.035557415 38607873.78669101 0 0 0 0 313276645.86752319 61044328.109390937 0 61044328.109390937 219431.00678024313 0 0 0 0 140998844.13878632 136996855.58361 0 136996855.58361 -95390664.132075742 0 0 0 0 194242965.47433472 -125786205.22174685 0 -125786205.22174685 -58935245.807379723 0 0 0 0 673966981.74468994 59158136.500399388 0 59158136.500399388 -28344291.491259933 0 0 0 0 689295744.28700256 -149057118.89859951 0 -149057118.89859951 20561355.858082816 0 0 0 0 767275954.41687012 -2689309.5232764706 0 -2689309.5232764706 194673517.80192837 0 0 0 0 1279528017.2661133 -215942321.55559292 0 -215942321.55559292 -25273.938786333441 0 0 0 0 1346161868.9284058 13135971.869177669 0 13135971.869177669 -28476333.405956477 0 0 0 0 1047438721.7318115 2085668.4809765816 0 2085668.4809765816 -202178103.22686073 0 0 0 0 794087747.70647812 -188997135.65952992 0 -188997135.65952992 -39736744.637023389 0 0 0 0 849375055.60276794 13477936.089239359 0 13477936.089239359 -338909712.96071887 0 0 0 0 740916103.53851318 -98595171.852399707 0 -98595171.852399707 -219977307.10607612 0 0 0 0 740145444.2525177 -112623647.04072416 0 -112623647.04072416 -450655611.14965546 0 0 0 0 675110502.43650818 93757582.059998512 0 93757582.059998512 -410064033.72854018 0 0 0 0 288353193.56446838 -41922186.274565935 0 -41922186.274565935 -33540072.709866047 0 0 0 0 828115792.37260437 -43768791.568168879 0 -43768791.568168879 -242682730.30297828 0 0 0 0 699023654.69460297 5449455.0783480108 0 5449455.0783480108 -244462234.13452721 0 0 0 0 970457704.64242935 -59320559.92062819 0 -59320559.92062819 268186196.88849735 0 0 0 0 1109814153.0393219 93201724.36648941 0 93201724.36648941 -181252089.08001709 0 0 0 0 624997316.48987579 -465030592.44686174 0 -465030592.44686174 208290054.79396629 0 0 0 0 301920100.37188721 21763868.130353332 0 21763868.130353332 -74862725.492101192 0 0 0 0 -107203550.64558411 -79681473.969785213 0 -79681473.969785213 136566443.77488232 0 0 0 0 6775271.2463573068 -3384446.4807946384 0 -3384446.4807946384 -1002353.1047343211 0 0 0 0 123563085.31825256 7136772.519908905 0 7136772.519908905 -95460185.03411293 0 0 0 0 2043640895.0736237 -323878093.76161766 0 -323878093.76161766 46000691.188783646 0 0 0 0 840867.67523377389 30891.534465844859 0 30891.534465844859 -357097.92514450324 0 0 0 0 2147680648.6984711 8474470.6426577568 0 8474470.6426577568 107219738.52080441 0 0 0 0 1072988.7852414437 -1225335.0340920538 0 -1225335.0340920538 -126495.21152340714 0 0 0 0 1035784139.7613299 220436906.98128375 0 220436906.98128375 764469992.84366703 0 0 0 0 1588623540.9263611 -358635536.95154619 0 -358635536.95154619 576827695.34523106 0 0 0 0 1123607827.9354706 773550320.26767421 0 773550320.26767421 546025166.39172649 0 0 0 0 2298016953.6066437 551479789.02169991 0 551479789.02169991 105649212.99907494 0 0 0 0 1691630704.1272583 1191915644.1933775 0 1191915644.1933775 712429752.99831533 0 0 0 0 1215097272.3109589 373367880.25962949 0 373367880.25962949 -97853995.500180244 0 0 0 0 1514353247.3411865 213408925.48539305 0 213408925.48539305 -17810443.27394104 0 0 0 0 1091316622.4107361 -149544115.21059179 0 -149544115.21059179 59728748.151550293 0 0 0 0 983468193.32144165 198097185.62038493 0 198097185.62038493 -221333559.3844645 0 0 0 0 1009712104.5818176 220344109.2561748 0 220344109.2561748 -399339311.685184 0 0 0 0 1138499696.0293159 481409345.01423657 0 481409345.01423657 -104685036.50564194 0 0 0 0 1027909248.6516914 442425498.06078976 0 442425498.06078976 65630527.747161865 0 0 0 0 42801470.483665466 -6630290.1145453453 0 -6630290.1145453453 -15285829.778759956 0 0 0 0 14009144.038406372 -2202717.8491609097 0 -2202717.8491609097 -4558503.6597242355 0 0 0 0 3223245.4039843939 824927.83435773104 0 824927.83435773104 -6714270.190381581 0 0 0 0 -15085032.355026245 -21737615.443601847 0 -21737615.443601847 4640745.0041074753 0 0 0 0 2823735.0656873239 -2362037.7294632047 0 -2362037.7294632047 3839355.3777809786 0 0 0 0 22244583.718132019 -31848618.375251651 0 -31848618.375251651 -5210595.4268798828 0 0 0 0 -10621354.548797607 33869049.784914017 0 33869049.784914017 35798605.748329163 0 0 0 0 14898845.561065674 -3089999.5146729946 0 -3089999.5146729946 3407298.8048291206 0 0 0 0 7330633.3377609253 -15768226.681625187 0 -15768226.681625187 9763031.4934046268 0 0 0 0 8049710.7286376953 -4020550.5230331421 0 -4020550.5230331421 3992922.2997657657 0 0 0 0 5759340.6357116699 -2155865.1332259178 0 -2155865.1332259178 2474811.7835114002 0 0 0 0 14692586.899459839 523644.28472450376 0 523644.28472450376 -4525874.9477447271 0 0 0 0 6276456.7475723252 -181386.06649293611 0 -181386.06649293611 1999881.5762874698 0 0 0 0 26701405.954681396 -89445387.123562336 0 -89445387.123562336 136728626.88136721 0 0 0 0 3720998.8635477629 94643.310694113374 0 94643.310694113374 -2844621.1922099888 0 0 0 0 8815056.5439357758 -1331813.276589781 0 -1331813.276589781 1246657.9806813002 0 0 0 0 8705149.7992706299 2198364.1327187419 0 2198364.1327187419 1711615.4678071439 0 0 0 0 24833981.491470337 6224265.93640396 0 6224265.93640396 -14142192.035754204 0 0 0 0 25511265.321734428 22288759.188346788 0 22288759.188346788 13388465.83876729 0 0 0 0 35582007.244918823 -17112751.799594164 0 -17112751.799594164 -71500041.873046905 0 0 0 0 22846365.099731445 -3510214.0722635197 0 -3510214.0722635197 -69796318.127174884 0 0 0 0 3401593.3613484278 2612482.1103523038 0 2612482.1103523038 1304294.4386753519 0 0 0 0 21463920.810974121 3452277.9205227601 0 3452277.9205227601 -77653355.790233478 0 0 0 0 14172273.081321716 11241859.625576854 0 11241859.625576854 3296278.0701878667 0 0 0 0 6137116.0746548921 1636586.4061366972 0 1636586.4061366972 3422987.4450754393 0 0 0 0 1005491.9224700928 -2316843.3993958235 0 -2316843.3993958235 8652836.4504555762 0 0 0 0 4469719.0410518646 -4508820.8781978488 0 -4508820.8781978488 9318401.9071481228 0 0 0 0 -2336970.8263244629 -5726188.7191215158 0 -5726188.7191215158 9394384.0613760948 0 0 0 0 -7696529.0430450439 1367358.3463414907 0 1367358.3463414907 11878095.341927696 0 0 0 0 -2232554.2703552246 -3909330.120495677 0 -3909330.120495677 13750085.689283013 0 0 0 0 2959695.3761901855 1301190.1225248277 0 1301190.1225248277 11871939.049613237 0 0 0 0 5285086.5638284534 4250188.5572631657 0 4250188.5572631657 7285316.5345571628 0 0 0 0 6187963.2768958025 7247877.2070269361 0 7247877.2070269361 12312663.45706089 0 0 0 0 8157752.0087585449 28686612.33963871 0 28686612.33963871 -36205527.870853424 0 0 0 0 988216728.89875793 -801623760.35753345 0 -801623760.35753345 -434181292.21444321 0 0 0 0 896517.49549722672 2376778.4457515627 0 2376778.4457515627 2944732.0286871176 0 0 0 0 199146400.79710388 1135748592.0466337 0 1135748592.0466337 955690982.37977028 0 0 0 0 7069720.9790242128 6132454.6128710434 0 6132454.6128710434 6239296.6783789927 0 0 0 0 1529496772.5469208 -1098379986.9227753 0 -1098379986.9227753 -875939283.26179123 0 0 0 0 90228.702516272664 2143510.2328487779 0 2143510.2328487779 1603245.4493995458 0 0 0 0 6975104.6850650981 4522417.2260303311 0 4522417.2260303311 3512477.8144808374 0 0 0 0 580818.55796813965 26173369.254855439 0 26173369.254855439 -13565549.621987898 0 0 0 0 3284028.6759262085 3818588.6950194836 0 3818588.6950194836 1349972.4938063622 0 0 0 0 19126281.977966309 11261823.669333976 0 11261823.669333976 -40901864.311316483 0 0 0 0 8486963.5201905966 8212899.5586624816 0 8212899.5586624816 6554706.0997219272 0 0 0 0 4414590.5771865845 22832091.71481514 0 22832091.71481514 -52733264.17678076 0 0 0 0 1196659173.6835632 55023856.520827293 0 55023856.520827293 16441276.050174713 0 0 0 0 400575355.08423233 90816956.796923161 0 90816956.796923161 -16180632.684947968 0 0 0 0 329861993.68659973 68396102.115865707 0 68396102.115865707 13436018.961368561 0 0 0 0 155493764.57977295 73905325.57213974 0 73905325.57213974 49059742.86258316 0 0 0 0 154421870.7892704 63467548.042157412 0 63467548.042157412 -33215733.661067963 0 0 0 0 201647481.85255432 96164802.52746582 0 96164802.52746582 -1372306.547829628 0 0 0 0 366740728.38660431 23520714.201782227 0 23520714.201782227 -37014680.440469742 0 0 0 0 398613066.57983398 -42503174.879193306 0 -42503174.879193306 -31508059.070537567 0 0 0 0 388309178.75830841 110148507.06625748 0 110148507.06625748 -35115770.11359024 0 0 0 0 260393752.17149353 -27731219.27959919 0 -27731219.27959919 -64478360.032646179 0 0 0 0 -97024483.663208008 127311835.48483467 0 127311835.48483467 -8297371.0911455154 0 0 0 0 151553017.62783051 12567584.724524498 0 12567584.724524498 -59146231.267929077 0 0 0 0 5061873.4728851095 6477675.7254923508 0 6477675.7254923508 13092779.140096102 0 0 0 0 -21705297.151794434 360877.92703652382 0 360877.92703652382 12822652.318416178 0 0 0 0 -61856023.149520874 4910282.5078758597 0 4910282.5078758597 23036494.477523327 0 0 0 0 -2986305.3280715942 -22050934.719667733 0 -22050934.719667733 10884656.800851345 0 0 0 0 11083258.531188965 -14140145.967089891 0 -14140145.967089891 7190009.1464161873 0 0 0 0 -24858689.118392944 12708416.670068741 0 12708416.670068741 -568499.28816044331 0 0 0 0 -26443485.351097107 -25791590.729947388 0 -25791590.729947388 15835101.105698824 0 0 0 0 -247016448.30198669 13831779.447484553 0 13831779.447484553 50611940.846649408 0 0 0 0 5436981.0897700414 5723904.093834769 0 5723904.093834769 12899956.533774631 0 0 0 0 -31371178.837280273 -141089084.66921473 0 -141089084.66921473 -92313612.045218587 0 0 0 0 -103344278.5879364 32118169.22938633 0 32118169.22938633 44710730.453983307 0 0 0 0 -161865417.59242249 170595291.11791182 0 170595291.11791182 -45679817.86227417 0 0 0 0 -34834986.548568726 61898649.535438538 0 61898649.535438538 14844549.340963364 0 0 0 0 -36106551.319549561 32334070.128376007 0 32334070.128376007 77921101.409135818 0 0 0 0 -255996992.57875824 119487005.42006683 0 119487005.42006683 46701327.695552826 0 0 0 0 -155299079.98829651 14787418.227781296 0 14787418.227781296 19372959.455038071 0 0 0 0 7483236.0945355594 4358189.6041488461 0 4358189.6041488461 11610703.934394971 0 0 0 0 -136608366.42909241 -28275928.387902975 0 -28275928.387902975 690063347.18098044 0 0 0 0 -424458648.2648468 312987897.49025846 0 312987897.49025846 526848845.01860595 0 0 0 0 297931830.49921417 53224329.485186249 0 53224329.485186249 -147729001.61202526 0 0 0 0 218487471.00164795 -49373959.524416685 0 -49373959.524416685 -181210949.13210726 0 0 0 0 72271.29052478075 269112.2739475593 0 269112.2739475593 1055537.0274827364 0 0 0 0 -140164744.88711548 148297431.86933559 0 148297431.86933559 184140386.27233064 0 0 0 0 412074109.88049316 459275234.46722877 0 459275234.46722877 18399813.372089915 0 0 0 0 -42786141.069496155 281437782.24661839 0 281437782.24661839 -4246798.5171027184 0 0 0 0 377002426.912323 253529606.34499884 0 253529606.34499884 -32091774.742624044 0 0 0 0 223880812.38725662 102048843.05360687 0 102048843.05360687 -364938064.49794626 0 0 0 0 -777389678.12062836 -293513965.44803643 0 -293513965.44803643 1075914665.3212383 0 0 0 0 206001.09898501262 213748.27492487431 0 213748.27492487431 -224910.79031943803 0 0 0 0 110630424.73985291 32553687.8828457 0 32553687.8828457 37664986.559068263 0 0 0 0 94303336.329025269 44233357.39427495 0 44233357.39427495 63713558.565762043 0 0 0 0 -18990021.867630005 -84872584.274111509 0 -84872584.274111509 50922073.506629363 0 0 0 0 472618.13486752007 -17167.189290374517 0 -17167.189290374517 2651230.8933193032 0 0 0 0 124277198.16015625 -31696064.011471748 0 -31696064.011471748 -6004106.3219418526 0 0 0 0 38765461.784072876 -11037758.054767191 0 -11037758.054767191 1186323.1715097427 0 0 0 0 10975022.713937759 -14252571.406561404 0 -14252571.406561404 15606738.969560385 0 0 0 0 20742778.981826782 -22382060.383124232 0 -22382060.383124232 11160195.370452881 0 0 0 0 11066011.296783447 -11801156.311161041 0 -11801156.311161041 10070728.318146199 0 0 0 0 -84295326.219169617 -67943752.209005713 0 -67943752.209005713 11560699.152999878 0 0 0 0 124038655.70091248 -98450443.516739368 0 -98450443.516739368 -124363949.57476377 0 0 0 0 1242058.8396412665 -728546.0801150389 0 -728546.0801150389 3549132.1980423708 0 0 0 0 164026623.65002441 28603842.014133692 0 28603842.014133692 -81893146.252667427 0 0 0 0 -155811899.38432312 33085719.593095332 0 33085719.593095332 209363449.74644041 0 0 0 0 1711840922.5027771 -777037155.36878419 0 -777037155.36878419 -393806723.53876209 0 0 0 0 -506627144.42533875 249717978.54703152 0 249717978.54703152 1677910931.9278526 0 0 0 0 1093104583.8857422 109814533.14583385 0 109814533.14583385 -311210636.69611639 0 0 0 0 677948669.70991516 -384650010.58053523 0 -384650010.58053523 -524749020.93286818 0 0 0 0 1452821.6952085644 344292.60930491984 0 344292.60930491984 -2857452.8861353127 0 0 0 0 647977420.33100891 105079255.93716848 0 105079255.93716848 -405928519.23702383 0 0 0 0 1010933089.736763 346176565.51853532 0 346176565.51853532 -874454566.91507792 0 0 0 0 1761254737.4218292 58820528.407275677 0 58820528.407275677 -999928549.52072752 0 0 0 0 797306010.92077637 673624725.60423493 0 673624725.60423493 -1182237931.0940328 0 0 0 0 2264822886.1149368 -373854965.35590851 0 -373854965.35590851 -157787095.24408972 0 0 0 0 -11365846.019645691 -1098308635.030128 0 -1098308635.030128 2498455974.3676662 0 0 0 0 5255426.8756017089 -1915961.193867414 0 -1915961.193867414 -263891.83488473104 0 0 0 0 706167594.41261292 860510452.4338131 0 860510452.4338131 1034196989.0300231 0 0 0 0 322417478.2287674 -594147828.87412488 0 -594147828.87412488 -162185727.01317441 0 0 0 0 989839570.07403564 -20356045.896498799 0 -20356045.896498799 -309963763.11128807 0 0 0 0 250828643.04086304 -113372126.93327856 0 -113372126.93327856 -315787474.53126353 0 0 0 0 -177524957.9133606 -594885372.14450026 0 -594885372.14450026 -87066141.314700365 0 0 0 0 -601675889.13091278 -382383266.1652168 0 -382383266.1652168 54566928.691325188 0 0 0 0 817159092.91447449 -304712380.2887578 0 -304712380.2887578 125774638.51763344 0 0 0 0 2305453.4469676726 1695061.1767544895 0 1695061.1767544895 -1105332.0238845493 0 0 0 0 -155310444.87515259 -23272485.715649128 0 -23272485.715649128 -156917284.68034506 0 0 0 0 243862218.04692078 18284753.2327075 0 18284753.2327075 90061485.877129197 0 0 0 0 275296902.96751404 -154969687.72259068 0 -154969687.72259068 -248927507.6326313 0 0 0 0 59883656.95690918 -203814780.2234726 0 -203814780.2234726 -258274453.48496556 0 0 0 0 383663643.07305908 -19880914.840570927 0 -19880914.840570927 -267330668.49581718 0 0 0 0 200308232.64602661 -85958624.238686562 0 -85958624.238686562 -257366740.94591129 0 0 0 0 296888333.12913513 54488341.594083786 0 54488341.594083786 -222636981.58578968 0 0 0 0 179386843.55282593 -68222015.601658821 0 -68222015.601658821 -257035182.72485161 0 0 0 0 -138061089.44868851 -140473177.69092602 0 -140473177.69092602 -175852852.71392059 0 0 0 0 74435421.91418457 -102518733.14525795 0 -102518733.14525795 -231336160.04937744 0 0 0 0 53148828.892028809 -81503397.863723755 0 -81503397.863723755 -198586270.87775803 0 0 0 0 22103293.202453613 -94409642.211236954 0 -94409642.211236954 -186097529.35912752 0 0 0 0 -11187054.322311401 -59621276.259693146 0 -59621276.259693146 -51579213.927107811 0 0 0 0 51251263.463729858 -58968506.127687454 0 -58968506.127687454 -161846329.51393509 0 0 0 0 102209098.92045593 -6071250.7279362679 0 -6071250.7279362679 -194518702.49400806 0 0 0 0 126176104.03253174 -78867917.197091103 0 -78867917.197091103 -222607188.75343418 0 0 0 0 149433278.95388794 -18331764.369512081 0 -18331764.369512081 -211797527.11966133 0 0 0 0 64201850.229904175 -30740922.739178658 0 -30740922.739178658 -108528467.15436554 0 0 0 0 46768527.543731689 -23711945.40196085 0 -23711945.40196085 -99621931.909301758 0 0 0 0 58242933.997467041 -56795932.085741997 0 -56795932.085741997 -161174336.02640915 0 0 0 0 59597201.059593201 -20052145.27102375 0 -20052145.27102375 9581509.7951755524 0 0 0 0 11292369.091237789 -78440.883744511753 0 -78440.883744511753 -6053558.3990440164 0 0 0 0 4404134.3639363348 -3902317.3915816732 0 -3902317.3915816732 -1248791.180028066 0 0 0 0 164328812.33270264 98078782.833598137 0 98078782.833598137 -258506421.12816715 0 0 0 0 -15604904.787521362 -77251554.076441288 0 -77251554.076441288 -115747917.73841953 0 0 0 0 47882582.681694031 18966044.034014225 0 18966044.034014225 -119607981.21474075 0 0 0 0 -19038949.762634277 -32712523.717805862 0 -32712523.717805862 -180155588.18971634 0 0 0 0 -7654390.2883377075 -162242129.45088291 0 -162242129.45088291 39047288.890541077 0 0 0 0 19918177.687886968 -12216811.59558573 0 -12216811.59558573 3877013.2469292223 0 0 0 0 13227911.391723633 1766842.5773494244 0 1766842.5773494244 11903373.429084659 0 0 0 0 25268844.63041687 -24548178.115532517 0 -24548178.115532517 -20919632.196665287 0 0 0 0 37859942.182312012 -11380967.875333875 0 -11380967.875333875 -28454082.07148838 0 0 0 0 21747166.50233078 -7205681.2637611926 0 -7205681.2637611926 -25530439.831136942 0 0 0 0 6722162.5048370361 -24763257.575900555 0 -24763257.575900555 -19803666.749384582 0 0 0 0 53730542.514648438 -9549319.9541621804 0 -9549319.9541621804 -32329575.31140548 0 0 0 0 23394079.330032349 -10112895.031026244 0 -10112895.031026244 -1360443.7664917111 0 0 0 0 12564512.062734744 -2792476.5048672147 0 -2792476.5048672147 -1088484.382633935 0 0 0 0 20259332.39654541 3889280.9734430313 0 3889280.9734430313 20620190.183894634 0 0 0 0 22193272.014359407 -9824338.9556692224 0 -9824338.9556692224 -30331.050141539425 0 0 0 0 221917.89424133301 -31721602.708859444 0 -31721602.708859444 -2107133.1704730988 0 0 0 0 51427869.927520752 -4492790.3729944229 0 -4492790.3729944229 -26097406.628102779 0 0 0 0 43481317.143661499 -12846674.990923882 0 -12846674.990923882 -29576439.930528164 0 0 0 0 18205404.517946657 3704693.3884232789 0 3704693.3884232789 1140435.4330454264 0 0 0 0 19533165.698768616 -9269590.3355350494 0 -9269590.3355350494 -10365821.719697952 0 0 0 0 42527086.861633301 -19534440.713294029 0 -19534440.713294029 -16947305.922689438 0 0 0 0 26913207.769119263 9852059.3902516365 0 9852059.3902516365 6788477.288282156 0 0 0 0 9224232.1770852394 5362553.2344331518 0 5362553.2344331518 -4361448.7823829288 0 0 0 0 35182374.304122925 -12282273.376197606 0 -12282273.376197606 -53819480.93628037 0 0 0 0 2117861.249620866 -97417.104473182932 0 -97417.104473182932 -522430.51021841681 0 0 0 0 37535241.632736206 -13171783.222216845 0 -13171783.222216845 -53277909.16090405 0 0 0 0 13463889.980438232 9019124.3643873334 0 9019124.3643873334 -63428572.457183123 0 0 0 0 -98199421.093009949 51004168.167701736 0 51004168.167701736 114563905.85924581 0 0 0 0 65444112.873687744 77251210.534384251 0 77251210.534384251 1533504.2792747021 0 0 0 0 75807615.466506958 709541.98571586609 0 709541.98571586609 -97189350.924401671 0 0 0 0 71046090.824360847 41006863.879471108 0 41006863.879471108 -97937062.319859505 0 0 0 0 -135549288.55088806 -44905115.632604599 0 -44905115.632604599 9763307.9011230469 0 0 0 0 14806926.404229764 -11227543.007946707 0 -11227543.007946707 6986143.4655333543 0 0 0 0 -134464486.19687653 -50153597.009932041 0 -50153597.009932041 6730390.4586334229 0 0 0 0 26568847.869796753 -31471864.915035248 0 -31471864.915035248 -44424480.724159241 0 0 0 0 -139265252.80200195 -28373469.831871033 0 -28373469.831871033 -6324842.0595817566 0 0 0 0 -138523583.90989685 -35313188.099569321 0 -35313188.099569321 18303760.305122375 0 0 0 0 -142560031.35314941 -817320.10540390015 0 -817320.10540390015 26898355.969219208 0 0 0 0 -150605134.7227478 10452923.791898727 0 10452923.791898727 20780468.99505043 0 0 0 0 -80522316.898031235 196026502.35241917 0 196026502.35241917 -205455247.88456821 0 0 0 0 12850132.752589416 1943819.9005077332 0 1943819.9005077332 8369463.2095885286 0 0 0 0 -143304518.59350586 -1700878.0979766846 0 -1700878.0979766846 30270303.420562744 0 0 0 0 -150621961.1911211 9077271.2044025362 0 9077271.2044025362 41777713.238143921 0 0 0 0 -142475837.19854736 -7227226.9843788147 0 -7227226.9843788147 -4643907.2381355762 0 0 0 0 2949029.0645447224 234057.2354465574 0 234057.2354465574 -1017466.7303543529 0 0 0 0 52214820.512817383 52376853.704101562 0 52376853.704101562 18586476.785783291 0 0 0 0 -45781192.895584106 12825461.650211811 0 12825461.650211811 -98585966.099618912 0 0 0 0 55522737.668869019 22412396.244677067 0 22412396.244677067 -123763316.04823685 0 0 0 0 114456752.97869873 27416374.595747471 0 27416374.595747471 -124134064.72631049 0 0 0 0 77567678.972686768 95420598.209059715 0 95420598.209059715 -236786020.70111465 0 0 0 0 139584944.21047974 21211834.389492989 0 21211834.389492989 -214441506.20219648 0 0 0 0 155255410.37677002 3513499.2718582153 0 3513499.2718582153 -240846324.42749739 0 0 0 0 165027488.0088501 54018141.253100395 0 54018141.253100395 -175507067.95893574 0 0 0 0 130231752.16796875 78334092.390380383 0 78334092.390380383 -148638433.6004324 0 0 0 0 54337332.321136475 -17839203.875233173 0 -17839203.875233173 155057060.83878583 0 0 0 0 83349346.839431763 19060902.274765015 0 19060902.274765015 -180095607.5366621 0 0 0 0 192030138.10827637 -121872698.18388724 0 -121872698.18388724 -292528733.15335512 0 0 0 0 114680022.40853119 156645725.45297533 0 156645725.45297533 -343654780.36832762 0 0 0 0 -134161008.18754578 86690173.225112915 0 86690173.225112915 -17509777.89015007 0 0 0 0 -129568365.22351074 10648203.755016327 0 10648203.755016327 7114006.6888580322 0 0 0 0 -77437097.783660889 -2207780.0084247589 0 -2207780.0084247589 55774265.95477581 0 0 0 0 -152014086.76169586 42584552.288025379 0 42584552.288025379 91168989.013858795 0 0 0 0 -1235475.8379974365 -22398165.670948029 0 -22398165.670948029 100594451.21787453 0 0 0 0 -54960404.72592926 41983792.462796211 0 41983792.462796211 140668643.08468246 0 0 0 0 -102260354.043396 -29369620.827539444 0 -29369620.827539444 62052905.287107468 0 0 0 0 -137083023.88423157 -14839573.983196259 0 -14839573.983196259 96541637.195903778 0 0 0 0 -123682058.5170517 40714114.62753582 0 40714114.62753582 59953953.954200745 0 0 0 0 -144332854.50259399 2044113.2227592468 0 2044113.2227592468 57549776.843927383 0 0 0 0 -140593017.17799377 -33378417.952913284 0 -33378417.952913284 35862260.801879883 0 0 0 0 -139322709.94842529 -39586215.715019226 0 -39586215.715019226 53363521.766908169 0 0 0 0 -122923014.69824982 -21219561.20192337 0 -21219561.20192337 67280489.371013641 0 0 0 0 -102504821.13894653 -81451746.417251587 0 -81451746.417251587 32245456.729038239 0 0 0 0 -137883479.97740173 -61534559.114650726 0 -61534559.114650726 75749226.484783173 0 0 0 0 -141038574.30865479 -58460358.789112091 0 -58460358.789112091 30992430.651649952 0 0 0 0 -135206764.43209839 -47121094.891279221 0 -47121094.891279221 25075465.300292969 0 0 0 0 -136188916.56045532 -81206169.022464752 0 -81206169.022464752 23516362.053929329 0 0 0 0 -179679115.28588867 -170946317.19512844 0 -170946317.19512844 -23081581.039725304 0 0 0 0 13295809.483501662 -11882277.483609306 0 -11882277.483609306 6905170.7653613305 0 0 0 0 -115004477.67599487 -121637716.93857574 0 -121637716.93857574 -75125913.873697281 0 0 0 0 -123576678.5632019 -58617419.956953049 0 -58617419.956953049 -44173671.837089539 0 0 0 0 -145574150.41827393 -116207085.55627251 0 -116207085.55627251 13715905.1453228 0 0 0 0 -113264399.69355774 -83114879.931474686 0 -83114879.931474686 12148642.101535797 0 0 0 0 -120332701.56790161 -61226017.497903824 0 -61226017.497903824 10075880.155208588 0 0 0 0 -87599874.976013184 -117227423.13011551 0 -117227423.13011551 38945380.480050802 0 0 0 0 -81921192.219726562 -126597783.117342 0 -126597783.117342 -6961178.757267952 0 0 0 0 -83752195.079421997 -110864449.65231705 0 -110864449.65231705 37671501.129993439 0 0 0 0 -21731459.848907471 -105284805.98459816 0 -105284805.98459816 48003217.253372192 0 0 0 0 -54141884.375488281 -79771607.936069489 0 -79771607.936069489 33694246.018519402 0 0 0 0 -83059869.163070679 -77493917.315485954 0 -77493917.315485954 109445626.75321198 0 0 0 0 -91129566.608383179 -53593494.52100563 0 -53593494.52100563 51034529.110088348 0 0 0 0 -102028837.20409298 -19415422.162055373 0 -19415422.162055373 142959245.754879 0 0 0 0 -21904634.621917725 -48452831.293848038 0 -48452831.293848038 83821809.989589691 0 0 0 0 56502339.773117065 -94459848.155739784 0 -94459848.155739784 104387341.69275475 0 0 0 0 -26652026.824813843 -50281188.652618408 0 -50281188.652618408 202120886.39958572 0 0 0 0 -6140638.6317443848 -59755915.05249691 0 -59755915.05249691 97941127.54693985 0 0 0 0 40257060.418777466 -161535686.47684002 0 -161535686.47684002 34157584.685565948 0 0 0 0 151531967.88584518 -95673636.257199287 0 -95673636.257199287 232644913.85544968 0 0 0 0 179533557.36894226 -184570576.09209728 0 -184570576.09209728 60322813.930346966 0 0 0 0 181810234.4916153 -107875229.26012039 0 -107875229.26012039 287084191.59247971 0 0 0 0 87006033.574314117 -5107548.9315578938 0 -5107548.9315578938 177902739.65107346 0 0 0 0 262262692.2385025 141586523.16289997 0 141586523.16289997 273439396.94319153 0 0 0 0 69223430.027328491 53046846.292297363 0 53046846.292297363 157030590.80664635 0 0 0 0 102111140.69016266 7447321.2856826782 0 7447321.2856826782 187653422.79533768 0 0 0 0 109731130.28655815 50530413.23034668 0 50530413.23034668 105714814.33118057 0 0 0 0 108790738.09538269 41649677.106967926 0 41649677.106967926 40519213.838159561 0 0 0 0 287481222.23518372 137814990.47492409 0 137814990.47492409 135331450.85409451 0 0 0 0 326848085.66322708 63705236.165984631 0 63705236.165984631 61334316.301174164 0 0 0 0 345069455.24043465 122558104.17490506 0 122558104.17490506 77733111.107345581 0 0 0 0 -423635980.15222168 -366370192.67432624 0 -366370192.67432624 -566796045.40953636 0 0 0 0 -287738129.18616295 747117705.75435972 0 747117705.75435972 -218746972.64420307 0 0 0 0 -1620235.0323937833 -6271063.4617241537 0 -6271063.4617241537 -977905.10992710909 0 0 0 0 130204302.66876221 -476275223.05107927 0 -476275223.05107927 -1259516669.3273683 0 0 0 0 543930137.3895874 46576857.86933732 0 46576857.86933732 -1861841501.7765985 0 0 0 0 329788437.22460938 98365049.409679592 0 98365049.409679592 -1009104827.7917916 0 0 0 0 98813478.348228455 70185422.320340425 0 70185422.320340425 -69421474.449888006 0 0 0 0 361202858.14403534 -4988457.6853086203 0 -4988457.6853086203 -87008701.4337143 0 0 0 0 84060164.88344574 -18204370.95966737 0 -18204370.95966737 802392372.9339726 0 0 0 0 183586265.70754623 274367405.35992235 0 274367405.35992235 475030129.49641919 0 0 0 0 792436143.38739014 806233215.30598998 0 806233215.30598998 26973841.880297557 0 0 0 0 394251119.42337036 189736096.45325029 0 189736096.45325029 56766696.896832123 0 0 0 0 -145418486.02172852 234965356.45245031 0 234965356.45245031 62405557.623963863 0 0 0 0 1442703823.3736877 432038826.70833111 0 432038826.70833111 162704683.2215659 0 0 0 0 1961500673.2342072 1229873406.3427548 0 1229873406.3427548 -19178268.017935067 0 0 0 0 715957005.46356201 426306727.09756023 0 426306727.09756023 -148244581.26195917 0 0 0 0 1132457770.0608063 934677003.76815748 0 934677003.76815748 11330549.776803374 0 0 0 0 1929856727.8016739 1296954840.8697858 0 1296954840.8697858 -136671369.39053661 0 0 0 0 3059588640.1478119 1373815838.5192704 0 1373815838.5192704 -159072838.70446593 0 0 0 0 3467015295.9383469 2386280240.5068231 0 2386280240.5068231 1434313092.4145303 0 0 0 0 -870426132.50518036 663603845.13638878 0 663603845.13638878 932928547.47698212 0 0 0 0 1934400664.942215 2042841233.5814383 0 2042841233.5814383 452467662.51433569 0 0 0 0 -519762208.49552917 1141642498.4605231 0 1141642498.4605231 1536922934.3629537 0 0 0 0 137364.3422107622 10976.188017911627 0 10976.188017911627 -370139.21565765009 0 0 0 0 855435421.71281433 600053330.44026244 0 600053330.44026244 -898222678.02041423 0 0 0 0 848541394.05316162 166444266.39508197 0 166444266.39508197 -376047676.09686482 0 0 0 0 983574763.73536682 1067140762.0834398 0 1067140762.0834398 -100512188.67950284 0 0 0 0 81064069.459228516 -264961494.28229046 0 -264961494.28229046 99542758.675710678 0 0 0 0 -75759614.743865967 -109480945.53643847 0 -109480945.53643847 267965894.04323626 0 0 0 0 153216617.11058807 -46735101.135242939 0 -46735101.135242939 -168606374.82753849 0 0 0 0 -2414011.1731262207 -14229561.392508507 0 -14229561.392508507 -32521966.888035774 0 0 0 0 1448933.7590074344 401646.76874639839 0 401646.76874639839 1666307.8413792581 0 0 0 0 4718211519.6642914 810442198.10589314 0 810442198.10589314 349919744.91983747 0 0 0 0 3463829899.0498123 -225943438.381935 0 -225943438.381935 -163391537.21243533 0 0 0 0 273800157.92248535 -211295738.51425266 0 -211295738.51425266 -308610116.26796722 0 0 0 0 55608365.02911377 83231135.586094856 0 83231135.586094856 -297617768.74626034 0 0 0 0 -69091733.348937988 114533264.46297884 0 114533264.46297884 -184902190.36431026 0 0 0 0 4192220.8714568974 1920062.7278973795 0 1920062.7278973795 4221782.5966801597 0 0 0 0 16715837.190330505 40425512.295764446 0 40425512.295764446 -145932280.25771427 0 0 0 0 2990080290.3726883 717887950.48813415 0 717887950.48813415 175328634.21708092 0 0 0 0 -232382.9410675168 921888.59269004129 0 921888.59269004129 7904674.6575470818 0 0 0 0 -289082456.15286255 -353815974.17321944 0 -353815974.17321944 -272911106.1395359 0 0 0 0 16999848.237466954 -3477826.4712291639 0 -3477826.4712291639 1371255.683431017 0 0 0 0 -245497590.13356781 -429030364.08817655 0 -429030364.08817655 -472458412.32665253 0 0 0 0 -86843082.653373718 -358589972.8510322 0 -358589972.8510322 -601398475.43792915 0 0 0 0 -32763849.812011719 -476908366.06436014 0 -476908366.06436014 -767903677.17685699 0 0 0 0 -102718477.72106934 -568669127.47606325 0 -568669127.47606325 -788762312.77624679 0 0 0 0 21837319.456521399 -3788633.8275294155 0 -3788633.8275294155 -824183.61870212294 0 0 0 0 28800962.840500832 -135538408.00063983 0 -135538408.00063983 -67699151.574334145 0 0 0 0 136341539.03329468 41241011.984149456 0 41241011.984149456 -38914302.968126774 0 0 0 0 26529881.026953354 -3177013.0716287531 0 -3177013.0716287531 -3137317.5939202122 0 0 0 0 14555763.717533112 -325404448.96390194 0 -325404448.96390194 -987953056.47828627 0 0 0 0 -60337899.950996399 -45853672.029509783 0 -45853672.029509783 16937983.431837797 0 0 0 0 86126534.796098709 -190378694.90179256 0 -190378694.90179256 -576461287.29001331 0 0 0 0 44165223.367736816 -482690408.87655282 0 -482690408.87655282 -491811909.45605302 0 0 0 0 -239171149.69773102 -479357434.2206645 0 -479357434.2206645 -621757623.7966671 0 0 0 0 271443027.15792084 -241677999.66781783 0 -241677999.66781783 -670626317.09985781 0 0 0 0 183349.27925528958 -45368.604595605284 0 -45368.604595605284 275184.89002800453 0 0 0 0 404479819.60553741 -161688003.22178537 0 -161688003.22178537 -599437892.25814199 0 0 0 0 213673319.98979187 -245827536.64879823 0 -245827536.64879823 -1272844632.1774349 0 0 0 0 76918662.746582031 -37639147.688081741 0 -37639147.688081741 -642449066.3372972 0 0 0 0 -5127474.5804290771 -319735722.51288247 0 -319735722.51288247 -1014273006.5240387 0 0 0 0 18496979.245758057 -419905741.36713874 0 -419905741.36713874 -722991791.34634364 0 0 0 0 -7046037.562461853 -180851494.59306681 0 -180851494.59306681 -672616868.7415942 0 0 0 0 149680034.9523468 -115680488.7832827 0 -115680488.7832827 -1090468970.8199987 0 0 0 0 92374122.923614502 -95568977.595906615 0 -95568977.595906615 -194414109.26456732 0 0 0 0 574859093.6659317 243705505.38615236 0 243705505.38615236 -664191061.40644097 0 0 0 0 -14488771.406850815 -28077848.851650268 0 -28077848.851650268 -236568130.21640825 0 0 0 0 151647340.57649994 -38624354.705569744 0 -38624354.705569744 -720131505.18937349 0 0 0 0 -75478239.696929932 -173045493.38693535 0 -173045493.38693535 -738352924.0278151 0 0 0 0 298952874.51100159 -30512418.070728779 0 -30512418.070728779 -1751597063.0201302 0 0 0 0 -65548113.883758545 172531367.02904415 0 172531367.02904415 -1199233381.0133281 0 0 0 0 -109668455.20542908 -102753634.0007965 0 -102753634.0007965 -699624788.41987574 0 0 0 0 197538851.94953918 -285359441.55826718 0 -285359441.55826718 -1438353312.4913397 0 0 0 0 298081058.47993469 -834747233.43378413 0 -834747233.43378413 292109722.80448502 0 0 0 0 309715205.11433411 -790720909.84700418 0 -790720909.84700418 263337004.33305728 0 0 0 0 143679169.82917786 -618866165.47361755 0 -618866165.47361755 662696918.8150301 0 0 0 0 14856633.188645408 -5299111.0725324433 0 -5299111.0725324433 -1146365.9681249419 0 0 0 0 291807382.29495239 -1137024028.6158767 0 -1137024028.6158767 -197364000.63777161 0 0 0 0 149771971.27592468 -52390146.785833597 0 -52390146.785833597 -362456705.88649559 0 0 0 0 -44253722.536773682 -1107223021.3007431 0 -1107223021.3007431 766554766.2954514 0 0 0 0 67976822.756988525 -879766728.14937925 0 -879766728.14937925 744321160.55117881 0 0 0 0 251544975.19981384 -940830378.61928368 0 -940830378.61928368 110813395.7410233 0 0 0 0 247433656.58678722 -827721436.38184118 0 -827721436.38184118 354846268.45758504 0 0 0 0 288357536.42807007 -675564587.21132708 0 -675564587.21132708 536825712.98162413 0 0 0 0 363215456.48046875 -702341213.88912821 0 -702341213.88912821 256008021.86960244 0 0 0 0 -257389739.67674255 -14590784.196707999 0 -14590784.196707999 -126243625.43912137 0 0 0 0 128026479.6292572 413316427.6761353 0 413316427.6761353 -1140271411.2911086 0 0 0 0 264910671.71839905 -936856703.32069731 0 -936856703.32069731 -736082086.62506008 0 0 0 0 1021026.423537679 2877759.8379134173 0 2877759.8379134173 -2886299.4239949286 0 0 0 0 22866239.737337448 -9113683.8561281227 0 -9113683.8561281227 -2214242.6638413426 0 0 0 0 641460381.79312134 -609371862.68088663 0 -609371862.68088663 -1948944795.6753297 0 0 0 0 156790802.07397461 16111873.746691704 0 16111873.746691704 -56517093.90182998 0 0 0 0 -681374430.03417969 -807154667.85739231 0 -807154667.85739231 115267353.13410211 0 0 0 0 356424631.25699043 -87215209.309661165 0 -87215209.309661165 1397902.4405952096 0 0 0 0 316028890.5737915 -884273861.8075316 0 -884273861.8075316 101471873.6166015 0 0 0 0 578618690.23738098 -1356283633.5866895 0 -1356283633.5866895 694439041.53917503 0 0 0 0 -21227773.901672363 -814312992.89365768 0 -814312992.89365768 1277335318.004025 0 0 0 0 1344527072.6569366 -988103488.87281418 0 -988103488.87281418 730899445.49344635 0 0 0 0 637833436.10308838 82694795.885202885 0 82694795.885202885 1227415449.6539183 0 0 0 0 662627584.08792114 -325976411.07273912 0 -325976411.07273912 -27799182.421593904 0 0 0 0 254447361.56287384 188636573.68145251 0 188636573.68145251 861877749.05704093 0 0 0 0 478708300.42052174 -427605938.94826818 0 -427605938.94826818 1078609074.5057528 0 0 0 0 468596328.67617226 -513968984.89839768 0 -513968984.89839768 2606217539.9899607 0 0 0 0 1461517526.9533234 -1575675067.1317768 0 -1575675067.1317768 1371249411.710614 0 0 0 0 1966845514.1683197 -331599498.9002502 0 -331599498.9002502 1231320836.0060201 0 0 0 0 784891229.59248352 -308051801.90226221 0 -308051801.90226221 1752335305.7725806 0 0 0 0 1477317674.022213 -1727941391.9960294 0 -1727941391.9960294 3493987665.5226774 0 0 0 0 744300461.43380594 -1434721038.5730212 0 -1434721038.5730212 1743766085.9725113 0 0 0 0 -282940053.41998291 -205942663.71818924 0 -205942663.71818924 2522260508.3300505 0 0 0 0 218336716.31984615 1072883950.7247717 0 1072883950.7247717 970103095.50973892 0 0 0 0 1753184663.384079 28634197.087144017 0 28634197.087144017 -454387606.92837501 0 0 0 0 1481098.2693800405 -775935.59874422476 0 -775935.59874422476 634474.9172602382 0 0 0 0 378026943.15313721 -1210530418.6808863 0 -1210530418.6808863 3918154668.955143 0 0 0 0 274477.92089254269 -91998.297617830336 0 -91998.297617830336 860115.55243359599 0 0 0 0 2206279.6154589951 -4917236.3586612791 0 -4917236.3586612791 3996124.4761472614 0 0 0 0 2686173.8448746204 -3933791.5888487771 0 -3933791.5888487771 -1139716.4733095169 0 0 0 0 35848947.203354836 -247249027.15778786 0 -247249027.15778786 419614743.706285 0 0 0 0 4539926.9393136865 -1375335.1432311423 0 -1375335.1432311423 1982822.4363039155 0 0 0 0 862950755.6633606 -203216723.69314152 0 -203216723.69314152 -199400442.42315924 0 0 0 0 611199977.55178833 -545277181.38113332 0 -545277181.38113332 490212147.63149333 0 0 0 0 1041269752.2581711 -816922760.63771987 0 -816922760.63771987 337284435.50098324 0 0 0 0 -62592271.339004517 -545183599.26511383 0 -545183599.26511383 491272458.01927662 0 0 0 0 349185375.10528564 -178969846.82608986 0 -178969846.82608986 72231953.022455931 0 0 0 0 -60554214.233917236 -92845432.943330765 0 -92845432.943330765 175208694.99372673 0 0 0 0 181517239.64323425 -424363761.47875261 0 -424363761.47875261 551070499.0724411 0 0 0 0 -251597894.34767151 -202911969.38919687 0 -202911969.38919687 799188658.73165083 0 0 0 0 -15975870.947357178 -275346360.08433247 0 -275346360.08433247 636635432.6711235 0 0 0 0 -9969370.4368591309 -729658011.98993123 0 -729658011.98993123 1133156282.9073315 0 0 0 0 -179102887.30844116 -9141245.9783401489 0 -9141245.9783401489 847214301.49507046 0 0 0 0 -177071721.2578125 -297299210.35152721 0 -297299210.35152721 907922718.00910568 0 0 0 0 262508694.41203308 -134850925.00923157 0 -134850925.00923157 381673971.75908947 0 0 0 0 8497787.6804424077 -5440339.390506899 0 -5440339.390506899 2203185.8505746918 0 0 0 0 3319239.379234314 -5582707.1772046089 0 -5582707.1772046089 -1708649.2077474594 0 0 0 0 3153085.5948104858 -1953281.9554495811 0 -1953281.9554495811 914948.79593324661 0 0 0 0 -164378590.02080059 154872704.44923633 0 154872704.44923633 129683624.55579758 0 0 0 0 71246528.121917725 -158427949.71710396 0 -158427949.71710396 -110003103.75525475 0 0 0 0 -9144795.520324707 -154714864.78855705 0 -154714864.78855705 114554225.72298717 0 0 0 0 21724328.0546875 72136354.48176384 0 72136354.48176384 -5169452.426486969 0 0 0 0 18009163.482208252 -19645648.094648361 0 -19645648.094648361 13306691.034326673 0 0 0 0 12883559.176348463 -5025052.5919051785 0 -5025052.5919051785 -286811.08154338866 0 0 0 0 9637749.5216131434 -2236303.8010979518 0 -2236303.8010979518 492000.10077045485 0 0 0 0 18147636.003501892 -28921033.917585015 0 -28921033.917585015 12142182.489708424 0 0 0 0 -8322829.7198181152 17111601.126527905 0 17111601.126527905 -19920688.895766914 0 0 0 0 28891481.068937302 -3414253.931647107 0 -3414253.931647107 -19160737.77793622 0 0 0 0 31693433.726081848 -23327704.720250964 0 -23327704.720250964 -47494236.104084969 0 0 0 0 293879113.75598145 -150761237.59603301 0 -150761237.59603301 391084881.96885443 0 0 0 0 737478861.54146576 -389913506.3433944 0 -389913506.3433944 136991087.91680169 0 0 0 0 -115260755.98802948 -70124595.538661242 0 -70124595.538661242 209626673.27603173 0 0 0 0 4933539.9305343628 -2671953.2531657219 0 -2671953.2531657219 1188163.0142173767 0 0 0 0 4874863.0358897801 -578934.57876237854 0 -578934.57876237854 2584490.9226394636 0 0 0 0 5249392.0503246691 -1216389.7579585426 0 -1216389.7579585426 -4033837.0429287665 0 0 0 0 17319218.515563965 -678950.7614736557 0 -678950.7614736557 -28685398.715263605 0 0 0 0 50817464.727027893 661288.00817853212 0 661288.00817853212 -17669252.928637981 0 0 0 0 424889880.54910278 -71279791.776565194 0 -71279791.776565194 8588651.4751284122 0 0 0 0 6976502.346098911 1999497.0967929829 0 1999497.0967929829 1439977.8384164362 0 0 0 0 1053157355.240593 -760359581.63472486 0 -760359581.63472486 446931077.32673454 0 0 0 0 375789896.35179138 -394707313.95799083 0 -394707313.95799083 475614098.75239444 0 0 0 0 1529763998.4485703 -629829234.37586164 0 -629829234.37586164 373227092.68824422 0 0 0 0 1212903099.0787239 -515024035.11168563 0 -515024035.11168563 370404352.37010467 0 0 0 0 1701296457.6580276 -351770906.22976899 0 -351770906.22976899 270871960.27087051 0 0 0 0 786563487.36724091 -744183678.25626779 0 -744183678.25626779 530403517.98978019 0 0 0 0 751783265.44752502 -517474388.55012041 0 -517474388.55012041 596559389.87488842 0 0 0 0 531343367.23243713 -521765188.90545934 0 -521765188.90545934 813264400.87060189 0 0 0 0 1167474658.1201019 -488640788.23825258 0 -488640788.23825258 594832888.76679587 0 0 0 0 556531763.12310028 -760918559.20636654 0 -760918559.20636654 1369559613.2038155 0 0 0 0 1813182835.9581757 -163202331.0893169 0 -163202331.0893169 413198334.0704149 0 0 0 0 1097865043.8617592 -111637720.33067144 0 -111637720.33067144 420490066.37158275 0 0 0 0 1136836068.9758224 -211102855.63330489 0 -211102855.63330489 673728273.7863996 0 0 0 0 489147729.30046082 -49259221.010197625 0 -49259221.010197625 635158739.68777883 0 0 0 0 1054586004.7224369 127787043.25756335 0 127787043.25756335 498720173.78368664 0 0 0 0 277836659.10151672 -47765751.655754209 0 -47765751.655754209 763165086.57325578 0 0 0 0 270380975.83842468 -410257446.42297745 0 -410257446.42297745 1223294028.4780669 0 0 0 0 514729990.43592739 -335245388.16495258 0 -335245388.16495258 1055740486.3958179 0 0 0 0 3462711707.5260925 810683070.01132774 0 810683070.01132774 -386298545.73176217 0 0 0 0 1803233450.265686 316801504.05670142 0 316801504.05670142 318839032.0745216 0 0 0 0 925711687.66056061 431102581.58909369 0 431102581.58909369 319418992.49669349 0 0 0 0 2276381970.7501373 2416456.6034138799 0 2416456.6034138799 90750140.855536431 0 0 0 0 2513639626.57267 536047682.48432744 0 536047682.48432744 -352819063.41423678 0 0 0 0 2685730655.285881 -234826078.21626687 0 -234826078.21626687 -2772893.8528654948 0 0 0 0 3464474138.9086337 -11291148.258344004 0 -11291148.258344004 -296453399.45208514 0 0 0 0 2642887507.6818619 -188598573.59840131 0 -188598573.59840131 89334584.118838519 0 0 0 0 1813253161.4728088 -133072851.01470965 0 -133072851.01470965 113327351.63149254 0 0 0 0 1784510866.0172348 -460826229.80785745 0 -460826229.80785745 298303324.64179832 0 0 0 0 2532777198.3069229 -435690522.51236004 0 -435690522.51236004 221023915.11888188 0 0 0 0 3465878102.8256416 -457503934.81923932 0 -457503934.81923932 51888584.17773217 0 0 0 0 2619257418.0155945 -686966666.89774871 0 -686966666.89774871 840152141.59566021 0 0 0 0 2269326789.0586319 -1302936390.2969086 0 -1302936390.2969086 479712865.72447139 0 0 0 0 2381773349.6764412 140907225.98786452 0 140907225.98786452 407240940.8802377 0 0 0 0 3456786123.4148407 -1514879949.7327344 0 -1514879949.7327344 85263609.760106519 0 0 0 0 8098291.6550865173 191686849.98734999 0 191686849.98734999 697986471.03435254 0 0 0 0 2386568.6859825775 911833.75333986245 0 911833.75333986245 838616.04729356256 0 0 0 0 1538009911.1345215 -669323173.26073146 0 -669323173.26073146 376876672.23114491 0 0 0 0 804105571.34770203 -1385480756.7525687 0 -1385480756.7525687 1186648671.6949325 0 0 0 0 1754413.3745201901 -602307.74952898547 0 -602307.74952898547 -34225.197897665435 0 0 0 0 173961527.08722687 151176379.2652038 0 151176379.2652038 419833895.42783415 0 0 0 0 -155235873.51872253 982221511.97498214 0 982221511.97498214 332748824.23385668 0 0 0 0 308266410.05053711 694637833.25892031 0 694637833.25892031 -390611831.50044394 0 0 0 0 334316872.16114235 453007924.18169421 0 453007924.18169421 -341983741.14528167 0 0 0 0 3280486.2284829393 -748713.41940823384 0 -748713.41940823384 -866456.22755782772 0 0 0 0 4024325.4180297852 91807883.295872837 0 91807883.295872837 -97279441.323582888 0 0 0 0 697337973.31239319 522190068.76917195 0 522190068.76917195 -392734590.03912783 0 0 0 0 543661274.70561981 13623653.370868146 0 13623653.370868146 -966181644.26101613 0 0 0 0 5012732.0395406187 -1913161.0525558484 0 -1913161.0525558484 17822.409394388611 0 0 0 0 280334987.95726776 -724356026.40276647 0 -724356026.40276647 -1141117704.418875 0 0 0 0 -208765994.5105896 -48242926.210233212 0 -48242926.210233212 -607437625.73465872 0 0 0 0 -230319156.80677795 368106577.82960886 0 368106577.82960886 168315079.78682399 0 0 0 0 1861195.8312098682 -907020.5905601792 0 -907020.5905601792 163107.95706144234 0 0 0 0 -159904624.31014633 -612643567.55451655 0 -612643567.55451655 313690143.01944911 0 0 0 0 -494346587.14655685 -343396350.81756425 0 -343396350.81756425 186521671.38110805 0 0 0 0 3017605.4978476353 -1210526.53822196 0 -1210526.53822196 -157825.8156428028 0 0 0 0 1586351074.1239166 1092016712.674962 0 1092016712.674962 -390446610.32597804 0 0 0 0 920682817.98170471 -1738909461.4826863 0 -1738909461.4826863 419394704.9105286 0 0 0 0 186586062.89266968 743553083.32392979 0 743553083.32392979 -508281712.18048346 0 0 0 0 -183356573.20144653 -667897551.06867254 0 -667897551.06867254 -175255948.32259607 0 0 0 0 322478707.35140228 -56833164.697885752 0 -56833164.697885752 -158235859.53018507 0 0 0 0 3459991745.124527 97593305.666226789 0 97593305.666226789 -973619250.04835236 0 0 0 0 1466684119.5943413 -91425.435705453157 0 -91425.435705453157 -692680130.0216428 0 0 0 0 3460678226.4371376 -1052261328.6796024 0 -1052261328.6796024 -220082275.29729801 0 0 0 0 1169537388.8062096 -1473043284.4455996 0 -1473043284.4455996 1748891927.8606954 0 0 0 0 240893584.25550461 -96841269.235701978 0 -96841269.235701978 364721753.8081193 0 0 0 0 158288163.34928131 -371462970.13472217 0 -371462970.13472217 527499599.26334363 0 0 0 0 1386710259.6933484 -604320696.04220283 0 -604320696.04220283 -9664351.0723927021 0 0 0 0 127476809.26622581 -604834776.21921396 0 -604834776.21921396 -44622852.144939423 0 0 0 0 -188829407.10230255 -281562958.7005679 0 -281562958.7005679 243410415.53883624 0 0 0 0 151621729.93087006 -313126483.70315444 0 -313126483.70315444 149566420.98774505 0 0 0 0 -211817366.34147835 -563935406.26088619 0 -563935406.26088619 135903435.2110579 0 0 0 0 -199357554.81785583 -524463672.94336545 0 -524463672.94336545 108841742.33317307 0 0 0 0 15956950.475708008 -518628441.11015224 0 -518628441.11015224 30606017.113001347 0 0 0 0 -223850225.36461067 -515357634.30824709 0 -515357634.30824709 106836157.58113223 0 0 0 0 -20582109.343795776 -400634358.2876001 0 -400634358.2876001 -219825606.43095291 0 0 0 0 -178448013.58246231 -756130187.41233122 0 -756130187.41233122 508791360.04755926 0 0 0 0 5996186.5049361624 -3229006.0289859991 0 -3229006.0289859991 -544869.79997035977 0 0 0 0 147337429.08599091 -268626131.99143696 0 -268626131.99143696 -594866863.77243567 0 0 0 0 -87483775.163978577 -137072246.00823498 0 -137072246.00823498 -132626686.45300722 0 0 0 0 143939980.59315109 -211811454.35867977 0 -211811454.35867977 229246314.86386037 0 0 0 0 7341400.2521129511 -2741727.1711362326 0 -2741727.1711362326 -365967.96923774848 0 0 0 0 -88122411.435165405 -175622391.94293594 0 -175622391.94293594 279065742.37059617 0 0 0 0 1459909513.3833008 301896346.00884736 0 301896346.00884736 -1182839080.9757118 0 0 0 0 -446579207.52742004 -859765745.65539992 0 -859765745.65539992 906173425.23286891 0 0 0 0 -420504404.84841156 -471353622.63123512 0 -471353622.63123512 975302385.86795819 0 0 0 0 24074629.061389923 110698140.30555266 0 110698140.30555266 32126953.100689828 0 0 0 0 912549.53273228556 -1892652.1599636087 0 -1892652.1599636087 2178846.9453057079 0 0 0 0 615390063.30777001 -666631743.91815233 0 -666631743.91815233 566565855.9945159 0 0 0 0 612711758.18642426 -375210298.06082106 0 -375210298.06082106 -23446017.93349649 0 0 0 0 998850600.20664215 -706847457.82594311 0 -706847457.82594311 478071107.97718179 0 0 0 0 643305651.21686554 -304054874.67411405 0 -304054874.67411405 314175165.26704168 0 0 0 0 1548065767.7971802 -125851385.2320572 0 -125851385.2320572 -274578574.92857206 0 0 0 0 662058294.47441578 1128648259.5888884 0 1128648259.5888884 26731550.448578753 0 0 0 0 3753856.9227325022 -2067635.8157420238 0 -2067635.8157420238 161227.8357585484 0 0 0 0 3457600318.5222626 134514097.25196826 0 134514097.25196826 -300675170.77389967 0 0 0 0 70309662.749221802 -816423287.23392594 0 -816423287.23392594 556113201.25022817 0 0 0 0 170352172.49101639 210386671.87735522 0 210386671.87735522 269196199.03002763 0 0 0 0 166521468.57668304 148154751.32687032 0 148154751.32687032 11422963.075410191 0 0 0 0 57855647.434745789 306226426.5245114 0 306226426.5245114 153994314.92296171 0 0 0 0 114960284.65301514 253311489.55714107 0 253311489.55714107 13233124.724744797 0 0 0 0 49581445.625343323 215539499.89640427 0 215539499.89640427 -71962220.697658539 0 0 0 0 68982942.862686157 163995071.91303444 0 163995071.91303444 -136296894.70384598 0 0 0 0 311676753.2152977 137231211.24821997 0 137231211.24821997 -253585926.83006001 0 0 0 0 133342450.58877945 23060045.393172979 0 23060045.393172979 -161129495.05646706 0 0 0 0 779515840.40196991 132163919.42528224 0 132163919.42528224 -143846990.89381123 0 0 0 0 153049806.77837372 114463591.85518789 0 114463591.85518789 -315104964.79169464 0 0 0 0 200575830.56661224 -90892144.264655352 0 -90892144.264655352 -299943502.66053933 0 0 0 0 -96438367.590057373 -619258154.90090275 0 -619258154.90090275 -409063184.19485319 0 0 0 0 259587845.77068329 -500943682.72100568 0 -500943682.72100568 546389388.91765165 0 0 0 0 -509675389.61336136 -192128186.57473332 0 -192128186.57473332 433419015.81612873 0 0 0 0 92056133.782455444 -37239150.139817595 0 -37239150.139817595 671733583.00580812 0 0 0 0 268877811.21688843 -564848671.09933257 0 -564848671.09933257 398073330.2511704 0 0 0 0 2209840.3458230644 -1593683.844157682 0 -1593683.844157682 -228651.33379756444 0 0 0 0 625865841.21969271 -976377763.3812362 0 -976377763.3812362 1573931263.9339874 0 0 0 0 346155912.93603516 433682068.01729983 0 433682068.01729983 -701238650.17482495 0 0 0 0 134995311.67448425 -479265057.91083145 0 -479265057.91083145 -316297262.86351299 0 0 0 0 350978567.91567993 -841658627.34690583 0 -841658627.34690583 260572803.38771927 0 0 0 0 475415663.76287842 -690536358.09279156 0 -690536358.09279156 -117434694.97995377 0 0 0 0 1166298577.9125824 132683027.13830209 0 132683027.13830209 -802647561.79974461 0 0 0 0 806496990.52296448 -898937967.83162987 0 -898937967.83162987 -46451068.858672023 0 0 0 0 859396094.72625732 -228925343.09240305 0 -228925343.09240305 231258048.78176132 0 0 0 0 927370411.28701019 239492537.77641082 0 239492537.77641082 -660289786.41925752 0 0 0 0 946372619.03779221 -13163262.46760495 0 -13163262.46760495 262965391.58910978 0 0 0 0 320140790.78043365 -327672792.92435843 0 -327672792.92435843 707032183.15214109 0 0 0 0 999284498.43196487 342904504.27272129 0 342904504.27272129 253553298.86050403 0 0 0 0 -88661444.860839844 -241905381.85766482 0 -241905381.85766482 -65756963.364201427 0 0 0 0 107803193.49370384 64714204.309701599 0 64714204.309701599 320918307.45568949 0 0 0 0 22789364.423736572 -384970054.64922225 0 -384970054.64922225 260294964.6201714 0 0 0 0 317932714.03210449 -126261205.07847069 0 -126261205.07847069 419232974.86464524 0 0 0 0 350677621.46974945 -201872088.20088172 0 -201872088.20088172 61481873.807245612 0 0 0 0 287639227.05901337 -170995974.10632426 0 -170995974.10632426 -168471709.83795726 0 0 0 0 124813515.8678894 -360738239.46042132 0 -360738239.46042132 87426447.526951239 0 0 0 0 85217594.85452652 -256890754.86272961 0 -256890754.86272961 -152734510.59476006 0 0 0 0 1123796792.0507507 -786499178.86862731 0 -786499178.86862731 642336025.72894669 0 0 0 0 1444529.7137772143 -72831.227217512205 0 -72831.227217512205 -633101.76881628099 0 0 0 0 701506068.64465332 840919930.69375801 0 840919930.69375801 710321084.58953285 0 0 0 0 1398694046.8330994 973381921.80038571 0 973381921.80038571 397251357.04167223 0 0 0 0 1123179001.6486893 511332453.85266334 0 511332453.85266334 235087021.2787199 0 0 0 0 1603564730.5553951 214499852.55982232 0 214499852.55982232 170843975.96943641 0 0 0 0 629783789.94816589 75538262.146040678 0 75538262.146040678 233610700.26427749 0 0 0 0 703209924.2843399 21586402.281220973 0 21586402.281220973 160130324.10553992 0 0 0 0 104822249.82040405 -214728097.65530872 0 -214728097.65530872 146213896.87355605 0 0 0 0 -254261128.36377716 118860191.54882057 0 118860191.54882057 -8102406.7489892272 0 0 0 0 505314757.13050842 144957184.56119269 0 144957184.56119269 247974244.49353284 0 0 0 0 578968434.28157425 235836754.43784752 0 235836754.43784752 -705138.64373826981 0 0 0 0 614907505.47588348 168511558.36293018 0 168511558.36293018 36285404.444163382 0 0 0 0 471681280.03936768 572389634.97195685 0 572389634.97195685 704988577.5400176 0 0 0 0 573485058.95866394 410955503.82229531 0 410955503.82229531 -89375241.215087652 0 0 0 0 229496042.16897583 -37393700.938278913 0 -37393700.938278913 -673503915.12520015 0 0 0 0 594049291.61412811 451537899.51873899 0 451537899.51873899 -577936450.02405167 0 0 0 0 1581691.6118507388 -477808.36086617224 0 -477808.36086617224 -1442458.8129353651 0 0 0 0 -144824440.30037475 -215912695.00490761 0 -215912695.00490761 -235315774.10558128 0 0 0 0 -89430221.166964531 242682155.50406733 0 242682155.50406733 -310391749.43767059 0 0 0 0 37890005.519309998 -6543964.9964125156 0 -6543964.9964125156 -27037214.590405226 0 0 0 0 26722120.675304413 42780885.850188136 0 42780885.850188136 -145196488.64440465 0 0 0 0 100275189.44210434 -177314642.7303766 0 -177314642.7303766 -161169390.27284151 0 0 0 0 217313503.22721863 -117860377.86848757 0 -117860377.86848757 -317521074.61827457 0 0 0 0 81261438.813594818 -449028194.25559628 0 -449028194.25559628 -378440996.07884359 0 0 0 0 197912040.98061371 -16046043.814189553 0 -16046043.814189553 -735949127.30665791 0 0 0 0 30393497.162183762 84408225.243017778 0 84408225.243017778 -261361676.42569292 0 0 0 0 -14676865.794151306 38769868.216611505 0 38769868.216611505 -33929876.580907822 0 0 0 0 47787009.926483154 -12825593.528763711 0 -12825593.528763711 -99537902.076866508 0 0 0 0 43984464.779872894 -23875136.264353096 0 -23875136.264353096 -74132471.700213909 0 0 0 0 30347507.815971375 -74325003.929930151 0 -74325003.929930151 -141332317.38649654 0 0 0 0 -105524.33432006836 -47803732.491220534 0 -47803732.491220534 -27253592.818842649 0 0 0 0 1270106.6037120819 -127428469.18054229 0 -127428469.18054229 -63375969.82389307 0 0 0 0 12305113.983345032 -121096212.98517632 0 -121096212.98517632 -129585592.76514298 0 0 0 0 86430531.780151367 23510820.377691686 0 23510820.377691686 -2899258.0652509928 0 0 0 0 -68199197.21219635 -103526754.14954025 0 -103526754.14954025 -65359428.210957646 0 0 0 0 5669021.8860093616 -424748.61549291015 0 -424748.61549291015 225233.50873515138 0 0 0 0 30467039.544418335 28845330.701578379 0 28845330.701578379 11404466.971308291 0 0 0 0 18981448.22600174 -13983884.658070326 0 -13983884.658070326 -3237833.8340234756 0 0 0 0 24085671.855827332 -6093327.2354459465 0 -6093327.2354459465 6618532.2539014816 0 0 0 0 47574461.113296509 -31295600.55171603 0 -31295600.55171603 11855771.241803765 0 0 0 0 44589864.835196495 -28855528.822175354 0 -28855528.822175354 18821001.208446741 0 0 0 0 41007582.311386108 6527501.2158256769 0 6527501.2158256769 12742078.613186061 0 0 0 0 29191475.625076294 -111539537.12736657 0 -111539537.12736657 280199249.50358641 0 0 0 0 2421651.9600280523 1293585.3117006831 0 1293585.3117006831 -880928.71237242164 0 0 0 0 -323702.79234313965 -29894186.729195356 0 -29894186.729195356 132289412.87480855 0 0 0 0 -12727180.083694458 8351690.6260321736 0 8351690.6260321736 73000269.618745089 0 0 0 0 29757075.560302734 8589432.0125721693 0 8589432.0125721693 -51398796.824332312 0 0 0 0 39822525.684326172 -85592456.632115185 0 -85592456.632115185 47432384.682786971 0 0 0 0 53115647.858932495 -71431402.300760776 0 -71431402.300760776 24324145.106867731 0 0 0 0 143320330.80232239 -160841621.31652451 0 -160841621.31652451 -53053163.848821402 0 0 0 0 66077331.549514771 -143529791.15949702 0 -143529791.15949702 157294854.66307777 0 0 0 0 37469318.251205444 -10489525.324197069 0 -10489525.324197069 -17378946.498262331 0 0 0 0 113944355.35342979 -51635897.413614072 0 -51635897.413614072 -72911566.393941641 0 0 0 0 105550055.80243683 -70280711.761328191 0 -70280711.761328191 6136992.5175892115 0 0 0 0 88426547.824768066 -49376208.040460378 0 -49376208.040460378 -18557926.31109184 0 0 0 0 77808057.842208862 -4377081.2616402209 0 -4377081.2616402209 8314043.4949293137 0 0 0 0 67623989.596000671 -5988031.8549777269 0 -5988031.8549777269 11749825.928361177 0 0 0 0 93075556.001716614 -36795777.670340002 0 -36795777.670340002 10589153.970101476 0 0 0 0 115066578.84962463 -23961584.020334162 0 -23961584.020334162 1529967.8749306053 0 0 0 0 151331776.1401825 6659253.7660257816 0 6659253.7660257816 -3942117.6202555746 0 0 0 0 88102592.298574448 -43966141.439483747 0 -43966141.439483747 -2659707.234487474 0 0 0 0 103484986.05716705 -12277606.30322656 0 -12277606.30322656 -9245248.2471866459 0 0 0 0 53329874.539115906 -17921898.670170024 0 -17921898.670170024 8561342.1881600618 0 0 0 0 92563262.405296326 -61433604.990999609 0 -61433604.990999609 37885779.68321532 0 0 0 0 98731619.80909729 -14307653.253698304 0 -14307653.253698304 38816817.055524744 0 0 0 0 655723.36405703798 50522.352186802775 0 50522.352186802775 257532.39508487351 0 0 0 0 338940620.28404999 -5934743.8734903187 0 -5934743.8734903187 -15739553.235130347 0 0 0 0 160999070.2915535 3686988.5592512712 0 3686988.5592512712 14340261.667028397 0 0 0 0 -228587350.3533783 -59787970.352249771 0 -59787970.352249771 -17229027.007962614 0 0 0 0 -392008607.58285904 -71833231.26475957 0 -71833231.26475957 126483259.62335131 0 0 0 0 -116729976.74644661 -152298218.99777746 0 -152298218.99777746 85193524.726459265 0 0 0 0 -199789888.02947998 -169402215.13056558 0 -169402215.13056558 203098489.69803411 0 0 0 0 -162184507.1242218 -121646650.75461721 0 -121646650.75461721 -47055395.265732288 0 0 0 0 -34350563.393630981 -266019301.29446423 0 -266019301.29446423 66858462.455721617 0 0 0 0 -258407585.71113968 -185732424.76960954 0 -185732424.76960954 5861681.2382493019 0 0 0 0 2448740.6251190323 -44800.502077830955 0 -44800.502077830955 469033.77469972125 0 0 0 0 111567364.36089325 -89409022.749118328 0 -89409022.749118328 -116404197.40637493 0 0 0 0 59148988.435108185 -49808144.939326525 0 -49808144.939326525 -144842147.12631607 0 0 0 0 43671474.443466187 -92600969.86395359 0 -92600969.86395359 -58588117.247455418 0 0 0 0 94570172.759277344 -79433797.270374298 0 -79433797.270374298 -58333883.387233734 0 0 0 0 47565905.068138123 -84342440.587665558 0 -84342440.587665558 -91567321.225517273 0 0 0 0 -23154591.324081421 -72397454.155999184 0 -72397454.155999184 -71492254.500221252 0 0 0 0 19066409.498901367 -98471718.164154053 0 -98471718.164154053 -87963320.587333679 0 0 0 0 -84889207.674507141 -148036657.68200994 0 -148036657.68200994 -70747087.201622009 0 0 0 0 11268608.510792386 -11680532.408561273 0 -11680532.408561273 6282418.0625339458 0 0 0 0 -115756362.64670563 -50211661.080301553 0 -50211661.080301553 -5674003.1022432446 0 0 0 0 -23608262.338699341 -133106718.6965642 0 -133106718.6965642 -45887561.242071152 0 0 0 0 -38643123.285926819 -102018240.60851955 0 -102018240.60851955 -106191599.4576664 0 0 0 0 4147102.0539703369 -103735085.67935181 0 -103735085.67935181 -58173402.018062592 0 0 0 0 285311048.39904785 -318059965.80958891 0 -318059965.80958891 265953937.2215209 0 0 0 0 -182544481.61557007 -84320543.643899918 0 -84320543.643899918 -17632048.51080513 0 0 0 0 132544192.72767639 185736443.75675446 0 185736443.75675446 -291544667.94434965 0 0 0 0 251871757.45288086 -350266188.25973213 0 -350266188.25973213 221598902.2158736 0 0 0 0 792311103.47174072 -188843148.82931066 0 -188843148.82931066 -467474200.6472472 0 0 0 0 156353490.82817078 -93545909.481786132 0 -93545909.481786132 -31551842.528380007 0 0 0 0 37025126.183891296 -14386635.824187219 0 -14386635.824187219 -23245292.759117097 0 0 0 0 -123241078.82723999 68122623.148463458 0 68122623.148463458 -36182895.751351774 0 0 0 0 -28792183.199989319 -21125598.961620979 0 -21125598.961620979 24218234.081136167 0 0 0 0 13551331.383964539 -30335741.898063961 0 -30335741.898063961 18137219.657296568 0 0 0 0 21448183.488327026 -46744505.156824686 0 -46744505.156824686 30874368.247639328 0 0 0 0 -31725006.809371948 -20877734.051756516 0 -20877734.051756516 27359455.723917633 0 0 0 0 -3722967.4761352539 -30337831.038318619 0 -30337831.038318619 49391600.211276762 0 0 0 0 25632033.029884338 -12332354.749154866 0 -12332354.749154866 23850857.538422734 0 0 0 0 -11004937.910797119 -9338316.6727393623 0 -9338316.6727393623 23886914.702200264 0 0 0 0 -7105921.6136646122 -7426007.6344558038 0 -7426007.6344558038 3794949.6323285676 0 0 0 0 -32454492.156021118 -8123181.6658142954 0 -8123181.6658142954 9427358.1822747141 0 0 0 0 -25754426.850782394 -28433435.483377181 0 -28433435.483377181 13477672.126130305 0 0 0 0 -22060507.669021606 -28776118.129581243 0 -28776118.129581243 -6982079.7896122392 0 0 0 0 11644908.956225395 1716571.8017971516 0 1716571.8017971516 -145405369.15818214 0 0 0 0 6270701.2931060791 -23049260.447515965 0 -23049260.447515965 -78418468.580519497 0 0 0 0 7447683.8421226963 -10767339.224234462 0 -10767339.224234462 5985450.630845625 0 0 0 0 273363172.04976654 148244251.94106913 0 148244251.94106913 -79001368.488129854 0 0 0 0 31864913.448989868 -10678258.259287119 0 -10678258.259287119 76042618.666921616 0 0 0 0 768576232.46159363 -19202560.205901146 0 -19202560.205901146 -45118340.005958557 0 0 0 0 -364669.73202985898 38702.25852387026 0 38702.25852387026 291266.18031095294 0 0 0 0 -388295452.44415283 -104358796.12359619 0 -104358796.12359619 156773880.69168568 0 0 0 0 168430682.74520874 -84605104.306015968 0 -84605104.306015968 -191133479.58218479 0 0 0 0 468480617.01856995 91434431.434505463 0 91434431.434505463 -377689515.04380131 0 0 0 0 513777903.44710922 661863.32583117485 0 661863.32583117485 -237989447.19699001 0 0 0 0 319823599.52555847 -305175005.72039604 0 -305175005.72039604 59037639.693205833 0 0 0 0 476707774.25540543 -19328355.83030045 0 -19328355.83030045 -229671256.37907887 0 0 0 0 2413958.1122629046 -1725886.995825192 0 -1725886.995825192 1716027.8128653006 0 0 0 0 401320321.79469299 -256821901.75942743 0 -256821901.75942743 -255352742.01944268 0 0 0 0 274750376.15454102 -68221979.407781601 0 -68221979.407781601 -407403818.21075475 0 0 0 0 -37897361.59173584 -31228099.182095528 0 -31228099.182095528 241823357.23620987 0 0 0 0 79864083.31584549 71398246.258273005 0 71398246.258273005 740465042.66378021 0 0 0 0 519293445.52048492 370681264.33702695 0 370681264.33702695 200244206.1837554 0 0 0 0 -122783659.56285858 210998032.16809702 0 210998032.16809702 200600477.52548981 0 0 0 0 97823841.80581665 70127928.039782166 0 70127928.039782166 135211700.48276901 0 0 0 0 -28315098.487503052 34260806.93880415 0 34260806.93880415 227892609.2563448 0 0 0 0 -93239831.953025818 215542963.91882133 0 215542963.91882133 64932061.647745132 0 0 0 0 -112529905.20172119 20466590.601378441 0 20466590.601378441 115711242.00984502 0 0 0 0 11388.593607015908 -1525416.1409349348 0 -1525416.1409349348 489905.80565441982 0 0 0 0 -62367368.446868896 112069568.32606602 0 112069568.32606602 58298102.827923298 0 0 0 0 -68494549.073226929 77066979.141997337 0 77066979.141997337 -39632063.752122879 0 0 0 0 -117687559.95315552 -7925481.3051028252 0 -7925481.3051028252 -1913310.5991201401 0 0 0 0 -63126328.029907227 -39575635.372575283 0 -39575635.372575283 -7959386.2885200977 0 0 0 0 -86403786.880218506 -60856691.221421719 0 -60856691.221421719 -7186375.6758508682 0 0 0 0 -35579473.435698509 -58095636.913106933 0 -58095636.913106933 28598779.901631832 0 0 0 0 -132873475.79971313 6198814.0622320175 0 6198814.0622320175 -10916695.716494083 0 0 0 0 -212400960.78234863 1122100.2007357329 0 1122100.2007357329 -11201997.576256711 0 0 0 0 -162649521.88397217 -85942494.028135493 0 -85942494.028135493 -30350041.530064896 0 0 0 0 -116779096.41212463 -87435339.596017659 0 -87435339.596017659 -30330709.933411598 0 0 0 0 -71864735.879058838 -88715603.688031256 0 -88715603.688031256 -55522125.659700155 0 0 0 0 -86479575.876251221 -92841668.827813685 0 -92841668.827813685 -56446573.485874839 0 0 0 0 15942905.941212296 -3608022.7496057544 0 -3608022.7496057544 -2101556.2352122408 0 0 0 0 -70557632.536705017 -80044335.171437919 0 -80044335.171437919 -48389092.081832767 0 0 0 0 4595955.3647648767 -5751464.3009509277 0 -5751464.3009509277 -2071136.1874944994 0 0 0 0 -60748452.218261719 -64573067.235786438 0 -64573067.235786438 -26102841.604522228 0 0 0 0 -88106956.547973633 -93571966.709297657 0 -93571966.709297657 -47600021.933321953 0 0 0 0 79301626.33429718 23824938.999391556 0 23824938.999391556 -12689828.291708946 0 0 0 0 -51031645.983192444 -110352586.03126192 0 -110352586.03126192 52147742.452559471 0 0 0 0 -16446411.217895508 46073984.899598956 0 46073984.899598956 -6979528.1381657124 0 0 0 0 -3877807.7441329956 -6200501.9633048773 0 -6200501.9633048773 -25902718.633981287 0 0 0 0 -11413750.406951904 -13257407.131176256 0 -13257407.131176256 51341460.868472755 0 0 0 0 -8541894.5277820528 -7065840.7177847642 0 -7065840.7177847642 3314346.4440539489 0 0 0 0 21425038.056556702 -40199949.470917702 0 -40199949.470917702 16461141.945807457 0 0 0 0 11670921.645813987 -8654545.0659006462 0 -8654545.0659006462 -3324776.2253776798 0 0 0 0 6793714.9351768494 -6900825.5265110731 0 -6900825.5265110731 -1100147.8983092308 0 0 0 0 2952267.7944393158 -3682942.8765947819 0 -3682942.8765947819 1462087.5597748756 0 0 0 0 698989.79734802246 -9639111.2226900458 0 -9639111.2226900458 6300635.9545488358 0 0 0 0 12032226.826187134 -10071947.854393482 0 -10071947.854393482 4100991.425350666 0 0 0 0 4697252.2655181885 -9211709.3018078804 0 -9211709.3018078804 4618556.1720104218 0 0 0 0 8652094.4538269043 -7712291.6062655449 0 -7712291.6062655449 -5438227.8240127563 0 0 0 0 18473934.404037476 -13147255.173377514 0 -13147255.173377514 -9804753.2785692811 0 0 0 0 14449304.265258789 -13632019.843296766 0 -13632019.843296766 266923.77892374992 0 0 0 0 13552705.91639328 -14594225.058410287 0 -14594225.058410287 5793534.7125964165 0 0 0 0 27598827.999954224 -21127627.025892019 0 -21127627.025892019 -5582778.9030566216 0 0 0 0 18430889.452987671 -12703224.664015889 0 -12703224.664015889 -11277384.685851574 0 0 0 0 50775119.513946533 -24573145.397764087 0 -24573145.397764087 -18108350.764462709 0 0 0 0 26758912.236343384 -5423556.5306966305 0 -5423556.5306966305 -30239010.476559341 0 0 0 0 27912924.974699974 -17585231.19752495 0 -17585231.19752495 2534702.1864333153 0 0 0 0 37229429.363464355 80218.938230514526 0 80218.938230514526 -15535961.505792141 0 0 0 0 48286869.908966064 -22083384.610958815 0 -22083384.610958815 3244300.4889149666 0 0 0 0 12048849.051879883 -13516702.936460018 0 -13516702.936460018 1889084.7883062363 0 0 0 0 27790294.795074463 -4411725.6997699738 0 -4411725.6997699738 17762378.123919725 0 0 0 0 22868941.1902771 -20209618.02349329 0 -20209618.02349329 22455841.865223885 0 0 0 0 10464525.002655029 -12427973.297914982 0 -12427973.297914982 10107665.046319008 0 0 0 0 23292161.841720581 -16584143.835835457 0 -16584143.835835457 5462961.5407066345 0 0 0 0 25112219.327545166 -11020929.669634342 0 -11020929.669634342 2151067.7226991653 0 0 0 0 43720885.101364136 -18551280.307501554 0 -18551280.307501554 27717159.178917885 0 0 0 0 30117720.48135376 52706206.768025398 0 52706206.768025398 18646187.775975108 0 0 0 0 92741974.928100586 -45196045.007978439 0 -45196045.007978439 68518138.724384308 0 0 0 0 -58514440.121582031 34609132.475750923 0 34609132.475750923 164569040.28507805 0 0 0 0 241134245.73887634 -69959249.733229399 0 -69959249.733229399 30485627.54624176 0 0 0 0 -74474833.450950623 -66559586.326649427 0 -66559586.326649427 255049181.30414581 0 0 0 0 106788367.72558975 -153283098.497576 0 -153283098.497576 170149940.01335907 0 0 0 0 150388285.1399231 -2475256.975710392 0 -2475256.975710392 11018430.87364769 0 0 0 0 100449212.95809937 -16843603.55107832 0 -16843603.55107832 13255658.759673893 0 0 0 0 51823136.040542603 -32561436.846172094 0 -32561436.846172094 31242082.351981401 0 0 0 0 82319704.492706299 -58689514.764335155 0 -58689514.764335155 88920180.277667999 0 0 0 0 69642199.430969238 -11138456.525829792 0 -11138456.525829792 19834139.001123428 0 0 0 0 78705250.443344116 -24811228.229886532 0 -24811228.229886532 -11781031.103011131 0 0 0 0 94586902.309020996 -6440810.2275519371 0 -6440810.2275519371 -5170533.5314054489 0 0 0 0 53250399.952425003 3026605.8830018044 0 3026605.8830018044 -41057072.959087849 0 0 0 0 79269813.167480469 1842313.7848973274 0 1842313.7848973274 -62372561.578585625 0 0 0 0 144699354.15299225 18575135.495955944 0 18575135.495955944 -12449488.592104912 0 0 0 0 70885823.560739517 27081462.229817659 0 27081462.229817659 -8581050.2439556122 0 0 0 0 19548395.378120422 24620036.004194975 0 24620036.004194975 37754079.09429884 0 0 0 0 66995645.792221069 74796446.84706223 0 74796446.84706223 57261806.70822382 0 0 0 0 41125559.663475037 25589531.993675798 0 25589531.993675798 -23072309.490571499 0 0 0 0 -162837902.78198242 -134746618.70591342 0 -134746618.70591342 74825828.118774414 0 0 0 0 6259147.7404899597 -42150822.772016406 0 -42150822.772016406 71389575.253129482 0 0 0 0 10762967.833690658 -776430.33566386811 0 -776430.33566386811 -1013456.6579004402 0 0 0 0 1952686.1903747953 463130.0413389951 0 463130.0413389951 -423398.12852332252 0 0 0 0 187423563.14170265 82019894.977439195 0 82019894.977439195 27004429.268657207 0 0 0 0 -134358687.85105896 -120362547.03505564 0 -120362547.03505564 -103502678.25096875 0 0 0 0 -1259637.1436683089 -1076591.1706812133 0 -1076591.1706812133 514040.50209018739 0 0 0 0 -155637023.15309906 42663101.175011933 0 42663101.175011933 9605968.7695616484 0 0 0 0 -375906670.2522049 -115747123.93384624 0 -115747123.93384624 54756962.304540157 0 0 0 0 -441715278.0582428 169490649.0232935 0 169490649.0232935 369965195.66675472 0 0 0 0 -394655379.03827667 29023440.85737028 0 29023440.85737028 271978216.52234811 0 0 0 0 -309382736.11986923 75880998.674209014 0 75880998.674209014 73192050.188456595 0 0 0 0 -187002026.27741623 -26425131.618293487 0 -26425131.618293487 68677528.181680292 0 0 0 0 29430609.542770386 -58468061.086179674 0 -58468061.086179674 14604298.370625615 0 0 0 0 202874800.11322021 -121819497.23801331 0 -121819497.23801331 52218274.825526804 0 0 0 0 43064215.24029541 -80937336.017357528 0 -80937336.017357528 114481258.12952143 0 0 0 0 58152306.346969604 4613779.1079075336 0 4613779.1079075336 30507158.7510795 0 0 0 0 -27928268.932174683 39361609.594063938 0 39361609.594063938 14732292.841996849 0 0 0 0 33765135.520471573 -49583339.049307883 0 -49583339.049307883 69238822.53677094 0 0 0 0 79310959.230392456 -9958291.1522797644 0 -9958291.1522797644 23290500.083928168 0 0 0 0 -32084377.988418579 -23409472.895724833 0 -23409472.895724833 43875661.049909115 0 0 0 0 59640094.688877106 -42249992.487665713 0 -42249992.487665713 -33624600.311292708 0 0 0 0 11576107.026702881 2106420.3764708042 0 2106420.3764708042 11423070.882464767 0 0 0 0 -3828946.286763154 -4039200.7593774712 0 -4039200.7593774712 1924272.4373383382 0 0 0 0 12531092.078575134 15887993.766593874 0 15887993.766593874 -24454681.227173805 0 0 0 0 20978724.481124878 -14309796.356506824 0 -14309796.356506824 14359869.432947159 0 0 0 0 26925964.300201416 -9031010.5876407623 0 -9031010.5876407623 -13059145.930040359 0 0 0 0 -2726845.1958312988 -17561255.503631115 0 -17561255.503631115 -10327902.116294861 0 0 0 0 8983038.7930305488 -5273108.3432652839 0 -5273108.3432652839 -2186716.8288314631 0 0 0 0 17785349.56187439 -563080.95912265778 0 -563080.95912265778 -8095877.7493562698 0 0 0 0 9541018.7049713135 -10027407.966565371 0 -10027407.966565371 1811453.6724281311 0 0 0 0 1371667.7415347435 -530996.71610433981 0 -530996.71610433981 -481807.8359775024 0 0 0 0 12466817.428340912 -6682685.2485253215 0 -6682685.2485253215 -8031311.7190847397 0 0 0 0 7818149.965637207 -7320354.3134427071 0 -7320354.3134427071 -1050505.4787281752 0 0 0 0 11364409.522983551 -10582560.937556386 0 -10582560.937556386 -8410924.4802298546 0 0 0 0 6052379.112411499 -153301.9130795002 0 -153301.9130795002 -10786214.125540406 0 0 0 0 17999983.930137634 9377194.3505725861 0 9377194.3505725861 -18993315.438121796 0 0 0 0 35987640.113006592 -29095917.525173187 0 -29095917.525173187 -7199436.8248360157 0 0 0 0 7555124.9282334298 -5073549.6879941281 0 -5073549.6879941281 -2772022.9313042853 0 0 0 0 29667952.49256897 -34353915.046536446 0 -34353915.046536446 8155034.521856308 0 0 0 0 9025309.9133467712 -5808298.6755796131 0 -5808298.6755796131 -4015533.2949935757 0 0 0 0 30974870.79524231 -42601908.438943863 0 -42601908.438943863 21988943.313239098 0 0 0 0 -21814348.965881348 34880041.335442543 0 34880041.335442543 -50125751.145919085 0 0 0 0 984355.46664693207 1735277.9254534571 0 1735277.9254534571 -1823615.1135049167 0 0 0 0 -97518740.268768311 82043625.512996793 0 82043625.512996793 -31154784.751734734 0 0 0 0 -32635343.297828674 -591366.99652719498 0 -591366.99652719498 3114458.9483184814 0 0 0 0 -20056858.417625427 3416481.7831072807 0 3416481.7831072807 943365.64958095551 0 0 0 0 -172453627.04304504 4041328.8790664077 0 4041328.8790664077 123183091.24036646 0 0 0 0 9386863.9201760292 -28504436.91477444 0 -28504436.91477444 -46182785.064453602 0 0 0 0 -136069228.99140167 -50249308.862859488 0 -50249308.862859488 -14108875.130652189 0 0 0 0 -196888020.32608795 93258736.756016254 0 93258736.756016254 69192467.872972965 0 0 0 0 -198766406.8032608 135414613.50061226 0 135414613.50061226 42610741.781759262 0 0 0 0 -89530103.490573406 43783143.679730177 0 43783143.679730177 -6466529.773018837 0 0 0 0 -84590881.816950798 159107257.87716633 0 159107257.87716633 -88803641.957984924 0 0 0 0 12346362.810849126 -5924397.8112554159 0 -5924397.8112554159 -3195371.6998464433 0 0 0 0 -23664841.683696747 65550258.458846092 0 65550258.458846092 -94213684.003562927 0 0 0 0 4738249.758972168 -3110944.6942791939 0 -3110944.6942791939 -3521979.3624404371 0 0 0 0 6026145.5441131592 -2911284.4451508522 0 -2911284.4451508522 -3597918.2807188034 0 0 0 0 11072936.276874542 -2703266.5919109937 0 -2703266.5919109937 -7215835.7742878795 0 0 0 0 11356691.096248627 -2736365.5948015153 0 -2736365.5948015153 -12329931.468221188 0 0 0 0 9893190.6305789221 -5680966.9340101816 0 -5680966.9340101816 -638199.61939277512 0 0 0 0 341432.25257247686 435693.82771062397 0 435693.82771062397 -793471.03599845828 0 0 0 0 -4354626.1068954468 10358250.313477516 0 10358250.313477516 -5283420.1304034144 0 0 0 0 4290121.1058311462 -14503510.69897604 0 -14503510.69897604 23813008.750915051 0 0 0 0 17585839.697341919 -44172589.653998971 0 -44172589.653998971 -23859250.015179455 0 0 0 0 16750425.979330063 -4202483.3026586771 0 -4202483.3026586771 -22996555.444521904 0 0 0 0 16829175.840929858 -3021577.5566237122 0 -3021577.5566237122 -3587097.0387591431 0 0 0 0 -4291615.5823059082 10472645.527820587 0 10472645.527820587 3614913.3813514709 0 0 0 0 -5131348.1685295105 15778184.850237489 0 15778184.850237489 -15346553.060033798 0 0 0 0 16784377.766075253 -2368048.6601017946 0 -2368048.6601017946 -3632000.8585038604 0 0 0 0 -9437943.5385665894 -396312.31993722916 0 -396312.31993722916 1152536.8203229904 0 0 0 0 11118624.193091933 -1544173.4008700014 0 -1544173.4008700014 -2855636.828738872 0 0 0 0 42564559.503627777 -15543273.310608029 0 -15543273.310608029 -34932262.997186184 0 0 0 0 11301871.456672668 -9018365.2869619727 0 -9018365.2869619727 -15618181.90667437 0 0 0 0 73524738.334465027 -8130880.2169716358 0 -8130880.2169716358 -33663545.358723164 0 0 0 0 7625974.8399429321 -9268687.2100814283 0 -9268687.2100814283 -8946152.992889002 0 0 0 0 -13808651.738334179 -32930006.041153781 0 -32930006.041153781 -4446062.1185760498 0 0 0 0 10860660.473111603 -1961455.7970041791 0 -1961455.7970041791 -1913021.9155165867 0 0 0 0 26593960.390472412 21181167.972786903 0 21181167.972786903 -66825719.205688477 0 0 0 0 96907890.444030762 33448405.595078558 0 33448405.595078558 -33760445.231125191 0 0 0 0 114616.83122634888 -154119.84481651988 0 -154119.84481651988 -262402.37867724249 0 0 0 0 -55451923.754142761 21461079.470954776 0 21461079.470954776 54494096.81295608 0 0 0 0 20947321.149360657 22161523.187699556 0 22161523.187699556 15131816.346396208 0 0 0 0 -975080.27907943726 -8134006.2669157982 0 -8134006.2669157982 -32454474.206386566 0 0 0 0 14872909.333503723 11654900.128275871 0 11654900.128275871 -13337940.209347725 0 0 0 0 -10328409.837470055 14709472.589369655 0 14709472.589369655 -12205624.001966476 0 0 0 0 -14194731.599796295 -11882647.694749355 0 -11882647.694749355 -13214615.95098114 0 0 0 0 13676193.569477081 34086932.046061039 0 34086932.046061039 -30349662.903814316 0 0 0 0 24279914.757031441 8176214.1108469963 0 8176214.1108469963 1577817.7777175903 0 0 0 0 11969937.797325134 -6102105.6607904434 0 -6102105.6607904434 -12933982.520789385 0 0 0 0 21504698.969717979 1527686.8843608499 0 1527686.8843608499 38092729.863631248 0 0 0 0 61073861.452884674 20538430.417607307 0 20538430.417607307 -9061482.3877363205 0 0 0 0 53473026.649169922 -27697961.302905321 0 -27697961.302905321 6062646.5867626667 0 0 0 0 6510953.9395615123 -1724202.6039255578 0 -1724202.6039255578 614770.68267228454 0 0 0 0 26948375.674303055 -22840304.417393208 0 -22840304.417393208 30068301.217710495 0 0 0 0 33998656.406270981 -19322108.017173529 0 -19322108.017173529 5646027.9556055069 0 0 0 0 21203679.410003662 -10081974.888301849 0 -10081974.888301849 6968482.1969850063 0 0 0 0 16029315.418876648 202564.42318034172 0 202564.42318034172 2999020.3792514801 0 0 0 0 5245066.8707122803 -5122119.5405416489 0 -5122119.5405416489 676139.2109079361 0 0 0 0 12051346.411160469 11942537.548288822 0 11942537.548288822 -12523208.906659126 0 0 0 0 20089911.52930069 5630742.0350382328 0 5630742.0350382328 -3248788.0338711739 0 0 0 0 12994831.55777359 6889953.5555949211 0 6889953.5555949211 -2294676.2723710537 0 0 0 0 17321112.758960724 6560260.271116972 0 6560260.271116972 -21649134.70076561 0 0 0 0 13120473.180953979 4054479.7466609478 0 4054479.7466609478 -1704204.6572680473 0 0 0 0 14697661.690964699 8251802.8899781704 0 8251802.8899781704 -9216461.0173835754 0 0 0 0 13668343.748832703 9512602.7871952057 0 9512602.7871952057 -9592244.3254709244 0 0 0 0 9463328.6198768616 -927309.04889345169 0 -927309.04889345169 -17392067.02122736 0 0 0 0 1565598.614654541 1866587.3355603218 0 1866587.3355603218 -5632293.231656909 0 0 0 0 9055063.1668359041 6374991.7585410476 0 6374991.7585410476 -5241154.599070549 0 0 0 0 5839242.5221283361 -132607.14679450076 0 -132607.14679450076 -1856407.5119515089 0 0 0 0 -8610616.9693069458 -8211419.7763683191 0 -8211419.7763683191 876952.03019088507 0 0 0 0 589643.51761985943 -617534.47848397028 0 -617534.47848397028 -447511.4663872458 0 0 0 0 6770496.4584350586 -4750886.3351944685 0 -4750886.3351944685 -13911923.053225279 0 0 0 0 5462783.4263536595 2172122.6306777755 0 2172122.6306777755 -3823536.7633090853 0 0 0 0 7198342.4376426842 -5339605.1349468362 0 -5339605.1349468362 -193436.11254685489 0 0 0 0 4622636.572555542 5794801.3054625988 0 5794801.3054625988 -8431791.4515921772 0 0 0 0 10123806.843232345 -1556278.0985807478 0 -1556278.0985807478 -2340243.6701605017 0 0 0 0 16445023.944461823 -1400486.6622161865 0 -1400486.6622161865 -27350598.092715263 0 0 0 0 10941108.48041153 24004286.093375683 0 24004286.093375683 -31036689.741505146 0 0 0 0 1441608.7033917122 2130520.3544239174 0 2130520.3544239174 -1788405.631586717 0 0 0 0 24718031.681137085 -2165166.2996664643 0 -2165166.2996664643 -37737250.707236871 0 0 0 0 30379556.297700882 -11772840.635296345 0 -11772840.635296345 19350.343860626221 0 0 0 0 28409409.126788139 -12827782.637980938 0 -12827782.637980938 631036.97943115234 0 0 0 0 67239997.228496552 -34885085.332882673 0 -34885085.332882673 -10644778.501853526 0 0 0 0 28509835.388786316 17731755.766831279 0 17731755.766831279 -17254660.189528823 0 0 0 0 29325818.927174568 -11078670.102802753 0 -11078670.102802753 2129635.3308982849 0 0 0 0 25944479.547375411 -4931253.1462257979 0 -4931253.1462257979 -4420665.9444810897 0 0 0 0 19085307.581474304 6413035.624823615 0 6413035.624823615 -31008191.83711791 0 0 0 0 5835202.0114311799 -1508768.9002719615 0 -1508768.9002719615 -1358131.4480571602 0 0 0 0 30845882.762626648 59147454.137176812 0 59147454.137176812 -74230838.937011451 0 0 0 0 32370333.036109924 -5281634.1616576314 0 -5281634.1616576314 -34529175.595701456 0 0 0 0 19713085.304078739 1498800.5931264972 0 1498800.5931264972 -5047403.3458868619 0 0 0 0 33356157.611467361 -13605047.838745117 0 -13605047.838745117 1275369.1067867279 0 0 0 0 31060567.097824097 -10472708.841309547 0 -10472708.841309547 668208.81614112854 0 0 0 0 31682594.43788147 -19364860.743715286 0 -19364860.743715286 -5011452.9437789917 0 0 0 0 16156990.487526637 -5234385.9192535095 0 -5234385.9192535095 -4795967.704613436 0 0 0 0 8940010.6171569824 6869775.9433407784 0 6869775.9433407784 -13878940.384386539 0 0 0 0 43504827.545211792 -7201710.1069450378 0 -7201710.1069450378 5875759.5520458221 0 0 0 0 1122810.5399689022 1829700.7016400015 0 1829700.7016400015 -1036242.6992483921 0 0 0 0 7752872.233089447 -48235168.655450821 0 -48235168.655450821 -16818871.0217278 0 0 0 0 25140582.703552246 3399179.4663767219 0 3399179.4663767219 -41200845.302325964 0 0 0 0 31359271.080303192 -15958115.21198529 0 -15958115.21198529 -23111189.041929245 0 0 0 0 22081006.165485382 -8276605.0827531964 0 -8276605.0827531964 -26908982.945552588 0 0 0 0 24234742.104248047 -9637705.2495669127 0 -9637705.2495669127 -27305078.982058942 0 0 0 0 12393924.720567994 907922.40242348332 0 907922.40242348332 -3562713.1128650708 0 0 0 0 10583561.300100327 -2701614.4359703213 0 -2701614.4359703213 -18766225.546650648 0 0 0 0 -16864886.739950538 4454196.1612036861 0 4454196.1612036861 -17499923.694608927 0 0 0 0 12261629.423254676 -4126038.1785928095 0 -4126038.1785928095 -2405740.4751652903 0 0 0 0 73292354.942810059 15394245.037540436 0 15394245.037540436 -20657506.414716721 0 0 0 0 32935910.19644928 -60738362.90525341 0 -60738362.90525341 -40960520.191655874 0 0 0 0 34029428.31060791 -18828351.152432203 0 -18828351.152432203 9415924.243698597 0 0 0 0 32034359.397535324 -17961537.563408613 0 -17961537.563408613 11606127.93272686 0 0 0 0 72695647.188224792 -42542565.942600727 0 -42542565.942600727 -44472366.681423187 0 0 0 0 2113810.3601074768 -178013.00351335201 0 -178013.00351335201 -139682.64422252681 0 0 0 0 41557590.253072739 -23431266.264365971 0 -23431266.264365971 11816203.830313325 0 0 0 0 12289701.008579941 -1619170.982615524 0 -1619170.982615524 -3547257.5054980805 0 0 0 0 29120509.37562561 -13350346.272121429 0 -13350346.272121429 3963901.3191883564 0 0 0 0 33705026.48554039 -15386931.348636627 0 -15386931.348636627 4426573.6172275543 0 0 0 0 12025105.946507018 -2556048.7364360378 0 -2556048.7364360378 -4194957.5409361674 0 0 0 0 32531081.226938725 -11696061.838820338 0 -11696061.838820338 795900.47654914856 0 0 0 0 29700300.829025269 -11723594.520241737 0 -11723594.520241737 3255863.4909229279 0 0 0 0 29429059.494863458 -5320825.5894318521 0 -5320825.5894318521 -10108819.196673624 0 0 0 0 29619395.107726336 -10384616.519169331 0 -10384616.519169331 -967321.10647392273 0 0 0 0 -15283405.11769104 542508.92399787903 0 542508.92399787903 -9473724.2949409485 0 0 0 0 179265939.41480255 85937482.316513062 0 85937482.316513062 70653240.523044825 0 0 0 0 8165432.7588424683 97148327.115371704 0 97148327.115371704 240172560.04337311 0 0 0 0 82587674.478500366 98697843.779853821 0 98697843.779853821 -110535041.64653778 0 0 0 0 31716731.81375885 126963459.29694366 0 126963459.29694366 72927272.757749557 0 0 0 0 90722535.421424866 75902028.342172623 0 75902028.342172623 -284415410.08643341 0 0 0 0 -27240716.875631332 136531616.5429039 0 136531616.5429039 -118018388.85418701 0 0 0 0 27271135.884410605 -3483103.6724896086 0 -3483103.6724896086 -11617993.959855314 0 0 0 0 30277818.780708313 -11010640.592957973 0 -11010640.592957973 2655212.0400705338 0 0 0 0 27769997.159479141 192719316.88418102 0 192719316.88418102 -235382343.99536133 0 0 0 0 19412024.18606472 81861791.540408134 0 81861791.540408134 -203979676.74417114 0 0 0 0 -1428108.7551307678 76977993.34046936 0 76977993.34046936 38797640.861686707 0 0 0 0 -2968814.3889923096 30899933.477970123 0 30899933.477970123 28266214.201383591 0 0 0 0 -33786025.379575729 95135983.659901619 0 95135983.659901619 -91461247.859701157 0 0 0 0 30114439.510843277 -12081237.504167974 0 -12081237.504167974 5462822.3020324707 0 0 0 0 29029664.759356737 -13189548.014167309 0 -13189548.014167309 6143433.1785860062 0 0 0 0 27963612.067356586 -12924568.481892824 0 -12924568.481892824 6195212.9997167587 0 0 0 0 28352684.481529236 -12496086.086573601 0 -12496086.086573601 5933635.4035396576 0 0 0 0 25485542.547339704 -2363849.4828066304 0 -2363849.4828066304 -13149786.776520191 0 0 0 0 -31428177.224627733 15058802.670971513 0 15058802.670971513 27810390.27986145 0 0 0 0 -2149785.2053165436 13606002.871762276 0 13606002.871762276 -6695829.0130729675 0 0 0 0 14667523.634906769 8472441.300951004 0 8472441.300951004 -34564254.692033291 0 0 0 0 8288851.7364430428 11608838.933124304 0 11608838.933124304 -17795668.692443848 0 0 0 0 -211147.47047486901 3415034.7237035986 0 3415034.7237035986 -2871211.7029479258 0 0 0 0 -51092434.990844727 7826924.7279644012 0 7826924.7279644012 123629864.3629837 0 0 0 0 -16230556.125923157 -3522029.6541671753 0 -3522029.6541671753 97298608.627843857 0 0 0 0 2068177.3609091509 2088328.5985315666 0 2088328.5985315666 -1443628.2479648693 0 0 0 0 838139.42807769775 -8832816.6658496857 0 -8832816.6658496857 -23551487.269836426 0 0 0 0 18409935.449014664 -18524360.161587715 0 -18524360.161587715 -18918278.437568665 0 0 0 0 -9096502.2869377136 -19100105.729919434 0 -19100105.729919434 -3815067.5020141602 0 0 0 0 116284535.8123827 -55616153.867539883 0 -55616153.867539883 60812162.903728485 0 0 0 0 -14994498.424449921 -8246108.7872695923 0 -8246108.7872695923 -9710349.1597938538 0 0 0 0 1099250.3455652613 -867763.11675545387 0 -867763.11675545387 -5699743.5822148491 0 0 0 0 137010174.69501114 -45337595.754560471 0 -45337595.754560471 41819293.087234497 0 0 0 0 216389265.04524612 -82206866.021274567 0 -82206866.021274567 37088410.763542175 0 0 0 0 113634862.79946899 -33134544.858474731 0 -33134544.858474731 -80397295.306335449 0 0 0 0 122430459.17175531 -103961889.57391214 0 -103961889.57391214 62477165.707778931 0 0 0 0 213797092.53250122 -35247417.383499146 0 -35247417.383499146 -53463802.526580811 0 0 0 0 2756.1849069669843 -47565.223081124946 0 -47565.223081124946 -110008.80778588913 0 0 0 0 42858452.199859619 -93948611.338100433 0 -93948611.338100433 200317814.14872742 0 0 0 0 732500.19618683495 1043673.6615040465 0 1043673.6615040465 -673028.09901926294 0 0 0 0 121375570.32635498 -23994532.402084351 0 -23994532.402084351 -3779813.817735672 0 0 0 0 172740072.86553383 122509503.875597 0 122509503.875597 119545280.54934692 0 0 0 0 22257584.556102753 9977032.7334051132 0 9977032.7334051132 -10801241.026911974 0 0 0 0 32860278.64680481 -15710038.68786478 0 -15710038.68786478 15113987.667785764 0 0 0 0 36047917.70664978 -18564018.830336332 0 -18564018.830336332 -46606690.832581162 0 0 0 0 113036004.21702957 62606824.701721698 0 62606824.701721698 -66059682.32475467 0 0 0 0 762523.3387077013 418445.71220612433 0 418445.71220612433 -11826.464890645584 0 0 0 0 7778935.9633483887 -41847760.78545332 0 -41847760.78545332 22569149.046727896 0 0 0 0 29262343.831882954 39014556.367375165 0 39014556.367375165 -9877585.2042441368 0 0 0 0 21468035.767351151 10020598.273985028 0 10020598.273985028 2660748.9215154648 0 0 0 0 14231285.717563629 9487636.9334027767 0 9487636.9334027767 4681753.6743052006 0 0 0 0 16745661.221252441 1469853.0336955786 0 1469853.0336955786 4638931.25365448 0 0 0 0 29997823.527933121 -615058.12483024597 0 -615058.12483024597 2999527.3697900772 0 0 0 0 35535732.872032166 -5371161.2735052109 0 -5371161.2735052109 5407510.0002894402 0 0 0 0 41829956.46307373 -16569522.993320346 0 -16569522.993320346 5711660.7815177385 0 0 0 0 14671669.184731871 -5888896.8230304364 0 -5888896.8230304364 3076196.9591137553 0 0 0 0 9690891.1255521625 1276297.0700660902 0 1276297.0700660902 -3620484.6004322856 0 0 0 0 22635230.878538974 -589947.93661188334 0 -589947.93661188334 -14730737.991152506 0 0 0 0 14506436.216114998 -3900745.8835601807 0 -3900745.8835601807 108545.51551818848 0 0 0 0 26182079.825182915 -12749948.112143278 0 -12749948.112143278 9783893.5137710571 0 0 0 0 26155046.616884232 -13928908.527191162 0 -13928908.527191162 10036989.347573638 0 0 0 0 34532059.687917709 1260812.2521194816 0 1260812.2521194816 -4834995.1646037102 0 0 0 0 15912409.374984266 -6820898.0129996799 0 -6820898.0129996799 4715253.1990668988 0 0 0 0 11541519.791988373 -3972527.3177099228 0 -3972527.3177099228 991198.83832263947 0 0 0 0 3155148.0584947499 5497375.2290558191 0 5497375.2290558191 -7008992.3713246491 0 0 0 0 7091196.0703442097 778044.65980887413 0 778044.65980887413 -527518.80201816559 0 0 0 0 6404981.0294446945 2772814.8396377563 0 2772814.8396377563 -6675450.0603904724 0 0 0 0 -41690585.27444458 36383512.945018768 0 36383512.945018768 -56077563.369098663 0 0 0 0 30375945.191545434 -6006210.7585952887 0 -6006210.7585952887 -7117999.1839912646 0 0 0 0 -2079482.2007751651 1749921.8318756865 0 1749921.8318756865 -1335611.4244123399 0 0 0 0 -24496740.286853552 74244092.844537139 0 74244092.844537139 -56289620.198123932 0 0 0 0 -4496740.804107666 59595578.172462463 0 59595578.172462463 -94326015.247947693 0 0 0 0 -22445192.976409912 28813700.835384369 0 28813700.835384369 -12074822.039714813 0 0 0 0 -3562149.2384911887 8799407.8887598347 0 8799407.8887598347 -5642634.8840183113 0 0 0 0 -18164911.439651489 16625579.910110474 0 16625579.910110474 -11172330.016468048 0 0 0 0 1328123.7048225403 12842861.125413895 0 12842861.125413895 -15417833.716116428 0 0 0 0 5833585.7482452393 173245.09259796143 0 173245.09259796143 -4353896.9694497585 0 0 0 0 8322847.3721331703 1997861.7975970022 0 1997861.7975970022 -5588422.1540849525 0 0 0 0 10223588.260007858 -352834.04176902771 0 -352834.04176902771 -7465447.6422119141 0 0 0 0 603406.31560843997 5894983.0247708708 0 5894983.0247708708 -8216106.9766049786 0 0 0 0 174178.52158355713 2964045.1503143311 0 2964045.1503143311 -3734102.1081876755 0 0 0 0 5790624.2768596727 -724248.82980246679 0 -724248.82980246679 -2161211.6526533905 0 0 0 0 20228019.250556547 -1266900.8475521225 0 -1266900.8475521225 -9274525.7758204862 0 0 0 0 7498489.8714790344 7935477.6719398499 0 7935477.6719398499 -11514999.773815155 0 0 0 0 -303099.676072428 1116736.2651073369 0 1116736.2651073369 -826241.27837804006 0 0 0 0 -3018127.4766311646 -2124637.0567512512 0 -2124637.0567512512 -4520954.3556203842 0 0 0 0 13017595.266584396 12384572.058559418 0 12384572.058559418 -13945550.474861145 0 0 0 0 28929952.165882111 -32464396.705961585 0 -32464396.705961585 5407021.7283411026 0 0 0 0 30235838.243633747 -16777693.015411325 0 -16777693.015411325 36752907.748351991 0 0 0 0 13278229.526570015 -459761.85680295434 0 -459761.85680295434 -2710560.3758752528 0 0 0 0 21669265.290164948 -44045298.990758359 0 -44045298.990758359 5788252.6064448357 0 0 0 0 3084579.8489189148 -17257732.525978386 0 -17257732.525978386 -11014848.935953379 0 0 0 0 28799730.901292801 -27356201.135131553 0 -27356201.135131553 -7113530.9767838717 0 0 0 0 383382.91298838146 261566.18775525037 0 261566.18775525037 265118.18692534592 0 0 0 0 47142730.935409546 -2167290.2890159488 0 -2167290.2890159488 8144993.9758633375 0 0 0 0 22034438.17845428 -380525.74791412684 0 -380525.74791412684 -9701358.6355748493 0 0 0 0 32245622.957115173 10920640.415019989 0 10920640.415019989 -11217833.73481369 0 0 0 0 16823585.778624073 -4811522.3938323632 0 -4811522.3938323632 -2441986.174623366 0 0 0 0 -286799597.61368704 -171312359.02134955 0 -171312359.02134955 73768520.027411655 0 0 0 0 651321433.24457693 40335800.788470209 0 40335800.788470209 -49798588.245418429 0 0 0 0 -199163135.30248785 227761185.23511529 0 227761185.23511529 706074777.27308166 0 0 0 0 603470942.85176563 -230146864.77354395 0 -230146864.77354395 -403376158.25843281 0 0 0 0 9781225.6405982971 11295579.397181213 0 11295579.397181213 -2458329.0410079956 0 0 0 0 -14535858.34928894 -47982132.343192339 0 -47982132.343192339 -876449.29843914509 0 0 0 0 -54558319.075147629 -31140550.735729903 0 -31140550.735729903 11759516.980472565 0 0 0 0 610860.97215495119 228959.85978025105 0 228959.85978025105 -3216.0038773814449 0 0 0 0 26445310.376344681 12912359.661221623 0 12912359.661221623 -12503311.733422279 0 0 0 0 4708764.0307998657 -10151003.260303497 0 -10151003.260303497 -14829662.155323505 0 0 0 0 -20337375.936523438 -5966773.2592887878 0 -5966773.2592887878 -10092781.133802056 0 0 0 0 30175775.297026634 -23260133.957795769 0 -23260133.957795769 -19128073.653350353 0 0 0 0 13058343.42794502 -3091836.9412643011 0 -3091836.9412643011 -1952403.5599092063 0 0 0 0 17004210.028694153 -10606139.372745275 0 -10606139.372745275 3471412.8826713562 0 0 0 0 26378595.091142416 -2731064.6634692997 0 -2731064.6634692997 -12250434.276108742 0 0 0 0 34777504.19700408 -247356066.2151022 0 -247356066.2151022 -264378141.55100727 0 0 0 0 7250499.1284790039 -3159455.9080777168 0 -3159455.9080777168 1676244.842045784 0 0 0 0 15890313.383766174 -16643003.643463135 0 -16643003.643463135 -942743.17374134064 0 0 0 0 12036665.573169708 -5933696.6352655888 0 -5933696.6352655888 -5276145.011542201 0 0 0 0 24457294.117774963 -3282870.5667507052 0 -3282870.5667507052 -6963271.8472862244 0 0 0 0 7710426.6151580811 -2953516.4451141357 0 -2953516.4451141357 -3720683.2270717621 0 0 0 0 -468013.15842666477 -1000363.0359565545 0 -1000363.0359565545 36633.402898423199 0 0 0 0 14447348.341098785 -6489262.1261365414 0 -6489262.1261365414 2201803.3066182137 0 0 0 0 2092242.9390011861 134231.60217237752 0 134231.60217237752 -127462.79072088236 0 0 0 0 2057425.2638493497 184170.37084430084 0 184170.37084430084 120965.5274306864 0 0 0 0 -10208063.809004784 -14098054.341454685 0 -14098054.341454685 552285.3572845459 0 0 0 0 -299194.68591308594 -8339302.0518894196 0 -8339302.0518894196 -2460645.2340279818 0 0 0 0 4661470.2494926453 -3345748.4420579672 0 -3345748.4420579672 -7393210.609638989 0 0 0 0 9444002.0971565992 800117.15753246751 0 800117.15753246751 -1633683.5807136418 0 0 0 0 49787616.866948128 29080748.096205831 0 29080748.096205831 -7002274.5242118835 0 0 0 0 6493172.5035896301 -436319.38177728653 0 -436319.38177728653 -8151856.2748041153 0 0 0 0 6876560.6101760864 -1025486.2442424297 0 -1025486.2442424297 -8717242.5990512371 0 0 0 0 5424099.3748459816 -22278646.034959972 0 -22278646.034959972 -15465897.967238575 0 0 0 0 9277739.2299856134 -1878141.732785787 0 -1878141.732785787 -1232886.1074729548 0 0 0 0 10042549.928878102 2114337.5646721795 0 2114337.5646721795 -1649373.8940989044 0 0 0 0 6302381.5507965088 -1205356.0604202747 0 -1205356.0604202747 -8146999.8320479393 0 0 0 0 -40738078.566793442 95764073.320195913 0 95764073.320195913 -63109201.674359798 0 0 0 0 12238469.499438649 -2723029.3059954578 0 -2723029.3059954578 -4027124.1471504904 0 0 0 0 7671525.0238245623 -990018.52703702124 0 -990018.52703702124 -2176295.706541799 0 0 0 0 -58023733.834956408 62955785.690748692 0 62955785.690748692 -118679892.56768131 0 0 0 0 -52554996.439466953 59114271.469332337 0 59114271.469332337 -124966724.67513466 0 0 0 0 -39858257.156769276 79578706.509647131 0 79578706.509647131 -196556086.25321513 0 0 0 0 -35405465.370482445 103850252.12183273 0 103850252.12183273 -102252271.17750096 0 0 0 0 -1380014.1194019318 -23187116.497317672 0 -23187116.497317672 27343329.514462948 0 0 0 0 1659830.8517258572 -305145.92253064114 0 -305145.92253064114 30423.092973930587 0 0 0 0 128621672.85362077 15153002.018952146 0 15153002.018952146 5222715.259078715 0 0 0 0 99487928.966109037 139601095.32301471 0 139601095.32301471 151650161.75247908 0 0 0 0 -233706262.921489 253078431.05718708 0 253078431.05718708 151288857.10751852 0 0 0 0 95166175.896922827 -70069481.10977152 0 -70069481.10977152 -123835469.92191756 0 0 0 0 -96473974.634152055 112753959.27895436 0 112753959.27895436 121594025.41371894 0 0 0 0 -42961729.242799401 381617787.77630246 0 381617787.77630246 -46911869.789667606 0 0 0 0 376288685.22196937 278580560.51691806 0 278580560.51691806 -101393372.11613816 0 0 0 0 319961488.0843215 -414941029.00185311 0 -414941029.00185311 256504251.62583745 0 0 0 0 1738724.0108777545 657108.179795234 0 657108.179795234 133133.10819661064 0 0 0 0 72272557.846429825 -195173524.00192115 0 -195173524.00192115 118336532.34359303 0 0 0 0 4792518.9066950995 1375802.3829830824 0 1375802.3829830824 2440.5711667347932 0 0 0 0 227111659.13730431 -20831196.305756468 0 -20831196.305756468 -193650810.56119931 0 0 0 0 -37890097.773238182 409182151.7550838 0 409182151.7550838 -572739094.79818916 0 0 0 0 -218838198.29322577 84849353.002910689 0 84849353.002910689 80690648.481958508 0 0 0 0 378443026.96051526 173107507.43984506 0 173107507.43984506 -835143621.85313296 0 0 0 0 176731389.58156657 248833874.83963889 0 248833874.83963889 390750933.20573258 0 0 0 0 84788969.044835329 60068210.868786767 0 60068210.868786767 35264422.214846253 0 0 0 0 -140248446.04803228 63179495.569286764 0 63179495.569286764 297781969.15894198 0 0 0 0 -123779027.18015051 200890511.43961269 0 200890511.43961269 193503350.12358457 0 0 0 0 2559474615.3711863 -244733059.27285367 0 -244733059.27285367 -524754854.41961622 0 0 0 0 811198702.98533249 -1260382869.2233195 0 -1260382869.2233195 345892159.70647752 0 0 0 0 239969051.54389572 287320610.93691403 0 287320610.93691403 -13836267.268644856 0 0 0 0 694415856.14709449 -271662693.81079233 0 -271662693.81079233 -43812227.348453164 0 0 0 0 1767935494.4488277 546100190.22972715 0 546100190.22972715 168119400.99067819 0 0 0 0 2811882319.7866945 -69518898.129655421 0 -69518898.129655421 -482457345.1556049 0 0 0 0 1713687744.0522442 -397922655.61737919 0 -397922655.61737919 -508588680.99148768 0 0 0 0 3463724859.2708068 515480860.9711684 0 515480860.9711684 -83806848.510052115 0 0 0 0 2369713888.7099552 776715881.51027083 0 776715881.51027083 -135399934.3142733 0 0 0 0 1929519.3543261695 -14365.78326794086 0 -14365.78326794086 523419.70787202596 0 0 0 0 2232002830.0873737 -18477276.219474614 0 -18477276.219474614 -18169365.453415513 0 0 0 0 1387762885.7532325 1025000463.5446153 0 1025000463.5446153 576252980.24183249 0 0 0 0 410390747.62616444 87266735.167849481 0 87266735.167849481 105533142.87962532 0 0 0 0 -8670208.2828714252 -284856767.17791641 0 -284856767.17791641 -16527752.905289173 0 0 0 0 -48883637.509897232 359219136.61066198 0 359219136.61066198 514993714.23239338 0 0 0 0 -18557925.963671923 -230309940.34653276 0 -230309940.34653276 52924183.90687716 0 0 0 0 -70388053.652076721 244161335.55596548 0 244161335.55596548 206474411.82290429 0 0 0 0 -122415737.77649498 58016720.472088933 0 58016720.472088933 131342905.43698299 0 0 0 0 1661703341.6833553 905748376.51508391 0 905748376.51508391 422641059.11390364 0 0 0 0 866826425.90733719 -107061851.60174945 0 -107061851.60174945 -45480804.147993296 0 0 0 0 44810651.202981949 149152396.18643796 0 149152396.18643796 381784852.77833271 0 0 0 0 3461095147.2680912 1419043872.2828515 0 1419043872.2828515 -148857029.97474632 0 0 0 0 2332337976.4397545 674221206.74306989 0 674221206.74306989 -197730001.45999599 0 0 0 0 -12176280.229667187 38600652.364541411 0 38600652.364541411 89132743.20006156 0 0 0 0 -16599509.478029251 18895066.720188141 0 18895066.720188141 53915561.640568018 0 0 0 0 224903.92231285572 -15442528.566177055 0 -15442528.566177055 201256833.11855078 0 0 0 0 12939633.687783957 15312243.906852722 0 15312243.906852722 221658665.65002275 0 0 0 0 104752009.8046484 -69807630.184393585 0 -69807630.184393585 272857416.12772834 0 0 0 0 323720276.66506863 181137742.14887172 0 181137742.14887172 391094906.2737633 0 0 0 0 5702017.9216938019 -157247272.14168978 0 -157247272.14168978 298118481.49205428 0 0 0 0 123671128.78944588 -95957302.107810497 0 -95957302.107810497 -69402014.672144413 0 0 0 0 102590617.71980476 -98205070.227310896 0 -98205070.227310896 75699811.672743082 0 0 0 0 28579892.109046936 19120445.385359645 0 19120445.385359645 10200611.781845093 0 0 0 0 154360038.58171844 -25136348.11847806 0 -25136348.11847806 -82994266.060176611 0 0 0 0 -80383911.970056534 20706328.947958946 0 20706328.947958946 -33342982.410952091 0 0 0 0 2614962.104121692 -2703963.2581065721 0 -2703963.2581065721 -1541292.1462037901 0 0 0 0 81218217.594576836 55090807.086972237 0 55090807.086972237 -98873470.22490108 0 0 0 0 6189710.3255844945 -848765.21558986977 0 -848765.21558986977 116070.28076623901 0 0 0 0 289578336.7778244 126030764.35008526 0 126030764.35008526 -206684053.25595856 0 0 0 0 185198582.20427132 -49608466.466589928 0 -49608466.466589928 -395535931.70043802 0 0 0 0 184893441.73013687 -58139057.736255646 0 -58139057.736255646 -52632204.238222837 0 0 0 0 -229549464.91207886 -67630162.807713628 0 -67630162.807713628 -4858953.2767817378 0 0 0 0 -158225961.17926407 89816257.298887551 0 89816257.298887551 -60177706.368161798 0 0 0 0 566211.30698588956 -992220.54790559865 0 -992220.54790559865 -203107.64821114292 0 0 0 0 1588080.1757627651 9238.8981698444113 0 9238.8981698444113 -966443.25479888252 0 0 0 0 -229369864.51403046 -63871992.532420874 0 -63871992.532420874 9314475.6832643747 0 0 0 0 17594809.097290039 -10529357.021172523 0 -10529357.021172523 9919082.488366127 0 0 0 0 37592379.701473236 -5448026.1254960299 0 -5448026.1254960299 -8337384.1814818382 0 0 0 0 -21130708.252304077 -5789437.282856226 0 -5789437.282856226 9659576.9462494701 0 0 0 0 5060649.2449677326 -5978043.1827703146 0 -5978043.1827703146 -2377299.3090916229 0 0 0 0 9651840.4277957287 -242059.63588331884 0 -242059.63588331884 -1855744.6897674187 0 0 0 0 2344527.255241394 2126179.7805733681 0 2126179.7805733681 -11817480.588217735 0 0 0 0 9651650.6769458484 2703567.3871024568 0 2703567.3871024568 1433907.0726567293 0 0 0 0 14297264.874660015 -38969788.643041611 0 -38969788.643041611 -62781773.70877552 0 0 0 0 16935362.159221649 4865665.7880897522 0 4865665.7880897522 -35841192.253537655 0 0 0 0 10976077.763287056 6400091.8478847118 0 6400091.8478847118 -964815.08105960104 0 0 0 0 -32560948.398023129 18983069.904636145 0 18983069.904636145 16909302.727411747 0 0 0 0 46903025.344534636 -28450188.125722229 0 -28450188.125722229 31718707.748497486 0 0 0 0 9667339.6346778627 -1595906.4027591744 0 -1595906.4027591744 -1095039.7712212116 0 0 0 0 5512319.7202568054 -16156507.86916399 0 -16156507.86916399 8695260.6672512293 0 0 0 0 12762065.788146973 26754022.732866764 0 26754022.732866764 -123141741.38549709 0 0 0 0 46683356.13507843 3672321.2957885265 0 3672321.2957885265 -3657068.2185382843 0 0 0 0 1902566.985584259 2402803.9499317408 0 2402803.9499317408 -14599917.138997674 0 0 0 0 7487196.6918809321 -3247336.4708564989 0 -3247336.4708564989 -1417640.2428207665 0 0 0 0 13929115.541836543 -2405587.4458600949 0 -2405587.4458600949 1953309.6717137159 0 0 0 0 23952546.271759033 -6553037.1064481735 0 -6553037.1064481735 -24009140.274910927 0 0 0 0 139739521.63887405 89302770.043144464 0 89302770.043144464 -258338683.918733 0 0 0 0 43689821.016325951 -71747040.934218973 0 -71747040.934218973 -236979160.01126051 0 0 0 0 78323884.545024872 175712080.69811904 0 175712080.69811904 52024263.688047051 0 0 0 0 48099432.053520203 18054723.132285118 0 18054723.132285118 -90968906.664407253 0 0 0 0 82154353.116508484 46463204.403288364 0 46463204.403288364 -118607756.25916779 0 0 0 0 40558701.898986816 14425036.928605556 0 14425036.928605556 16430259.142683029 0 0 0 0 -73885192.466804504 77660276.612723589 0 77660276.612723589 15454475.856764793 0 0 0 0 2459714.0786668835 -236234.87315630773 0 -236234.87315630773 1276456.967143704 0 0 0 0 1686547643.387989 1822388907.6804962 0 1822388907.6804962 1435355988.7625113 0 0 0 0 175988563.48140144 -457303790.5887953 0 -457303790.5887953 591705711.32789314 0 0 0 0 4863204.0770192081 -2740085.325948026 0 -2740085.325948026 2066670.2213804089 0 0 0 0 500832102.03944969 -165200345.91702974 0 -165200345.91702974 -161266392.70546699 0 0 0 0 -48130556.229772568 -110290635.68896699 0 -110290635.68896699 -169000346.49674296 0 0 0 0 175988563.48129845 -2005043.4801955521 0 -2005043.4801955521 -1259462.0312440395 0 0 0 0 6922701.5094547365 -1977550.8811467364 0 -1977550.8811467364 2473216.4762604246 0 0 0 0 3458227678.6951675 225783034.2362864 0 225783034.2362864 -295563918.35474712 0 0 0 0 3460932009.8481522 223693366.08003667 0 223693366.08003667 -294723104.35617959 0 0 0 0 3272594.7319396762 -351196.61690243892 0 -351196.61690243892 2212223.4373289812 0 0 0 0 -134707089.03538132 -648109017.18690503 0 -648109017.18690503 725166188.78787303 0 0 0 0 118857502.21720028 279005073.04630792 0 279005073.04630792 -18944586.80182004 0 0 0 0 417954555.96558762 -301515928.03298432 0 -301515928.03298432 346428494.50200176 0 0 0 0 432912719.14916039 -245402069.23031849 0 -245402069.23031849 507600021.29446197 0 0 0 0 3460063549.8056359 -900285275.18277848 0 -900285275.18277848 -218446573.05353603 0 0 0 0 1305117086.4994583 -1338637335.0440826 0 -1338637335.0440826 860029948.6163584 0 0 0 0 -138615.10734587163 -370346.12786363944 0 -370346.12786363944 50701.278816522477 0 0 0 0 111027014.1245079 59518850.744496822 0 59518850.744496822 -152130541.66101927 0 0 0 0 -31913352.594667435 54102031.150839448 0 54102031.150839448 262511965.61300325 0 0 0 0 54675116.460144043 109418631.63837028 0 109418631.63837028 171449125.57368171 0 0 0 0 483254716.80116272 -345169669.34246898 0 -345169669.34246898 361062218.27982754 0 0 0 0 -163556196.26444244 5487064.1483356357 0 5487064.1483356357 100559515.57442749 0 0 0 0 -45325974.041007996 90785087.203175008 0 90785087.203175008 66777982.673189402 0 0 0 0 3867956.3927995712 -4123533.6746827932 0 -4123533.6746827932 3838946.2918168958 0 0 0 0 -99378302.476877213 -61917770.922238141 0 -61917770.922238141 -22016538.866281867 0 0 0 0 -7619094.0901412964 1570430.0522696972 0 1570430.0522696972 4423968.6545797586 0 0 0 0 17474271.905639648 24690835.604611874 0 24690835.604611874 13240616.812443286 0 0 0 0 1833646.4791660309 98110026.368611991 0 98110026.368611991 -49352278.614345551 0 0 0 0 -71431698.725605011 46306764.288799644 0 46306764.288799644 -7010454.0982651711 0 0 0 0 -439161.0929608345 -462450.92670689011 0 -462450.92670689011 205032.36431252724 0 0 0 0 -1421065.5524597168 5595200.6379103661 0 5595200.6379103661 -26866797.097553015 0 0 0 0 -8598057.7734298706 323542.47171115875 0 323542.47171115875 5456220.0753040314 0 0 0 0 562879.11721993983 -1576658.598839086 0 -1576658.598839086 826909.3578658218 0 0 0 0 8508462.034312427 -4038951.3555727443 0 -4038951.3555727443 1888245.8198323306 0 0 0 0 6698131.367149353 -2349607.6931352615 0 -2349607.6931352615 -2036095.5676708221 0 0 0 0 -1615854.0883512497 -5484568.5988832861 0 -5484568.5988832861 -944212.06184244156 0 0 0 0 -93309.297314167023 1875883.4187036329 0 1875883.4187036329 -941828.28227405623 0 0 0 0 -8620781.4494249821 -8047225.1530018672 0 -8047225.1530018672 1300502.1400704384 0 0 0 0 -5947612.9139556885 5239991.5909590721 0 5239991.5909590721 11746171.802248597 0 0 0 0 -27983.234312418848 -60323.057354834396 0 -60323.057354834396 112976.31507053768 0 0 0 0 209588880.4325943 -9711209.7279882431 0 -9711209.7279882431 -503455253.82144356 0 0 0 0 33053943.787956238 -176706628.77386093 0 -176706628.77386093 -479582153.7033217 0 0 0 0 70491692.135772705 63572526.570772171 0 63572526.570772171 -245371176.61192608 0 0 0 0 143903926.12290192 91432128.326626778 0 91432128.326626778 -302335200.78935242 0 0 0 0 -16205590.642791748 -3366871.7225227356 0 -3366871.7225227356 -292201993.67489326 0 0 0 0 84356827.972122192 168467257.79548073 0 168467257.79548073 -139818583.67031193 0 0 0 0 69072271.243774414 64582424.611274719 0 64582424.611274719 -165002413.36664581 0 0 0 0 73203054.209468842 52526553.64474225 0 52526553.64474225 -296011751.74113464 0 0 0 0 48696976.865959167 110254266.63362694 0 110254266.63362694 -210931376.86979294 0 0 0 0 48741634.325569153 107552116.98676968 0 107552116.98676968 -70038761.194311142 0 0 0 0 18773185.295471191 20670353.370358467 0 20670353.370358467 -64570434.005417824 0 0 0 0 50539981.85635376 -8366408.4880523682 0 -8366408.4880523682 -200955575.90849304 0 0 0 0 11574693.273674965 -1696388.8646096769 0 -1696388.8646096769 -3459098.3190101366 0 0 0 0 33800709.161102295 -17031426.5727005 0 -17031426.5727005 -80795280.138240814 0 0 0 0 9314069.1078761034 -1506270.0414918568 0 -1506270.0414918568 -1474418.9285951685 0 0 0 0 4212679.3637084961 -1426179.9586167336 0 -1426179.9586167336 -2147707.2177921534 0 0 0 0 4155138.1765632629 -1568560.8408024311 0 -1568560.8408024311 -2352799.0228118896 0 0 0 0 7430121.7646998633 299884.35997610912 0 299884.35997610912 -2424640.7155789565 0 0 0 0 2494814.2009658813 -2737704.17552948 0 -2737704.17552948 -2488288.0686335564 0 0 0 0 -33533.450988769531 -4344597.9244441986 0 -4344597.9244441986 -8880385.1368433237 0 0 0 0 3315398.5696411133 791837.30020141602 0 791837.30020141602 -9520202.0062260628 0 0 0 0 -9070614.408454895 -7230079.7862548828 0 -7230079.7862548828 -295947393.80397415 0 0 0 0 -1284356.0188293457 -101521342.90243721 0 -101521342.90243721 -273708095.92558885 0 0 0 0 -26729212.063201904 45830924.658856392 0 45830924.658856392 -41270947.670757294 0 0 0 0 2442206.1899758931 -926557.582990136 0 -926557.582990136 -1566312.6326880883 0 0 0 0 2294464.8867907524 -12559806.722677454 0 -12559806.722677454 -23536774.097457886 0 0 0 0 2037914.7234494686 -3189944.3786257841 0 -3189944.3786257841 -8589383.2012410164 0 0 0 0 3655217.9197311401 -25432.715494632721 0 -25432.715494632721 -4102749.1054154634 0 0 0 0 5123714.8253937475 1639161.0107631218 0 1639161.0107631218 -2666437.8077511238 0 0 0 0 10021678.333356373 -612340.85533572594 0 -612340.85533572594 -570549.49326991453 0 0 0 0 235279.52067577094 -62049.877793721855 0 -62049.877793721855 -110858.76416604989 0 0 0 0 -9557140.1231307983 7746913.2981307507 0 7746913.2981307507 10644866.17069149 0 0 0 0 -7310208.4160118103 5823185.8315939903 0 5823185.8315939903 -8349222.0997543335 0 0 0 0 3076520.8289108276 -2513291.2103008032 0 -2513291.2103008032 -3503317.4485595226 0 0 0 0 4803623.9186905902 2330343.1830946803 0 2330343.1830946803 -2837716.2782844221 0 0 0 0 1737951.2350259125 -1795448.3275041706 0 -1795448.3275041706 -1667498.9356166052 0 0 0 0 2153204.0227680206 -395543.76106739044 0 -395543.76106739044 -6820397.1297461987 0 0 0 0 9041794.9553195108 -473500.56662110705 0 -473500.56662110705 -1826660.1893248658 0 0 0 0 6898888.577550495 -1408617.0849462929 0 -1408617.0849462929 -1736002.4150702036 0 0 0 0 -1167233.2741622925 20950766.134945393 0 20950766.134945393 -18366843.066543102 0 0 0 0 -3912351.2517738342 23305434.575808525 0 23305434.575808525 -946193.7321472168 0 0 0 0 4031598.7617212348 -2571848.4923187969 0 -2571848.4923187969 -1276122.8258068566 0 0 0 0 3176172.2498474121 -1647005.8847359419 0 -1647005.8847359419 -2195931.3277550936 0 0 0 0 2232911.76171875 270739.37712574005 0 270739.37712574005 -5836011.1738471985 0 0 0 0 2197813.6772524714 936712.33426089818 0 936712.33426089818 -2948227.2782563479 0 0 0 0 3789656.2862854004 -1807267.2034392357 0 -1807267.2034392357 -3080383.5365924835 0 0 0 0 2763613.5632599741 -869659.58102483256 0 -869659.58102483256 -2765957.3070294075 0 0 0 0 3825596.0341911316 -2068382.6328053772 0 -2068382.6328053772 -2170017.5187721252 0 0 0 0 2629399.6862177365 -2111895.5783402259 0 -2111895.5783402259 -483371.54905126634 0 0 0 0 2066560.0076446533 -1526171.4454455376 0 -1526171.4454455376 -3152994.8950898647 0 0 0 0 2296690.3410949707 -2806539.5658648014 0 -2806539.5658648014 -2811045.7536194324 0 0 0 0 1299811.707611084 -3048660.340051651 0 -3048660.340051651 -8606412.5396270752 0 0 0 0 10896712.285950676 -1699148.8802278992 0 -1699148.8802278992 -2245755.4854331631 0 0 0 0 9368549.5898416229 -639571.93510999996 0 -639571.93510999996 -1985284.2532091492 0 0 0 0 4757603.2688407898 -2495641.175809741 0 -2495641.175809741 -2100993.889339447 0 0 0 0 3267132.9558105469 -1116831.2495656013 0 -1116831.2495656013 -4751551.3969752789 0 0 0 0 8731534.516410673 865483.54849775881 0 865483.54849775881 -3155581.2135807197 0 0 0 0 4767401.6775671132 341384.21084478963 0 341384.21084478963 -2393671.8367394451 0 0 0 0 2066404.7654358745 -630465.16132968897 0 -630465.16132968897 -1574473.3694806942 0 0 0 0 3700089.1344865039 -2945512.4780528336 0 -2945512.4780528336 -1017187.9699839025 0 0 0 0 3615984.4056243896 -3014652.3047099113 0 -3014652.3047099113 -1690017.5361707211 0 0 0 0 3484461.3323249817 -2883840.2608487606 0 -2883840.2608487606 -1728021.9849500656 0 0 0 0 4061818.7698516846 -1881359.0554526448 0 -1881359.0554526448 -1942383.4924947619 0 0 0 0 3282277.7352694832 -2390136.7468246296 0 -2390136.7468246296 -1897846.0536182262 0 0 0 0 11333401.081892256 -1753895.9670911394 0 -1753895.9670911394 -1573225.001697001 0 0 0 0 3529728.486907959 -1516626.784539938 0 -1516626.784539938 -2846567.3672039509 0 0 0 0 4274959.1619987488 -2662577.4693328142 0 -2662577.4693328142 -2043183.4950828552 0 0 0 0 6886219.6801752895 -626872.16780422907 0 -626872.16780422907 -1280976.1932032809 0 0 0 0 8152391.4888577834 -4176832.5952177714 0 -4176832.5952177714 -2068812.4206349379 0 0 0 0 6036687.2063717432 -4096617.087057638 0 -4096617.087057638 407023.56771448825 0 0 0 0 10204500.465005875 -8095284.4204463959 0 -8095284.4204463959 -2860891.3407256603 0 0 0 0 3935167.3749462487 -2897536.6249877196 0 -2897536.6249877196 244078.74743680086 0 0 0 0 4654656.6906503886 -18035.412685342133 0 -18035.412685342133 -1912659.9064369691 0 0 0 0 10727753.246551514 -3627038.7958965302 0 -3627038.7958965302 1355539.2281761169 0 0 0 0 6595193.6915445328 -605073.43802657723 0 -605073.43802657723 -650050.78413081169 0 0 0 0 4813371.9124406427 1233923.5873381905 0 1233923.5873381905 -1554465.6842982385 0 0 0 0 26917640.551784515 -14857920.373740673 0 -14857920.373740673 -8147054.353140831 0 0 0 0 7274054.936861854 -3318247.8831421491 0 -3318247.8831421491 220656.29896960431 0 0 0 0 7796825.9280804573 -1315271.1329067592 0 -1315271.1329067592 -1268199.2058241097 0 0 0 0 7956681.614528656 -2517667.2003636044 0 -2517667.2003636044 -3305360.7981875837 0 0 0 0 10179379.83128202 -4269073.0784023749 0 -4269073.0784023749 -2803565.0723509062 0 0 0 0 8412487.6818161011 -3981747.5551369339 0 -3981747.5551369339 -3240073.1440737396 0 0 0 0 2022935.73828125 -163920.29803800583 0 -163920.29803800583 -6510803.6853818893 0 0 0 0 5331194.2668142617 -2439732.4938959014 0 -2439732.4938959014 -2292373.3889492159 0 0 0 0 9235737.0462327003 -415993.12221730873 0 -415993.12221730873 -4676770.2494938374 0 0 0 0 9983073.9230859056 -3246715.9701920566 0 -3246715.9701920566 -2483493.6937842863 0 0 0 0 4048344.0270846635 -1718582.5802197969 0 -1718582.5802197969 -2083454.444585806 0 0 0 0 1879703.3521518707 1949111.2370741367 0 1949111.2370741367 -14699514.306862831 0 0 0 0 1908738.0804824829 -43285602.462238312 0 -43285602.462238312 -75333676.764293671 0 0 0 0 31161347.852355957 15646091.709276199 0 15646091.709276199 -50268740.403885841 0 0 0 0 6435231.3552017212 -2338266.7842979431 0 -2338266.7842979431 -1645274.4244060516 0 0 0 0 4172412.4952019891 -3483957.9277405506 0 -3483957.9277405506 -385229.73407091107 0 0 0 0 11900540.703526698 -2069525.7449570424 0 -2069525.7449570424 -419024.76065454067 0 0 0 0 -787009.24418640137 -12803728.212370872 0 -12803728.212370872 25474534.396264076 0 0 0 0 -12543972.392807007 12950265.164657593 0 12950265.164657593 -5709503.9699683189 0 0 0 0 2330723.1238112599 -144091.63256424107 0 -144091.63256424107 -1501661.5631587096 0 0 0 0 83092612.861961365 -350150.12985253334 0 -350150.12985253334 -65364884.889547348 0 0 0 0 98394387.025810242 -115868027.85581636 0 -115868027.85581636 2347658.6640067101 0 0 0 0 -51282408.881887436 144170256.60164285 0 144170256.60164285 -32618490.131605148 0 0 0 0 2172159.688809216 -918933.05426565371 0 -918933.05426565371 -366451.26406045957 0 0 0 0 5893410.3142242432 -107750801.89128971 0 -107750801.89128971 23301614.267685145 0 0 0 0 -22123603.964668274 -1603667.3940262794 0 -1603667.3940262794 68675681.813156605 0 0 0 0 160142267.88489151 10598938.727377295 0 10598938.727377295 -29401075.303887367 0 0 0 0 68281876.227493286 59970972.707137108 0 59970972.707137108 25444272.871338367 0 0 0 0 3107149.1505393982 13040955.606538296 0 13040955.606538296 -7975775.6422834396 0 0 0 0 60332753.872314453 23166253.229510307 0 23166253.229510307 -52810007.881465435 0 0 0 0 36165557.698074341 787577.71322059631 0 787577.71322059631 -30126783.358293533 0 0 0 0 -21635065.583564758 33456588.336358547 0 33456588.336358547 179517476.82030153 0 0 0 0 -24820023.690383911 14141209.071873188 0 14141209.071873188 192463024.92538071 0 0 0 0 -15356772.185689926 15390912.685431957 0 15390912.685431957 92517608.267141342 0 0 0 0 -9993266.8284835815 54588219.93626976 0 54588219.93626976 132445111.65979719 0 0 0 0 -25470547.628715515 10273940.344669342 0 10273940.344669342 103613712.49297071 0 0 0 0 -73267.411911010742 22410418.387330055 0 22410418.387330055 55612228.612895012 0 0 0 0 -16733235.475489616 31733215.847671986 0 31733215.847671986 87736380.200208664 0 0 0 0 -10992644.9270401 67575549.23829174 0 67575549.23829174 123019329.54867077 0 0 0 0 -702726.16213226318 106099658.24630928 0 106099658.24630928 113236106.9499774 0 0 0 0 -204352.72425460815 74329738.218911171 0 74329738.218911171 122821404.88402653 0 0 0 0 -4716715.2399749756 116342994.0216713 0 116342994.0216713 167678874.0222919 0 0 0 0 -34740120.049105644 79686386.821295142 0 79686386.821295142 225850723.29880142 0 0 0 0 -33885327.75945282 76256568.187132359 0 76256568.187132359 158296318.13717461 0 0 0 0 -1605359.545879364 101804396.37202358 0 101804396.37202358 193738113.8301425 0 0 0 0 -10297440.954925537 84041732.92872715 0 84041732.92872715 246275923.35413933 0 0 0 0 104845310.80600739 119845104.62274551 0 119845104.62274551 249463479.09003258 0 0 0 0 345095295.30659485 150800365.17659378 0 150800365.17659378 178270758.67110777 0 0 0 0 233056400.26226044 129538603.54532433 0 129538603.54532433 306566067.45264816 0 0 0 0 101949101.81008244 109618378.5026077 0 109618378.5026077 318114407.222826 0 0 0 0 64190443.68032074 102468392.00104189 0 102468392.00104189 393717729.10258102 0 0 0 0 59783126.547111511 -73654498.467226982 0 -73654498.467226982 307532503.42006397 0 0 0 0 153613773.31281281 15850537.318357706 0 15850537.318357706 246921847.46838474 0 0 0 0 -14002649.606048584 -44353812.063183546 0 -44353812.063183546 227304516.7793256 0 0 0 0 -9093408.9069480896 57702977.075698137 0 57702977.075698137 212557066.77353001 0 0 0 0 567917.31539154053 21615596.319246769 0 21615596.319246769 302688510.99163222 0 0 0 0 -7023138.2966804504 -29681301.837547779 0 -29681301.837547779 90875933.967392921 0 0 0 0 33321686.474916458 5335686.5629293919 0 5335686.5629293919 192322529.52532387 0 0 0 0 62161187.439086914 -128165196.51090503 0 -128165196.51090503 76451443.975902081 0 0 0 0 46282609.327037334 -47199837.699326992 0 -47199837.699326992 253946647.91838074 0 0 0 0 48881011.30581665 -83613213.620638072 0 -83613213.620638072 -107258830.79190582 0 0 0 0 46368465.462917328 -65525463.603211492 0 -65525463.603211492 -68520190.609356642 0 0 0 0 27675024.764255524 -17051417.647194743 0 -17051417.647194743 -1977380.2717565298 0 0 0 0 13491702.21616745 -44448685.275848031 0 -44448685.275848031 -44150658.840275288 0 0 0 0 -4517548.6941261292 -43038356.413322449 0 -43038356.413322449 47970665.960879326 0 0 0 0 4619138.1994400024 -4901939.8715062141 0 -4901939.8715062141 60908662.837044716 0 0 0 0 -17656091.931930542 -19030841.132704735 0 -19030841.132704735 83893935.620383263 0 0 0 0 -17437645.25030899 -8386621.1804087162 0 -8386621.1804087162 49947197.669075966 0 0 0 0 -10702615.647331238 -11845882.209182739 0 -11845882.209182739 18656454.415814877 0 0 0 0 -3382284.9067878723 -8839438.2217748165 0 -8839438.2217748165 17649717.604197502 0 0 0 0 17557.527019500732 6256395.3903980255 0 6256395.3903980255 3883820.9233665466 0 0 0 0 -8276076.0537285805 -31613966.126247078 0 -31613966.126247078 -18333174.853859901 0 0 0 0 -7276442.2852592468 -14827851.937889814 0 -14827851.937889814 -59816172.753303647 0 0 0 0 -7781567.6249656677 -51609714.843716621 0 -51609714.843716621 -64174734.547809064 0 0 0 0 12400095.621200562 -38949457.257036388 0 -38949457.257036388 -110777168.62552285 0 0 0 0 1989049886.4161606 -927773849.24307084 0 -927773849.24307084 527893116.97385502 0 0 0 0 -5564396.8498153687 -26093999.639629364 0 -26093999.639629364 -43023101.222266674 0 0 0 0 1658788.0459899902 -8091378.0285358429 0 -8091378.0285358429 -50006852.752973914 0 0 0 0 -3304505.1420440674 -5012518.8166460991 0 -5012518.8166460991 -77772914.851623535 0 0 0 0 -21540732.78805542 -6826738.6255431175 0 -6826738.6255431175 -76938531.030195951 0 0 0 0 -1706717221.739357 1106871657.3576641 0 1106871657.3576641 867114718.06607747 0 0 0 0 34035372.102661133 -2473534.0079891682 0 -2473534.0079891682 -143611521.29990911 0 0 0 0 9313228.5384467803 290916.29675198952 0 290916.29675198952 -1320390.8326479015 0 0 0 0 13966525.951213837 -51280475.043340802 0 -51280475.043340802 -141320308.44787407 0 0 0 0 2614485.8517232873 1637292.7635076009 0 1637292.7635076009 -34261.409197775691 0 0 0 0 -42409039.535587311 -33960759.904693723 0 -33960759.904693723 -69516256.733819962 0 0 0 0 -15069083.427600861 -35388798.209312677 0 -35388798.209312677 -70822229.891034126 0 0 0 0 -1126473.5189361572 -4325842.8784627914 0 -4325842.8784627914 -51284202.864207745 0 0 0 0 -8962768.0100631714 -20194999.607765198 0 -20194999.607765198 -30365167.985944748 0 0 0 0 -2165100.8558578491 24545451.400307655 0 24545451.400307655 -28347119.191300869 0 0 0 0 -1255577.7567795813 -33124783.610151641 0 -33124783.610151641 -87488667.69211483 0 0 0 0 6088862.0910873413 2203346.8066186905 0 2203346.8066186905 13128444.819634438 0 0 0 0 -6166742.7156586647 -15847369.880793303 0 -15847369.880793303 755580.30025005341 0 0 0 0 -10532380.260206223 14139109.388176382 0 14139109.388176382 5062915.6849422455 0 0 0 0 7294392.3095779419 -4733163.5712814331 0 -4733163.5712814331 14804256.301879644 0 0 0 0 -14160230.752174377 -11403257.790202141 0 -11403257.790202141 11411243.293803453 0 0 0 0 1039275.643699646 14309501.407576561 0 14309501.407576561 23537898.945137501 0 0 0 0 -4680718.5045619011 7470438.2894649506 0 7470438.2894649506 -24062274.955834389 0 0 0 0 180670882.58989334 670990449.08270335 0 670990449.08270335 493599571.27034497 0 0 0 0 7436542.7413332202 2001438.3029467871 0 2001438.3029467871 -310570.42192311952 0 0 0 0 345267937.64990997 41621490.93767786 0 41621490.93767786 -263985078.99977565 0 0 0 0 195720252.40489197 265697010.72176552 0 265697010.72176552 503053550.7107048 0 0 0 0 13911217.403114319 33679583.639924049 0 33679583.639924049 -116971723.0883584 0 0 0 0 -18306778.005844116 -23116486.291874409 0 -23116486.291874409 66045640.69924736 0 0 0 0 50251667.747589111 -71627202.373215199 0 -71627202.373215199 54413837.411443114 0 0 0 0 52282265.277862549 -65284928.182796955 0 -65284928.182796955 68660255.785476685 0 0 0 0 -76922725.116451263 25790724.752332687 0 25790724.752332687 38640800.745576382 0 0 0 0 311235333.61561203 -206041943.39407229 0 -206041943.39407229 40049716.494897366 0 0 0 0 81566617.329797745 -161278105.50714934 0 -161278105.50714934 68336498.53827095 0 0 0 0 616923274.64152145 -105609693.68360305 0 -105609693.68360305 -55974623.327682495 0 0 0 0 3502416.8849019371 675335.34672833397 0 675335.34672833397 -811044.82757390919 0 0 0 0 222878468.11729145 -24839787.915993094 0 -24839787.915993094 -23946892.385530472 0 0 0 0 178739636.04436111 -114451261.98566151 0 -114451261.98566151 54635821.79231143 0 0 0 0 78686081.51871109 -45731869.928299308 0 -45731869.928299308 44250897.494729042 0 0 0 0 78856150.982102394 -44530125.070245981 0 -44530125.070245981 52561761.584918022 0 0 0 0 12419005.966636658 -54314817.565593243 0 -54314817.565593243 73228768.822071671 0 0 0 0 128466789.15118408 -46509517.309757233 0 -46509517.309757233 38478868.095444679 0 0 0 0 90081685.685821533 -21272784.28687048 0 -21272784.28687048 36718519.494142532 0 0 0 0 226888838.58101654 -10997397.96553421 0 -10997397.96553421 -9958885.5712566376 0 0 0 0 145388670.74917269 14063478.620995164 0 14063478.620995164 9009669.2888412476 0 0 0 0 29191926.454307556 26510552.333953857 0 26510552.333953857 72782768.460941315 0 0 0 0 -2928466.395316124 4085248.1233170033 0 4085248.1233170033 57999507.831338882 0 0 0 0 8056470.6778793335 29683798.372672081 0 29683798.372672081 69773600.586349487 0 0 0 0 -15483078.252288818 5077901.9692165852 0 5077901.9692165852 59507278.386144638 0 0 0 0 -12603023.43510437 11592943.867795229 0 11592943.867795229 54569521.932941437 0 0 0 0 -9150165.3933639526 -15711842.362997532 0 -15711842.362997532 51507858.647497177 0 0 0 0 29306508.861877441 -4897055.0400295258 0 -4897055.0400295258 53598203.038906574 0 0 0 0 8084975.8591308594 -11180111.897746563 0 -11180111.897746563 65741685.338076591 0 0 0 0 50625227.249258041 -2561874.5818142891 0 -2561874.5818142891 62140277.927298546 0 0 0 0 39714512.303508759 -29478508.598360062 0 -29478508.598360062 57682999.236223221 0 0 0 0 83015836.341697693 -25993052.884066582 0 -25993052.884066582 56639497.650814056 0 0 0 0 65731751.078277588 -8515713.0771446228 0 -8515713.0771446228 47014135.897706032 0 0 0 0 70040307.765205383 -1232472.1990184784 0 -1232472.1990184784 58648118.945288658 0 0 0 0 45783999.615345001 38907827.078881264 0 38907827.078881264 72935167.705729485 0 0 0 0 15926914.623016357 28830162.3153162 0 28830162.3153162 73693741.90673399 0 0 0 0 27480201.348693848 62922208.474412441 0 62922208.474412441 103469990.14515543 0 0 0 0 49295500.991352081 86352902.578945637 0 86352902.578945637 79977527.195920944 0 0 0 0 102595147.26792526 49360382.969732761 0 49360382.969732761 64537687.932991982 0 0 0 0 84029262.501480103 104658823.446064 0 104658823.446064 66978123.886241913 0 0 0 0 111029648.87711716 4468418.8657493591 0 4468418.8657493591 44386642.936143875 0 0 0 0 89279584.135829926 34890518.71587038 0 34890518.71587038 49524342.708325386 0 0 0 0 130229122.14583969 58669848.473276615 0 58669848.473276615 77952598.238669395 0 0 0 0 227239683.03877831 63708555.846342325 0 63708555.846342325 44557969.347963333 0 0 0 0 145195476.23460007 31934722.429079056 0 31934722.429079056 -1069764.8553316593 0 0 0 0 189319711.75412369 155031346.88080406 0 155031346.88080406 204358310.32620621 0 0 0 0 186018937.00139999 97066705.356203556 0 97066705.356203556 66375646.676606178 0 0 0 0 161957620.72922897 114728588.56535172 0 114728588.56535172 55516690.938632965 0 0 0 0 151566755.4341507 38459912.354099274 0 38459912.354099274 41984974.134262085 0 0 0 0 96560865.350803375 19236135.145755887 0 19236135.145755887 21568222.064105034 0 0 0 0 100950422.09555817 19425198.921348572 0 19425198.921348572 16403384.549530029 0 0 0 0 91433108.747276306 -17750858.051165342 0 -17750858.051165342 21608460.123286247 0 0 0 0 77249012.113716125 -12109447.160666466 0 -12109447.160666466 36684426.687348351 0 0 0 0 99902416.627702713 -32768586.579027653 0 -32768586.579027653 -80247134.040081024 0 0 0 0 4189451.3512916565 -175359.41241073608 0 -175359.41241073608 20160388.606459856 0 0 0 0 37953891.040206909 -36416128.99699831 0 -36416128.99699831 -85575793.277513504 0 0 0 0 18180647.360199928 -7184349.2926394939 0 -7184349.2926394939 -14531995.65265274 0 0 0 0 -90827386.803003311 -103005464.07501793 0 -103005464.07501793 -59032768.73516655 0 0 0 0 934366.9209660776 -78952.411155185662 0 -78952.411155185662 -680212.82536718156 0 0 0 0 286179267.11665726 135461824.13746357 0 135461824.13746357 77568227.290910721 0 0 0 0 327454193.57659531 179711464.83627129 0 179711464.83627129 96120166.813162565 0 0 0 0 -19785805.832782745 -85144083.708286285 0 -85144083.708286285 -69185069.854881525 0 0 0 0 2027923.8926242292 -39150.260625950992 0 -39150.260625950992 -1330775.79858757 0 0 0 0 303860856.534935 154670261.17740297 0 154670261.17740297 34386328.090003967 0 0 0 0 61673.354356813245 -85203.95108843036 0 -85203.95108843036 228913.3921330953 0 0 0 0 357068446.85395813 208330827.91499138 0 208330827.91499138 87536986.881046295 0 0 0 0 320546726.69618988 126597155.79108238 0 126597155.79108238 81611915.038429737 0 0 0 0 400964586.73752403 275887881.71808195 0 275887881.71808195 110189180.28722382 0 0 0 0 174582492.12563753 62486057.872706831 0 62486057.872706831 46339985.292921066 0 0 0 0 100833238.62410355 78029122.978254318 0 78029122.978254318 84053233.005205154 0 0 0 0 211986.11564822961 382664.46710979752 0 382664.46710979752 542472.13473819755 0 0 0 0 -4389326.5332126617 76331949.625825524 0 76331949.625825524 43732735.164751053 0 0 0 0 -1067586.9994800314 3377951.6512727062 0 3377951.6512727062 -1510335.1367413737 0 0 0 0 -312700.54656219482 9510667.1513586044 0 9510667.1513586044 -25260887.532468319 0 0 0 0 -626833.74130630493 54285090.69166708 0 54285090.69166708 102455967.00589657 0 0 0 0 18582218.931915283 36402820.955359459 0 36402820.955359459 -282528319.75796127 0 0 0 0 -3319549.6858654022 28108911.840648174 0 28108911.840648174 -9260590.5270061493 0 0 0 0 12291298.107383728 39412639.533747673 0 39412639.533747673 -16366786.17830205 0 0 0 0 -54908549.36727643 12169400.216433704 0 12169400.216433704 61890555.878622055 0 0 0 0 4540126.4112892151 164038448.87443495 0 164038448.87443495 142281379.27753353 0 0 0 0 133260208.83240128 178764095.00844097 0 178764095.00844097 78672583.755105972 0 0 0 0 25192318.251731873 135029272.92910767 0 135029272.92910767 -77735649.494246483 0 0 0 0 -72923577.29617691 186623156.42502117 0 186623156.42502117 106583720.00958347 0 0 0 0 -18967057.414451599 146728829.98225307 0 146728829.98225307 143210466.86972046 0 0 0 0 -14171868.165893555 148180062.64783192 0 148180062.64783192 125215265.30379963 0 0 0 0 -31837936.617165148 115036694.10391101 0 115036694.10391101 209643470.57944584 0 0 0 0 -30915857.753077507 143257526.75498974 0 143257526.75498974 142202003.39550781 0 0 0 0 10953178.829235077 187088883.71666431 0 187088883.71666431 91448179.889295578 0 0 0 0 61610932.947647095 112720903.58507633 0 112720903.58507633 96139964.1785326 0 0 0 0 91308424.553276062 131709280.41270733 0 131709280.41270733 85665118.194107056 0 0 0 0 174762533.55597401 119784114.80666959 0 119784114.80666959 174998636.50413704 0 0 0 0 165996127.98875284 77439545.659653723 0 77439545.659653723 149685172.52355862 0 0 0 0 27492057.660484314 48566241.534190178 0 48566241.534190178 157545878.7517786 0 0 0 0 -78302861.513549805 173018327.25801563 0 173018327.25801563 173914285.07302189 0 0 0 0 -183023365.23810577 128292118.33314514 0 128292118.33314514 151218497.38195965 0 0 0 0 -69794808.106315613 228057893.25221705 0 228057893.25221705 -97260611.516037941 0 0 0 0 130811971.88711739 -221811195.29368377 0 -221811195.29368377 -91332476.361797333 0 0 0 0 663203058.59966278 31443804.000897408 0 31443804.000897408 -261350525.13385153 0 0 0 0 -590923.62672013417 978603.16567969229 0 978603.16567969229 -399402.91212999169 0 0 0 0 -271761457.74466133 20934777.087618113 0 20934777.087618113 313783033.56973267 0 0 0 0 -192790019.30316162 -53496251.37591362 0 -53496251.37591362 67882293.600340366 0 0 0 0 -19599874.153781891 286327189.85474348 0 286327189.85474348 157503665.6082716 0 0 0 0 1548439458.9090042 347267225.76109982 0 347267225.76109982 45328312.545855761 0 0 0 0 784955294.41763306 -301605285.86005545 0 -301605285.86005545 363285302.16021824 0 0 0 0 626614596.03903484 67479951.162887812 0 67479951.162887812 70063070.238675117 0 0 0 0 450405.71768238116 -2075274.2838912355 0 -2075274.2838912355 12686334.248388516 0 0 0 0 1011804217.2624016 201815685.01876497 0 201815685.01876497 -84034547.761640549 0 0 0 0 -222241.97004641499 -31375.034418915398 0 -31375.034418915398 4469612.7238081479 0 0 0 0 451744670.48093796 392693668.29310226 0 392693668.29310226 41742660.575195312 0 0 0 0 -205882427.66579819 -467994320.786273 0 -467994320.786273 -422474799.27526855 0 0 0 0 -481581133.45003986 -21222049.543836594 0 -21222049.543836594 -2829623.3577480316 0 0 0 0 3177407.0049359174 -7449936.8600956658 0 -7449936.8600956658 10863512.446338976 0 0 0 0 -448557831.14013517 -519728585.10548675 0 -519728585.10548675 -366386468.08808136 0 0 0 0 120387222.23585129 -68534445.692436218 0 -68534445.692436218 -138906490.823946 0 0 0 0 2522863.1854216121 -6230515.5844389377 0 -6230515.5844389377 20446948.742157176 0 0 0 0 44530231.44931221 141281753.4650135 0 141281753.4650135 -22685715.544676781 0 0 0 0 -130379173.8173151 -149687487.9240284 0 -149687487.9240284 -164651876.87385559 0 0 0 0 -199738675.18921947 -125224558.42707157 0 -125224558.42707157 54984.313373565674 0 0 0 0 -8535745.8716526031 28845181.764984131 0 28845181.764984131 94480182.479312897 0 0 0 0 642881425.11521912 -2272580.4151353836 0 -2272580.4151353836 -113187387.97639942 0 0 0 0 675948320.6240654 57017885.342614889 0 57017885.342614889 -36569686.445217133 0 0 0 0 510970853.48023987 25438172.479874611 0 25438172.479874611 -30513389.306827068 0 0 0 0 588609850.44737244 108612944.78033733 0 108612944.78033733 -26817508.914671898 0 0 0 0 586598481.11452484 69138925.819485188 0 69138925.819485188 -25207258.9243536 0 0 0 0 587136003.15705872 64733704.246920586 0 64733704.246920586 1640606.2853033543 0 0 0 0 120108692.58448029 35555404.03679657 0 35555404.03679657 335385640.83054352 0 0 0 0 132063104.1861496 -1768052.6636581421 0 -1768052.6636581421 171247063.2548027 0 0 0 0 317436218.5118866 -91427533.236118317 0 -91427533.236118317 144505823.43575287 0 0 0 0 167548320.32442093 -85063607.040039062 0 -85063607.040039062 257695941.9739151 0 0 0 0 268213950.88855362 -90565274.147345543 0 -90565274.147345543 151369888.10224915 0 0 0 0 261512021.94494629 -65267870.381083488 0 -65267870.381083488 58986418.930938721 0 0 0 0 212228806.41819 -25380704.466651917 0 -25380704.466651917 177910686.13746262 0 0 0 0 216508039.94878387 -101991571.7053833 0 -101991571.7053833 84127252.269554138 0 0 0 0 256718304.87565994 -105959797.47708511 0 -105959797.47708511 23995323.138151646 0 0 0 0 338544600.96930695 -145539442.32614708 0 -145539442.32614708 81323719.96206665 0 0 0 0 296112555.94617462 -85223901.201416016 0 -85223901.201416016 25434657.355682373 0 0 0 0 322134359.85707092 -44843434.164031982 0 -44843434.164031982 2628242.0195288658 0 0 0 0 430302529.75358963 -41911580.947818756 0 -41911580.947818756 2000975.5188922882 0 0 0 0 511096823.54845428 -114776584.12462044 0 -114776584.12462044 66906642.045898438 0 0 0 0 388026154.9503994 -195818220.69638252 0 -195818220.69638252 240331924.27468109 0 0 0 0 587486544.15087509 -24722617.48374939 0 -24722617.48374939 116565184.31532288 0 0 0 0 515487779.22920442 235712092.1733245 0 235712092.1733245 122100580.68650818 0 0 0 0 936083584.07331085 246348760.75575638 0 246348760.75575638 110200063.67663574 0 0 0 0 217388779.18192101 92462813.008411407 0 92462813.008411407 64623097.83672905 0 0 0 0 217340665.79103947 91726997.440242767 0 91726997.440242767 53504489.456359863 0 0 0 0 -335789396.84614182 -185290178.0455513 0 -185290178.0455513 -115152657.64803314 0 0 0 0 -464409642.69127941 -303353940.87885094 0 -303353940.87885094 -82204064.552818298 0 0 0 0 -231619253.2477386 -326354487.74544525 0 -326354487.74544525 -172243053.53793335 0 0 0 0 -149359854.75502014 -159464079.85012817 0 -159464079.85012817 -15952854.498214722 0 0 0 0 25198598.642994881 -170599239.80379486 0 -170599239.80379486 -84840712.636032104 0 0 0 0 277497249.72970772 2621171.3138771057 0 2621171.3138771057 -140847940.39196014 0 0 0 0 13251961.147093594 -432444862.63801491 0 -432444862.63801491 -697697962.60692596 0 0 0 0 7576197.2838840913 -5254523.949273685 0 -5254523.949273685 -4122963.6813883409 0 0 0 0 -760419263.70247078 -1173164833.3225365 0 -1173164833.3225365 -899984991.58230209 0 0 0 0 -234850.25467852224 -2619120.4094598331 0 -2619120.4094598331 5146520.9801241048 0 0 0 0 -460255458.98665285 -345478161.00817013 0 -345478161.00817013 249216715.61035156 0 0 0 0 -1115376441.5401878 -1143541357.7395248 0 -1143541357.7395248 246892980.10059738 0 0 0 0 2095121462.1437149 -435637399.89012146 0 -435637399.89012146 -1540422932.6123428 0 0 0 0 943937240.45402718 -230528510.9961586 0 -230528510.9961586 186547506.80203247 0 0 0 0 516532637.8696022 -278248616.81787109 0 -278248616.81787109 865551005.59315491 0 0 0 0 517180916.05604714 -140012900.27753818 0 -140012900.27753818 188574714.02320862 0 0 0 0 242248309.97258759 -103285365.16059113 0 -103285365.16059113 292890765.30493927 0 0 0 0 362414144.21207237 302652234.12243652 0 302652234.12243652 563194908.62162781 0 0 0 0 1038199812.2697182 963184485.97154999 0 963184485.97154999 1158501564.7691822 0 0 0 0 635827614.5270443 80556100.987724304 0 80556100.987724304 -689578965.16707611 0 0 0 0 7077674.1520601586 -11750853.076361625 0 -11750853.076361625 -242308.65849727951 0 0 0 0 -1853322.7818813324 -873366.16339111328 0 -873366.16339111328 -613521463.41799164 0 0 0 0 390325105.51678276 127700646.78685379 0 127700646.78685379 -744644771.89583588 0 0 0 0 84164573.83499527 -208933955.98500443 0 -208933955.98500443 -487655862.0271225 0 0 0 0 7509835.8975601196 153814519.48088074 0 153814519.48088074 -62798832.411804199 0 0 0 0 131437913.88114738 42632245.555845261 0 42632245.555845261 -40051927.519599915 0 0 0 0 341340788.70335007 150310055.55243683 0 150310055.55243683 -174229404.48794174 0 0 0 0 249602635.60734749 -85544978.81030941 0 -85544978.81030941 242682365.61102295 0 0 0 0 24381283.393493652 -23799426.672348022 0 -23799426.672348022 355136133.61112213 0 0 0 0 97880176.160970688 -37125711.4539814 0 -37125711.4539814 293188345.54988098 0 0 0 0 61996388.329868317 104505607.26320267 0 104505607.26320267 100134009.54914856 0 0 0 0 26421855.006372452 -10040738.965380669 0 -10040738.965380669 -2705234.2542228699 0 0 0 0 26561674.103591919 -11351686.993330002 0 -11351686.993330002 1274828.3503599167 0 0 0 0 109185415.50358772 -3875007.0651321411 0 -3875007.0651321411 -233711114.70553589 0 0 0 0 82249751.763367653 -111223537.8151412 0 -111223537.8151412 -3410339.4457397461 0 0 0 0 36507781.84800148 -90043646.816194534 0 -90043646.816194534 103838571.37063217 0 0 0 0 33318618.548418999 -44029216.964876175 0 -44029216.964876175 19804175.869544983 0 0 0 0 62050949.754653931 -26507949.636825562 0 -26507949.636825562 -4156926.4526602626 0 0 0 0 35225625.219040319 -10222969.409707453 0 -10222969.409707453 -9933634.2384887971 0 0 0 0 24466898.049415588 -12455574.842857361 0 -12455574.842857361 -5152349.9659519196 0 0 0 0 -11370005.574829102 -149921598.27132607 0 -149921598.27132607 99546897.812530994 0 0 0 0 -263811428.54017639 56035277.098130226 0 56035277.098130226 66945460.751140594 0 0 0 0 3304462.3234029934 -2595581.7361884508 0 -2595581.7361884508 -1236262.5509452224 0 0 0 0 18092965.744974464 -28884393.396868028 0 -28884393.396868028 19776085.2769452 0 0 0 0 -49674373.151544333 -141324649.83070374 0 -141324649.83070374 99133135.499095917 0 0 0 0 44872286.744956724 -12910944.03302986 0 -12910944.03302986 -6020768.1199160032 0 0 0 0 159730403.99905777 -2904323.4116325378 0 -2904323.4116325378 -97437011.559215546 0 0 0 0 78691691.003677368 -7292081.3831100464 0 -7292081.3831100464 48758100.482009888 0 0 0 0 7874037.3834915161 43995995.02437973 0 43995995.02437973 48907566.571186066 0 0 0 0 107219806.89050293 -56289286.110126495 0 -56289286.110126495 40706229.013829768 0 0 0 0 -2256674.1548461914 47509301.177618265 0 47509301.177618265 -33885578.012750149 0 0 0 0 243360018.97389221 -47459943.859251499 0 -47459943.859251499 -98260768.739405632 0 0 0 0 135657206.50788593 39575628.785348088 0 39575628.785348088 -145755224.99618053 0 0 0 0 133803178.37094212 50028172.168505698 0 50028172.168505698 -55123677.248753548 0 0 0 0 4449651.5889747329 -2126631.6193249319 0 -2126631.6193249319 -1653676.2525411334 0 0 0 0 45565396.961593628 -161917411.93644285 0 -161917411.93644285 344991632.70090103 0 0 0 0 89043466.510681152 -113192993.08771181 0 -113192993.08771181 84685178.82397151 0 0 0 0 -123526344.96502686 -39161532.705052018 0 -39161532.705052018 266165872.36893865 0 0 0 0 -122822462.54262543 -219288955.71683931 0 -219288955.71683931 564502929.44673586 0 0 0 0 -487464.57701161504 378109.40399426967 0 378109.40399426967 3259061.2627999969 0 0 0 0 570682600.42285156 -186201702.57980758 0 -186201702.57980758 -876341817.2231611 0 0 0 0 -201490036.18765259 53056918.420624614 0 53056918.420624614 866005627.4661088 0 0 0 0 615516651.92837524 1406708372.6504362 0 1406708372.6504362 436476172.57732153 0 0 0 0 384222178.18952179 340419285.23455262 0 340419285.23455262 -709893760.78899431 0 0 0 0 187960475.79653931 301125577.45540047 0 301125577.45540047 269334043.65730751 0 0 0 0 -95341486.816970825 66465340.684039116 0 66465340.684039116 26778237.699443817 0 0 0 0 39849503.314750671 -43011539.205588818 0 -43011539.205588818 -3269171.278151989 0 0 0 0 -7307729.6674303636 -1652686.312039705 0 -1652686.312039705 5051282.5304274689 0 0 0 0 246053263.2209847 -197976642.90832809 0 -197976642.90832809 -612154918.7005105 0 0 0 0 20609181.843437195 -12722338.794683456 0 -12722338.794683456 1511453.324798584 0 0 0 0 39639985.812630445 -22238291.481945828 0 -22238291.481945828 2599700.9443136202 0 0 0 0 17076817.801841736 -15583611.540235519 0 -15583611.540235519 -797495.06343269348 0 0 0 0 20522214.257074066 -12305151.144426305 0 -12305151.144426305 5244894.7510537189 0 0 0 0 86377801.286895752 -33620974.351658836 0 -33620974.351658836 -188993014.67162728 0 0 0 0 2896022.5848083496 -34012008.539475918 0 -34012008.539475918 -9813055.2350792885 0 0 0 0 6360759.195783766 -3479307.4359662384 0 -3479307.4359662384 -1915864.0959038418 0 0 0 0 -280898615.14500046 220137613.87150908 0 220137613.87150908 2196836507.5152454 0 0 0 0 24373182.349113464 -12438452.68378067 0 -12438452.68378067 5743509.0372257233 0 0 0 0 24828997.669611908 -5743826.9408702822 0 -5743826.9408702822 -2901724.3370937323 0 0 0 0 1097354.0179116055 -1920324.1629333813 0 -1920324.1629333813 -465722.52907016693 0 0 0 0 24195916.401576996 -13436870.860953331 0 -13436870.860953331 1286240.8791465759 0 0 0 0 1121660220.6402435 880522010.1880188 0 880522010.1880188 1001436275.8611741 0 0 0 0 1322124049.069109 288431115.754246 0 288431115.754246 118269464.42264366 0 0 0 0 670953386.3627243 1462418232.8586645 0 1462418232.8586645 151920334.01950073 0 0 0 0 283612250.94604492 -241903979.85021591 0 -241903979.85021591 1657070793.6989179 0 0 0 0 327312813.63599396 -13195374.237548351 0 -13195374.237548351 304978570.34914017 0 0 0 0 138725616.52210999 -90398770.582419395 0 -90398770.582419395 662743619.01829624 0 0 0 0 496341827.56565094 354031622.52837467 0 354031622.52837467 482040380.3881433 0 0 0 0 497846784.06869316 231918725.09703553 0 231918725.09703553 344869447.13389397 0 0 0 0 677660623.30928802 156357170.7361536 0 156357170.7361536 -27678899.553920105 0 0 0 0 244390406.78084564 172573000.36269474 0 172573000.36269474 351351591.05257702 0 0 0 0 464336632.5672493 306468144.24689531 0 306468144.24689531 300162442.03515816 0 0 0 0 906319624.40789032 377216272.98740625 0 377216272.98740625 174415849.90200996 0 0 0 0 596987261.10346222 123371852.74205446 0 123371852.74205446 -70712947.432818413 0 0 0 0 836177603.61430645 -47180183.726550817 0 -47180183.726550817 -79944301.360584259 0 0 0 0 7944087.2892708015 -14068485.511237303 0 -14068485.511237303 25019260.352110181 0 0 0 0 58970200.502103806 -239363771.04529142 0 -239363771.04529142 207574282.38575172 0 0 0 0 30187844.530940551 -13801942.763947289 0 -13801942.763947289 135820.66210442875 0 0 0 0 65407486.603021622 39533456.340934753 0 39533456.340934753 74967012.563289642 0 0 0 0 -13404469.100708008 -38720134.668148041 0 -38720134.668148041 128844305.72792816 0 0 0 0 17972081.95847702 41825925.973282099 0 41825925.973282099 -51545556.844449997 0 0 0 0 14976160.119362565 -6199364.8565748725 0 -6199364.8565748725 -6686415.8898258479 0 0 0 0 -42506412.322105408 7967607.7191383839 0 7967607.7191383839 4884481.6575031281 0 0 0 0 5379940.2542252727 -1285455.4735827763 0 -1285455.4735827763 2930636.9436108619 0 0 0 0 336000344.54530334 411793898.3004427 0 411793898.3004427 362107980.50933552 0 0 0 0 409413338.10905457 707913826.61599064 0 707913826.61599064 859707425.11233616 0 0 0 0 773443646.66426277 -232671791.58810854 0 -232671791.58810854 95402265.30026722 0 0 0 0 1237264287.1930695 602049022.4591341 0 602049022.4591341 -188711390.61190462 0 0 0 0 1071484766.8736191 -165704789.90666664 0 -165704789.90666664 -38317172.227244854 0 0 0 0 1540856557.2479248 464937227.95837319 0 464937227.95837319 -425492753.14115214 0 0 0 0 -152996747.01394272 -277576318.01215565 0 -277576318.01215565 206015824.1197114 0 0 0 0 304990777.12347412 557802189.04982996 0 557802189.04982996 638154849.53961241 0 0 0 0 -106932859.15652084 121176598.00340545 0 121176598.00340545 512315072.89355659 0 0 0 0 1080371799.8645229 936511320.14090466 0 936511320.14090466 748959389.85968018 0 0 0 0 1417438303.0624924 724422275.66755104 0 724422275.66755104 197668181.78646374 0 0 0 0 1443641596.660965 -356300098.84004545 0 -356300098.84004545 -174105.91556358337 0 0 0 0 1408793.7435808368 575090.58746561687 0 575090.58746561687 220037.72333872051 0 0 0 0 742758442.10344696 426230654.08628821 0 426230654.08628821 -21490955.215682983 0 0 0 0 1171869.8563360367 -1418856.8430694863 0 -1418856.8430694863 -1744957.7742943673 0 0 0 0 -618520942.76238728 371776605.19692945 0 371776605.19692945 -140005780.05194283 0 0 0 0 1378112157.5129814 -574762903.97755396 0 -574762903.97755396 10437370.01758194 0 0 0 0 524416440.47574615 458279255.20787883 0 458279255.20787883 -692049071.66295409 0 0 0 0 1271572245.023982 1005564832.896683 0 1005564832.896683 -519407279.61302471 0 0 0 0 309548844.02555466 -105065134.8603282 0 -105065134.8603282 -168955175.6052289 0 0 0 0 255357805.83649445 -210422364.6601584 0 -210422364.6601584 276278649.03741324 0 0 0 0 -2867574.5351905823 124871777.52858588 0 124871777.52858588 -141561637.98218602 0 0 0 0 82467681.855266571 124982667.17969537 0 124982667.17969537 -257346254.37445319 0 0 0 0 4185886.2422596142 1388146.8708760669 0 1388146.8708760669 -421220.77438234573 0 0 0 0 3295628.8631668091 21194.604182481766 0 21194.604182481766 -1892582.3914141655 0 0 0 0 4272110.4491920471 310181.00968301296 0 310181.00968301296 -2892756.6320581436 0 0 0 0 6557675.022603631 -162478.3475934593 0 -162478.3475934593 -2202207.4461189993 0 0 0 0 5226710.0454788208 -393519.01019072533 0 -393519.01019072533 -3480228.7730498314 0 0 0 0 167058134.62916565 193322612.00638008 0 193322612.00638008 142018434.63300896 0 0 0 0 6727520.2282180786 -1951886.4104855061 0 -1951886.4104855061 -2126141.142896682 0 0 0 0 4963299.2042609705 -2440556.8135095052 0 -2440556.8135095052 -3041772.5235455069 0 0 0 0 4026818.6522658188 -2940839.4742508158 0 -2940839.4742508158 -653272.79927957105 0 0 0 0 393307881.24551296 -29488759.150938898 0 -29488759.150938898 29904963.094968796 0 0 0 0 4163928.4920196533 565970.21675133705 0 565970.21675133705 -1942425.4950790405 0 0 0 0 594755643.48857117 297314295.41291475 0 297314295.41291475 -22950637.005547523 0 0 0 0 898825322.73866272 292936973.83735514 0 292936973.83735514 -77622676.82810545 0 0 0 0 891799232.90466881 230353626.95014405 0 230353626.95014405 -175988368.08295059 0 0 0 0 930950593.2440567 72685286.590001106 0 72685286.590001106 -148767334.28157902 0 0 0 0 589185697.2772727 205651087.64145878 0 205651087.64145878 197754913.31243134 0 0 0 0 527925495.72764587 19838115.503388643 0 19838115.503388643 125211703.57572651 0 0 0 0 831374778.50624847 44608392.854468346 0 44608392.854468346 -222132634.09574127 0 0 0 0 678227305.44360352 -271462095.26258469 0 -271462095.26258469 -256204352.56796646 0 0 0 0 923340338.12363434 42016220.1679039 0 42016220.1679039 -247974395.76970482 0 0 0 0 1427303012.0619354 75167820.236738205 0 75167820.236738205 -357133983.62211132 0 0 0 0 1113359126.4083023 -131178678.20171833 0 -131178678.20171833 -129996701.62220383 0 0 0 0 1229888878.774437 518300696.14090919 0 518300696.14090919 -91605453.918649673 0 0 0 0 1108327948.7990265 -95967540.579194546 0 -95967540.579194546 -358608933.21881104 0 0 0 0 421042690.35108948 -165029095.15981865 0 -165029095.15981865 290571535.83894348 0 0 0 0 430100727.78663635 21174778.103201866 0 21174778.103201866 -83138752.714187622 0 0 0 0 917982881.26092529 260371179.03268433 0 260371179.03268433 -207588414.22286892 0 0 0 0 450730223.09747314 227326586.44537544 0 227326586.44537544 79092242.059666201 0 0 0 0 788061184.20307159 398291100.26292515 0 398291100.26292515 79927939.421556473 0 0 0 0 -155575179.07043457 304350161.62376404 0 304350161.62376404 482951402.70097351 0 0 0 0 4824333.0853542462 2006664.0664844383 0 2006664.0664844383 -3397548.4004562395 0 0 0 0 384822511.29065704 143157634.37947845 0 143157634.37947845 48111675.508775711 0 0 0 0 1846533482.4042358 1469681711.6114769 0 1469681711.6114769 876027910.54499817 0 0 0 0 617227196.2585144 974336167.41556549 0 974336167.41556549 676855536.69481659 0 0 0 0 600705287.56352615 1038153187.768281 0 1038153187.768281 1789464182.2899971 0 0 0 0 1433527109.5037231 442721576.30761147 0 442721576.30761147 -69148825.606681824 0 0 0 0 169076.91375755332 159318.24505078979 0 159318.24505078979 -182644.85147672426 0 0 0 0 1457942389.1963959 -1075522219.3743572 0 -1075522219.3743572 242114089.60591984 0 0 0 0 2328692.7384373173 -243938.28492392041 0 -243938.28492392041 -692887.98634431604 0 0 0 0 1600427221.9297562 -732483801.91785431 0 -732483801.91785431 394610755.38168526 0 0 0 0 2687709209.9496918 78704765.171783447 0 78704765.171783447 -102689466.33559275 0 0 0 0 2604213807.7025757 1045757792.7770863 0 1045757792.7770863 223284076.84634781 0 0 0 0 -338761621.61716461 -287221791.50957012 0 -287221791.50957012 1402183759.9031429 0 0 0 0 -25050.0370221138 728867.80500035733 0 728867.80500035733 3038966.2974748826 0 0 0 0 1359827413.1069794 250826362.5734129 0 250826362.5734129 -511007987.73922729 0 0 0 0 2163682662.0917397 255785088.63461161 0 255785088.63461161 -537614837.70285225 0 0 0 0 2708728.2453693096 411756.10811335035 0 411756.10811335035 -1703987.9203066723 0 0 0 0 4887803.7588348389 -14750.673998832703 0 -14750.673998832703 -1024483.6133460999 0 0 0 0 501772986.19673157 6126201.3651866913 0 6126201.3651866913 2937495.2178411484 0 0 0 0 25055425.357959747 19361499.736252308 0 19361499.736252308 33055174.324117661 0 0 0 0 28314867.289535522 3818745.9605252743 0 3818745.9605252743 -821669.80413651466 0 0 0 0 33546739.584506989 22095701.585204363 0 22095701.585204363 16084510.985578537 0 0 0 0 3008837.6250738217 -1815387.5633888431 0 -1815387.5633888431 -1675376.3287349432 0 0 0 0 4572551.5454826355 -204062.16473817825 0 -204062.16473817825 -1006783.0013246536 0 0 0 0 94820770.940124512 -71943438.163626432 0 -71943438.163626432 -152542429.65036511 0 0 0 0 23687183.541595459 25862901.565984607 0 25862901.565984607 230548563.75887394 0 0 0 0 -59448933.434646606 -252852549.28753185 0 -252852549.28753185 -82710661.206411839 0 0 0 0 10026907.744519994 1750649.0409860779 0 1750649.0409860779 -5143083.8990387172 0 0 0 0 -34685439.476722717 -105975100.65997416 0 -105975100.65997416 -99431054.067850113 0 0 0 0 -20426088.795761108 -78223156.943404913 0 -78223156.943404913 -381767482.2351737 0 0 0 0 166777346.67254639 -177048964.48850417 0 -177048964.48850417 -74357005.511699677 0 0 0 0 124004801.81100464 -36600464.650677919 0 -36600464.650677919 -189148960.0206601 0 0 0 0 137716658.86726379 -58751835.811029792 0 -58751835.811029792 -154213764.59324837 0 0 0 0 161675639.45679569 -42654988.20538865 0 -42654988.20538865 -146412960.58744669 0 0 0 0 352538392.59450531 -364002167.4543941 0 -364002167.4543941 184151694.76627696 0 0 0 0 3913547.0616732389 315002.97650971171 0 315002.97650971171 -307451.13584979612 0 0 0 0 218840385.71098328 538086961.63558793 0 538086961.63558793 258630364.74661219 0 0 0 0 -13829748.002655029 -137130625.10601377 0 -137130625.10601377 545413145.03744316 0 0 0 0 -261821419.35160065 1130459535.0251536 0 1130459535.0251536 857961916.73504865 0 0 0 0 -732893.62688933313 1495911.3641545512 0 1495911.3641545512 7591560.6062932778 0 0 0 0 611889591.98677063 -170807785.46868646 0 -170807785.46868646 -344449385.91793013 0 0 0 0 355961939.00418854 152760465.48736382 0 152760465.48736382 -448011220.12042856 0 0 0 0 -87146658.201839447 -268623022.14348477 0 -268623022.14348477 259321438.69925976 0 0 0 0 153918153.34469604 222032711.52329445 0 222032711.52329445 -25464042.10773325 0 0 0 0 287766773.27905273 -217214265.00639296 0 -217214265.00639296 -76494079.554578781 0 0 0 0 -514537093.22411346 172073784.1517477 0 172073784.1517477 121091015.39088154 0 0 0 0 -91697113.328552246 -446218031.87911081 0 -446218031.87911081 -148818482.83100128 0 0 0 0 460558331.71731567 -31381948.853845596 0 -31381948.853845596 -97562039.891476631 0 0 0 0 434878275.49864197 14959576.949427605 0 14959576.949427605 -569723894.09438705 0 0 0 0 -484625349.99634552 683904497.58119965 0 683904497.58119965 558078470.25962257 0 0 0 0 -500263121.89533615 -143334928.05285096 0 -143334928.05285096 151937279.55861139 0 0 0 0 -496494.73707710207 1669285.4401701353 0 1669285.4401701353 7589207.3719386579 0 0 0 0 -162952842.60824585 -105796723.99047518 0 -105796723.99047518 136338622.74416518 0 0 0 0 10681169.754302979 -43289601.453715324 0 -43289601.453715324 26922837.062275887 0 0 0 0 -16861459.659584045 7401860.9902009964 0 7401860.9902009964 -141837808.67598724 0 0 0 0 285067069.56758118 -559463939.78759313 0 -559463939.78759313 -209366719.56037235 0 0 0 0 731062697.02706909 328911226.61893541 0 328911226.61893541 -2817579.949388504 0 0 0 0 -87157630.818382263 10473734.358221531 0 10473734.358221531 -62981006.882636547 0 0 0 0 8710869.7854118347 462894842.8423959 0 462894842.8423959 268922893.76344919 0 0 0 0 714007884.24777985 -256041886.63349581 0 -256041886.63349581 -260353940.11588621 0 0 0 0 192658.94059438258 1587683.7489252388 0 1587683.7489252388 1541027.7192179402 0 0 0 0 258760123.73838806 506453127.08462262 0 506453127.08462262 177299283.55411148 0 0 0 0 429262384.14893341 -394414148.59990931 0 -394414148.59990931 75138597.662228584 0 0 0 0 420105119.59556961 -18118804.433251143 0 -18118804.433251143 -58509492.221302986 0 0 0 0 821918252.79457855 97688170.524577141 0 97688170.524577141 -269051362.86950302 0 0 0 0 208235064.23710632 -136932374.36534214 0 -136932374.36534214 -115058515.69933367 0 0 0 0 -139825463.65811157 165023445.38609505 0 165023445.38609505 -157474021.55077744 0 0 0 0 1365897.8306247443 3551652.5174871273 0 3551652.5174871273 2970406.1008052928 0 0 0 0 -304244037.75260925 308538807.74468517 0 308538807.74468517 -228539708.27230668 0 0 0 0 270614777.87566471 169241203.02194741 0 169241203.02194741 -540424640.24998093 0 0 0 0 -116169936.99071503 594069122.39471769 0 594069122.39471769 -648522128.98934269 0 0 0 0 -219595073.91648865 -33908046.727078199 0 -33908046.727078199 146673272.44265556 0 0 0 0 -152411644.95159149 53155889.252717018 0 53155889.252717018 -287311991.96291637 0 0 0 0 17021840.589403152 497654643.10264969 0 497654643.10264969 -604984321.61105442 0 0 0 0 2306931.4540796652 3940792.1935875965 0 3940792.1935875965 2979017.0379147572 0 0 0 0 61412164.187722206 384434652.27612412 0 384434652.27612412 95232188.425680161 0 0 0 0 263863829.68247223 457155846.44850826 0 457155846.44850826 218045481.30188179 0 0 0 0 378846902.89073944 396765473.35541534 0 396765473.35541534 119628249.47125053 0 0 0 0 271281342.03516388 346618178.30271339 0 346618178.30271339 102038985.43405437 0 0 0 0 841779894.46413422 45432452.730443001 0 45432452.730443001 -67817247.401541948 0 0 0 0 341567587.15720367 289861592.20527077 0 289861592.20527077 141791185.26191139 0 0 0 0 184500937.02279663 -84645890.517737389 0 -84645890.517737389 -168825838.74877697 0 0 0 0 388515205.65833282 68849728.750749111 0 68849728.750749111 -65501897.516094208 0 0 0 0 504279478.30497742 -73843929.485965729 0 -73843929.485965729 -216479144.70734978 0 0 0 0 75845715.625426769 224842326.47386163 0 224842326.47386163 -359529188.83566856 0 0 0 0 834890116.31562042 -525672120.12844372 0 -525672120.12844372 57819130.014102936 0 0 0 0 -21537.060144744813 -463193.34360176697 0 -463193.34360176697 1143114.4068464143 0 0 0 0 144252801.76728821 587137057.00115252 0 587137057.00115252 237287766.89704132 0 0 0 0 571240737.00337982 797583936.91262054 0 797583936.91262054 119646000.67348099 0 0 0 0 -1037143627.0440979 -219303731.15589905 0 -219303731.15589905 -286484075.89460373 0 0 0 0 243747.8021999218 15458.449337754399 0 15458.449337754399 -246002.47360564955 0 0 0 0 143010782.20350778 73368278.770764887 0 73368278.770764887 -186307266.04664421 0 0 0 0 144654511.08248901 -3299186.535859108 0 -3299186.535859108 71328417.117789268 0 0 0 0 42117362.67212677 33262777.025285244 0 33262777.025285244 30391935.615350723 0 0 0 0 1631054.3575192373 1274875.5991326589 0 1274875.5991326589 -419331.06982671469 0 0 0 0 6215561.8895850182 -2350923.6671291888 0 -2350923.6671291888 460186.61150360107 0 0 0 0 1614648.8617196737 -1967570.0314376932 0 -1967570.0314376932 77104.089211404324 0 0 0 0 167725055.06665778 56177235.747911796 0 56177235.747911796 -55640596.605670929 0 0 0 0 1379564433.4915009 167533993.62669754 0 167533993.62669754 -170472534.81236649 0 0 0 0 674604464 -567476841.00315571 0 -567476841.00315571 412434764.65345097 0 0 0 0 145096784.34842682 -35166920.637044907 0 -35166920.637044907 -53275882.2460289 0 0 0 0 -362775960.6965332 611726184.96187782 0 611726184.96187782 1115788565.552743 0 0 0 0 148609132.59421349 -345800352.75027061 0 -345800352.75027061 26765532.944437027 0 0 0 0 1307428.0475497842 1870774.8119926285 0 1870774.8119926285 1392273.8677683226 0 0 0 0 1477024763.551445 -371883261.0502739 0 -371883261.0502739 -828244718.67056894 0 0 0 0 1382171811.1150551 -846474438.77766275 0 -846474438.77766275 -583161766.74391556 0 0 0 0 1687493090.9273529 101928416.90350151 0 101928416.90350151 -202451794.21932697 0 0 0 0 1115173331.0242519 -130723906.3083148 0 -130723906.3083148 -134391891.29763031 0 0 0 0 853747101.60881042 689383846.28616714 0 689383846.28616714 23346790.973049164 0 0 0 0 -20586631.141929626 730842957.75787258 0 730842957.75787258 167278791.84790134 0 0 0 0 173384750.8550415 460553559.67275047 0 460553559.67275047 22798974.137792587 0 0 0 0 145246094.717659 406266408.06373596 0 406266408.06373596 199991495.58745766 0 0 0 0 332846188.81700134 336463989.63083935 0 336463989.63083935 117907040.172369 0 0 0 0 329061088.44924927 93288784.610545158 0 93288784.610545158 -54612906.915590286 0 0 0 0 162646019.95359039 28942593.051427841 0 28942593.051427841 -62478181.423383713 0 0 0 0 51868172.569503784 48281832.797042847 0 48281832.797042847 63499922.001642227 0 0 0 0 173795386.06924152 -40484759.280459285 0 -40484759.280459285 117033733.6602459 0 0 0 0 -376656816.55453253 171399612.8289187 0 171399612.8289187 -75796818.262527466 0 0 0 0 175239767.57715607 -588234571.46221399 0 -588234571.46221399 285476932.57202339 0 0 0 0 412125.62615125254 -462897.26149536483 0 -462897.26149536483 1083399.6750975847 0 0 0 0 -555557238.91985703 56149186.005135536 0 56149186.005135536 300135764.12267876 0 0 0 0 444023514.70959473 -68755408.123937607 0 -68755408.123937607 -117465313.69844913 0 0 0 0 249928699.297966 198601445.07677794 0 198601445.07677794 15605050.006216049 0 0 0 0 -60666229.294631958 -176423926.76968956 0 -176423926.76968956 206271359.63321781 0 0 0 0 -17581901.934562683 14508066.329627037 0 14508066.329627037 -19355960.904975891 0 0 0 0 4844719.6659022486 -1656643.6916581392 0 -1656643.6916581392 -1805326.05443535 0 0 0 0 -123048435.65363669 -82593939.349530607 0 -82593939.349530607 65194807.328063965 0 0 0 0 48964249.020820618 38901007.791847229 0 38901007.791847229 -43819481.505817413 0 0 0 0 62670790.656486511 40302796.319030762 0 40302796.319030762 -55102499.72670269 0 0 0 0 67841946.233200073 10427193.585715294 0 10427193.585715294 -48999699.336797714 0 0 0 0 51328071.238586426 26096473.578743935 0 26096473.578743935 -62747176.633504868 0 0 0 0 231617542.38360596 41432596.299157143 0 41432596.299157143 -114345028.92160082 0 0 0 0 90174248.522247314 51284481.250308037 0 51284481.250308037 -105999640.70072365 0 0 0 0 -119509599.28418732 49957099.048625469 0 49957099.048625469 83723666.209051132 0 0 0 0 1379261.5141054201 -807973.19700264186 0 -807973.19700264186 -469502.26844450738 0 0 0 0 57831639.332130432 51219860.548143387 0 51219860.548143387 -42085241.019987464 0 0 0 0 -139402417.65556335 81998807.615911007 0 81998807.615911007 22152812.399305344 0 0 0 0 39197604.392469406 55517494.014029741 0 55517494.014029741 -99602611.907772064 0 0 0 0 75879109.351272583 11296413.328296661 0 11296413.328296661 -51455360.15832901 0 0 0 0 11032148.139724731 -29491956.479078293 0 -29491956.479078293 -77110632.628211975 0 0 0 0 67840695.177185059 9825640.4973621368 0 9825640.4973621368 -38900823.399627686 0 0 0 0 80810481.670860291 -13015755.337069511 0 -13015755.337069511 -85129386.661262512 0 0 0 0 125871459.79426575 17121899.567645073 0 17121899.567645073 -96759174.151105404 0 0 0 0 92710414.842575073 24087412.161874771 0 24087412.161874771 -120518923.61322212 0 0 0 0 100946337.94615936 -17484848.725005627 0 -17484848.725005627 -140001536.63521194 0 0 0 0 167460179.20887375 -54338666.692974091 0 -54338666.692974091 -38239452.959579468 0 0 0 0 -7388069.3650522232 3465631.1036563516 0 3465631.1036563516 -679426.27679347992 0 0 0 0 -8578607.2824554443 11989615.238752365 0 11989615.238752365 -4318743.5853767395 0 0 0 0 20249450.076644897 32080050.870569229 0 32080050.870569229 -123853751.7368809 0 0 0 0 -17806053.510047913 -24663927.552797318 0 -24663927.552797318 14639084.813150406 0 0 0 0 74987034.56048584 75508839.435805321 0 75508839.435805321 64273541.27676487 0 0 0 0 158665.41465479136 667911.95806412492 0 667911.95806412492 171543.81552141416 0 0 0 0 66817065.024452209 -53048734.404866219 0 -53048734.404866219 48218147.58249855 0 0 0 0 143354355.86925507 103646022.0909586 0 103646022.0909586 30908051.030256271 0 0 0 0 176272393.52072144 84603338.646473646 0 84603338.646473646 14560077.336154938 0 0 0 0 111306615.53814697 34847012.283397675 0 34847012.283397675 23602999.704938889 0 0 0 0 -507227.92452275753 105760.03872060962 0 105760.03872060962 599446.75218639988 0 0 0 0 -26702061.402763367 110700654.13821268 0 110700654.13821268 4246437.8182926178 0 0 0 0 55673386.750915527 48277765.203206062 0 48277765.203206062 -143485911.458251 0 0 0 0 -147683572.26907349 85224365.579806805 0 85224365.579806805 55509133.951046944 0 0 0 0 57169137.187732697 76771186.685062885 0 76771186.685062885 153898635.40599632 0 0 0 0 127372782.91474152 -35885241.991765022 0 -35885241.991765022 -20223536.969802856 0 0 0 0 27764240.833335876 36611444.992714405 0 36611444.992714405 64779026.491726398 0 0 0 0 23785878.055923462 24485071.386002541 0 24485071.386002541 42191682.219177246 0 0 0 0 35323392.788986206 29653394.324530363 0 29653394.324530363 26752984.875488281 0 0 0 0 37567680.074886322 22934087.61611414 0 22934087.61611414 42146926.743632317 0 0 0 0 12171852.75050354 15202286.308227301 0 15202286.308227301 26370341.086224414 0 0 0 0 32767024.835083008 35253439.370963097 0 35253439.370963097 22908204.903217018 0 0 0 0 60735089.471420288 34156700.745043278 0 34156700.745043278 22907094.258762658 0 0 0 0 51000265.588903427 56288753.689069629 0 56288753.689069629 22140679.259497643 0 0 0 0 94090501.370788574 56971300.920111179 0 56971300.920111179 6196491.0244123936 0 0 0 0 80123175.221571922 110216635.86040318 0 110216635.86040318 194623.41559886932 0 0 0 0 36915879.930892944 111014179.89508581 0 111014179.89508581 25534535.699858665 0 0 0 0 45856664.277484894 105548600.27675128 0 105548600.27675128 27262271.645242691 0 0 0 0 44988686.644649506 94637566.503033519 0 94637566.503033519 65007100.98404026 0 0 0 0 23823476.224906921 58818686.485340595 0 58818686.485340595 28408597.43560791 0 0 0 0 36377049.523300171 46210717.22685051 0 46210717.22685051 41068757.415019035 0 0 0 0 12120056.971702576 22352419.563574791 0 22352419.563574791 67222334.778889656 0 0 0 0 29341229.561496735 36707117.380718708 0 36707117.380718708 37347730.484388351 0 0 0 0 16519768.050056458 39869058.612093925 0 39869058.612093925 71483459.452447176 0 0 0 0 -73251779.67956543 76972800.051402092 0 76972800.051402092 63181833.117993951 0 0 0 0 32855207.215518951 179698295.04932213 0 179698295.04932213 109225101.19517851 0 0 0 0 -268271934.54952621 167314538.45461392 0 167314538.45461392 135749098.93452072 0 0 0 0 12845231.199212484 -1407665.8715553419 0 -1407665.8715553419 -1389723.4897131955 0 0 0 0 17628064.143859863 2614008.0675792694 0 2614008.0675792694 4542298.1051263809 0 0 0 0 19821974.799968719 -42033666.375344649 0 -42033666.375344649 -103435328.10951062 0 0 0 0 -123145895.67588806 -17843824.14330256 0 -17843824.14330256 55323551.394119263 0 0 0 0 502562.26161624864 -584940.78684220463 0 -584940.78684220463 -340525.66520477016 0 0 0 0 58812749.812189102 10668052.092206836 0 10668052.092206836 -203630856.31316614 0 0 0 0 6951631.1000131927 -461587.34210708737 0 -461587.34210708737 -542030.89153296733 0 0 0 0 -8977544.7289428711 -9961876.5134769827 0 -9961876.5134769827 -68578263.903680548 0 0 0 0 3402362.5662689209 2136726.717628479 0 2136726.717628479 -6072085.4917383194 0 0 0 0 31695893.020420074 33417016.255255938 0 33417016.255255938 28285996.452710152 0 0 0 0 26265013.87991333 24871399.370140076 0 24871399.370140076 25353547.292101622 0 0 0 0 7082218.1780034192 2091223.3401013771 0 2091223.3401013771 -2568896.4975086371 0 0 0 0 54483220.782081604 -93515147.959038734 0 -93515147.959038734 244081154.82583618 0 0 0 0 -24799.575428072363 549787.23773311125 0 549787.23773311125 259421.65084964316 0 0 0 0 114510497.43548393 -128961516.51344204 0 -128961516.51344204 137151952.04656792 0 0 0 0 -14270962.796363831 6697260.5806632042 0 6697260.5806632042 69511019.262373924 0 0 0 0 30407083.585876465 43142511.289795399 0 43142511.289795399 8050464.3456971645 0 0 0 0 2872062.5191955566 18901280.335420132 0 18901280.335420132 -23735429.555089109 0 0 0 0 18444326.0545578 55286742.56512928 0 55286742.56512928 96400618.186744213 0 0 0 0 1695078.9749241844 758796.75784357265 0 758796.75784357265 -1186222.175705702 0 0 0 0 -24631826.125656128 56930644.491437674 0 56930644.491437674 57941880.174389839 0 0 0 0 80445477.494949341 -19457116.903500557 0 -19457116.903500557 85362539.60696888 0 0 0 0 -7944513.9078845978 -55845634.162864655 0 -55845634.162864655 123889361.5429163 0 0 0 0 269592747.75723267 -187071578.54698992 0 -187071578.54698992 169506809.71570477 0 0 0 0 171764748.17144775 -179958930.97323322 0 -179958930.97323322 179972611.48802519 0 0 0 0 578293838.74655151 -179887784.48185873 0 -179887784.48185873 63253326.400581837 0 0 0 0 324049487.78435898 -66248922.086319923 0 -66248922.086319923 20261051.847099304 0 0 0 0 363280072.94002533 -79449806.921931744 0 -79449806.921931744 16813705.295496464 0 0 0 0 212777102.33584595 368688884.15375805 0 368688884.15375805 46777289.65871799 0 0 0 0 12200459.996873964 -1081624.7605231144 0 -1081624.7605231144 -1031555.8582240576 0 0 0 0 635725873.38308525 108136744.74699306 0 108136744.74699306 -38158029.296274185 0 0 0 0 78854972.93460083 150415409.65666389 0 150415409.65666389 31485046.683553696 0 0 0 0 306108296.61460876 185293557.80638218 0 185293557.80638218 -54874736.394321918 0 0 0 0 133223019.15156555 32272139.211418629 0 32272139.211418629 60532993.420660794 0 0 0 0 262003192.48111343 -57891600.492198706 0 -57891600.492198706 46636253.871575832 0 0 0 0 171131253.91467667 35262130.904828548 0 35262130.904828548 18445205.09382391 0 0 0 0 74179332.301551819 70042424.960009098 0 70042424.960009098 7977364.0661873817 0 0 0 0 110065303.19439697 140278773.89053154 0 140278773.89053154 34391806.35221529 0 0 0 0 77057314.98780632 53084561.892881989 0 53084561.892881989 -23338116.139566422 0 0 0 0 44378899.558959961 54401448.88103199 0 54401448.88103199 -21229628.581359863 0 0 0 0 137722550.1110611 -2181808.5981397629 0 -2181808.5981397629 -36799297.50534153 0 0 0 0 39324214.461914062 5598375.8497180939 0 5598375.8497180939 -35429534.972278595 0 0 0 0 82142247.883491516 -22287815.481909752 0 -22287815.481909752 -80745389.837091446 0 0 0 0 221746181.31142807 -44695049.660107136 0 -44695049.660107136 43495221.673601151 0 0 0 0 77630002.379684448 15873424.134368896 0 15873424.134368896 31495452.756798744 0 0 0 0 113740845.27802086 -81323831.735827446 0 -81323831.735827446 -5761109.3972434998 0 0 0 0 64428730.813516617 -36906929.85538888 0 -36906929.85538888 -57591111.493418694 0 0 0 0 29313703.880210876 29022724.745625973 0 29022724.745625973 118264800.54901981 0 0 0 0 -3931719.6231994629 -165058107.77997762 0 -165058107.77997762 -86543052.392821312 0 0 0 0 18086046.788703918 -28187579.925775528 0 -28187579.925775528 -35277873.428573608 0 0 0 0 14207401.019012451 -88240479.574206352 0 -88240479.574206352 -65428087.954872608 0 0 0 0 -61457566.478530884 -39270771.255873203 0 -39270771.255873203 -77147939.186177254 0 0 0 0 1822366.689994812 -145643.68604516983 0 -145643.68604516983 -1136436.0343592167 0 0 0 0 -1096265.1050605774 -69070225.01419425 0 -69070225.01419425 -101760331.0842514 0 0 0 0 2012182.4570207559 298461.25073331967 0 298461.25073331967 -1233286.4303962765 0 0 0 0 838430.40066697728 -363183.45130060054 0 -363183.45130060054 -1310654.5174673758 0 0 0 0 -17989906.678939819 -56123006.004145622 0 -56123006.004145622 -77636991.411027312 0 0 0 0 1018215.4494171143 282710.43180847168 0 282710.43180847168 -1126032.9443359375 0 0 0 0 34877352.937202454 -4640952.5573635101 0 -4640952.5573635101 -4317749.5577449799 0 0 0 0 798570.54125213623 372442.18977069855 0 372442.18977069855 -1019279.4642486572 0 0 0 0 861834.71878051758 252511.28756332397 0 252511.28756332397 -907097.98951816559 0 0 0 0 931427.93060498871 -617584.85220810957 0 -617584.85220810957 -1055488.9830513429 0 0 0 0 4075721.9816827774 14186631.507368684 0 14186631.507368684 -57461101.660782814 0 0 0 0 61971428.802459717 -10030192.192822933 0 -10030192.192822933 -71735702.369141579 0 0 0 0 22409754.794725418 849197.01629376411 0 849197.01629376411 -72850889.718938828 0 0 0 0 1691797.503491357 1068080.7244345844 0 1068080.7244345844 -1503658.0884406473 0 0 0 0 511780.88226318359 1346405.0321807861 0 1346405.0321807861 -1434989.1893615723 0 0 0 0 17231892.13451004 -12587008.261768341 0 -12587008.261768341 -83960826.76833868 0 0 0 0 528812.59962463379 1489137.8908109665 0 1489137.8908109665 -1610834.5134534836 0 0 0 0 647031.99109351635 1395514.0553036935 0 1395514.0553036935 180727.93644829444 0 0 0 0 -16371242.532745361 -15327697.329027653 0 -15327697.329027653 -14973945.659876823 0 0 0 0 2720678.2988433838 31901935.238834858 0 31901935.238834858 -70638489.660958767 0 0 0 0 -540959.95967083424 76461.169671966694 0 76461.169671966694 681220.12747868616 0 0 0 0 12623299.090072632 -3091708.1060657501 0 -3091708.1060657501 -121348651.61707306 0 0 0 0 642758.2399520129 683967.73057168908 0 683967.73057168908 -765097.36336551746 0 0 0 0 -14367461.24659729 -11103389.221658707 0 -11103389.221658707 -57763455.547851562 0 0 0 0 878653.71142578125 31281237.566579819 0 31281237.566579819 -87258658.422299862 0 0 0 0 4954528.6046142578 11572526.284069061 0 11572526.284069061 -93236607.412948608 0 0 0 0 2898176.3561019897 -1056067.6490421295 0 -1056067.6490421295 -2453453.0669193268 0 0 0 0 478491.71113989502 981150.42535187211 0 981150.42535187211 -121280.32185088214 0 0 0 0 259206.26415252686 13212865.622630596 0 13212865.622630596 -70198477.772293091 0 0 0 0 -8413664.0161590576 17706174.059017181 0 17706174.059017181 -23755636.165559769 0 0 0 0 -1318270.4059009552 -1854556.1397171021 0 -1854556.1397171021 -41086602.947006226 0 0 0 0 -12113193.063114166 7244391.1584243774 0 7244391.1584243774 47215165.698669434 0 0 0 0 806476.5964426361 1137391.0485587029 0 1137391.0485587029 375893.50089118094 0 0 0 0 -321304.60749576613 4608.830808439292 0 4608.830808439292 706718.82475649938 0 0 0 0 -14162906.879981995 38302621.057426453 0 38302621.057426453 -43817288.593577385 0 0 0 0 -12072314.069015503 48745461.498112679 0 48745461.498112679 -32641561.702171326 0 0 0 0 -4252223.7760925293 52255704.466703415 0 52255704.466703415 -60852526.644355774 0 0 0 0 -872343.59053039551 53384444.991150856 0 53384444.991150856 -60593974.99202919 0 0 0 0 -1526824.3599700928 49353315.143538475 0 49353315.143538475 -64129507.196903229 0 0 0 0 5831971.3434066772 51913142.830976486 0 51913142.830976486 -77560596.61044693 0 0 0 0 -846270.59452819824 35104496.116323471 0 35104496.116323471 -53482801.365192413 0 0 0 0 3276919.1555557251 49950433.554328918 0 49950433.554328918 -78124318.719357491 0 0 0 0 3210155.0873718262 51683917.656510353 0 51683917.656510353 -63237879.554861069 0 0 0 0 10072428.700775146 41477380.743028641 0 41477380.743028641 -76127529.898231506 0 0 0 0 954606.22846603394 402786.82556152344 0 402786.82556152344 -1243653.2769565582 0 0 0 0 2649411.7579498291 2699400.7273311615 0 2699400.7273311615 -6155529.4744558334 0 0 0 0 90768.002585083246 988431.56306498428 0 988431.56306498428 -96365.661220209906 0 0 0 0 -2552989.1596450806 73511.952837944031 0 73511.952837944031 4538365.2318668365 0 0 0 0 4727126.5297546387 -1637579.1450576782 0 -1637579.1450576782 -3157925.3344116211 0 0 0 0 -21705549.858219147 21929547.112634897 0 21929547.112634897 -12273345.626045227 0 0 0 0 2138828.024017334 -5292508.7540111542 0 -5292508.7540111542 2721651.9677886963 0 0 0 0 -289504.91712856665 24357.448961164802 0 24357.448961164802 403971.16345851403 0 0 0 0 -35089310.123832703 71504791.05788517 0 71504791.05788517 -54689742.662179947 0 0 0 0 -66721688.625930786 47495184.095937729 0 47495184.095937729 -8581576.6273062229 0 0 0 0 -17808158.066589355 -5369391.6079597473 0 -5369391.6079597473 -5711662.5152320862 0 0 0 0 45564303.657867432 38317707.877951145 0 38317707.877951145 19172367.86400795 0 0 0 0 -10464963.548713684 4842078.8633508682 0 4842078.8633508682 7275625.3807144165 0 0 0 0 675288.30029241368 -683354.79460586421 0 -683354.79460586421 -1301980.7383838315 0 0 0 0 63988801.22838974 30343792.755933762 0 30343792.755933762 21002986.734859467 0 0 0 0 89532373.444507599 6031971.5718994141 0 6031971.5718994141 -82665994.148843765 0 0 0 0 324091.59679139033 -435108.39926991239 0 -435108.39926991239 -568769.85058977082 0 0 0 0 -84833445.809253693 115807449.06653118 0 115807449.06653118 -90756646.500864029 0 0 0 0 -151620454.86909485 44004578.228294373 0 44004578.228294373 -22029019.019371986 0 0 0 0 28269529.830177307 -3459721.6740369797 0 -3459721.6740369797 -101651615.02696228 0 0 0 0 89801982.461097717 55378056.121041298 0 55378056.121041298 -148410460.48246193 0 0 0 0 17387183.447631836 100674408.45129585 0 100674408.45129585 -119322864.22812843 0 0 0 0 1513091.9239273071 31069731.088347435 0 31069731.088347435 15152248.156423569 0 0 0 0 20002701.423147202 57501325.379818916 0 57501325.379818916 -48901489.311206818 0 0 0 0 50581645.006565094 51174878.182561874 0 51174878.182561874 -51360219.838432312 0 0 0 0 -50290448.217227936 81027543.221356392 0 81027543.221356392 -30229830.115976334 0 0 0 0 -33623276.437392235 -3606299.7092436552 0 -3606299.7092436552 -5473723.199848175 0 0 0 0 82209802.316833496 31571750.04901886 0 31571750.04901886 -618222.92543029785 0 0 0 0 21470861.993215561 40035048.082457304 0 40035048.082457304 66964066.430727005 0 0 0 0 21900793.808868408 32338651.1759758 0 32338651.1759758 13761111.994197845 0 0 0 0 82153783.293867111 187456212.68964458 0 187456212.68964458 -62761355.099662781 0 0 0 0 3415924.2368621826 -90552869.005001068 0 -90552869.005001068 77764847.747882843 0 0 0 0 300946844.36045074 -439842419.54079628 0 -439842419.54079628 487213567.90348053 0 0 0 0 3539403.8369440883 1487105.9979240671 0 1487105.9979240671 395876.02967695892 0 0 0 0 67924059.158309937 28223978.895036697 0 28223978.895036697 7978554.7013702393 0 0 0 0 90102275.387878418 -2419139.3308343887 0 -2419139.3308343887 30367477.962291718 0 0 0 0 -444812.71381817386 -385374.66489127837 0 -385374.66489127837 682656.03502175212 0 0 0 0 -20324740.915893555 379360.15852832794 0 379360.15852832794 73284774.585857391 0 0 0 0 104717704.8717804 -50069131.558559418 0 -50069131.558559418 23021753.364070892 0 0 0 0 28385042.205337524 10979246.885803223 0 10979246.885803223 -6006540.001748085 0 0 0 0 -634095.23836269788 -561878.78713113815 0 -561878.78713113815 947096.43959531281 0 0 0 0 57407771.436470032 57686262.495922089 0 57686262.495922089 -48056542.018809319 0 0 0 0 130258694.73852539 -105213505.69397163 0 -105213505.69397163 60706245.118362427 0 0 0 0 331026398.0417099 17324592.829410553 0 17324592.829410553 -166654158.75491333 0 0 0 0 79406333.003105164 -24949402.27348423 0 -24949402.27348423 -47226260.823066711 0 0 0 0 12758765.642547607 73582787.332884789 0 73582787.332884789 -142839559.11162376 0 0 0 0 18367613.238723755 13969167.413990021 0 13969167.413990021 -23916676.440854073 0 0 0 0 -1175270.4948062897 59195042.437484264 0 59195042.437484264 -63942378.214319229 0 0 0 0 -4288147.4862823486 69915745.133951187 0 69915745.133951187 -64612171.512354851 0 0 0 0 1547106.9310150146 62424272.181442261 0 62424272.181442261 -60763895.560830116 0 0 0 0 5017253.7120361328 60927321.652458668 0 60927321.652458668 -71784532.546644211 0 0 0 0 153249791.885849 -50457597.019385338 0 -50457597.019385338 -28744052.208229065 0 0 0 0 -363081.01143532246 -343247.84219826572 0 -343247.84219826572 444834.85493802186 0 0 0 0 125026753.22276688 -420194.4079785347 0 -420194.4079785347 -48999667.617256165 0 0 0 0 66397521.675605774 -4486896.8043973446 0 -4486896.8043973446 -25032891.626426697 0 0 0 0 41188697.897460938 2058502.5797920227 0 2058502.5797920227 -5520556.4922885895 0 0 0 0 67451757.04434967 -12299288.07126236 0 -12299288.07126236 -10293329.481046677 0 0 0 0 57632328.10165596 -17457350.970384359 0 -17457350.970384359 -2441333.1003112793 0 0 0 0 53004512.186820984 -1802557.0652198792 0 -1802557.0652198792 -4480523.0365943909 0 0 0 0 28326918.622085571 -9083469.3041858673 0 -9083469.3041858673 -500328.43811416626 0 0 0 0 68348025.85647583 -10331069.332313538 0 -10331069.332313538 -5175988.9546222687 0 0 0 0 85084076.237337112 -21070641.049489737 0 -21070641.049489737 -3323983.0780696869 0 0 0 0 90211382.53314209 -41127391.78742218 0 -41127391.78742218 7280633.9039497375 0 0 0 0 91303480.488189697 -8745158.3176555634 0 -8745158.3176555634 -14911975.422234535 0 0 0 0 58313019.05884552 -15980623.414405823 0 -15980623.414405823 -21849545.655305862 0 0 0 0 63790075.116683483 31225426.448913693 0 31225426.448913693 -23463360.314434052 0 0 0 0 42909171.035522461 17189880.74202919 0 17189880.74202919 6882196.227684021 0 0 0 0 94864805.031200409 -31935951.922945499 0 -31935951.922945499 -13709130.89106369 0 0 0 0 11240887.856369019 11549771.51570034 0 11549771.51570034 6642246.0506057739 0 0 0 0 2208213.231216833 -502794.30600855686 0 -502794.30600855686 123265.52552904002 0 0 0 0 42626495.588749409 -7957908.591661036 0 -7957908.591661036 -67881100.598701477 0 0 0 0 -6654144.9813232422 -435602.6221113205 0 -435602.6221113205 20858603.776632309 0 0 0 0 10670764.803776402 -2038001.8229231983 0 -2038001.8229231983 -3630386.5722745042 0 0 0 0 43946714.101356506 44086893.968048096 0 44086893.968048096 25235330.50083065 0 0 0 0 13831824.885403588 2644213.5428128764 0 2644213.5428128764 -5774385.2882898543 0 0 0 0 19134351.033653259 2377297.5815944672 0 2377297.5815944672 -5928278.0244636536 0 0 0 0 41229294.033157349 22869639.839700699 0 22869639.839700699 -33965976.155866623 0 0 0 0 11251942.920502558 5528077.3012802452 0 5528077.3012802452 -2714181.5902260486 0 0 0 0 45546062.629833221 -11718147.751966476 0 -11718147.751966476 -19120697.260709763 0 0 0 0 8168149.2700490188 -783510.69077219814 0 -783510.69077219814 -531913.52948624454 0 0 0 0 17974645.116512299 -9594623.1930189133 0 -9594623.1930189133 26059721.203292847 0 0 0 0 13342376.86408766 4026510.5442178119 0 4026510.5442178119 -3520910.5143785365 0 0 0 0 7330600.5492782593 5355993.2859869003 0 5355993.2859869003 -5016128.1978473663 0 0 0 0 10914476.596254349 6146214.961316824 0 6146214.961316824 -7598388.910610199 0 0 0 0 36119978.840967655 -4912521.0279543996 0 -4912521.0279543996 -4421475.7774887085 0 0 0 0 10713198.060319901 5805480.0556674004 0 5805480.0556674004 -2651362.1280975342 0 0 0 0 53860240.279747009 -39822054.919149399 0 -39822054.919149399 35014910.794364929 0 0 0 0 74635684.777252197 -41344207.3152771 0 -41344207.3152771 -12536874.137363434 0 0 0 0 76722829.016532898 -29656126.433887482 0 -29656126.433887482 -12099411.794025421 0 0 0 0 43575260.832443237 -19310183.151346207 0 -19310183.151346207 2452950.1115608215 0 0 0 0 11121362.688453674 7513192.4129371643 0 7513192.4129371643 2249876.2185621262 0 0 0 0 37967264.492965698 -1101968.424156189 0 -1101968.424156189 -9017036.9908332825 0 0 0 0 24069710.742759705 -10705504.913607597 0 -10705504.913607597 10169119.240345001 0 0 0 0 33206465.521850586 -9555485.441740036 0 -9555485.441740036 1479194.7803003788 0 0 0 0 27781814.593322754 16958147.333106995 0 16958147.333106995 -7285465.693400383 0 0 0 0 12721723.700616628 4529884.377966769 0 4529884.377966769 -3437824.3203196116 0 0 0 0 6935314.4359283447 3967218.8903799057 0 3967218.8903799057 -7519478.1359415054 0 0 0 0 16530921.765825003 -1025584.0894822665 0 -1025584.0894822665 -4466024.4031362683 0 0 0 0 11259697.936310634 7834758.5008502975 0 7834758.5008502975 -3857617.1118893819 0 0 0 0 37627079.894485474 26844130.786254883 0 26844130.786254883 49177597.474452972 0 0 0 0 36539131.16633606 -31013083.987762451 0 -31013083.987762451 95767663.557911396 0 0 0 0 18249870.110804606 2279874.0372131355 0 2279874.0372131355 -5352867.20353093 0 0 0 0 5612227.123094447 4061407.9278677115 0 4061407.9278677115 -2101229.2463314421 0 0 0 0 14046509.360321045 8256189.0999641418 0 8256189.0999641418 37748915.729225993 0 0 0 0 31775354.495849609 -5710753.4734344482 0 -5710753.4734344482 28697045.669158936 0 0 0 0 849171.30238869041 739643.78802833706 0 739643.78802833706 -356523.00910976995 0 0 0 0 10919483.936561897 6681478.5260717189 0 6681478.5260717189 -1140509.1057810755 0 0 0 0 12399703.107879639 3167770.2897558212 0 3167770.2897558212 -2766307.4970750809 0 0 0 0 41504281.93548584 13674638.724990845 0 13674638.724990845 6154649.1555023193 0 0 0 0 10865176.333526611 4504724.6529512405 0 4504724.6529512405 -10976542.643493652 0 0 0 0 16325393.892248552 8668166.5976326242 0 8668166.5976326242 -1922180.9798972206 0 0 0 0 13900092.782867432 4711520.2181625366 0 4711520.2181625366 -4232847.4970550537 0 0 0 0 19704677.657346256 5210583.6362572219 0 5210583.6362572219 -8877802.477304779 0 0 0 0 10876448.290679932 4626377.2241153717 0 4626377.2241153717 -11392213.858701706 0 0 0 0 9665870.2075233459 3769580.8786973953 0 3769580.8786973953 -8064092.3358058929 0 0 0 0 22432687.690024801 1542195.7071508095 0 1542195.7071508095 -6118194.8463317621 0 0 0 0 42896631.709648132 13225138.084198333 0 13225138.084198333 -45296015.988529325 0 0 0 0 15772884.403450012 28434981.748669893 0 28434981.748669893 26206641.761664152 0 0 0 0 13237170.015659332 5802636.2006592751 0 5802636.2006592751 -2131126.008562088 0 0 0 0 15037184.685829163 3579851.6341562271 0 3579851.6341562271 -1214739.7975311279 0 0 0 0 10380016.903216904 12131094.575714704 0 12131094.575714704 7364243.6199002108 0 0 0 0 14637367.821821872 9362565.0051289015 0 9362565.0051289015 3720054.83627987 0 0 0 0 22720723.165435791 3429588.7323799133 0 3429588.7323799133 -6357487.7449016571 0 0 0 0 11422418.264625873 4882591.3094528727 0 4882591.3094528727 -6523793.7495417167 0 0 0 0 37429928.198783875 21630550.044467926 0 21630550.044467926 -36352279.322059631 0 0 0 0 11436845.372131348 1017866.0430908203 0 1017866.0430908203 -1987957.1693472862 0 0 0 0 12117056.579721332 2971245.9485701434 0 2971245.9485701434 -6311893.7668321114 0 0 0 0 47571.54029771022 1994172.3748930022 0 1994172.3748930022 -27021.796523254365 0 0 0 0 11676870.143936157 3654971.3603820801 0 3654971.3603820801 -7003832.8064193726 0 0 0 0 9418457.0731506348 5267486.2647094727 0 5267486.2647094727 -8387120.5714559555 0 0 0 0 7705027.3173668981 3776778.2899408527 0 3776778.2899408527 -5852128.7188278139 0 0 0 0 7956726.5143508911 1813931.31883955 0 1813931.31883955 -4074871.4064426422 0 0 0 0 66826166.942855835 66018405.61355564 0 66018405.61355564 311954.75302046537 0 0 0 0 64644213.770095825 -51368903.569880098 0 -51368903.569880098 -13691387.250249863 0 0 0 0 12097899.907733873 3170402.2903900798 0 3170402.2903900798 -10448001.879264701 0 0 0 0 6717068.7498779297 4973580.2410087585 0 4973580.2410087585 -4570269.2272491455 0 0 0 0 42680933.598907471 -20500631.2739259 0 -20500631.2739259 -55807590.080318451 0 0 0 0 11358281.672912598 7430015.4016799927 0 7430015.4016799927 -1831696.6277542114 0 0 0 0 11052479.170996148 6727246.0389854573 0 6727246.0389854573 -870139.16053646058 0 0 0 0 8941019.814777324 6027380.7950455025 0 6027380.7950455025 -6645356.9832958784 0 0 0 0 14971695.967158675 5879060.4186660107 0 5879060.4186660107 -18442557.909229845 0 0 0 0 18153886.426774427 -2286232.9333669152 0 -2286232.9333669152 15321378.715545654 0 0 0 0 11445429.904418945 7546017.5226135254 0 7546017.5226135254 -1693116.09375 0 0 0 0 8198762.4790468067 7961883.6602877155 0 7961883.6602877155 -10134668.783889141 0 0 0 0 77837882.55859375 8273679.2370447963 0 8273679.2370447963 -73218926.582883298 0 0 0 0 9741443.444489751 4913491.734539263 0 4913491.734539263 -21901966.810720384 0 0 0 0 2224991.0818856889 5143623.6678036377 0 5143623.6678036377 52010.244831356453 0 0 0 0 -54094847.538658142 -11358073.154776521 0 -11358073.154776521 13409582.199867487 0 0 0 0 64626649.98487854 1890876.3534289598 0 1890876.3534289598 30447070.07021594 0 0 0 0 46925958.600006104 28468537.097137809 0 28468537.097137809 -94371608.576243699 0 0 0 0 44265940.855331421 78433999.67539081 0 78433999.67539081 53837562.886599064 0 0 0 0 91207901.695251465 61729209.686970383 0 61729209.686970383 -75083683.391754508 0 0 0 0 91451105.132598877 38397467.505378872 0 38397467.505378872 -37338912.189413518 0 0 0 0 97299272.158985138 87536648.333709329 0 87536648.333709329 -31843288.844269276 0 0 0 0 91840774.051849365 27735840.272289291 0 27735840.272289291 19104219.332375899 0 0 0 0 44034168.974014282 71757494.001439393 0 71757494.001439393 -14199499.210544884 0 0 0 0 20953975.63633728 15854919.640156582 0 15854919.640156582 2386764.5410744846 0 0 0 0 -17038602.447158813 -27846629.951817036 0 -27846629.951817036 -35018730.278930664 0 0 0 0 8245825.3779210076 3210971.9301258884 0 3210971.9301258884 112087.82009729696 0 0 0 0 10448803.141429916 2148313.9081344791 0 2148313.9081344791 -5992300.8813507296 0 0 0 0 8630722.9176712036 7166048.7605596781 0 7166048.7605596781 -1801618.9808835983 0 0 0 0 23287356.002191089 5488650.2830932923 0 5488650.2830932923 -5379213.7552225562 0 0 0 0 4816628.5849609375 7828455.9750995636 0 7828455.9750995636 -927693.95421600342 0 0 0 0 8345730.1294241026 11278070.028839532 0 11278070.028839532 1518402.6812106404 0 0 0 0 15896534.862327576 12050942.764670387 0 12050942.764670387 8298160.9139199257 0 0 0 0 8745299.8866400942 12012547.309404604 0 12012547.309404604 7798484.1004862599 0 0 0 0 26803460.486968994 12465606.344841465 0 12465606.344841465 -242793.56862181425 0 0 0 0 22645833.203704834 11788961.48598659 0 11788961.48598659 -273266.23965322971 0 0 0 0 19751476.742935181 64929202.612947553 0 64929202.612947553 60386444.677238345 0 0 0 0 2472759.1398834735 6421143.2537871068 0 6421143.2537871068 856439.94780390942 0 0 0 0 -60352468.271087646 44760054.69919201 0 44760054.69919201 3012212.7810548209 0 0 0 0 22611073.63168335 16425863.028669022 0 16425863.028669022 -1756294.4098208249 0 0 0 0 44196713.758842468 18955455.730095595 0 18955455.730095595 14759018.896781206 0 0 0 0 3435344.31640625 -981287.49708163738 0 -981287.49708163738 23761339.760222763 0 0 0 0 -268454710.29653931 -62348321.283299327 0 -62348321.283299327 7164517.4258087873 0 0 0 0 2656206.6380221359 136290.55629223213 0 136290.55629223213 -1373900.8221306358 0 0 0 0 -80866786.177879333 -63246208.131250978 0 -63246208.131250978 1172096.6657381058 0 0 0 0 -18563571.729370117 -21948706.326756001 0 -21948706.326756001 -10115066.176076889 0 0 0 0 -46642217.891326904 -26930735.362507343 0 -26930735.362507343 2446610.0113716125 0 0 0 0 -34156332.072723389 -41203678.867983341 0 -41203678.867983341 -32621050.734556198 0 0 0 0 10016788.232650757 -53259274.792297363 0 -53259274.792297363 -84055845.080032825 0 0 0 0 -27959670.608737946 -62438558.738202691 0 -62438558.738202691 693566.90745639801 0 0 0 0 -7368200.2870941162 -20314970.59812355 0 -20314970.59812355 -48454837.719765663 0 0 0 0 67888594.817779541 -37588813.250430584 0 -37588813.250430584 -35663107.742194749 0 0 0 0 -41352051.435180664 -51809914.290706158 0 -51809914.290706158 -35896395.630066089 0 0 0 0 97861341.230560303 57109227.419754028 0 57109227.419754028 -105944115.61265993 0 0 0 0 73697617.758789062 -43461831.177461386 0 -43461831.177461386 -31831742.37523365 0 0 0 0 243302011.91549683 -13470220.046130657 0 -13470220.046130657 -48156921.856803417 0 0 0 0 123717559.80332947 -100365528.3006444 0 -100365528.3006444 -73655932.347733736 0 0 0 0 157752526.20671082 -10042539.86344558 0 -10042539.86344558 -10727800.190565586 0 0 0 0 320564422.98922729 -23005805.386232376 0 -23005805.386232376 -36334126.022969961 0 0 0 0 346640125.54614258 85280032.184359312 0 85280032.184359312 13342215.156783104 0 0 0 0 370393647.6060791 45744602.916718483 0 45744602.916718483 -43490339.509747505 0 0 0 0 364468081.34613037 65539530.219928741 0 65539530.219928741 -69089725.632679999 0 0 0 0 425221567.54882812 101331021.89592981 0 101331021.89592981 -90258378.739210129 0 0 0 0 294927567.07333374 156323756.06699419 0 156323756.06699419 -10301696.990618706 0 0 0 0 293319110.31518555 61258848.026209354 0 61258848.026209354 -63931930.85808754 0 0 0 0 237914498.16320801 64163389.826291561 0 64163389.826291561 -30987988.471368313 0 0 0 0 433931467.10583782 239702463.54621893 0 239702463.54621893 -42825048.628670692 0 0 0 0 -185310747.1653595 5436385.4100885391 0 5436385.4100885391 45770599.699590683 0 0 0 0 639675.81458460912 -932925.76420485228 0 -932925.76420485228 -460011.48264611908 0 0 0 0 -65266541.328186035 21275777.360476494 0 21275777.360476494 -7569218.0094428062 0 0 0 0 -44714163.842529297 19850600.862734079 0 19850600.862734079 -12401481.277483881 0 0 0 0 -77476964.06048584 21115249.392435551 0 21115249.392435551 -5475782.1690034866 0 0 0 0 -113808335.38616943 -24181731.941907883 0 -24181731.941907883 -5609997.5542354584 0 0 0 0 -67333294.65335083 -21698155.81778574 0 -21698155.81778574 -25681948.257889695 0 0 0 0 -126858837.69341278 27721774.03946358 0 27721774.03946358 10954459.470849991 0 0 0 0 -79787078.639343262 55357161.862041473 0 55357161.862041473 12482426.11084938 0 0 0 0 -154977309.72297668 91803469.242901564 0 91803469.242901564 86200696.398342133 0 0 0 0 -86420350.435119629 52547385.649916649 0 52547385.649916649 13093691.500439644 0 0 0 0 -149226167.02349854 71512976.519162178 0 71512976.519162178 27209065.218706131 0 0 0 0 259886735.53726196 278511734.99947071 0 278511734.99947071 107802686.84871292 0 0 0 0 84939464.874267578 192764784.46279621 0 192764784.46279621 202775872.33048487 0 0 0 0 191530234.27520752 72033416.172843456 0 72033416.172843456 -34088538.266331673 0 0 0 0 178218684.19393921 8021815.3475260735 0 8021815.3475260735 -77786917.723182201 0 0 0 0 171220441.82397461 111457748.06972313 0 111457748.06972313 49836748.56450367 0 0 0 0 288502102.6088562 128587837.24539566 0 128587837.24539566 -40917683.297942162 0 0 0 0 176421424.38020325 81191770.026883841 0 81191770.026883841 -10181566.356245041 0 0 0 0 77695002.866580963 -28584257.62980938 0 -28584257.62980938 -1651897.2920856476 0 0 0 0 36392015.998367041 8253851.2547028456 0 8253851.2547028456 -3244029.520101252 0 0 0 0 151345117.71081543 -57870193.622691631 0 -57870193.622691631 -194837752.65851021 0 0 0 0 17313879.155395508 -52043148.399324417 0 -52043148.399324417 11717327.830168962 0 0 0 0 22508801.461471558 6199221.6007680893 0 6199221.6007680893 29049788.922006607 0 0 0 0 35818372.680839539 86043836.309427619 0 86043836.309427619 -37730535.473377228 0 0 0 0 -12228130.659637451 63051959.497512817 0 63051959.497512817 123924897.27411366 0 0 0 0 10390779.846298218 18712989.724707603 0 18712989.724707603 50262402.395528793 0 0 0 0 16132873.58993721 6256719.0970968008 0 6256719.0970968008 38851896.598762512 0 0 0 0 14851008.768028736 952906.44751918316 0 952906.44751918316 75910280.477069855 0 0 0 0 57570938.013290405 51064482.866869926 0 51064482.866869926 24187791.239027023 0 0 0 0 40878506.970085144 22583750.449699402 0 22583750.449699402 80793549.787833214 0 0 0 0 39511337.240127563 30923890.762630463 0 30923890.762630463 15487190.18927002 0 0 0 0 6814795.1594570056 10043305.586096842 0 10043305.586096842 4120782.4647106305 0 0 0 0 43958468.334014893 37367876.273303986 0 37367876.273303986 27409262.498859406 0 0 0 0 41699449.470985413 26490435.17971611 0 26490435.17971611 21567080.943912506 0 0 0 0 39448039.215862274 25296849.640775681 0 25296849.640775681 1267023.5768585205 0 0 0 0 58305978.079780579 29891060.015468597 0 29891060.015468597 -19728271.406785965 0 0 0 0 60577949.737499237 41094260.423699379 0 41094260.423699379 -10492342.571910858 0 0 0 0 37503856.616661184 10463047.553206673 0 10463047.553206673 -3773834.9718447258 0 0 0 0 491072058.7411499 232196694.49246502 0 232196694.49246502 198559021.20666122 0 0 0 0 618919961.84158325 112758413.82005119 0 112758413.82005119 -15196580.517648697 0 0 0 0 959260215.68478394 113652310.05367756 0 113652310.05367756 -140391043.16234016 0 0 0 0 712396950.32424164 235744947.54704094 0 235744947.54704094 117400454.46237564 0 0 0 0 710401255.65194702 205631767.36953354 0 205631767.36953354 116130627.62293661 0 0 0 0 1125702634.6405106 628955232.75428295 0 628955232.75428295 523737648.0928688 0 0 0 0 349076714.37524414 85350330.810443878 0 85350330.810443878 180191783.51397109 0 0 0 0 527447780.63004303 332409376.94524765 0 332409376.94524765 513953687.28628922 0 0 0 0 430639595.30282593 -154203114.10043526 0 -154203114.10043526 467345847.00310516 0 0 0 0 345966910.2460556 6668482.418451786 0 6668482.418451786 165845673.55369568 0 0 0 0 687828042.51990509 88827230.806077957 0 88827230.806077957 157272898.12019539 0 0 0 0 507099467.38603973 -178479626.73117304 0 -178479626.73117304 247187743.51381874 0 0 0 0 968302982.02857971 -389588591.76670074 0 -389588591.76670074 973323041.67362976 0 0 0 0 231182677.31985474 555155387.54396915 0 555155387.54396915 954649716.72596741 0 0 0 0 2291710.7650096938 1139760.2468994767 0 1139760.2468994767 519661.84481921326 0 0 0 0 1326224020.3399467 406920868.58464718 0 406920868.58464718 138411702.54772186 0 0 0 0 78819755.841897964 131818008.57121229 0 131818008.57121229 172294947.91247177 0 0 0 0 25472141.665428162 43854902.71551609 0 43854902.71551609 131709369.39079285 0 0 0 0 589616719.03126526 -485634531.75246811 0 -485634531.75246811 249796016.45161295 0 0 0 0 1459215432.0630531 -12198310.118037939 0 -12198310.118037939 -82643431.285984039 0 0 0 0 685614590.51893616 -142543651.61717033 0 -142543651.61717033 -93416721.571286321 0 0 0 0 217873288.23638916 -153862271.49304008 0 -153862271.49304008 127806521.65522385 0 0 0 0 575815335.23321533 -18795296.837064743 0 -18795296.837064743 -53017919.360931396 0 0 0 0 36679350.575515747 -21374966.352161407 0 -21374966.352161407 30059459.621366501 0 0 0 0 65825958.429016113 11385947.884687424 0 11385947.884687424 37339923.819714546 0 0 0 0 100551792.12756348 -78707541.144073486 0 -78707541.144073486 60397572.59765625 0 0 0 0 -65588848.509735107 16241205.304771423 0 16241205.304771423 31490403.912504196 0 0 0 0 59878173.565460205 -8126249.3701591492 0 -8126249.3701591492 -45554247.160182953 0 0 0 0 9818025.4428100586 -14394514.425647736 0 -14394514.425647736 -14285320.432594299 0 0 0 0 2889925.6824679449 -3126211.0422316343 0 -3126211.0422316343 3000108.1896178015 0 0 0 0 -61634661.253174782 -28605870.803263187 0 -28605870.803263187 11562908.954547882 0 0 0 0 10908326.352711216 -1417118.832378149 0 -1417118.832378149 86316.425779189449 0 0 0 0 -33252213.305931091 11998213.473240852 0 11998213.473240852 1534063.6709518433 0 0 0 0 -7827642.5379943848 8197483.1272106171 0 8197483.1272106171 -15270018.391108513 0 0 0 0 87690312.431396484 30072049.020339966 0 30072049.020339966 -72332355.664108276 0 0 0 0 -31883107.978096008 20568119.981810093 0 20568119.981810093 46374044.443763733 0 0 0 0 6532566.3524563387 1763414.8562925966 0 1763414.8562925966 855233.41181884357 0 0 0 0 114668515.7835083 148662273.92922211 0 148662273.92922211 119554452.99680424 0 0 0 0 146349542.14414024 197531082.06570411 0 197531082.06570411 16826912.967731476 0 0 0 0 116555186.97472382 291439107.4393692 0 291439107.4393692 325744389.44854164 0 0 0 0 156425592.56483459 151404090.05872345 0 151404090.05872345 71251953.073892593 0 0 0 0 138585180.02433777 131245223.91835594 0 131245223.91835594 16103980.993183136 0 0 0 0 88160733.826385498 21975515.141551971 0 21975515.141551971 -56347520.912792206 0 0 0 0 22786942.531585693 -13036667.148872375 0 -13036667.148872375 -49601039.303033829 0 0 0 0 -2414342.3667678833 17190165.337953568 0 17190165.337953568 29092264.9753685 0 0 0 0 104378625.76320648 28171411.06485939 0 28171411.06485939 -105129906.80418396 0 0 0 0 89442637.443901062 -19623212.443267822 0 -19623212.443267822 -52143128.1916008 0 0 0 0 12109207.199920654 -16579336.069862366 0 -16579336.069862366 -14225126.024145126 0 0 0 0 18797170.37204361 -23613037.100356102 0 -23613037.100356102 9366312.2701187134 0 0 0 0 14116026.140978366 -9735655.7785992175 0 -9735655.7785992175 1883049.6467212513 0 0 0 0 -45451102.390022278 -106184590.77012253 0 -106184590.77012253 -143106420.97756767 0 0 0 0 2345130.5460223295 -1849219.3275734661 0 -1849219.3275734661 -1450641.4924841039 0 0 0 0 -27541719.415344238 -35866528.369499207 0 -35866528.369499207 14688353.401878357 0 0 0 0 -4358782.0658569336 -64963024.096208572 0 -64963024.096208572 -70114742.878200531 0 0 0 0 80838772.831069946 83977751.494421005 0 83977751.494421005 -90006989.174919128 0 0 0 0 16379251.370223999 12815671.612199783 0 12815671.612199783 -48523774.970825195 0 0 0 0 3861719.2358123101 -1117343.8859240189 0 -1117343.8859240189 -1603101.8162844684 0 0 0 0 67282508.94909668 -104199060.95545912 0 -104199060.95545912 -202591548.84075928 0 0 0 0 165446995.59013367 30575456.680065632 0 30575456.680065632 -124589836.76448822 0 0 0 0 53891156.34551239 -34518287.163966179 0 -34518287.163966179 -37060765.196456909 0 0 0 0 54602311.088127136 -32263455.19562149 0 -32263455.19562149 -208560863.34654808 0 0 0 0 123965515.85202789 -166826051.75393009 0 -166826051.75393009 -31622245.064786911 0 0 0 0 17560550.143875122 -8852144.6800174713 0 -8852144.6800174713 1170917.3331356049 0 0 0 0 33936715.812255859 6994803.48279953 0 6994803.48279953 -5089305.9693717957 0 0 0 0 17996761.562649146 7629406.9842975195 0 7629406.9842975195 -4388394.4118781351 0 0 0 0 24399865.844718933 47155946.571993828 0 47155946.571993828 -35119306.381317139 0 0 0 0 24086881.56262207 3993076.3909511566 0 3993076.3909511566 9098115.2748718262 0 0 0 0 37018998.241241455 -6185789.3586425781 0 -6185789.3586425781 -2369381.9610481262 0 0 0 0 37980967.90423584 -7797043.4847297668 0 -7797043.4847297668 -398751.26915740967 0 0 0 0 36976810.952911377 -9913252.7206459045 0 -9913252.7206459045 9440767.9974594116 0 0 0 0 49199653.708496094 -13623662.419532776 0 -13623662.419532776 -4881862.7474594116 0 0 0 0 45201601.557922363 -18366880.797782898 0 -18366880.797782898 17019797.573257446 0 0 0 0 793053.47263841331 -2390190.6319636875 0 -2390190.6319636875 -193907.07090257527 0 0 0 0 36178254.001342773 14349829.845687866 0 14349829.845687866 8140553.0359458923 0 0 0 0 17879506.412017822 5124005.6193695068 0 5124005.6193695068 18119587.064971924 0 0 0 0 27419892.186660767 -26547468.749845505 0 -26547468.749845505 5960604.0599365234 0 0 0 0 15037407.986863546 -7425870.9796252102 0 -7425870.9796252102 741396.96689774469 0 0 0 0 75202209.355316162 11196374.816017151 0 11196374.816017151 -3096370.8509216309 0 0 0 0 -1108949.7624480128 -104741.41351804137 0 -104741.41351804137 774584.13915387169 0 0 0 0 64195378.614776611 -10157627.391384125 0 -10157627.391384125 424243.46589660645 0 0 0 0 54971603.604919434 9853322.1085128784 0 9853322.1085128784 5611939.6375961304 0 0 0 0 36182041.945892334 -227768.80553436279 0 -227768.80553436279 15455941.870140076 0 0 0 0 42720579.754150391 -6217645.8491287231 0 -6217645.8491287231 1701579.7083435059 0 0 0 0 46475915.731582642 -14493803.243556976 0 -14493803.243556976 11417902.772872925 0 0 0 0 46642571.229118347 -7609148.0928764343 0 -7609148.0928764343 1150050.7507019043 0 0 0 0 44924313.549835205 -12030030.799026489 0 -12030030.799026489 -5766041.1848831177 0 0 0 0 45290837.961013794 -12442597.953426361 0 -12442597.953426361 -23078314.001564026 0 0 0 0 16540575.158131599 -30102609.780195951 0 -30102609.780195951 -12598987.160148621 0 0 0 0 9243952.3542836607 -3961049.5861939415 0 -3961049.5861939415 -1104205.2623805366 0 0 0 0 45134947.658905029 -6525800.4067955017 0 -6525800.4067955017 -12826330.76958847 0 0 0 0 43083342.632385254 -12835170.471855164 0 -12835170.471855164 -12243846.887908936 0 0 0 0 40179605.358001709 -7027933.5460739136 0 -7027933.5460739136 -14675381.099590302 0 0 0 0 14935396.095336914 -7478464.5664901733 0 -7478464.5664901733 -4216632.743057251 0 0 0 0 32444377.742858887 7734887.6770553589 0 7734887.6770553589 -1742860.006690979 0 0 0 0 33933721.855804443 -15863439.907497406 0 -15863439.907497406 -22054959.718826294 0 0 0 0 40153855.775428772 -41761270.340031624 0 -41761270.340031624 -20340002.031646729 0 0 0 0 40452051.007720947 -14825085.283958435 0 -14825085.283958435 -22368114.104919434 0 0 0 0 34113850.160675049 -23263065.82484436 0 -23263065.82484436 -32679749.924179077 0 0 0 0 52771621.033843994 -7279912.6846122742 0 -7279912.6846122742 -38630207.776068687 0 0 0 0 46566122.860084534 -8898182.6514835358 0 -8898182.6514835358 -23964639.928756714 0 0 0 0 44475901.52722168 -14099391.078605652 0 -14099391.078605652 -34499062.796813965 0 0 0 0 42347520.87878418 41460.218944549561 0 41460.218944549561 -17106084.930164337 0 0 0 0 53025192.449155807 -1033082.900473237 0 -1033082.900473237 -34135212.781730652 0 0 0 0 41929012.941864014 -780894.27732658386 0 -780894.27732658386 -1525091.599773407 0 0 0 0 43755022.982574463 -10930014.013584137 0 -10930014.013584137 -6010663.7103977203 0 0 0 0 43130788.861877441 -9062144.6003894806 0 -9062144.6003894806 -11223349.895019531 0 0 0 0 68447167.103485107 6775519.4229393005 0 6775519.4229393005 -45506187.694694519 0 0 0 0 87864810.275817871 8099726.0953979492 0 8099726.0953979492 -48884849.173149109 0 0 0 0 72991683.753860474 22333466.097206116 0 22333466.097206116 -21747929.962219238 0 0 0 0 42432852.626692921 17072889.933116041 0 17072889.933116041 -6171449.1025238037 0 0 0 0 66784602.400817871 9335409.8377380371 0 9335409.8377380371 -45206122.094432831 0 0 0 0 61511571.349578857 21211982.35345459 0 21211982.35345459 -51663351.720556259 0 0 0 0 35178591.143310547 22201379.56017971 0 22201379.56017971 -20134262.014633179 0 0 0 0 67201679.855880737 7241310.8641519547 0 7241310.8641519547 -44054668.859024048 0 0 0 0 58806190.979858398 3659142.3970413208 0 3659142.3970413208 -33688834.26768589 0 0 0 0 60095766.135955811 -2433016.6661453247 0 -2433016.6661453247 -38632190.650199816 0 0 0 0 60858822.717590332 -5522042.9564628601 0 -5522042.9564628601 -46196683.566474915 0 0 0 0 60877109.341766357 -6680422.0125846863 0 -6680422.0125846863 -70442019.773925781 0 0 0 0 50410896.083099365 -50685955.129487991 0 -50685955.129487991 -14152491.305297852 0 0 0 0 52846973.649963379 -25658142.097644806 0 -25658142.097644806 -43175549.1758461 0 0 0 0 58685486.35269165 -37104493.454933167 0 -37104493.454933167 -25666364.920742035 0 0 0 0 51900426.531112671 2515201.9807052612 0 2515201.9807052612 -38315841.433654785 0 0 0 0 48490146.18548584 10469560.448158264 0 10469560.448158264 -50086773.214839935 0 0 0 0 70543148.339050293 2434973.225479126 0 2434973.225479126 -54669427.300174713 0 0 0 0 72378189.989196777 -17112408.213665009 0 -17112408.213665009 -49354699.805438995 0 0 0 0 66019358.027313232 -3775346.1826705933 0 -3775346.1826705933 -37006053.811676025 0 0 0 0 28758293.707397461 -11157837.256523132 0 -11157837.256523132 -24698874.487930298 0 0 0 0 119644007.44425964 21661694.422527313 0 21661694.422527313 -36621169.343612671 0 0 0 0 301903871.93746948 234209950.46519089 0 234209950.46519089 54969267.816921234 0 0 0 0 99937902.233917236 59074104.226654053 0 59074104.226654053 8282100.9455566406 0 0 0 0 78770938.124465942 28657520.442893982 0 28657520.442893982 -26720070.029434204 0 0 0 0 53707395.964691162 37987702.861850739 0 37987702.861850739 29005025.596656799 0 0 0 0 2432645.5708774701 167867.31370994821 0 167867.31370994821 -4727276.1066530868 0 0 0 0 8395870.8738802746 -8719105.7674384397 0 -8719105.7674384397 -23185598.725063324 0 0 0 0 73152263.67401123 65071362.902015686 0 65071362.902015686 33518496.187309265 0 0 0 0 10900092.731472336 -3124236.433685232 0 -3124236.433685232 -6190837.7037295513 0 0 0 0 44139907.268867493 -3501821.7222537994 0 -3501821.7222537994 -69791811.853546143 0 0 0 0 -10900342.57093811 7070568.4226646423 0 7070568.4226646423 -21541156.263378859 0 0 0 0 36526663.880651347 -2643347.9891212862 0 -2643347.9891212862 -52206284.732337952 0 0 0 0 38396092.822067261 17836137.52205658 0 17836137.52205658 -64068710.10962677 0 0 0 0 32247223.917297363 2368493.8458480835 0 2368493.8458480835 -25301966.114494324 0 0 0 0 58981653.364593506 -30918596.67688179 0 -30918596.67688179 -43314059.372254372 0 0 0 0 164154015.98939514 -229567607.44018173 0 -229567607.44018173 -225468055.07791138 0 0 0 0 166176453.66278076 -154108222.23146057 0 -154108222.23146057 64847955.718887329 0 0 0 0 -25715658.605560303 -23353817.776515961 0 -23353817.776515961 11416566.208766937 0 0 0 0 299778795.49481201 153228842.39756012 0 153228842.39756012 247661621.87261581 0 0 0 0 764183.59172018617 43050.861444026232 0 43050.861444026232 -1447113.6239893958 0 0 0 0 111972673.40797424 -97953633.345985413 0 -97953633.345985413 336639.26530456543 0 0 0 0 178481224.86581802 -142239680.4414854 0 -142239680.4414854 -36470386.54737854 0 0 0 0 -514882563.58686829 -438247031.2689476 0 -438247031.2689476 -3326599.6768302917 0 0 0 0 233419961.26739502 210939802.97104263 0 210939802.97104263 201110848.84818268 0 0 0 0 348876659.41598511 558464322.4749794 0 558464322.4749794 229867846.71106136 0 0 0 0 1553666.1543574631 -164498.59205768257 0 -164498.59205768257 -2992584.8890165314 0 0 0 0 60048390.095165253 -440914453.9328742 0 -440914453.9328742 -464496459.45438385 0 0 0 0 1351398087.6771393 181146807.72294235 0 181146807.72294235 -852491244.30686188 0 0 0 0 2298035.5766842067 -1927577.5604864545 0 -1927577.5604864545 -392166.79282610305 0 0 0 0 34261224.723449707 -146688542.77698898 0 -146688542.77698898 264906114.0535965 0 0 0 0 196953421.61157227 -405978901.45557404 0 -405978901.45557404 178859147.84176826 0 0 0 0 -320822141.6434145 -191169562.17216086 0 -191169562.17216086 71158140.926826477 0 0 0 0 68012044.087814331 513929774.62143135 0 513929774.62143135 364398857.09428978 0 0 0 0 -373258945.06303787 -488155271.03824472 0 -488155271.03824472 -423064470.43843079 0 0 0 0 -838835016.3873291 -320361492.20323181 0 -320361492.20323181 1156087090.5529213 0 0 0 0 2224416.8076847494 -4611587.515392188 0 -4611587.515392188 6274259.40233339 0 0 0 0 53888535.653060913 -37294621.929735184 0 -37294621.929735184 -38589124.162229538 0 0 0 0 704471.74579429626 8785356.021750927 0 8785356.021750927 8001096.8348693848 0 0 0 0 79721935.105163574 -138655283.03193998 0 -138655283.03193998 -225149705.21859741 0 0 0 0 -133045481.74888611 68163523.651948929 0 68163523.651948929 -92789362.692977905 0 0 0 0 -1375322.0516133606 -301360.90542290732 0 -301360.90542290732 495622.53758306243 0 0 0 0 -32081929.805603027 -2008907.2932739258 0 -2008907.2932739258 22864203.243690491 0 0 0 0 6233680.8806562424 9336452.1608643532 0 9336452.1608643532 1453217.0537033081 0 0 0 0 7196607.2972998247 -4105664.0888619646 0 -4105664.0888619646 963565.70530427806 0 0 0 0 29897680.462371826 -113705768.11000443 0 -113705768.11000443 -6427677.659034729 0 0 0 0 2817260.4195695296 -2508834.1144869626 0 -2508834.1144869626 2030903.4488464687 0 0 0 0 3339182.8559799194 -19177824.727445602 0 -19177824.727445602 -10377798.745170593 0 0 0 0 11663724.783584595 321311.55557346344 0 321311.55557346344 40570869.773696899 0 0 0 0 291384742.8456254 -4602609.0022958219 0 -4602609.0022958219 -36212011.078926086 0 0 0 0 167866424.30134583 64579979.840993881 0 64579979.840993881 -28866235.554916382 0 0 0 0 549147469.58421326 4029527.7092933655 0 4029527.7092933655 -65582488.18097496 0 0 0 0 292642660.47613525 -35063877.090673447 0 -35063877.090673447 -13244511.260177612 0 0 0 0 677169231.3119278 94219195.26718998 0 94219195.26718998 -92954323.004558563 0 0 0 0 716686280.958992 211323813.69041824 0 211323813.69041824 30237099.369188309 0 0 0 0 451590106.4030838 66687921.038455009 0 66687921.038455009 -31249102.632453918 0 0 0 0 -2208979.9328460693 -13608538.805879712 0 -13608538.805879712 -18602543.816055298 0 0 0 0 446065917.68793488 44545876.012235641 0 44545876.012235641 -48305221.237371445 0 0 0 0 2219509.4038774669 -1641630.8367574215 0 -1641630.8367574215 1138326.5813431647 0 0 0 0 -3095859.8612976074 23268224.714294434 0 23268224.714294434 10681879.320028305 0 0 0 0 641303.67067885399 -2710524.24775986 0 -2710524.24775986 4818210.6272467412 0 0 0 0 25353777.192077637 -18039021.292467117 0 -18039021.292467117 34748587.574188232 0 0 0 0 1142048126.6298523 3287234.6773071289 0 3287234.6773071289 -74282698.105211258 0 0 0 0 15659300.350156784 -69496208.909765959 0 -69496208.909765959 99735989.830184937 0 0 0 0 1346964000.0180664 328736599.88609695 0 328736599.88609695 2321161.4863510132 0 0 0 0 931075.86287868768 -555059.36283671856 0 -555059.36283671856 334704.97497403063 0 0 0 0 -11412011.674991608 -29357990.323069334 0 -29357990.323069334 79240145.640182495 0 0 0 0 632792539.42141724 88078588.353149414 0 88078588.353149414 -5055257.8287811279 0 0 0 0 923368070.37203979 235026907.95853043 0 235026907.95853043 87042464.960706711 0 0 0 0 788894064.27297974 -138666381.81675434 0 -138666381.81675434 258437551.57248306 0 0 0 0 472053186.74395752 -1953799.5921669006 0 -1953799.5921669006 21927921.909594536 0 0 0 0 618890374.05281067 -73314319.937240601 0 -73314319.937240601 59835682.48965168 0 0 0 0 562899636.11564636 -21234764.972093582 0 -21234764.972093582 -45877904.858577132 0 0 0 0 512099144.23628998 60987667.432160378 0 60987667.432160378 -50991899.497962952 0 0 0 0 724640378.14570618 23933371.674942017 0 23933371.674942017 -142863135.23713684 0 0 0 0 882913622.85745621 -11422133.118638992 0 -11422133.118638992 -135009868.94920349 0 0 0 0 745385451.22976685 42316246.927257538 0 42316246.927257538 -162140413.13421154 0 0 0 0 734775682.09996796 28121733.491639137 0 28121733.491639137 -144230519.66617203 0 0 0 0 571003696.20855713 135651927.67999077 0 135651927.67999077 -13206124.874579787 0 0 0 0 758025288.64305496 84342016.450172901 0 84342016.450172901 -115959497.86483002 0 0 0 0 557812821.89105225 71878031.176269531 0 71878031.176269531 -27976329.930732727 0 0 0 0 681902078.00730896 57000028.16727066 0 57000028.16727066 -116152959.47047806 0 0 0 0 1228618472.804718 -492736203.17058372 0 -492736203.17058372 -37954872.836303711 0 0 0 0 831393637.5839386 -457856874.32266808 0 -457856874.32266808 142542560.5952673 0 0 0 0 282334298.17578125 -133692857.1860714 0 -133692857.1860714 -54413896.305626869 0 0 0 0 923457697.943573 -52903202.065366745 0 -52903202.065366745 -142849948.66258049 0 0 0 0 416569563.58456421 83730228.915118933 0 83730228.915118933 28503038.054134369 0 0 0 0 11395152.376472302 290085.10670584068 0 290085.10670584068 -3219918.3255019886 0 0 0 0 369478060.05665112 125002148.88400394 0 125002148.88400394 -288454169.078228 0 0 0 0 1401115402.9350929 -1008229277.607656 0 -1008229277.607656 432485388.34810257 0 0 0 0 305161347.31768799 -449391125.13478088 0 -449391125.13478088 169877551.86597633 0 0 0 0 213650494.28753662 1000665850.416954 0 1000665850.416954 -341345412.08570671 0 0 0 0 4868145.423507385 -156926.21237738291 0 -156926.21237738291 -1318100.3173807133 0 0 0 0 454435652.53927612 376004499.29441071 0 376004499.29441071 -253191759.64820099 0 0 0 0 1057149327.7042992 605690655.8436377 0 605690655.8436377 -199605553.98788452 0 0 0 0 541536320.57602692 87235109.944758892 0 87235109.944758892 135486650.77734756 0 0 0 0 898455791.45068359 -12960111.927501678 0 -12960111.927501678 126168129.65850449 0 0 0 0 -275008449.62985611 107176722.23159075 0 107176722.23159075 227623742.67198563 0 0 0 0 277622693.38247681 -517743055.38928223 0 -517743055.38928223 -271109684.53034019 0 0 0 0 726330708.49219513 474581014.63827133 0 474581014.63827133 -1167718443.0877304 0 0 0 0 -20431.12991707027 -897061.81053501368 0 -897061.81053501368 2031992.3036462069 0 0 0 0 947179979.22853088 -28529701.956542969 0 -28529701.956542969 -50000459.456213951 0 0 0 0 -192779359.845047 -17860983.504453659 0 -17860983.504453659 24779693.293736458 0 0 0 0 -89726421.617797852 44721040.084480286 0 44721040.084480286 -43196263.699882507 0 0 0 0 -242349698.18385315 -228204716.86945629 0 -228204716.86945629 -208998895.46633148 0 0 0 0 -153014863.84140015 -400096884.13491631 0 -400096884.13491631 93379456.550292492 0 0 0 0 13731144.414990693 1159505.1137998709 0 1159505.1137998709 -4646593.5735478662 0 0 0 0 12925491.190010071 -194240664.78495884 0 -194240664.78495884 -616859512.18608856 0 0 0 0 -107299988.42752075 165043329.44541168 0 165043329.44541168 60167203.134012222 0 0 0 0 410041695.92755127 61439792.045747757 0 61439792.045747757 10460567.470018864 0 0 0 0 2158535.342835173 5289301.8085114211 0 5289301.8085114211 -2375567.7286074217 0 0 0 0 -96213352.38168335 178293861.22427773 0 178293861.22427773 -116974224.89226913 0 0 0 0 -317856511.54908752 70966325.001080513 0 70966325.001080513 46285689.27204895 0 0 0 0 64567083.257255554 125207723.93181419 0 125207723.93181419 41166197.917557716 0 0 0 0 8333736.2318478003 1063914.9470116477 0 1063914.9470116477 -3207544.4119215831 0 0 0 0 2223069.427230835 26318600.676736355 0 26318600.676736355 143253224.08923101 0 0 0 0 152034168.35757446 340378831.27534866 0 340378831.27534866 827449939.17268372 0 0 0 0 3205218.412327908 -20953.063968973234 0 -20953.063968973234 -1218104.6188124872 0 0 0 0 220936152.30642319 -148724198.01483142 0 -148724198.01483142 46894376.675907135 0 0 0 0 193496050.21946716 -56735670.89821434 0 -56735670.89821434 14518869.212995529 0 0 0 0 -122509627.19134521 -239718208.01680279 0 -239718208.01680279 -208541876.2298851 0 0 0 0 1775939.3052295819 4180462.0996574201 0 4180462.0996574201 -911360.07114281319 0 0 0 0 152992389.10542297 -40048096.926420212 0 -40048096.926420212 7700063.5885181427 0 0 0 0 -530371542.18404388 -512871043.61074924 0 -512871043.61074924 -372739753.10199356 0 0 0 0 -102596.47911622003 1911846.2044627219 0 1911846.2044627219 213629.60622030497 0 0 0 0 -128012700.40604401 52836618.13988018 0 52836618.13988018 -581449461.07143021 0 0 0 0 338141383.34015656 -466836606.97962666 0 -466836606.97962666 -241993477.4057312 0 0 0 0 413402261.60623169 -139405486.78245735 0 -139405486.78245735 -712125608.93866158 0 0 0 0 398820260.15164948 197846579.37968206 0 197846579.37968206 -306662987.57488251 0 0 0 0 320252307.09865952 64669975.688438416 0 64669975.688438416 -241103275.60370445 0 0 0 0 362669178.98593903 -26703918.599020958 0 -26703918.599020958 -65406187.459955215 0 0 0 0 339910495.64677429 71647806.117193222 0 71647806.117193222 -247091773.46269393 0 0 0 0 249198333.71075439 -11617036.510032654 0 -11617036.510032654 -240494462.07031322 0 0 0 0 399578768.6769104 -138153568.77932978 0 -138153568.77932978 -214312779.83984375 0 0 0 0 184582651.53385925 -17390029.683486938 0 -17390029.683486938 -69898060.215747833 0 0 0 0 20382590.257339478 104219871.54399586 0 104219871.54399586 -86551364.308856964 0 0 0 0 289772259.68927765 140666379.70692825 0 140666379.70692825 -83490053.396198273 0 0 0 0 -335495261.07575989 268874210.86190891 0 268874210.86190891 -41137621.263214111 0 0 0 0 334269481.32130432 444129600.61392617 0 444129600.61392617 -171256715.12653065 0 0 0 0 774958357.35673523 -161567493.03092003 0 -161567493.03092003 -143263893.29327965 0 0 0 0 1064082373.2578688 358426494.04689741 0 358426494.04689741 -175394451.95791149 0 0 0 0 877348359.167099 -534166091.2934351 0 -534166091.2934351 262265587.53369999 0 0 0 0 -935465311.2857666 114626700.51322603 0 114626700.51322603 817629334.20678687 0 0 0 0 690728765.3298912 -412068779.69680572 0 -412068779.69680572 -117469874.10362959 0 0 0 0 1125307094.9443741 548927102.29790854 0 548927102.29790854 -38442062.820668221 0 0 0 0 473361147.19799805 160162221.45611501 0 160162221.45611501 -265470278.33985305 0 0 0 0 259523500.58394623 127215533.13912615 0 127215533.13912615 -203187429.63703108 0 0 0 0 -734113100.03660583 -254433884.52418137 0 -254433884.52418137 14657179.151723981 0 0 0 0 -403080924.43501282 -72184289.059517562 0 -72184289.059517562 -124853836.95983636 0 0 0 0 276646809.04334068 77041976.512520671 0 77041976.512520671 -235082481.55272257 0 0 0 0 -375494029.43016815 342579408.7836653 0 342579408.7836653 -465341.02682478796 0 0 0 0 -825687326.4751358 138150020.69638333 0 138150020.69638333 115155433.68707074 0 0 0 0 290874819.68396759 438179679.7666117 0 438179679.7666117 882214.36357179703 0 0 0 0 121010447.60497284 48074946.44142133 0 48074946.44142133 -214996259.07534933 0 0 0 0 410253481.61058044 202821372.73918271 0 202821372.73918271 -255650843.22212982 0 0 0 0 602215298.33021164 -344831855.53972459 0 -344831855.53972459 132078059.78865755 0 0 0 0 1444631.3317006081 7146.0839503929019 0 7146.0839503929019 -767676.01203467743 0 0 0 0 887587809.80322266 72090878.596686482 0 72090878.596686482 -284839834.58388418 0 0 0 0 1203528.6368408203 590234.69669775176 0 590234.69669775176 -2191.7570368753622 0 0 0 0 1429913.7088012695 492611.65129160625 0 492611.65129160625 -520041.7614588642 0 0 0 0 123983768.45046997 -20865966.634583354 0 -20865966.634583354 -62341716.209468126 0 0 0 0 283314607.00942993 4127604.2701530457 0 4127604.2701530457 -60064450.592331767 0 0 0 0 117322993.34567261 117554663.86066318 0 117554663.86066318 16850112.336484909 0 0 0 0 430480337.35140228 173308142.84241676 0 173308142.84241676 -218925483.06921959 0 0 0 0 507753479.91137695 298265934.89553881 0 298265934.89553881 -152113127.86891055 0 0 0 0 52732784.120788574 52215981.318172097 0 52215981.318172097 53203205.824053288 0 0 0 0 73975353.968490601 343559753.73614168 0 343559753.73614168 208748669.77665329 0 0 0 0 -141325094.56959534 18182485.3012712 0 18182485.3012712 23113038.814378262 0 0 0 0 -72812.224896505475 547178.84056273848 0 547178.84056273848 208311.32675197208 0 0 0 0 352617998.96017456 185424678.00751233 0 185424678.00751233 -5124039.7902632952 0 0 0 0 -89124657.541824341 171744556.26515675 0 171744556.26515675 -93824883.936813354 0 0 0 0 -87234777.72195816 149309313.2300123 0 149309313.2300123 157680609.20425415 0 0 0 0 255766407.38165283 25802253.187351227 0 25802253.187351227 -3585989.5207233429 0 0 0 0 486361306.69877625 -35605947.245818138 0 -35605947.245818138 222441421.66833878 0 0 0 0 402934357.97657013 305675713.51614165 0 305675713.51614165 267286895.31516647 0 0 0 0 -240653863.95742798 -230386588.49756813 0 -230386588.49756813 -192274315.81347466 0 0 0 0 -197744643.84277344 86601805.568191528 0 86601805.568191528 326831882.70700836 0 0 0 0 -759530408.12815857 146578990.21949601 0 146578990.21949601 467759165.08407974 0 0 0 0 -149580253.82537842 -119240570.32630634 0 -119240570.32630634 127168303.49651146 0 0 0 0 40026235.73147583 262139340.61199474 0 262139340.61199474 369102134.49710464 0 0 0 0 164605694.95254517 -104901142.88531446 0 -104901142.88531446 180296478.74639964 0 0 0 0 -179032059.50805664 407086880.20073128 0 407086880.20073128 -57402924.804743767 0 0 0 0 247872141.46733856 78674333.377823353 0 78674333.377823353 137615890.02649784 0 0 0 0 -856060738.91261292 -333823838.6495049 0 -333823838.6495049 318532613.65276241 0 0 0 0 201896.50253825262 1356916.8594370447 0 1356916.8594370447 352300.68633928988 0 0 0 0 115217.32566930354 1974283.7201790549 0 1974283.7201790549 -263122.65041041886 0 0 0 0 462283098.87982178 242694356.68095422 0 242694356.68095422 -129523486.29998326 0 0 0 0 -2291908.2932434082 -18204302.482836723 0 -18204302.482836723 11692449.937680006 0 0 0 0 127786077.06602859 -5601236.1040976942 0 -5601236.1040976942 -1067694.3540136814 0 0 0 0 2302229.27385059 877181.60626143217 0 877181.60626143217 -398520.66697164252 0 0 0 0 2090127.9472885132 1106673.7049140895 0 1106673.7049140895 -360911.1636944731 0 0 0 0 1962807.8254089355 906238.91697094054 0 906238.91697094054 -596841.50653719716 0 0 0 0 1764533.7911911011 911595.2442040568 0 911595.2442040568 909.87327431775111 0 0 0 0 250332251.79676437 -579418274.36582923 0 -579418274.36582923 540527410.72271836 0 0 0 0 1545160.5513122231 1233898.1257395223 0 1233898.1257395223 592810.86606856901 0 0 0 0 289200233.14622498 -317928749.75364941 0 -317928749.75364941 175262546.08767712 0 0 0 0 7727599.2179260254 424960301.66240811 0 424960301.66240811 -280350957.80815631 0 0 0 0 3126089.7469414547 403368.68424659967 0 403368.68424659967 -852492.83455348061 0 0 0 0 -495044668.81390381 -500635919.30087852 0 -500635919.30087852 -72798977.994602501 0 0 0 0 -105227651.46438217 152318994.02610087 0 152318994.02610087 951364432.99202788 0 0 0 0 3560783124.7785339 -646713089.73020124 0 -646713089.73020124 -578862757.10515451 0 0 0 0 -309115678.85955811 414367911.85707593 0 414367911.85707593 -17146967.818318501 0 0 0 0 1518925694.5673828 188862530.94604069 0 188862530.94604069 -123518958.55019277 0 0 0 0 654830504.96081543 69130848.318813071 0 69130848.318813071 -887251.34590721456 0 0 0 0 571059516.53233337 314531392.51669222 0 314531392.51669222 88632740.248374388 0 0 0 0 5431285.8029174805 130567952.48662134 0 130567952.48662134 -64663185.080345094 0 0 0 0 98656404.829833984 61241014.261316419 0 61241014.261316419 -17331076.015306309 0 0 0 0 279058802.7084198 505632843.27765179 0 505632843.27765179 -20774219.417631745 0 0 0 0 -106379565.99368286 34343032.743218526 0 34343032.743218526 -128537951.92102399 0 0 0 0 -6313359.1585693359 99113541.481479809 0 99113541.481479809 -217658144.17881316 0 0 0 0 3530387039.3174744 -1064869502.834851 0 -1064869502.834851 -73340396.96306324 0 0 0 0 2718548.7974411063 2095715.2258822359 0 2095715.2258822359 700606.95428329997 0 0 0 0 1945535.9801025093 72593.702520176768 0 72593.702520176768 -645420.73953850754 0 0 0 0 385527418.54172516 233377105.35412192 0 233377105.35412192 367112076.706213 0 0 0 0 3307597232.5610657 -376094849.9891119 0 -376094849.9891119 -485187418.60852289 0 0 0 0 1253594299.0089111 585234705.51827717 0 585234705.51827717 261228494.81020164 0 0 0 0 2510211201.6624756 -862926783.5644083 0 -862926783.5644083 1011642108.725296 0 0 0 0 1826996595.7752686 -1166126781.3718071 0 -1166126781.3718071 909284403.93858147 0 0 0 0 2556092199.0888138 -287358034.64129233 0 -287358034.64129233 -76073301.367040634 0 0 0 0 1034602654.3265381 -78590780.654338837 0 -78590780.654338837 -2665608.1646721363 0 0 0 0 1038099348.7981262 -70314998.294327736 0 -70314998.294327736 15705160.659805298 0 0 0 0 1606821578.6126709 -685160855.5906496 0 -685160855.5906496 44588773.241275787 0 0 0 0 -74711327.608581543 149835776.12170053 0 149835776.12170053 -150587293.47264719 0 0 0 0 1566086789.7206268 -668203700.20584297 0 -668203700.20584297 100741685.05794334 0 0 0 0 6373812.5103516802 5552428.3345421143 0 5552428.3345421143 3046942.9614896993 0 0 0 0 -184999435.25754547 -105248851.01062363 0 -105248851.01062363 -29748454.404473305 0 0 0 0 -172075332.72299194 -90916810.380757809 0 -90916810.380757809 -44136691.653970718 0 0 0 0 1152223.0285461992 -1138681.8685663417 0 -1138681.8685663417 1298965.4800776676 0 0 0 0 496760133.99270701 326855084.4708752 0 326855084.4708752 108443202.59234071 0 0 0 0 495331312.66891479 180717698.09664935 0 180717698.09664935 74373768.823178411 0 0 0 0 -178456960.71893311 -79091197.930330276 0 -79091197.930330276 -64362170.212310791 0 0 0 0 375209644.06079102 282628374.95937669 0 282628374.95937669 114122639.91182184 0 0 0 0 347637686.40664673 258742097.73356956 0 258742097.73356956 122223679.87880325 0 0 0 0 263046901.74966431 219135948.4398832 0 219135948.4398832 131002730.45772764 0 0 0 0 269007130.78272247 212352849.22666585 0 212352849.22666585 110477912.65174246 0 0 0 0 168508476.14727783 196476473.2528156 0 196476473.2528156 154071230.07816648 0 0 0 0 154483457.35007095 89111591.964990586 0 89111591.964990586 73652360.136815667 0 0 0 0 101535857.77462769 141649623.28323773 0 141649623.28323773 153417823.80237931 0 0 0 0 288542205.33836365 140700028.86775514 0 140700028.86775514 120353175.28370881 0 0 0 0 309573734.41320801 196768664.54014874 0 196768664.54014874 108380702.10383633 0 0 0 0 275462861.32028198 160597749.28149986 0 160597749.28149986 165565576.00459766 0 0 0 0 235244387.35525513 199997912.45249146 0 199997912.45249146 164350947.91036975 0 0 0 0 320758942.16572571 204255501.81264108 0 204255501.81264108 99403091.952160478 0 0 0 0 224316440.10790443 136269666.03707433 0 136269666.03707433 101521396.87350428 0 0 0 0 184736770.26541138 158937654.98292637 0 158937654.98292637 118176036.04074776 0 0 0 0 -71829162.834850311 -23772610.710037947 0 -23772610.710037947 42495869.315033913 0 0 0 0 -83638047.131118774 -14230032.134270668 0 -14230032.134270668 39329284.10138607 0 0 0 0 1097933.1463385634 -1560432.1818636693 0 -1560432.1818636693 3689457.4288555142 0 0 0 0 360151527.34486389 126625351.86660272 0 126625351.86660272 149565065.49323368 0 0 0 0 -189499022.02590942 -65426558.688070297 0 -65426558.688070297 -56242210.823204041 0 0 0 0 -132447102.89093018 -85537616.537763596 0 -85537616.537763596 -63666066.835933208 0 0 0 0 145539.61527596414 173643.04501781985 0 173643.04501781985 -181419.84633934801 0 0 0 0 -150560566.58161926 -51141321.682081699 0 -51141321.682081699 -62503602.147537231 0 0 0 0 57761261.331970215 66046784.260717392 0 66046784.260717392 87316822.550251007 0 0 0 0 -30577682.889709473 38948385.778392792 0 38948385.778392792 79038584.975582123 0 0 0 0 -338254.23791503906 4394031.0740823746 0 4394031.0740823746 53869800.314846039 0 0 0 0 493355.27735900879 32726070.349558353 0 32726070.349558353 87466800.046459675 0 0 0 0 1268594.3355929032 1494825.6011161972 0 1494825.6011161972 -560853.6841885543 0 0 0 0 8287487.1452636719 16772123.473209381 0 16772123.473209381 37317297.472883224 0 0 0 0 -2985206.476348877 17902734.018482208 0 17902734.018482208 75471572.188030243 0 0 0 0 5124279.3210601807 17771997.326612949 0 17771997.326612949 57620133.119857788 0 0 0 0 6389548.567565918 20217415.658639908 0 20217415.658639908 58567812.797564507 0 0 0 0 4220344.8217163086 19240829.677612305 0 19240829.677612305 58990987.062375069 0 0 0 0 17214330.735229492 23915508.073322296 0 23915508.073322296 50488210.987127304 0 0 0 0 17494608.46081543 23330176.483041763 0 23330176.483041763 39589859.433998108 0 0 0 0 6425655.5112915039 18650176.124481201 0 18650176.124481201 57270728.543354034 0 0 0 0 14475111.582366943 37639766.09458828 0 37639766.09458828 72616423.982300758 0 0 0 0 -2003770.0310516357 8860583.3105988503 0 8860583.3105988503 78861587.947792053 0 0 0 0 14118049.416511536 24959339.922732592 0 24959339.922732592 56496033.540157318 0 0 0 0 16244510.147155762 30549477.972397804 0 30549477.972397804 58093589.99590683 0 0 0 0 21533502.873352051 23741301.975849152 0 23741301.975849152 40606063.266327858 0 0 0 0 20897123.160003662 31856031.51240921 0 31856031.51240921 45776152.441329956 0 0 0 0 26034313.592254639 34185889.408690453 0 34185889.408690453 55921912.284088373 0 0 0 0 25403847.300405025 21563436.751340747 0 21563436.751340747 57516734.998840332 0 0 0 0 -3643748.4971008301 -4512331.442376852 0 -4512331.442376852 5404372.3751773834 0 0 0 0 1475562.3665161133 10643088.864230156 0 10643088.864230156 2109.7443714141846 0 0 0 0 -4142438.9140014648 -2375963.8645553589 0 -2375963.8645553589 9751676.9226617813 0 0 0 0 -1814677.3962860107 -1927887.2096128464 0 -1927887.2096128464 6029986.9712147713 0 0 0 0 264340.88414494321 -1378149.2086758763 0 -1378149.2086758763 -575878.42032177513 0 0 0 0 -143421427.72164917 -154514858.1240139 0 -154514858.1240139 15474909.058977127 0 0 0 0 -141032096.04351807 -5788456.484397769 0 -5788456.484397769 -82997039.846018553 0 0 0 0 678594.12929587066 -532307.78480983153 0 -532307.78480983153 15229.303278915526 0 0 0 0 -1917872.5634155273 -4338779.9222822189 0 -4338779.9222822189 -946294.14393615723 0 0 0 0 -17915267.023223877 -3557103.7747341394 0 -3557103.7747341394 -984059.81231933832 0 0 0 0 -11600462.709686279 6869001.6880600452 0 6869001.6880600452 -1075145.1379851103 0 0 0 0 -21264409.424102783 13166915.411906719 0 13166915.411906719 -5002557.2538878918 0 0 0 0 -15973597.22833252 8761280.7684700489 0 8761280.7684700489 -7492774.5273857117 0 0 0 0 -21078117.31438446 11997099.384849966 0 11997099.384849966 -6506696.3321881294 0 0 0 0 -26063704.504730225 15234235.285516024 0 15234235.285516024 -8300330.8508269787 0 0 0 0 -31104376.94744873 7251409.0232603252 0 7251409.0232603252 -9704368.0284121335 0 0 0 0 -28545814.70067215 5286016.3445721865 0 5286016.3445721865 -8216264.9786138535 0 0 0 0 -33794976.185852051 -8398665.6327418834 0 -8398665.6327418834 -25699019.854483344 0 0 0 0 -21974074.517501831 -1153656.4015812837 0 -1153656.4015812837 -21777028.206578702 0 0 0 0 -58707443.095031738 854231.41289393976 0 854231.41289393976 -12305223.57942012 0 0 0 0 -30697370.218444824 7365577.1560940668 0 7365577.1560940668 -11291043.586348534 0 0 0 0 -41120733.409484863 13729200.315529205 0 13729200.315529205 -8388173.3488786602 0 0 0 0 -49226616.662330627 20927922.030844137 0 20927922.030844137 -10266657.372526765 0 0 0 0 -30264310.028289795 20008866.104449928 0 20008866.104449928 -12108501.483680129 0 0 0 0 -21313114.944015503 1959130.5810216665 0 1959130.5810216665 -9392144.462035656 0 0 0 0 657806611.7717762 409353774.78292876 0 409353774.78292876 86349464.107363462 0 0 0 0 -213786061.34643555 83536959.30177474 0 83536959.30177474 299034005.39991188 0 0 0 0 922495.68054420128 -1684069.1999475099 0 -1684069.1999475099 -740974.09027646959 0 0 0 0 267252404.27325439 -157258070.68864536 0 -157258070.68864536 -108595804.6111725 0 0 0 0 278027914.95285034 -37671376.013398528 0 -37671376.013398528 280859631.0121417 0 0 0 0 371914321.04525757 327226515.58544707 0 327226515.58544707 399153475.85845828 0 0 0 0 296058040.85940552 115077475.10032952 0 115077475.10032952 88284211.677503467 0 0 0 0 239916643.11929321 -28217469.953500867 0 -28217469.953500867 -151343568.4012779 0 0 0 0 78528360.124511719 -33960708.432491302 0 -33960708.432491302 -28577856.447379112 0 0 0 0 177155018.43961048 130311347.6402095 0 130311347.6402095 3084255.3021864891 0 0 0 0 389307831.98666382 122730758.81598365 0 122730758.81598365 -56915889.419253856 0 0 0 0 456602246.09344482 303353060.12908727 0 303353060.12908727 120170885.81361905 0 0 0 0 408883867.220047 160205867.90802613 0 160205867.90802613 -31923579.125383615 0 0 0 0 678459134.185215 199688714.86145434 0 199688714.86145434 -11999842.584492683 0 0 0 0 501280392.14855957 164647897.1605818 0 164647897.1605818 87078663.03019087 0 0 0 0 273127782.80233765 234364572.12846115 0 234364572.12846115 70662121.656439438 0 0 0 0 228449134.13276672 191866834.59766498 0 191866834.59766498 177802893.18305188 0 0 0 0 321866149.30841064 265868169.19397682 0 265868169.19397682 157883296.54307106 0 0 0 0 538291674.7074585 85529907.740484193 0 85529907.740484193 173581604.65533924 0 0 0 0 358201661.44616699 297588167.81899202 0 297588167.81899202 253327032.91789436 0 0 0 0 439343179.69708252 145169053.77532846 0 145169053.77532846 277912154.24677283 0 0 0 0 19074358.961975098 107758825.39906043 0 107758825.39906043 120092082.17873162 0 0 0 0 79393581.743217468 77445788.186968058 0 77445788.186968058 -22366022.532460481 0 0 0 0 56494031.052886963 140898986.54097632 0 140898986.54097632 129424782.70729005 0 0 0 0 206393319.54004669 237414797.28060633 0 237414797.28060633 83741754.613937527 0 0 0 0 174806780.42467499 83281494.469976678 0 83281494.469976678 -1842701.2713261247 0 0 0 0 -188759659.57219696 -33645264.32139802 0 -33645264.32139802 -4495270.7775438726 0 0 0 0 22435964.630729675 21720817.660865068 0 21720817.660865068 -250933837.59478438 0 0 0 0 -58738683.762680054 213911757.45608526 0 213911757.45608526 -69334558.070703149 0 0 0 0 174609529.02178621 57902301.737828255 0 57902301.737828255 -354975358.14156628 0 0 0 0 -58158198.216064453 -213759153.0975101 0 -213759153.0975101 -227534786.17878377 0 0 0 0 31584886.54511261 -65287040.759617426 0 -65287040.759617426 -235536765.19158354 0 0 0 0 47285344.361541748 -58575596.706923574 0 -58575596.706923574 -247731868.16735005 0 0 0 0 27352722.10383606 -108109201.30613418 0 -108109201.30613418 -304184085.62800628 0 0 0 0 -10397086.035842896 97614305.131565318 0 97614305.131565318 -71380192.497981817 0 0 0 0 2521322.3389861397 928737.22395985574 0 928737.22395985574 -74568.917174072762 0 0 0 0 46461860.810180664 -62059692.926631287 0 -62059692.926631287 -70538034.495665818 0 0 0 0 -83155647.261688232 -43459149.710957833 0 -43459149.710957833 -14786574.954997599 0 0 0 0 -13331381.963928223 -102217974.50632608 0 -102217974.50632608 -93033341.105645537 0 0 0 0 -8763628.5494689941 64693661.929990411 0 64693661.929990411 -108273689.78527509 0 0 0 0 13620513.986327171 -4525289.8285541926 0 -4525289.8285541926 27006420.825298727 0 0 0 0 159308073.02567291 9800811.4336514026 0 9800811.4336514026 -55555588.039683707 0 0 0 0 4474776.7930116886 4673841.4397417083 0 4673841.4397417083 -15831479.556558875 0 0 0 0 116613029.3458786 33246479.609493833 0 33246479.609493833 -42992726.595991552 0 0 0 0 84202702.526275635 27474756.624253437 0 27474756.624253437 -208874294.79021674 0 0 0 0 84510008.498168945 15412694.33145193 0 15412694.33145193 -35063315.75622917 0 0 0 0 90966652.978149414 -52799582.625277609 0 -52799582.625277609 -39120767.56582877 0 0 0 0 81204462.852676392 -26217028.197262287 0 -26217028.197262287 -3945508.0539271832 0 0 0 0 1854696.3222142076 4157776.8389970735 0 4157776.8389970735 -9606273.2706458587 0 0 0 0 123305422.96739474 -26790748.381917544 0 -26790748.381917544 -20070614.220497072 0 0 0 0 58177314.999801636 -31696048.605247967 0 -31696048.605247967 3358196.2671343982 0 0 0 0 82467685.027770996 -22159652.535707194 0 -22159652.535707194 5186565.7443441451 0 0 0 0 54388272.706268311 -4902906.0359572172 0 -4902906.0359572172 29113964.483376756 0 0 0 0 514618.79827766505 3072805.4168883115 0 3072805.4168883115 -4410185.87816587 0 0 0 0 127750128.704422 70060930.628315926 0 70060930.628315926 82991118.861765236 0 0 0 0 17189436.859893799 80788163.531676024 0 80788163.531676024 109259154.59627953 0 0 0 0 44858411.224058151 -8928288.3589928057 0 -8928288.3589928057 32696519.454560399 0 0 0 0 -6783005.7676086426 11875211.488389358 0 11875211.488389358 24423469.875912815 0 0 0 0 89833439.594619751 41240747.340163708 0 41240747.340163708 69445843.204877138 0 0 0 0 46652372.10483551 -14651840.529267162 0 -14651840.529267162 51475946.063275337 0 0 0 0 122868526.78414917 36608528.427675515 0 36608528.427675515 39886707.755988628 0 0 0 0 157052087.46533203 94063537.719998062 0 94063537.719998062 83573182.616764277 0 0 0 0 53218493.67930603 54984540.109604627 0 54984540.109604627 100310845.33247381 0 0 0 0 155936557.67504501 91651912.998804882 0 91651912.998804882 92036664.224906325 0 0 0 0 199107624.71278381 131347366.63182962 0 131347366.63182962 92864652.881870389 0 0 0 0 93937471.469558716 66343874.174998999 0 66343874.174998999 93666759.131030679 0 0 0 0 166304446.56646347 70966113.313837707 0 70966113.313837707 60996463.531117499 0 0 0 0 193436614.02583313 102707411.26697126 0 102707411.26697126 67656333.243818551 0 0 0 0 148021571.17696381 73821841.461259365 0 73821841.461259365 88754107.437372714 0 0 0 0 297565668.33755493 100268326.60270375 0 100268326.60270375 70222927.307970241 0 0 0 0 235763060.05024719 141389537.68582079 0 141389537.68582079 78464083.866634965 0 0 0 0 293077724.07236385 194817584.11462012 0 194817584.11462012 131997114.39802122 0 0 0 0 209681034.56912231 85817850.658854187 0 85817850.658854187 78692966.293440461 0 0 0 0 102302401.68916321 7344646.5394230783 0 7344646.5394230783 -15801228.765033692 0 0 0 0 93599419.792106628 34528512.789396867 0 34528512.789396867 71102391.881305188 0 0 0 0 156455002.99055481 62786272.965764716 0 62786272.965764716 9473296.8208274245 0 0 0 0 -69666.384790071184 1866118.0314175412 0 1866118.0314175412 -1502800.7389141209 0 0 0 0 73068462.566398621 31901817.215860978 0 31901817.215860978 40047154.524971977 0 0 0 0 145716063.88191223 31206155.503430121 0 31206155.503430121 -9143504.2803024203 0 0 0 0 143605125.56402111 78068277.96517016 0 78068277.96517016 56988329.900748968 0 0 0 0 172203288.24533081 90296349.399516121 0 90296349.399516121 22323304.413297802 0 0 0 0 193922759.5243454 103029290.97232926 0 103029290.97232926 27586110.088603288 0 0 0 0 210262283.02144623 69689172.594033197 0 69689172.594033197 13719133.797352716 0 0 0 0 186411836.24749756 88633448.990798861 0 88633448.990798861 5821.8842562582431 0 0 0 0 -278169.52315694519 1112050.0889045 0 1112050.0889045 -326258.61343120155 0 0 0 0 236856742.26889038 138028764.79653287 0 138028764.79653287 49655085.25051102 0 0 0 0 216862054.98969269 117174047.42957814 0 117174047.42957814 36126644.684705913 0 0 0 0 986779.72050364316 2177883.636607483 0 2177883.636607483 1659157.1983606671 0 0 0 0 8227623.2472076416 8532200.3576154448 0 8532200.3576154448 3245176.4731734041 0 0 0 0 224216365.025774 -7328218.6431771778 0 -7328218.6431771778 6612673.580731988 0 0 0 0 47814.352936036885 28980.986074641347 0 28980.986074641347 380013.08637586725 0 0 0 0 202023418.08630371 91180470.43458119 0 91180470.43458119 106148291.46337035 0 0 0 0 200543003.96121216 101128555.41526136 0 101128555.41526136 39373360.431794077 0 0 0 0 182104623.02082825 112559145.14067447 0 112559145.14067447 51218676.108808815 0 0 0 0 203910184.3094635 106067345.77470668 0 106067345.77470668 99489.931299186253 0 0 0 0 220922051.92062378 125163307.93126138 0 125163307.93126138 18919389.66478629 0 0 0 0 215917808.21084595 113163706.7495949 0 113163706.7495949 19399868.439172208 0 0 0 0 1263729.6134507768 1403746.1325388663 0 1403746.1325388663 986908.42042782495 0 0 0 0 12670204.852027893 9299175.3948759958 0 9299175.3948759958 2442.632533936011 0 0 0 0 221600849.0730896 127833467.00543538 0 127833467.00543538 28894024.365108669 0 0 0 0 7005580.2594451904 7759535.4272230854 0 7759535.4272230854 3592813.8431582414 0 0 0 0 6826719.3358612061 7012960.7088565063 0 7012960.7088565063 2972857.3667272441 0 0 0 0 2444480.9367218018 11697373.401016237 0 11697373.401016237 6662.7677500721384 0 0 0 0 -5318424.3107376099 6379938.6074937284 0 6379938.6074937284 5193476.6983780451 0 0 0 0 4068774.1244735718 7491286.2050389275 0 7491286.2050389275 5180163.1354597509 0 0 0 0 3140354.5784225464 8554447.5378150381 0 8554447.5378150381 6325435.0350619219 0 0 0 0 7811440.9505615234 7852755.0055708289 0 7852755.0055708289 2872907.0458163768 0 0 0 0 -19333900.591690063 12580135.904343605 0 12580135.904343605 24160771.442958355 0 0 0 0 868526.18119996786 4089891.5304599069 0 4089891.5304599069 -2032044.4888534108 0 0 0 0 228251920.28276062 140316927.74600139 0 140316927.74600139 86226712.579599142 0 0 0 0 249184.64274047315 -1353535.5170598179 0 -1353535.5170598179 7027981.8346821684 0 0 0 0 -19582013.246175766 -14791108.263836026 0 -14791108.263836026 7898540.2628650665 0 0 0 0 10225813.20498085 4774669.492376864 0 4774669.492376864 -943454.69780540466 0 0 0 0 5422354.4287261963 27406875.466206074 0 27406875.466206074 22715420.156513214 0 0 0 0 -11944882.992553711 17536520.613517761 0 17536520.613517761 37647161.488246679 0 0 0 0 214005689.87379456 123780878.58738434 0 123780878.58738434 85811938.280261695 0 0 0 0 309856225.16326904 142963392.40347731 0 142963392.40347731 74651982.34808296 0 0 0 0 5795010.0028972626 7277975.5785495043 0 7277975.5785495043 26714842.018311501 0 0 0 0 26440972.962898254 31877160.865885496 0 31877160.865885496 34297942.345575333 0 0 0 0 275811.35701559111 925734.32022352517 0 925734.32022352517 328732.67500760406 0 0 0 0 11077495.971435547 17602839.521959305 0 17602839.521959305 37197530.597640038 0 0 0 0 14439129.431640625 21468548.631287575 0 21468548.631287575 22506855.535183907 0 0 0 0 4159540.8531281278 3549255.9382395577 0 3549255.9382395577 -3148455.0457897927 0 0 0 0 26457201.370330811 26112234.767473221 0 26112234.767473221 23917338.050893784 0 0 0 0 11408693.936553955 16223764.499717712 0 16223764.499717712 23706822.994548798 0 0 0 0 3921241.6137237549 5966770.2717698477 0 5966770.2717698477 6945189.5627201144 0 0 0 0 1271957.3501548842 3040085.6920686625 0 3040085.6920686625 2859290.7652506805 0 0 0 0 3471133.0743865967 4759637.9599047899 0 4759637.9599047899 2137797.1719384193 0 0 0 0 5003657.5693359375 3757441.7499883175 0 3757441.7499883175 2785705.2168235779 0 0 0 0 5814183.1728057861 4770794.0734834671 0 4770794.0734834671 3691097.5263214111 0 0 0 0 1600367.8498248141 2575594.7972194925 0 2575594.7972194925 3277317.7437508949 0 0 0 0 857707.55976867676 3464692.6107978285 0 3464692.6107978285 4345980.9022651445 0 0 0 0 1882932.0824279785 3208269.8079281226 0 3208269.8079281226 4235258.9109770544 0 0 0 0 -2359461.9740447998 530772.80123994756 0 530772.80123994756 2570066.3708874956 0 0 0 0 5137801.0962008238 3586027.0424260274 0 3586027.0424260274 1127353.322847808 0 0 0 0 241957.31781047583 718621.91716747172 0 718621.91716747172 1363395.1030339233 0 0 0 0 1183905.8551025391 933053.45991638512 0 933053.45991638512 1844.3100718139799 0 0 0 0 4850126.1916656494 4391188.394920826 0 4391188.394920826 5520535.3083486557 0 0 0 0 3971470.8446350545 2572443.2208463782 0 2572443.2208463782 596285.00080846658 0 0 0 0 1662327.752199173 1196282.7470857536 0 1196282.7470857536 -1111901.0028278956 0 0 0 0 1642531.687713623 -385789.53438363754 0 -385789.53438363754 14447.972981703711 0 0 0 0 4203056.0169817135 1861099.3835585304 0 1861099.3835585304 281938.49746442516 0 0 0 0 9602387.185798645 6462238.1798713766 0 6462238.1798713766 1801467.7923317887 0 0 0 0 -686882.82299804688 -448274.53026850172 0 -448274.53026850172 2494.6153208998699 0 0 0 0 9789.4167298972607 3279.5492484476417 0 3279.5492484476417 -212.54097111451247 0 0 0 0 9546648.599395752 5992945.1614844482 0 5992945.1614844482 2547671.4094113517 0 0 0 0 5341183.471496582 6411678.5383238792 0 6411678.5383238792 3122359.5474572182 0 0 0 0 4655448.9578552246 5409935.3200955391 0 5409935.3200955391 1725116.3651843071 0 0 0 0 5327492.9448394775 4397096.9205867052 0 4397096.9205867052 3250867.9199962616 0 0 0 0 4038246.116607666 5173994.844145298 0 5173994.844145298 2919192.1635760069 0 0 0 0 9309876.6766662598 2408302.6622896544 0 2408302.6622896544 1859.7234965371467 0 0 0 0 11569610.309196472 3234575.529503129 0 3234575.529503129 300247.03537779796 0 0 0 0 3713228.0021972656 512764.7740400359 0 512764.7740400359 -2176634.301888667 0 0 0 0 -4902531.5006027222 -2226965.8053508075 0 -2226965.8053508075 3490586.6690692101 0 0 0 0 7068.537514552474 -166.18820643611252 0 -166.18820643611252 787.00591253618711 0 0 0 0 7258506.7875061035 4360745.0943120299 0 4360745.0943120299 3259691.8470638054 0 0 0 0 2406139.1586303711 3141824.2312121689 0 3141824.2312121689 3101081.6299929689 0 0 0 0 4960310.1366271973 5232248.1948727369 0 5232248.1948727369 3110975.0398874283 0 0 0 0 4779962.9514097571 1959145.1538616214 0 1959145.1538616214 218310.77429241023 0 0 0 0 8187547.7225341797 1383298.3492560387 0 1383298.3492560387 -4046355.2923361063 0 0 0 0 1214133.6775722504 2730422.9598740935 0 2730422.9598740935 -3152152.0087695122 0 0 0 0 14798726.750045776 4384837.2982252911 0 4384837.2982252911 -1514521.5301065613 0 0 0 0 5947738.3003956079 3403442.4062037598 0 3403442.4062037598 163329.46091759665 0 0 0 0 1726114.7770233154 935324.05336534977 0 935324.05336534977 2823947.5683860779 0 0 0 0 9496795.4044494629 2650538.3358128071 0 2650538.3358128071 -1499515.8452775478 0 0 0 0 16311570.547515869 7650985.2705850601 0 7650985.2705850601 16301.508154153824 0 0 0 0 591302.04237077944 135483.77008916065 0 135483.77008916065 37683.124709706753 0 0 0 0 4991174.3124542236 6040905.2445824146 0 6040905.2445824146 14690.422928333282 0 0 0 0 1755407.1428481378 712644.76536726952 0 712644.76536726952 255771.169542016 0 0 0 0 2619170.4063644409 3624445.7829996347 0 3624445.7829996347 2107887.8614759445 0 0 0 0 -5661297.8164978027 3427425.7605042458 0 3427425.7605042458 2631550.4596834183 0 0 0 0 3670923.9998164028 3329658.3478274234 0 3329658.3478274234 3467565.4182688957 0 0 0 0 -5407888.8071841002 18456499.245694634 0 18456499.245694634 -9808348.1267852783 0 0 0 0 3793215.8784637451 4577604.8044919968 0 4577604.8044919968 1875306.6624531746 0 0 0 0 3142990.181854248 5554323.4151165485 0 5554323.4151165485 4059979.1816875935 0 0 0 0 628049.99251937866 3373085.3523268104 0 3373085.3523268104 2335673.4783029556 0 0 0 0 3657806.6682662964 4193637.4686747789 0 4193637.4686747789 1839748.6437973976 0 0 0 0 3655358.0186767578 4191165.9789128304 0 4191165.9789128304 1859706.7222292423 0 0 0 0 4145067.5289611816 4617370.6603796482 0 4617370.6603796482 1826535.3456157446 0 0 0 0 4330439.6943893433 4402078.5679745674 0 4402078.5679745674 561352.26931023598 0 0 0 0 4236253.1603714898 3937190.0916613452 0 3937190.0916613452 -1266037.9893192756 0 0 0 0 23850826.943115234 30251990.854399681 0 30251990.854399681 30372014.306266308 0 0 0 0 4713433.6483383179 30745635.309374571 0 30745635.309374571 59484713.130336761 0 0 0 0 1442035.6423724443 1785679.7860168051 0 1785679.7860168051 -1176218.9337768387 0 0 0 0 -8846557.3853225708 15156894.567791939 0 15156894.567791939 8752639.5875267982 0 0 0 0 30992674.660003662 42484234.946987152 0 42484234.946987152 52923306.243510485 0 0 0 0 11013846.989906311 41715403.015011072 0 41715403.015011072 92244314.391573429 0 0 0 0 4903719.1787948608 64389308.296568394 0 64389308.296568394 132531991.52237535 0 0 0 0 38412141.786056519 71541661.889806509 0 71541661.889806509 74726855.463986486 0 0 0 0 25201582.829742432 42727504.74366045 0 42727504.74366045 36975976.848125458 0 0 0 0 28296329.296177864 18655050.148397714 0 18655050.148397714 74319851.492452621 0 0 0 0 6035705.2890319824 37355671.17058754 0 37355671.17058754 78666110.662466049 0 0 0 0 7485786.5425109863 20910566.865553856 0 20910566.865553856 55565683.2122612 0 0 0 0 19702323.80140686 13282631.978770256 0 13282631.978770256 15159115.862957001 0 0 0 0 -3632084.3228759766 22757755.616843224 0 22757755.616843224 11808046.815219879 0 0 0 0 4098524.7337188721 4152765.3108079433 0 4152765.3108079433 1766069.5899260044 0 0 0 0 17402675.682624817 7981184.603674531 0 7981184.603674531 26439655.583148956 0 0 0 0 5228315.4856964871 2657415.5991278645 0 2657415.5991278645 -1277076.1228367502 0 0 0 0 18121054.586669922 15846768.060787201 0 15846768.060787201 14341129.857591629 0 0 0 0 472887.25162182003 14722.971497964114 0 14722.971497964114 -421420.26878210343 0 0 0 0 4582625.8064117432 2912153.0458636284 0 2912153.0458636284 2349188.9744970798 0 0 0 0 1607651.7718200684 401987.05948162079 0 401987.05948162079 -741614.54461097717 0 0 0 0 1493711.0549507141 7632985.0271458626 0 7632985.0271458626 -1153842.7806758881 0 0 0 0 1218013.7147793472 1591196.077037584 0 1591196.077037584 1550150.1875867057 0 0 0 0 2657741.9450080395 938411.38641646132 0 938411.38641646132 596555.66205512453 0 0 0 0 21128050.152526855 -4189688.5939540863 0 -4189688.5939540863 -3123428.7738704681 0 0 0 0 4026367.980906345 2053940.5785379596 0 2053940.5785379596 -1507955.7472187662 0 0 0 0 -32455321.801681519 6254830.696659565 0 6254830.696659565 9671851.7424402237 0 0 0 0 -28530593.824926376 34215127.420108825 0 34215127.420108825 -6853857.92000103 0 0 0 0 -29394117.375640869 22062506.314532042 0 22062506.314532042 -10130249.379744053 0 0 0 0 -39100541.318477631 21870861.384128451 0 21870861.384128451 -6412002.6090402603 0 0 0 0 991892.71483702958 1037491.1523343474 0 1037491.1523343474 -502565.74214673275 0 0 0 0 -37321294.291671753 17709824.082714796 0 17709824.082714796 502283.93435907364 0 0 0 0 2445320.116969984 -506945.5637046285 0 -506945.5637046285 -794371.21990610333 0 0 0 0 49199205.433414459 43296474.438445926 0 43296474.438445926 35422518.111123085 0 0 0 0 33897516.233459473 16949514.156178474 0 16949514.156178474 5388918.8441734314 0 0 0 0 48425655.726089478 41443876.85036993 0 41443876.85036993 42256801.919343948 0 0 0 0 29036202.411132812 40347800.057981491 0 40347800.057981491 48145572.731510162 0 0 0 0 49743119.93649292 47004046.017209768 0 47004046.017209768 33748699.92591095 0 0 0 0 135520641.1840477 61178542.44544068 0 61178542.44544068 -47868386.95067668 0 0 0 0 50935445.821998596 47465861.885673642 0 47465861.885673642 24308286.180149078 0 0 0 0 74601121.973754883 594174.99100577831 0 594174.99100577831 -1127350.6591315866 0 0 0 0 46983801.454612732 55140661.864465356 0 55140661.864465356 -33244971.347501278 0 0 0 0 924395.50301027671 -563052.3995741196 0 -563052.3995741196 -470088.57774691214 0 0 0 0 -162068432.83747864 12277913.923475176 0 12277913.923475176 21596804.212495655 0 0 0 0 -60654020.813467622 40961886.989534058 0 40961886.989534058 1629069.5510807037 0 0 0 0 -60462944.947311401 8586767.9448566437 0 8586767.9448566437 -3066014.5362920761 0 0 0 0 36076135.776168823 26994822.761406422 0 26994822.761406422 -82973006.893560767 0 0 0 0 -96710063.796432495 81908161.820185602 0 81908161.820185602 -8811585.8569903374 0 0 0 0 30691355.985137939 35843759.440613508 0 35843759.440613508 -26210340.749141216 0 0 0 0 33379012.406539917 82729915.415103316 0 82729915.415103316 -43634227.096661091 0 0 0 0 49029825.4140625 44928673.762941957 0 44928673.762941957 -26072815.57911551 0 0 0 0 13532242.848022461 37599280.247841001 0 37599280.247841001 -18953643.855515003 0 0 0 0 30082510.876708984 41247190.976356603 0 41247190.976356603 -27576899.317155361 0 0 0 0 12068222.45993042 32135138.956171274 0 32135138.956171274 -31682209.105047464 0 0 0 0 10042695.639190674 39938114.484459162 0 39938114.484459162 -24951768.375936508 0 0 0 0 -409040.56192016602 37076573.755393744 0 37076573.755393744 -22234672.700978756 0 0 0 0 13910332.482818604 42216339.363355517 0 42216339.363355517 -22568220.033789873 0 0 0 0 -1041826.4542236328 39968455.548449397 0 39968455.548449397 -19406278.65593183 0 0 0 0 -20371687.946502686 41483573.04135561 0 41483573.04135561 -17274980.042171359 0 0 0 0 -18205050.110687256 33386310.630691528 0 33386310.630691528 -13747621.722534299 0 0 0 0 -34447378.710243225 30447807.415249921 0 30447807.415249921 -11917080.269399643 0 0 0 0 -13809814.516113281 27204014.565939426 0 27204014.565939426 -12408498.456535578 0 0 0 0 -18871001.777532578 25841799.010343134 0 25841799.010343134 -12645817.714056015 0 0 0 0 -117633.08056640625 32043892.76548481 0 32043892.76548481 -19197995.981604815 0 0 0 0 -13544704.457592487 35565724.249460198 0 35565724.249460198 -20099899.322305679 0 0 0 0 2953803.294883728 32568972.839009285 0 32568972.839009285 -32611666.363096714 0 0 0 0 -9177173.753692627 21919367.179561615 0 21919367.179561615 -12049823.739933491 0 0 0 0 -8978682.867855072 19417441.597044706 0 19417441.597044706 -13072661.756206512 0 0 0 0 -1999339.3041687012 7148529.6378707886 0 7148529.6378707886 1154867.6376624107 0 0 0 0 4655491.5624237061 13775084.18875581 0 13775084.18875581 -27720471.695547581 0 0 0 0 23490685.293502808 12393194.115023613 0 12393194.115023613 -73902250.129161835 0 0 0 0 790780.49804270267 982672.1607645154 0 982672.1607645154 -731185.76435316459 0 0 0 0 39565227.244812012 42774348.14846766 0 42774348.14846766 -53219266.030303955 0 0 0 0 66699187.407424927 4725111.5112394094 0 4725111.5112394094 -5368963.4448564053 0 0 0 0 95656966.58820343 -4103116.8379526734 0 -4103116.8379526734 -10126539.427461386 0 0 0 0 78818480.891929626 17096797.1265347 0 17096797.1265347 -6735639.5171660185 0 0 0 0 108989702.98588562 33337218.415691733 0 33337218.415691733 -5799186.559364371 0 0 0 0 54334298.121979713 28820979.881463259 0 28820979.881463259 61532858.55540514 0 0 0 0 -544487.31491950154 -1689743.3284537084 0 -1689743.3284537084 525002.99905771145 0 0 0 0 15389467.693138123 16882646.124567509 0 16882646.124567509 6430117.3592205048 0 0 0 0 50622653.276489258 9432581.6165235043 0 9432581.6165235043 -2589877.5205660462 0 0 0 0 11570432.143089294 -792929.94691383839 0 -792929.94691383839 27892416.758241057 0 0 0 0 93481626.22857666 14710172.952008486 0 14710172.952008486 -43936838.294090033 0 0 0 0 1159913.8853936195 6141651.7430441603 0 6141651.7430441603 6134603.6391935349 0 0 0 0 3626135.7196350098 38176374.897670507 0 38176374.897670507 -24721048.100837231 0 0 0 0 -535980.42202101648 -1643676.597911749 0 -1643676.597911749 528012.73125666054 0 0 0 0 60635915.476744652 13196199.966670573 0 13196199.966670573 -983778.82111620903 0 0 0 0 -17743254.791671753 33831716.799977303 0 33831716.799977303 4460188.2430193722 0 0 0 0 8385396.8922805786 26252162.121668339 0 26252162.121668339 -11225107.102879047 0 0 0 0 -17762690.180496216 33361769.35988903 0 33361769.35988903 -5343479.3328475952 0 0 0 0 -23362223.786804199 21960684.027041912 0 21960684.027041912 -10210982.413739204 0 0 0 0 -21071603.537437439 27534452.613561153 0 27534452.613561153 -1717442.8025283813 0 0 0 0 -290815.61433132365 -876462.76147466153 0 -876462.76147466153 295391.60980136413 0 0 0 0 -60735475.988136292 37129811.479579449 0 37129811.479579449 -271837.37509536743 0 0 0 0 99711886.32383728 7832356.0111045837 0 7832356.0111045837 -4002765.1339609623 0 0 0 0 98199368.430099487 5406170.5073435307 0 5406170.5073435307 -5131512.3813130856 0 0 0 0 919576.86160193756 -110365.71559629217 0 -110365.71559629217 -146351.20623712055 0 0 0 0 101436936.38705063 -1002714.7776155472 0 -1002714.7776155472 -1964817.5033473969 0 0 0 0 86205355.392738342 -1845227.6459209919 0 -1845227.6459209919 -1784702.4963684082 0 0 0 0 -4652003.7375717163 -10769606.281441212 0 -10769606.281441212 22194469.464131832 0 0 0 0 -190765.31093819439 -579365.40328257531 0 -579365.40328257531 -689771.60036859568 0 0 0 0 92789155.414413452 9598789.1984994411 0 9598789.1984994411 391.79758834838867 0 0 0 0 15703758.560691833 20811421.817517281 0 20811421.817517281 3684652.2082452774 0 0 0 0 16257362.133534536 2715866.353280399 0 2715866.353280399 -2328566.7723800745 0 0 0 0 71501921.241241455 3635440.3267326355 0 3635440.3267326355 -73214912.420970917 0 0 0 0 8206119.8280944824 -39210233.924266815 0 -39210233.924266815 3806856.9991664886 0 0 0 0 -13022895.617965698 18798288.015924454 0 18798288.015924454 -75238.574472427368 0 0 0 0 -10047117.268615723 39892363.311198235 0 39892363.311198235 -11326124.759490013 0 0 0 0 23078706.447265625 30593927.28550005 0 30593927.28550005 -11947570.945013523 0 0 0 0 9834906.2230112553 20553266.148731992 0 20553266.148731992 -19495505.037658691 0 0 0 0 7808247.9104363322 4317135.3919764832 0 4317135.3919764832 1385311.1535835597 0 0 0 0 10168965.748596191 12165902.094419479 0 12165902.094419479 956061.89551246166 0 0 0 0 9641745.0671386719 2647388.4167534034 0 2647388.4167534034 443485.67843560013 0 0 0 0 22412238.334518433 -12732321.910829835 0 -12732321.910829835 -12281362.908362366 0 0 0 0 14639781.820589818 4096216.3566248277 0 4096216.3566248277 -1268572.665163615 0 0 0 0 3894708.2005059868 -221444.85668130964 0 -221444.85668130964 -2708956.8251876445 0 0 0 0 28074796.789299011 5626817.2045022268 0 5626817.2045022268 -2430833.6751743015 0 0 0 0 30470475.971725464 -10938665.26203547 0 -10938665.26203547 -11997041.647749955 0 0 0 0 10005217.215454102 5004153.008021811 0 5004153.008021811 -906635.92442165641 0 0 0 0 10267662.921569824 2896338.6620704429 0 2896338.6620704429 -2573.5776455223418 0 0 0 0 10822218.819694519 2552408.0008019409 0 2552408.0008019409 199616.50691611087 0 0 0 0 14322913.837249756 2490398.2161169867 0 2490398.2161169867 -4218082.3204580881 0 0 0 0 17925207.002853394 4711398.2226978103 0 4711398.2226978103 -17851866.041999102 0 0 0 0 9768292.6238098145 1576600.566100331 0 1576600.566100331 -6289503.0588954538 0 0 0 0 35254034.093383789 -211640.34331609387 0 -211640.34331609387 4765.2404287396266 0 0 0 0 15368953.471069336 7220700.9899578886 0 7220700.9899578886 1973049.1849837138 0 0 0 0 30655230.017974854 5855228.4731109804 0 5855228.4731109804 -5458262.8318709247 0 0 0 0 16114006.283187866 5023922.639351408 0 5023922.639351408 -4723684.4047927856 0 0 0 0 15520503.968410492 4708793.7613164103 0 4708793.7613164103 1028.8581649850603 0 0 0 0 18048156.779464722 3686569.221003667 0 3686569.221003667 -3045306.8614370804 0 0 0 0 15055547.250331879 4559012.7180465246 0 4559012.7180465246 -3298605.7382402858 0 0 0 0 16709052.906845093 3266378.9685315918 0 3266378.9685315918 -6383530.7063186467 0 0 0 0 31532786.129615784 -7054685.219142192 0 -7054685.219142192 -5756449.1294970326 0 0 0 0 4799729.9058875293 178220.46985721588 0 178220.46985721588 -2034221.1501176606 0 0 0 0 15331329.051925659 5412643.4532783963 0 5412643.4532783963 -2656023.0239016311 0 0 0 0 20386369.403503418 8091735.1744270306 0 8091735.1744270306 -1754852.5364390034 0 0 0 0 23047837.201843262 -2330240.5221190043 0 -2330240.5221190043 -30148.605189660564 0 0 0 0 30146422.277961731 2073265.0217010041 0 2073265.0217010041 -8034.9625035434356 0 0 0 0 19014475.001373291 1588553.674104319 0 1588553.674104319 2130264.5577653041 0 0 0 0 15281751.502723694 2034899.5951061444 0 2034899.5951061444 1995.9586402868233 0 0 0 0 19012948.892105222 1216538.1216174439 0 1216538.1216174439 -1951538.2481347257 0 0 0 0 396980.8121169582 435008.46925510094 0 435008.46925510094 -419951.67984368454 0 0 0 0 7195595.1199188232 9379320.8208286911 0 9379320.8208286911 3189755.1848601364 0 0 0 0 18358508.344146729 -1011412.1639776519 0 -1011412.1639776519 -2144324.8559101634 0 0 0 0 21018084.188613892 1206064.3879440632 0 1206064.3879440632 -5658199.2346462049 0 0 0 0 20305100.20501709 3714379.0712237544 0 3714379.0712237544 -10128988.551385894 0 0 0 0 17401796.152648926 1652135.4607904498 0 1652135.4607904498 2221674.3411619766 0 0 0 0 12511100.065924481 -1829006.6894111745 0 -1829006.6894111745 -1136432.6161979306 0 0 0 0 11921437.77746582 -7848719.1059058178 0 -7848719.1059058178 -3594221.6069995351 0 0 0 0 16275270.730407715 -3919370.3625680171 0 -3919370.3625680171 -12164821.859213766 0 0 0 0 15277329.762176514 1936047.3050143123 0 1936047.3050143123 -2594646.1192418444 0 0 0 0 24294032.636978149 -759752.02971120551 0 -759752.02971120551 -10923092.769188717 0 0 0 0 13956299.31439209 7853309.108257696 0 7853309.108257696 -8602115.8281852212 0 0 0 0 -53546.748921647668 488636.20496940846 0 488636.20496940846 -22162.819844928912 0 0 0 0 18319061.291442871 4385346.619704999 0 4385346.619704999 -8459441.3770315088 0 0 0 0 10926783.649230957 5579070.6472238041 0 5579070.6472238041 -7173322.183083212 0 0 0 0 10252190.801166952 -2883887.3677888624 0 -2883887.3677888624 -3522470.2576829791 0 0 0 0 29287298.847679138 -1757111.7271338105 0 -1757111.7271338105 -30086286.362330914 0 0 0 0 4619297.0974960327 13238125.964165092 0 13238125.964165092 -15903229.698615551 0 0 0 0 17517671.782932281 5367486.5581947267 0 5367486.5581947267 -7285394.7241752148 0 0 0 0 25957964.982757568 -17932805.869835258 0 -17932805.869835258 -7517250.8369776011 0 0 0 0 3497179.0647907853 -917155.71197966114 0 -917155.71197966114 -1982518.9634255939 0 0 0 0 16221001.309799194 101133.56990152597 0 101133.56990152597 -3312652.2495715022 0 0 0 0 12693630.734008789 4156550.0981699526 0 4156550.0981699526 -6398203.6637760401 0 0 0 0 11288889.750762939 1802608.1157517433 0 1802608.1157517433 -5846908.2103217244 0 0 0 0 5911708.8999328613 -23667.089995265007 0 -23667.089995265007 -5685404.2211798131 0 0 0 0 -4500323.8230743408 -10818072.771646023 0 -10818072.771646023 -5472884.1863517761 0 0 0 0 6324666.7645339966 -22175.610041975975 0 -22175.610041975975 -6282615.7344591618 0 0 0 0 4774102.4040236324 -5682313.2115319669 0 -5682313.2115319669 -4366976.4660566924 0 0 0 0 4554954.6612014771 -7694673.0997905731 0 -7694673.0997905731 -12443568.068810463 0 0 0 0 17641867.09285669 1116798.3685798934 0 1116798.3685798934 -3413732.6029071994 0 0 0 0 11088029.514144897 -36540833.204808235 0 -36540833.204808235 -38054768.814340591 0 0 0 0 8325302.2887496315 -5450007.1021892354 0 -5450007.1021892354 -7084934.9172781697 0 0 0 0 11811306.762522139 -2175404.3467163825 0 -2175404.3467163825 -1205836.4404004826 0 0 0 0 12775643.075195312 1130814.5962198973 0 1130814.5962198973 -10637834.970325232 0 0 0 0 52729.877563863993 -13887.860272731166 0 -13887.860272731166 -32456.636518959567 0 0 0 0 -141769939.24974823 -108619447.8804993 0 -108619447.8804993 -91630229.842507482 0 0 0 0 18686985.733428955 17953770.676159382 0 17953770.676159382 -23256614.821460098 0 0 0 0 -297444518.11476976 -64573227.300737791 0 -64573227.300737791 -2183355.2899388075 0 0 0 0 -143330.54348632693 -536101.25639827177 0 -536101.25639827177 482689.6035492529 0 0 0 0 3062653.3939933777 -3885769.9470359692 0 -3885769.9470359692 1690796.633693109 0 0 0 0 1538369.5340118408 -419283.72185108234 0 -419283.72185108234 10693.317982870492 0 0 0 0 25608098.320648193 4898442.5935168266 0 4898442.5935168266 1740319.8081071377 0 0 0 0 23232022.282058716 3597468.326155901 0 3597468.326155901 1845321.8825731277 0 0 0 0 25208801.669136047 5214501.0267835855 0 5214501.0267835855 1623337.1418673992 0 0 0 0 156660.20587595552 -1156024.8806424923 0 -1156024.8806424923 -61290.471234683951 0 0 0 0 1993602.4745788574 -2240352.7488962836 0 -2240352.7488962836 1078304.3002171589 0 0 0 0 2086296.8460998535 -1186813.0996670416 0 -1186813.0996670416 930316.51816432038 0 0 0 0 -621833.59202575684 1415266.2454675986 0 1415266.2454675986 -157.16122976699467 0 0 0 0 704192.64896202832 -595220.2262863256 0 -595220.2262863256 471340.29575505736 0 0 0 0 4640958.8688812256 -817707.20035044011 0 -817707.20035044011 -1480754.4707991569 0 0 0 0 4518073.4391479492 -606494.001652712 0 -606494.001652712 469463.4083365649 0 0 0 0 1604136.9105072021 2852598.2674817368 0 2852598.2674817368 -1354966.9888428114 0 0 0 0 4710403.786605835 -3563617.6678820737 0 -3563617.6678820737 -2592087.4139284268 0 0 0 0 1124204.7709738836 -805401.73134549707 0 -805401.73134549707 442239.4762203233 0 0 0 0 578224.6976467073 -1261873.4004067834 0 -1261873.4004067834 -226768.17295153171 0 0 0 0 4437071.170933038 -1783519.9541594945 0 -1783519.9541594945 -557664.93958824431 0 0 0 0 766378.41555786133 -6804642.551554203 0 -6804642.551554203 -3345350.2781407833 0 0 0 0 6652868.0475845337 -7134537.5645361543 0 -7134537.5645361543 -16703850.528290153 0 0 0 0 1439948.8539733887 -9437800.4232871532 0 -9437800.4232871532 -1257981.7931898832 0 0 0 0 713751.92645263672 -1379673.0619878769 0 -1379673.0619878769 -1625375.8161094189 0 0 0 0 1173634.629567638 -2197872.2946731546 0 -2197872.2946731546 -477522.14308366523 0 0 0 0 11742005.15004389 1235593.0881438311 0 1235593.0881438311 -1539977.3594397195 0 0 0 0 15923655.769500732 -24711732.614630818 0 -24711732.614630818 -53781024.793064356 0 0 0 0 12948778.644453317 -292950.33148364909 0 -292950.33148364909 -765329.18264711252 0 0 0 0 13031959.783988953 -7979534.4855030179 0 -7979534.4855030179 -20073093.021387711 0 0 0 0 -723744.74780273438 3568368.2715063095 0 3568368.2715063095 2593362.066991806 0 0 0 0 565869.63656616211 -6028040.593020916 0 -6028040.593020916 -12677526.609221935 0 0 0 0 11602956.932434082 -13080221.685562611 0 -13080221.685562611 -4309636.6440219879 0 0 0 0 1558035.2581479549 4913218.6474355021 0 4913218.6474355021 -19992692.040525436 0 0 0 0 14587606.25378418 -8719490.8551435471 0 -8719490.8551435471 -2931306.9022877216 0 0 0 0 231348.18409433961 -170282.48078650236 0 -170282.48078650236 95735.10949410894 0 0 0 0 19982109.995239258 -19939321.153115273 0 -19939321.153115273 13076444.252243042 0 0 0 0 2941581.8657974303 -2050812.4876772584 0 -2050812.4876772584 -1192640.4586325088 0 0 0 0 -22172023.262207031 -7172962.4057312012 0 -7172962.4057312012 333805.61723136902 0 0 0 0 19627480.599365234 2813726.091583252 0 2813726.091583252 528706.12790679932 0 0 0 0 1423993.1634643972 -920084.50716340542 0 -920084.50716340542 -166538.36177798244 0 0 0 0 -1408203.8506469727 -8602825.9248198271 0 -8602825.9248198271 -2528166.9101663828 0 0 0 0 -12643052.894714355 4208902.6084530354 0 4208902.6084530354 27797073.928827286 0 0 0 0 -22307309.810668945 -15469400.905462027 0 -15469400.905462027 31547410.89415741 0 0 0 0 342736.29164814949 -772630.80641908757 0 -772630.80641908757 -176075.70189946878 0 0 0 0 -13922073.025482178 -38924889.369082212 0 -38924889.369082212 -8681184.0794564188 0 0 0 0 -20314730.252441406 -31550147.894906461 0 -31550147.894906461 22941450.086477757 0 0 0 0 14513999.455146499 -734485.95384757221 0 -734485.95384757221 -599932.92634285556 0 0 0 0 39246787.351013184 -27563537.319204926 0 -27563537.319204926 -88417626.956838012 0 0 0 0 -4145548.5925073624 1612828.4106106311 0 1612828.4106106311 11024691.821366906 0 0 0 0 9090751.9649658203 -747321.89426918328 0 -747321.89426918328 -5832674.6942555308 0 0 0 0 8729693.2675476074 -361018.61516132951 0 -361018.61516132951 -3185329.5055770874 0 0 0 0 10780491.827697754 -1152300.3649023399 0 -1152300.3649023399 -5797289.0676404238 0 0 0 0 10686939.744827271 -4183302.3371496201 0 -4183302.3371496201 -12600151.382528067 0 0 0 0 9959130.6571617126 -5808403.3621935621 0 -5808403.3621935621 -2190615.2756723762 0 0 0 0 8396838.2024765015 -898208.4383418113 0 -898208.4383418113 -3999159.6043087244 0 0 0 0 6177580.5667877197 -177052.00660848618 0 -177052.00660848618 -2128616.5190154314 0 0 0 0 5583087.820892334 -735304.50240713358 0 -735304.50240713358 6474974.7528294623 0 0 0 0 15608668.135955811 -17128692.190486461 0 -17128692.190486461 2737035.5070311278 0 0 0 0 35002958.184585571 10070388.953994609 0 10070388.953994609 -20727377.441312611 0 0 0 0 1101562.0377739072 489469.33356278576 0 489469.33356278576 -370915.5992373937 0 0 0 0 48044464.481380463 6254981.0127314329 0 6254981.0127314329 -1483355.8649318218 0 0 0 0 33292579.445735931 30168361.892906025 0 30168361.892906025 21198942.634678841 0 0 0 0 13772071.159545898 -1418214.552321583 0 -1418214.552321583 -474273.22029924393 0 0 0 0 29154168.652534485 10019162.549704313 0 10019162.549704313 -11731312.48925972 0 0 0 0 6089001.7714103609 1198199.1935751261 0 1198199.1935751261 -492446.57547296234 0 0 0 0 4224926.9557189941 2595641.7487487793 0 2595641.7487487793 -3724718.9107321501 0 0 0 0 3429788.3365097046 1225740.9070318937 0 1225740.9070318937 -1051696.6772198677 0 0 0 0 19235102.159317017 1346315.0057827234 0 1346315.0057827234 -27038228.774466515 0 0 0 0 -745587.30041503906 3787300.8872807026 0 3787300.8872807026 -12414234.572584391 0 0 0 0 5659170.2660007998 2931303.3146137511 0 2931303.3146137511 71905.563168876019 0 0 0 0 5907410.2289829254 1372900.9520400465 0 1372900.9520400465 -1855468.5103530884 0 0 0 0 18028830.810272217 16554498.79329437 0 16554498.79329437 -23255758.237473726 0 0 0 0 5424125.1295166016 686672.50602006912 0 686672.50602006912 -2829723.961170435 0 0 0 0 -3248807.4899291992 12529616.41524601 0 12529616.41524601 -14169428.516969919 0 0 0 0 18222267.973693848 8266823.2744386792 0 8266823.2744386792 -13323335.762923092 0 0 0 0 9012690.5127410889 5845330.1746753454 0 5845330.1746753454 12350611.122151315 0 0 0 0 9691618.2978096008 38482.954823315144 0 38482.954823315144 -3536276.1865566969 0 0 0 0 6894214.2260131836 17837727.648801744 0 17837727.648801744 41336.453768491745 0 0 0 0 8839736.6782684326 1400601.6838555336 0 1400601.6838555336 -1688270.3771052659 0 0 0 0 4306556.8793625459 1870935.8835966308 0 1870935.8835966308 -1755252.6840922248 0 0 0 0 8557390.3972683772 -441956.58424933162 0 -441956.58424933162 -125775.33749196609 0 0 0 0 5463724.3824511226 68983.583680082113 0 68983.583680082113 -1041039.0867564144 0 0 0 0 10952270.986186981 335974.1229467988 0 335974.1229467988 3388337.3455462456 0 0 0 0 185509.21890258789 -11925812.285091639 0 -11925812.285091639 59239770.080744743 0 0 0 0 42449468.513824463 -9667824.4460180998 0 -9667824.4460180998 -56634059.158002377 0 0 0 0 408437.08256366849 -31320.974709976465 0 -31320.974709976465 -16747.89627172274 0 0 0 0 41138.545176997781 -284689.09105418855 0 -284689.09105418855 -53060.209431058611 0 0 0 0 4965819.2255401611 5523948.1671175957 0 5523948.1671175957 -4249933.405937314 0 0 0 0 -2339368.4782981873 -13241131.732697368 0 -13241131.732697368 5160002.5667924881 0 0 0 0 5635545.7081490681 1631037.9538533129 0 1631037.9538533129 -1542527.6604023748 0 0 0 0 7752242.1580352783 973153.20365506411 0 973153.20365506411 -3317429.2610785961 0 0 0 0 6860229.5029491037 454369.82539101783 0 454369.82539101783 127647.31412119875 0 0 0 0 8230547.1987991333 -430843.32602572441 0 -430843.32602572441 -1358873.41467309 0 0 0 0 7423854.4629974365 16726563.990068257 0 16726563.990068257 -20894292.785491198 0 0 0 0 25810840.25213623 39677.799696773291 0 39677.799696773291 -11161028.810439467 0 0 0 0 36090092.930023193 -48631.216349482536 0 -48631.216349482536 -22949379.539724737 0 0 0 0 5563776.1054763794 4209017.8002228737 0 4209017.8002228737 -8371897.9191374779 0 0 0 0 -10743967.55267334 -1437652.7768967152 0 -1437652.7768967152 -5143491.8895930052 0 0 0 0 6061774.1620483398 -1493876.2201968431 0 -1493876.2201968431 -7019209.2749554813 0 0 0 0 5908315.727826871 -1660742.3083961606 0 -1660742.3083961606 -4620710.9305615723 0 0 0 0 21092945.997833252 3392579.1761220396 0 3392579.1761220396 -13048354.787111878 0 0 0 0 1779161.2245788574 4897862.3565476537 0 4897862.3565476537 -5605378.2645244598 0 0 0 0 20907046.460723877 -496491.95738640428 0 -496491.95738640428 -3226554.1369812638 0 0 0 0 23342908.185756683 7605498.0583370775 0 7605498.0583370775 -5490686.6665621996 0 0 0 0 21262992.41103363 856448.95408933423 0 856448.95408933423 -6653547.5983586907 0 0 0 0 26111094.981399536 11885449.376138806 0 11885449.376138806 -15818415.573257044 0 0 0 0 21840342.817337036 18252223.582963079 0 18252223.582963079 8670885.9361945391 0 0 0 0 13723014.639343262 -1019894.4111322314 0 -1019894.4111322314 30524888.077581704 0 0 0 0 28555140.47088623 -15867164.734505653 0 -15867164.734505653 11858914.2878564 0 0 0 0 13784823.843717575 -1723334.2575043021 0 -1723334.2575043021 707102.85802137852 0 0 0 0 23130508.51008606 -3656062.128433302 0 -3656062.128433302 -16223244.816218853 0 0 0 0 22847074.415100098 -6352476.103278935 0 -6352476.103278935 -7246654.7641647831 0 0 0 0 18308945.417724609 -8409545.1515295506 0 -8409545.1515295506 9758160.9143185019 0 0 0 0 6762630.051574707 -16525410.912636161 0 -16525410.912636161 10660580.675462276 0 0 0 0 21023563.671730042 -28183011.565145642 0 -28183011.565145642 7682434.0110353231 0 0 0 0 45446386.802261353 -20486144.37747395 0 -20486144.37747395 -9099581.6281980872 0 0 0 0 1344561.2842186317 470543.56798603013 0 470543.56798603013 -434538.8039226376 0 0 0 0 -5985697.3566131592 -4441196.6126227826 0 -4441196.6126227826 640325.8863632679 0 0 0 0 -1711014.2873306274 -24117698.414184034 0 -24117698.414184034 7705329.0406737328 0 0 0 0 -5834467.1748962402 97220409.982758641 0 97220409.982758641 -46096772.32753551 0 0 0 0 10570637.100372314 -10197330.812576532 0 -10197330.812576532 -763923.55695879459 0 0 0 0 11014733.051223755 -2660494.1737091541 0 -2660494.1737091541 2754430.8727381229 0 0 0 0 11630013.373733521 -15597785.606693864 0 -15597785.606693864 7275360.5094914436 0 0 0 0 9371929.784362793 -3231135.912455678 0 -3231135.912455678 -20403456.754174471 0 0 0 0 21459966.658035278 -1863524.6086126566 0 -1863524.6086126566 -15296645.599273443 0 0 0 0 4779059.3679199219 -3031462.9034161568 0 -3031462.9034161568 -15263945.641622316 0 0 0 0 4479684.2229232863 1554750.0807591304 0 1554750.0807591304 -1535450.7221625871 0 0 0 0 8488216.5868225098 -13387743.622405529 0 -13387743.622405529 -21022043.125557959 0 0 0 0 13258760.762832642 15168312.216374397 0 15168312.216374397 141519.15252304077 0 0 0 0 6594557.3272880912 -1446149.9408562556 0 -1446149.9408562556 -1377122.1295186912 0 0 0 0 1937609.9294128418 -2660563.6651124954 0 -2660563.6651124954 -3973423.2967480421 0 0 0 0 3921171.781861037 -232820.40957098268 0 -232820.40957098268 -1801909.1054921998 0 0 0 0 1051973.9158325195 -2589509.6243858337 0 -2589509.6243858337 -6099727.4775509834 0 0 0 0 5589388.5046528652 1095441.0885315649 0 1095441.0885315649 -2259334.5783204595 0 0 0 0 -6991591.4635925293 -13056133.53878212 0 -13056133.53878212 -5921626.7754460573 0 0 0 0 -2289327.3937072754 -3676753.5526988506 0 -3676753.5526988506 9245489.5375570059 0 0 0 0 8144666.0504144579 -2079099.1764454357 0 -2079099.1764454357 -2893983.6783915721 0 0 0 0 24030205.266326904 -6230735.9905292988 0 -6230735.9905292988 26665933.12177825 0 0 0 0 -12652170.592933655 -6438351.698361367 0 -6438351.698361367 5611522.6609485149 0 0 0 0 -4150191.1662597656 -4370962.3659052849 0 -4370962.3659052849 -10402730.676336989 0 0 0 0 -246071.55733039975 -197818.30375872739 0 -197818.30375872739 102061.42534779452 0 0 0 0 -951544.34582714736 -4090040.872826837 0 -4090040.872826837 861783.41801464523 0 0 0 0 12321529.527435303 154717.01158463955 0 154717.01158463955 -1345579.9517310858 0 0 0 0 3063355.0747528076 -7651403.9354842901 0 -7651403.9354842901 4853115.2656487226 0 0 0 0 445150.9480978772 519813.56805291492 0 519813.56805291492 235612.7438142841 0 0 0 0 1973618.2983322144 1748935.0198841691 0 1748935.0198841691 521692.50290346146 0 0 0 0 4832105.5711593628 -22017937.951169014 0 -22017937.951169014 -6284058.7887284756 0 0 0 0 54504021.838745117 -58677237.37485981 0 -58677237.37485981 52044554.054824829 0 0 0 0 6791258.3389826491 -1931088.0962438248 0 -1931088.0962438248 -3501649.392604162 0 0 0 0 22746083.109695435 12882781.748596787 0 12882781.748596787 -5572038.8549228311 0 0 0 0 101420910.7559433 -29654924.048475027 0 -29654924.048475027 10406182.886047125 0 0 0 0 11355282.907745361 372972.91577488184 0 372972.91577488184 5131646.8609088361 0 0 0 0 21766687.849819183 39828259.868787885 0 39828259.868787885 67769580.746345282 0 0 0 0 -88568.563495211303 864110.74959476199 0 864110.74959476199 342284.24128904624 0 0 0 0 38514813.910934448 28692112.871999204 0 28692112.871999204 20980842.160284996 0 0 0 0 39349230.680612564 30727115.894698739 0 30727115.894698739 20058485.092861176 0 0 0 0 12744841.866378784 25586189.829448938 0 25586189.829448938 38095239.516440153 0 0 0 0 24676181.393051147 21279866.897426605 0 21279866.897426605 18021936.41962266 0 0 0 0 6349411.3073654175 7167036.8355555534 0 7167036.8355555534 14870597.329766273 0 0 0 0 -7664695.2545318604 257264.60056096315 0 257264.60056096315 28474328.499264747 0 0 0 0 11650628.652076721 1236194.5764099956 0 1236194.5764099956 -4144162.7142890692 0 0 0 0 3746824.3514862061 3467501.5826539993 0 3467501.5826539993 8925109.1984314919 0 0 0 0 1986319.0058937073 -4324469.1789407432 0 -4324469.1789407432 -641617.43214654922 0 0 0 0 10750400.821136475 8312003.7799224854 0 8312003.7799224854 9582674.0647056103 0 0 0 0 3889106.5894355774 -643718.57664602995 0 -643718.57664602995 -5442635.1774675846 0 0 0 0 5569078.518468 736397.22294440493 0 736397.22294440493 -2193693.6788703576 0 0 0 0 1503566.9585174695 170251.21951193362 0 170251.21951193362 -879267.23327259254 0 0 0 0 4644984.6547546387 -4711948.9670417309 0 -4711948.9670417309 -8109145.4669644833 0 0 0 0 4151320.3650665283 765537.26170063019 0 765537.26170063019 -1326946.9404182434 0 0 0 0 478453.21580505371 -1462822.835457325 0 -1462822.835457325 6679096.3799214363 0 0 0 0 7777085.7632446289 2981387.1264419556 0 2981387.1264419556 7530434.2875163555 0 0 0 0 5580587.0975189209 -2263068.1115684509 0 -2263068.1115684509 5948630.5919780731 0 0 0 0 13660369.487869263 -5497727.320887804 0 -5497727.320887804 996637.50847244263 0 0 0 0 4465542.0785975456 -6550831.4598022178 0 -6550831.4598022178 1594258.6745147705 0 0 0 0 14187746.287841797 1286078.6242656708 0 1286078.6242656708 7264567.7833099365 0 0 0 0 13852326.978164673 2833265.1801118851 0 2833265.1801118851 239603.70414543152 0 0 0 0 12826543.29650116 5923059.9562528133 0 5923059.9562528133 9979820.6665506363 0 0 0 0 10243720.918426514 2278408.7835578918 0 2278408.7835578918 7671731.2011156082 0 0 0 0 11508143.749290466 5257973.3254756927 0 5257973.3254756927 10086800.020669937 0 0 0 0 13216225.697937012 6555804.8816289902 0 6555804.8816289902 9405217.4545617104 0 0 0 0 11699795.908050537 7294306.1726675034 0 7294306.1726675034 12121630.228761673 0 0 0 0 7453250.9526062012 2133157.6339182854 0 2133157.6339182854 8730774.6825466156 0 0 0 0 5914534.8115539551 7054894.9711093903 0 7054894.9711093903 12305106.060056686 0 0 0 0 15092000.493972778 11579913.941299438 0 11579913.941299438 14810157.907760859 0 0 0 0 8225622.3916931152 6321178.6583790779 0 6321178.6583790779 14092904.560303688 0 0 0 0 9477238.9181671143 12440497.281420231 0 12440497.281420231 20663657.107331276 0 0 0 0 18918767.071289062 10873254.199755192 0 10873254.199755192 12712036.915336609 0 0 0 0 19499240.370828152 17274076.512358129 0 17274076.512358129 14922784.788204193 0 0 0 0 16931791.848419189 11913418.426229477 0 11913418.426229477 15044604.50772953 0 0 0 0 14383705.122360229 6728986.9529588223 0 6728986.9529588223 9177755.5323982239 0 0 0 0 12148886.368911743 6018471.0243265629 0 6018471.0243265629 11115109.700298309 0 0 0 0 13375951.154541016 8893227.7472419739 0 8893227.7472419739 13390308.049937248 0 0 0 0 17296779.358261108 8692555.766330719 0 8692555.766330719 12523510.70258522 0 0 0 0 18717498.486160278 9575048.3815097809 0 9575048.3815097809 13306983.605456352 0 0 0 0 14976393.894142151 10200034.185292244 0 10200034.185292244 14460011.3810606 0 0 0 0 25183416.904836655 12697138.803232074 0 12697138.803232074 11234018.560125351 0 0 0 0 24991754.440490723 13054443.838882446 0 13054443.838882446 12905343.606389999 0 0 0 0 32604164.484375 11961252.708924174 0 11961252.708924174 -3057780.47996521 0 0 0 0 37451658.458618164 14247876.644299507 0 14247876.644299507 9630762.9859390259 0 0 0 0 3032470.8993136287 1710503.6349497698 0 1710503.6349497698 606109.48601232003 0 0 0 0 27603147.609825134 18260452.312190056 0 18260452.312190056 5767541.1243772507 0 0 0 0 36217141.318153381 25369060.053624153 0 25369060.053624153 5530340.5996570587 0 0 0 0 42396672.323235512 21441908.217480272 0 21441908.217480272 4110720.1900892258 0 0 0 0 40896377.173675537 30803365.974600613 0 30803365.974600613 11157137.171397209 0 0 0 0 36459486.915725708 24833572.434753418 0 24833572.434753418 6076298.919532299 0 0 0 0 37332392.807937622 17924396.970633507 0 17924396.970633507 11098453.676965714 0 0 0 0 26897457.030029297 27249734.094296455 0 27249734.094296455 19104825.607310057 0 0 0 0 9390909.6853256226 2347791.5390086174 0 2347791.5390086174 798598.98771572113 0 0 0 0 9811309.9491291046 1539305.1917360425 0 1539305.1917360425 -1422045.7884984016 0 0 0 0 7473831.6895599365 14818814.554800034 0 14818814.554800034 10314973.653009415 0 0 0 0 4427408.7564620972 3628223.2854886055 0 3628223.2854886055 3883661.718515873 0 0 0 0 11036960.014082909 3598093.1403708458 0 3598093.1403708458 -1299967.3149676323 0 0 0 0 11160819.290775299 3169509.2631594539 0 3169509.2631594539 -7969927.6179914474 0 0 0 0 16225125.22870636 2897607.7946920395 0 2897607.7946920395 -23662503.857738495 0 0 0 0 13408009.078735352 6091643.4616537094 0 6091643.4616537094 -4179727.3245716095 0 0 0 0 15181295.669952393 21579494.856611252 0 21579494.856611252 -2877477.4820556641 0 0 0 0 19723165.027618408 19138127.306384802 0 19138127.306384802 -15707200.837086678 0 0 0 0 8115350.6451663971 655170.46385514736 0 655170.46385514736 -1631292.3121881485 0 0 0 0 5866348.2434082031 -3709202.173926115 0 -3709202.173926115 -8714712.0010852814 0 0 0 0 5277284.9311589077 -96835.164056230336 0 -96835.164056230336 -598613.23791390983 0 0 0 0 7859072.66431427 337920.92856669426 0 337920.92856669426 -508002.96936655045 0 0 0 0 31994411.86730957 10341001.975637436 0 10341001.975637436 -3943278.2938308716 0 0 0 0 20837529.46685791 -4297442.137802124 0 -4297442.137802124 3228205.9366393089 0 0 0 0 4613601.8179931641 -5524244.8646588326 0 -5524244.8646588326 3397179.0007145405 0 0 0 0 33715763.789276123 -2509141.3903574944 0 -2509141.3903574944 -6411262.0641629696 0 0 0 0 10245710.538028717 2779304.2551310062 0 2779304.2551310062 -1957772.5601663589 0 0 0 0 1361204.4234843366 363480.10156861134 0 363480.10156861134 -883443.49182606535 0 0 0 0 7114694.4929543883 258091.32578140497 0 258091.32578140497 -1400889.8758420381 0 0 0 0 5956824.0988922119 -241694.92466378212 0 -241694.92466378212 -365330.3186852932 0 0 0 0 5610414.2796916962 1253031.4575652778 0 1253031.4575652778 -1493961.7781262398 0 0 0 0 4633389.4416119084 -42328.939966728911 0 -42328.939966728911 -1618740.1918517768 0 0 0 0 4942581.3218113035 1240907.4736032095 0 1240907.4736032095 -1609948.3787079845 0 0 0 0 22293654.408538818 821767.59579467773 0 821767.59579467773 -4001764.9440069199 0 0 0 0 1617678.8998413086 -2618924.8337073326 0 -2618924.8337073326 -4212840.974750042 0 0 0 0 3978767.4787902832 -253274.30812931061 0 -253274.30812931061 -6345484.7914385796 0 0 0 0 4604408.209519431 1762467.7094870135 0 1762467.7094870135 -1994768.5920466091 0 0 0 0 9504712.2337341309 12448547.543843269 0 12448547.543843269 1051969.7024834156 0 0 0 0 24513808.804016113 444091.66147375107 0 444091.66147375107 762291.47054958344 0 0 0 0 10127833.157073975 3849335.6569132805 0 3849335.6569132805 5437453.9892549515 0 0 0 0 7191282.9842224121 -4151860.0495891571 0 -4151860.0495891571 -3575991.0196380615 0 0 0 0 11517025.68649292 3813526.3388338089 0 3813526.3388338089 1591873.1549377441 0 0 0 0 -885552.7409286499 938725.4544839859 0 938725.4544839859 4312902.849691391 0 0 0 0 6893544.600982666 1331181.9523925781 0 1331181.9523925781 4792472.7776651382 0 0 0 0 12100434.311752319 2174510.1149253845 0 2174510.1149253845 4272120.872387886 0 0 0 0 12820391.290496826 4872511.3709726334 0 4872511.3709726334 4810655.7889294624 0 0 0 0 14289874.879501343 6388280.6681241989 0 6388280.6681241989 8390391.0994883776 0 0 0 0 10149220.518280029 4756890.6612844467 0 4756890.6612844467 8621585.7448768616 0 0 0 0 12282190.740318298 3818836.8542370796 0 3818836.8542370796 8079681.6556415558 0 0 0 0 12153483.323486328 6915541.5970935822 0 6915541.5970935822 12281312.861457825 0 0 0 0 13549660.458602905 7310261.9321923256 0 7310261.9321923256 14293304.043613434 0 0 0 0 15767703.866731644 8014270.619402647 0 8014270.619402647 12062585.121740341 0 0 0 0 30587129.933959961 7378078.0771255493 0 7378078.0771255493 6165191.7116317749 0 0 0 0 18623699.89995575 1868255.5998768806 0 1868255.5998768806 4174684.5209255219 0 0 0 0 19216936.335868835 2539090.7286744118 0 2539090.7286744118 4831841.3188495636 0 0 0 0 17616517.784362793 1919938.8202557564 0 1919938.8202557564 6381386.8987293243 0 0 0 0 17962328.373504639 8227769.4584121704 0 8227769.4584121704 10201758.412894249 0 0 0 0 13072842.042602539 4429928.1644229889 0 4429928.1644229889 7040066.3199911118 0 0 0 0 12536596.816580772 -1649138.4576538205 0 -1649138.4576538205 3885778.0169048309 0 0 0 0 15141688.158981323 3321654.2528343201 0 3321654.2528343201 3574284.8765249252 0 0 0 0 3124376.1046852991 -1905725.0903972648 0 -1905725.0903972648 -125515.63695011241 0 0 0 0 6857038.4967432022 2496511.8991878629 0 2496511.8991878629 -254680.48047065735 0 0 0 0 7235358.3076305836 1389374.6704294989 0 1389374.6704294989 -394409.90529574687 0 0 0 0 17433612.515022278 1094034.7348400354 0 1094034.7348400354 5040201.3150482178 0 0 0 0 1023088.628199446 -1067179.585352011 0 -1067179.585352011 -141638.70092989132 0 0 0 0 8081143.6855773926 153781.78867340088 0 153781.78867340088 -1023382.6336964145 0 0 0 0 7709663.8342628479 1268810.762348175 0 1268810.762348175 5196796.5128993988 0 0 0 0 7840155.7687683105 2505512.1730041504 0 2505512.1730041504 -1033105.7426144369 0 0 0 0 8143192.6956701279 1049280.8008506894 0 1049280.8008506894 -222729.8993396759 0 0 0 0 2482476.876499176 2557478.7430961132 0 2557478.7430961132 -17005119.032313824 0 0 0 0 36776396.626651764 -49020159.032640696 0 -49020159.032640696 32005337.663241863 0 0 0 0 13143498.925914541 4096462.383570618 0 4096462.383570618 -233419.12510564143 0 0 0 0 27578527.445043564 -26137498.509285688 0 -26137498.509285688 -24194256.940616608 0 0 0 0 7996179.2812387925 -3465705.020280004 0 -3465705.020280004 -2857898.0051038051 0 0 0 0 20331638.984930359 -1460703.6112971716 0 -1460703.6112971716 -9100244.5717532579 0 0 0 0 199833.29860150814 8110213.9081778005 0 8110213.9081778005 38975845.059959412 0 0 0 0 181605.24085998535 10357200.876302719 0 10357200.876302719 5750102.5654888153 0 0 0 0 12544923.56121641 2794254.61124954 0 2794254.61124954 1000590.4883470843 0 0 0 0 9105026.8793983459 2021905.197401166 0 2021905.197401166 -5830659.170445919 0 0 0 0 40481817.461214066 19915858.47101903 0 19915858.47101903 11958231.532905579 0 0 0 0 6017042.8091506958 -577814.22441291809 0 -577814.22441291809 4189307.6919631958 0 0 0 0 10594185.153167725 -9015053.8400745392 0 -9015053.8400745392 66138319.865337372 0 0 0 0 1599083.8874893188 5333900.1652972102 0 5333900.1652972102 -7571727.8852626085 0 0 0 0 1701401.7750091553 6389811.7020329237 0 6389811.7020329237 -764131.77899849415 0 0 0 0 237638.42278860882 -1190325.5325633965 0 -1190325.5325633965 -1354052.9707160797 0 0 0 0 15451901.774370465 3845499.1018805467 0 3845499.1018805467 -3876000.9870333076 0 0 0 0 47440153.579650879 55148494.551345825 0 55148494.551345825 -64065714.290924072 0 0 0 0 1698665.6147155762 3145052.3549668789 0 3145052.3549668789 -12535129.32446909 0 0 0 0 10253533.613496572 5832418.4494242109 0 5832418.4494242109 -1732898.5581122583 0 0 0 0 1758371.5488502234 6120475.9988515787 0 6120475.9988515787 1215337.9862201277 0 0 0 0 -54163578.13168335 -17582313.28916657 0 -17582313.28916657 -13791494.469541192 0 0 0 0 15865025.878265381 -3140286.5392510891 0 -3140286.5392510891 -45655627.435303807 0 0 0 0 13009516.453057736 7132909.9553168006 0 7132909.9553168006 -373822.92584924982 0 0 0 0 75269.697072230279 -346826.69396983751 0 -346826.69396983751 -420752.80305874004 0 0 0 0 12808215.918487549 16556357.65603286 0 16556357.65603286 15803020.956254601 0 0 0 0 2944143.0427627563 3125820.3448855877 0 3125820.3448855877 -6788462.3909446001 0 0 0 0 1192543.6020202637 4777392.1849329472 0 4777392.1849329472 4251969.9379700124 0 0 0 0 16143461.738471985 11885132.013562679 0 11885132.013562679 18651154.722196579 0 0 0 0 23941454.27677536 1089843.5819406509 0 1089843.5819406509 4675243.3840093613 0 0 0 0 66195423.521255493 10810701.462822497 0 10810701.462822497 -37463489.37965095 0 0 0 0 15278878.053344727 7461165.8498959541 0 7461165.8498959541 16381766.465304375 0 0 0 0 14486754.945480347 8668764.7646780014 0 8668764.7646780014 14728160.441567421 0 0 0 0 14821277.023724623 3765639.9648316279 0 3765639.9648316279 -1613044.1364259101 0 0 0 0 36898677.060256958 13611528.534838319 0 13611528.534838319 -2033344.9017312527 0 0 0 0 30100246.574298859 -5074923.5623519421 0 -5074923.5623519421 -4279301.3075380325 0 0 0 0 17057098.889964581 -420526.0745382309 0 -420526.0745382309 -2608833.3549928665 0 0 0 0 16768878.729576111 6477846.2441469431 0 6477846.2441469431 -4559952.0556721687 0 0 0 0 18296096.196561813 7400086.4288326353 0 7400086.4288326353 -6032968.4156162739 0 0 0 0 6986230.9360038638 3497955.0657746391 0 3497955.0657746391 -2246364.4463527701 0 0 0 0 13262403.757461548 6510448.2411653996 0 6510448.2411653996 -7513024.9897668362 0 0 0 0 10963984.412269592 5730886.9397070408 0 5730886.9397070408 -5381674.7860459089 0 0 0 0 12352275.041357368 4742524.3899132181 0 4742524.3899132181 -2335970.2509594467 0 0 0 0 -118719729.19026947 65710729.041920543 0 65710729.041920543 8786827.4978699684 0 0 0 0 -18844307.42036438 3092021.3837785721 0 3092021.3837785721 -104925191.32159364 0 0 0 0 -1923176.1367912292 14243526.395824611 0 14243526.395824611 19437157.639072001 0 0 0 0 -704672.63455083221 1584906.7742015803 0 1584906.7742015803 271783.61015764246 0 0 0 0 9211272.7584533691 10982607.731178507 0 10982607.731178507 -5283371.9918663502 0 0 0 0 5273108.3860549927 5762412.4293209314 0 5762412.4293209314 -4889137.9959287643 0 0 0 0 14364500.311920166 13764844.231783748 0 13764844.231783748 1658116.6998376548 0 0 0 0 185613097.72893524 126847278.36823988 0 126847278.36823988 -134074184.99920845 0 0 0 0 220777539.59227085 80595745.464582682 0 80595745.464582682 -4776601.8991189003 0 0 0 0 259392739.75483704 -105914081.83355856 0 -105914081.83355856 -2141276.1301021576 0 0 0 0 -165984118.2798233 -98717805.071582913 0 -98717805.071582913 189043119.34326172 0 0 0 0 -166394726.89881897 5643676.5138596296 0 5643676.5138596296 121322483.23507786 0 0 0 0 -27487770.693588257 -283672144.48412633 0 -283672144.48412633 267024288.04950857 0 0 0 0 61282506.322341919 -57032947.419919014 0 -57032947.419919014 14266053.244384766 0 0 0 0 43612504.483032227 6624288.1715507507 0 6624288.1715507507 -22983236.105035543 0 0 0 0 -3368736.5209274292 -15204702.770221829 0 -15204702.770221829 4131382.3592216969 0 0 0 0 -1912764.2848815918 3794787.2672274113 0 3794787.2672274113 -19792270.719173908 0 0 0 0 -42758996.075675964 15966818.700250387 0 15966818.700250387 -15514181.628843784 0 0 0 0 10781658.987007141 7601122.6476279497 0 7601122.6476279497 -17911133.434035778 0 0 0 0 5412600.2662582397 -3044157.5041182041 0 -3044157.5041182041 -23385043.511434376 0 0 0 0 53559576.631385803 25107847.978204489 0 25107847.978204489 -23144601.894613981 0 0 0 0 34466457.388442993 -6932535.7209194899 0 -6932535.7209194899 -25290304.44808428 0 0 0 0 83703079.448184013 41176709.994486213 0 41176709.994486213 -10378343.481507778 0 0 0 0 95129376.226722717 -11861922.947446823 0 -11861922.947446823 -25141026.712062359 0 0 0 0 63490867.816150188 -24930437.213900492 0 -24930437.213900492 -17298810.963324547 0 0 0 0 78888947.374229431 36220064.210551739 0 36220064.210551739 -4930451.934381485 0 0 0 0 84345988.595687866 63452518.188736439 0 63452518.188736439 14188514.539837599 0 0 0 0 84414548.322158813 37209378.118512034 0 37209378.118512034 -18659854.599560976 0 0 0 0 49859629.748088837 44914100.92850256 0 44914100.92850256 4285957.9458072186 0 0 0 0 57741879.24539566 31911036.711159587 0 31911036.711159587 -20395069.200294852 0 0 0 0 48006250.885650635 26865307.121017098 0 26865307.121017098 -17668534.399101973 0 0 0 0 56989371.663917542 30527724.191023767 0 30527724.191023767 -4091017.1571616638 0 0 0 0 41129792.299200058 32845529.204212695 0 32845529.204212695 -4109892.8297415972 0 0 0 0 35038598.340518951 25578354.017375231 0 25578354.017375231 14780187.858956337 0 0 0 0 5972794.4636950493 -1174439.5169679672 0 -1174439.5169679672 -8170477.9189386368 0 0 0 0 21938657.847473145 12317943.675591826 0 12317943.675591826 -39314684.846353412 0 0 0 0 268800.80137252808 33989338.910389543 0 33989338.910389543 35319944.340545535 0 0 0 0 50345465.569671631 79179000.487565637 0 79179000.487565637 32219342.026961684 0 0 0 0 2336101.7209857274 -985969.39985684864 0 -985969.39985684864 -695295.28972516244 0 0 0 0 59109389.722213745 13317510.425182343 0 13317510.425182343 -15609085.591646194 0 0 0 0 15880494.799118042 -1222682.3670883179 0 -1222682.3670883179 -1924424.1539745331 0 0 0 0 28001219.087668233 5972475.6193033401 0 5972475.6193033401 -5043265.9407035438 0 0 0 0 51724583.260990143 -636249.87939310074 0 -636249.87939310074 -26515436.803004265 0 0 0 0 13274544.253927724 1643011.4800131246 0 1643011.4800131246 -5662158.6806204934 0 0 0 0 16591584.967288747 586373.16343192616 0 586373.16343192616 -2854695.0352472095 0 0 0 0 25399804.954055786 8587575.9118146896 0 8587575.9118146896 8272433.7785425186 0 0 0 0 16004597.383010864 5587945.4785191417 0 5587945.4785191417 -8077314.0147728026 0 0 0 0 18925731.072189331 9311626.5771312714 0 9311626.5771312714 13317526.269180179 0 0 0 0 2318549.0247497559 -409887.91509148479 0 -409887.91509148479 1863484.1553370953 0 0 0 0 9905245.3953857422 -9230751.9942463636 0 -9230751.9942463636 -3432361.4992240667 0 0 0 0 12966559.030708313 415225.29896843433 0 415225.29896843433 1378649.2222397327 0 0 0 0 7034052.2026824951 6494095.8947464228 0 6494095.8947464228 -968165.1098088026 0 0 0 0 19623872.531974792 6693853.4586948156 0 6693853.4586948156 -1456001.0545198917 0 0 0 0 13915669.140365601 1451417.9792923331 0 1451417.9792923331 -1951264.0653415918 0 0 0 0 9771331.8569066785 -1014807.1826364491 0 -1014807.1826364491 -6048464.0727800848 0 0 0 0 13680899.708415985 727147.12190932035 0 727147.12190932035 -2626753.5015592575 0 0 0 0 14347189.505607605 2003043.5075621605 0 2003043.5075621605 -4659144.016189456 0 0 0 0 12310612.975280762 -1222363.5460689068 0 -1222363.5460689068 -2391125.0582336187 0 0 0 0 10498379.662895203 2388816.9667037725 0 2388816.9667037725 -4028521.4039475918 0 0 0 0 14823879.061153412 1624725.0829294324 0 1624725.0829294324 -6878205.1609787941 0 0 0 0 8911256.5497958567 -1727168.0505632162 0 -1727168.0505632162 -5764535.4222911485 0 0 0 0 17247251.48236084 -3522683.7624459267 0 -3522683.7624459267 -13253213.509275436 0 0 0 0 16051934.705635071 3346576.2709670067 0 3346576.2709670067 -4475326.4250673652 0 0 0 0 58010549.566886902 18737610.231181145 0 18737610.231181145 -11322343.917182922 0 0 0 0 79255137.344829559 -8221033.7037525177 0 -8221033.7037525177 -40939628.487575531 0 0 0 0 15230379.712511063 -4328522.0987744331 0 -4328522.0987744331 10557666.740322113 0 0 0 0 45387341.772073746 19193092.020595074 0 19193092.020595074 31345580.464082718 0 0 0 0 138132850.60761452 75263791.443774462 0 75263791.443774462 5612025.0458011627 0 0 0 0 1775019.0794099588 838965.47697020881 0 838965.47697020881 103248.68707949668 0 0 0 0 -44028042.46321106 -164487107.70287895 0 -164487107.70287895 -112908278.98630524 0 0 0 0 -11694775.925777435 -9509424.5917034149 0 -9509424.5917034149 -27367900.143157005 0 0 0 0 138702340.07414246 54509342.17160511 0 54509342.17160511 -41825853.815829992 0 0 0 0 108493521.19561005 53077532.224250793 0 53077532.224250793 -41660434.044809341 0 0 0 0 61627285.517775059 45527269.722974777 0 45527269.722974777 -8262543.7945747375 0 0 0 0 82904015.223754883 32159744.568325996 0 32159744.568325996 -44274687.445920467 0 0 0 0 20477052.500679016 -25339910.317123413 0 -25339910.317123413 -28860857.159553528 0 0 0 0 52610506.749483585 -5905728.3594260812 0 -5905728.3594260812 -81228567.786476135 0 0 0 0 5981443.2648940086 3106798.7892510891 0 3106798.7892510891 697563.11288860068 0 0 0 0 82491064.288099289 41797471.530757427 0 41797471.530757427 8671711.2269163132 0 0 0 0 -45027890.215770721 -90250665.507393837 0 -90250665.507393837 -72903545.15001142 0 0 0 0 -12436831.127952576 -5987871.1479098797 0 -5987871.1479098797 -24569724.398311615 0 0 0 0 31750286.837715149 -16193627.023937225 0 -16193627.023937225 -55417108.47829628 0 0 0 0 -5505029.2639961243 -47142502.459368706 0 -47142502.459368706 -45664785.08450079 0 0 0 0 13738190.102850901 6890186.5767287593 0 6890186.5767287593 1560906.1107531432 0 0 0 0 52401674.536329269 23037397.940078735 0 23037397.940078735 -6744823.1471090317 0 0 0 0 19583269.951915741 14087197.980072975 0 14087197.980072975 15878491.340928316 0 0 0 0 5134255.0932693481 -13399992.490419388 0 -13399992.490419388 -17773219.686679363 0 0 0 0 79381027.770349503 40913362.218379974 0 40913362.218379974 5573495.205619812 0 0 0 0 37768136.574035645 -20534066.306729317 0 -20534066.306729317 -29081497.016798973 0 0 0 0 23111204.260593414 -4257163.0012683868 0 -4257163.0012683868 -43092625.852358818 0 0 0 0 70140367.059146881 24883694.409514427 0 24883694.409514427 -307888.82141304016 0 0 0 0 26699010.123649597 -22814170.870633125 0 -22814170.870633125 -20204059.906744003 0 0 0 0 69370487.101448059 23490750.04114151 0 23490750.04114151 -6896617.831993103 0 0 0 0 102967220.80458832 20803954.212888718 0 20803954.212888718 -7953416.705663681 0 0 0 0 94529366.250694275 30900724.614751816 0 30900724.614751816 11948601.592061043 0 0 0 0 108898485.21191406 65015961.017251968 0 65015961.017251968 23325912.321965218 0 0 0 0 93481271.808609009 63171432.036511421 0 63171432.036511421 42100107.556335449 0 0 0 0 141472280.99000549 70885191.714712143 0 70885191.714712143 58408030.940784454 0 0 0 0 -2568788.8690605164 -617763.80704832077 0 -617763.80704832077 16357951.203993797 0 0 0 0 146720461.70758057 79778221.065286636 0 79778221.065286636 32425564.336574554 0 0 0 0 123030774.01556396 73698230.068927765 0 73698230.068927765 108055715.17063522 0 0 0 0 123254566.40044403 90076613.973588943 0 90076613.973588943 72450495.287498474 0 0 0 0 127056824.84347963 50550254.495832086 0 50550254.495832086 26123527.3579216 0 0 0 0 156315137.55447388 161709579.41846085 0 161709579.41846085 108372610.22087824 0 0 0 0 91808035.247299194 16901021.449292183 0 16901021.449292183 -14308960.921833038 0 0 0 0 101182241.95789337 58887218.212161064 0 58887218.212161064 32699778.038124084 0 0 0 0 182732782.89205933 135491088.21534443 0 135491088.21534443 48361190.282485962 0 0 0 0 81205659.582084656 64153114.992756844 0 64153114.992756844 39193744.453953743 0 0 0 0 113333500.1137619 69799927.640632629 0 69799927.640632629 8793957.815158844 0 0 0 0 160266224.17367935 63132264.250845909 0 63132264.250845909 -14737124.94515419 0 0 0 0 205642211.77443695 67332578.968050003 0 67332578.968050003 -249693575.49853516 0 0 0 0 158098939.83557129 124770922.98180008 0 124770922.98180008 -31213147.543796539 0 0 0 0 7421196.0269470215 34570793.883302689 0 34570793.883302689 -38501148.309734344 0 0 0 0 -143431694.57279968 -151402669.15484238 0 -151402669.15484238 -111429366.83772659 0 0 0 0 669157.68793375604 189084.29181594029 0 189084.29181594029 -557863.76110463217 0 0 0 0 821591.98150603101 79435.399481020868 0 79435.399481020868 -153522.18340736255 0 0 0 0 15760457.921890259 -63847470.996679306 0 -63847470.996679306 -234447681.67059326 0 0 0 0 59315159.70201087 8746353.3584185243 0 8746353.3584185243 33222453.343572617 0 0 0 0 62917665.483390808 -21899981.9295578 0 -21899981.9295578 -115660801.62649727 0 0 0 0 -34156498.542282104 -30221645.986557007 0 -30221645.986557007 -85081730.70757103 0 0 0 0 -114345090.44733143 -25568198.068592787 0 -25568198.068592787 -17751549.35011673 0 0 0 0 151623033.36060333 64794359.402277946 0 64794359.402277946 -62930045.091158867 0 0 0 0 107944605.04910278 -115780155.25110245 0 -115780155.25110245 21428235.32257092 0 0 0 0 -182009.34043884836 -648311.79197907075 0 -648311.79197907075 180622.69687130675 0 0 0 0 -69336409.869329453 98675339.845109463 0 98675339.845109463 -63806282.906841278 0 0 0 0 285199880.80764771 -92635792.296943665 0 -92635792.296943665 -74183002.031993866 0 0 0 0 27377427.34066391 7822902.9745941162 0 7822902.9745941162 -7094862.763469696 0 0 0 0 1720974.1209114715 978737.686723575 0 978737.686723575 -1243088.4727842323 0 0 0 0 19210290.727401733 -102286007.46409607 0 -102286007.46409607 -13508710.230311394 0 0 0 0 2412209.5369637776 275190.92815018073 0 275190.92815018073 -273376.72935605422 0 0 0 0 127913095.96510315 105487930.52186108 0 105487930.52186108 63002083.472156525 0 0 0 0 50055260.785369873 -18590313.280055046 0 -18590313.280055046 -73723638.683811188 0 0 0 0 59247994.03660965 -11011430.710997105 0 -11011430.710997105 -40136742.426214218 0 0 0 0 92915013.592475891 27251811.347311974 0 27251811.347311974 -67818141.79292798 0 0 0 0 70959344.682308197 19178720.868585587 0 19178720.868585587 -69515120.915891647 0 0 0 0 40800633.288291931 1634497.2701339722 0 1634497.2701339722 -43338381.520012915 0 0 0 0 22903262.157669067 10349953.603628159 0 10349953.603628159 -43485630.131773308 0 0 0 0 -37686279.678627014 42805718.686101913 0 42805718.686101913 -56331665.723152161 0 0 0 0 60385080.810810089 35061294.415210724 0 35061294.415210724 -92309526.950033188 0 0 0 0 53649102.845115662 42155682.61595726 0 42155682.61595726 -90230828.615497589 0 0 0 0 41405178.852272034 39178226.621711731 0 39178226.621711731 -54556594.890170097 0 0 0 0 47899705.123348236 30852866.684452057 0 30852866.684452057 -83462728.42420578 0 0 0 0 46331138.306209564 32536747.281154633 0 32536747.281154633 -57412936.74779892 0 0 0 0 20563863.376335144 26944429.95971489 0 26944429.95971489 -43911538.296970367 0 0 0 0 41484524.627548695 33829251.169306278 0 33829251.169306278 -41645851.868995667 0 0 0 0 65593766.159202576 -11565568.570922852 0 -11565568.570922852 14298027.521736145 0 0 0 0 43536930.730293274 11217709.008785963 0 11217709.008785963 -10561537.777732849 0 0 0 0 12263813.465177536 30154293.277806401 0 30154293.277806401 20668939.82245636 0 0 0 0 25640555.696624756 31859957.8048172 0 31859957.8048172 20950853.547040939 0 0 0 0 29540503.700569153 24231860.297315598 0 24231860.297315598 2753326.4014177322 0 0 0 0 30676465.0284729 32448008.068955421 0 32448008.068955421 -382494.51549911499 0 0 0 0 39400.041703868657 -1138424.7976523787 0 -1138424.7976523787 -537819.51492087077 0 0 0 0 84454303.492729187 53297231.14397049 0 53297231.14397049 49784234.783519745 0 0 0 0 97906913.939142227 87544332.81768775 0 87544332.81768775 79562293.387123108 0 0 0 0 99441011.516771317 38656419.363769531 0 38656419.363769531 -17374702.078922272 0 0 0 0 56120701.253967285 57741554.282245636 0 57741554.282245636 -38728405.105512619 0 0 0 0 23888326.15826416 43763353.380542755 0 43763353.380542755 -17719821.934378624 0 0 0 0 54151661.885757446 63093610.834114075 0 63093610.834114075 -121505050.18737602 0 0 0 0 6990664.4494853318 4584837.7679268774 0 4584837.7679268774 -297065.01837493293 0 0 0 0 -10111022.143852234 369055.58505821228 0 369055.58505821228 -8240176.6604156494 0 0 0 0 -12943578.0519104 -20498472.817268372 0 -20498472.817268372 11967738.760347366 0 0 0 0 160559734.34967804 42136835.682943344 0 42136835.682943344 -13458296.215057373 0 0 0 0 118190422.27272797 87270806.528715134 0 87270806.528715134 37610592.975063324 0 0 0 0 67514182.903404236 56306410.536508083 0 56306410.536508083 -36794451.343233109 0 0 0 0 74231379.72568512 16556147.661275864 0 16556147.661275864 55986499.421263218 0 0 0 0 93034714.846263885 -22129008.302497864 0 -22129008.302497864 -111192805.92400551 0 0 0 0 33091843.70649283 6842089.9807194071 0 6842089.9807194071 -4041297.3430962153 0 0 0 0 -4099664.4037246704 -13497964.869750977 0 -13497964.869750977 15178746.011329651 0 0 0 0 147208638.89422607 155895854.69189715 0 155895854.69189715 22174307.402450562 0 0 0 0 275211.45981754363 -484400.91646434925 0 -484400.91646434925 -421687.17081389017 0 0 0 0 -48030470.234436035 141767785.15515518 0 141767785.15515518 125448911.89981461 0 0 0 0 23349015.245010376 11743600.149465442 0 11743600.149465442 30485312.845175266 0 0 0 0 43534278.493209839 -16254019.155610085 0 -16254019.155610085 4534050.1358604431 0 0 0 0 20409703.338973999 4763989.9024746418 0 4763989.9024746418 40698871.751224041 0 0 0 0 36808457.110321045 13070519.079174995 0 13070519.079174995 31876622.544929504 0 0 0 0 47875257.630115509 32512258.888157845 0 32512258.888157845 16015379.714510918 0 0 0 0 15211767.619144719 8636416.4019277859 0 8636416.4019277859 621160.3928769948 0 0 0 0 36455226.65404892 48416284.182143211 0 48416284.182143211 41959523.2709589 0 0 0 0 101062662.234272 39481713.772237778 0 39481713.772237778 -45136363.381937981 0 0 0 0 -13497194.107305318 17506045.141023658 0 17506045.141023658 713454.74893188477 0 0 0 0 33918563.90248692 6103962.0154643478 0 6103962.0154643478 -4765875.2112054853 0 0 0 0 42597135.135421753 3926572.3428022861 0 3926572.3428022861 29901532.486438751 0 0 0 0 24223595.156692505 6703269.7284331322 0 6703269.7284331322 45190255.882496715 0 0 0 0 35627420.297175363 8839814.2462396771 0 8839814.2462396771 -3140561.7198066558 0 0 0 0 9640106.3833965808 4181069.7324952856 0 4181069.7324952856 -155976.31925387308 0 0 0 0 -88078323.209861755 103760999.27147198 0 103760999.27147198 14827806.428493977 0 0 0 0 27478226.135223389 82596254.851416111 0 82596254.851416111 13175257.96732235 0 0 0 0 59128615.823951721 44380462.621193051 0 44380462.621193051 -4444886.3053693771 0 0 0 0 6235921.4673919678 49938312.180635691 0 49938312.180635691 -10217586.89652729 0 0 0 0 -36025378.005905151 88186122.576902866 0 88186122.576902866 -2801690.1928634644 0 0 0 0 -68577470.963226318 88419342.075546741 0 88419342.075546741 15750657.134102821 0 0 0 0 -672500.75057220459 39782474.328016758 0 39782474.328016758 886133.62480545044 0 0 0 0 18236820.274780273 34153343.771027565 0 34153343.771027565 -2668745.7123105526 0 0 0 0 27249110.732414246 37200699.564826995 0 37200699.564826995 -23036712.485584021 0 0 0 0 14692768.693588257 44975264.616439462 0 44975264.616439462 -15896362.892686367 0 0 0 0 1969093.8657531738 37803676.301107645 0 37803676.301107645 -17235547.276366234 0 0 0 0 19247011.881790161 30806046.186565757 0 30806046.186565757 -12114062.147760868 0 0 0 0 -2435525.1734771729 38618113.804533482 0 38618113.804533482 -17788652.726109028 0 0 0 0 9707258.8046417236 50140490.887164831 0 50140490.887164831 -12406296.669347048 0 0 0 0 -23092669.083099365 48858265.330337524 0 48858265.330337524 -14868850.888888836 0 0 0 0 1661209.6965808868 41594873.23031158 0 41594873.23031158 -20611001.221968412 0 0 0 0 -46893727.113868713 35886866.381188489 0 35886866.381188489 -11324722.241596937 0 0 0 0 -27732590.477905273 35939472.363201141 0 35939472.363201141 -15162233.291222811 0 0 0 0 -61784511.728851318 45919283.694810778 0 45919283.694810778 -6289457.2279396057 0 0 0 0 -55069519.014099121 39058988.871515512 0 39058988.871515512 -8804737.2336072922 0 0 0 0 -33470162.516082764 62951946.924357414 0 62951946.924357414 -12165020.686756134 0 0 0 0 23848696.756240845 34328738.578818321 0 34328738.578818321 52933960.216192245 0 0 0 0 34350918.487976074 -4873625.5603575706 0 -4873625.5603575706 46571353.267257214 0 0 0 0 22449419.854639053 15513633.279810667 0 15513633.279810667 34608046.986151695 0 0 0 0 10464598.945648193 45284331.907522738 0 45284331.907522738 -4349155.7567586899 0 0 0 0 28005779.742740631 39976212.404837072 0 39976212.404837072 -13441612.879899502 0 0 0 0 17317251.536308289 19696133.298423514 0 19696133.298423514 26587159.410408497 0 0 0 0 -50102300.114509583 56652207.602013707 0 56652207.602013707 13660667.854081631 0 0 0 0 -303414.17310787179 -938404.83613329008 0 -938404.83613329008 297822.12139385566 0 0 0 0 129119561.73684692 704938.15099453926 0 704938.15099453926 -11556637.927520514 0 0 0 0 33765956.696796417 8112161.9465658069 0 8112161.9465658069 47558277.716274261 0 0 0 0 101374513.42025757 46609654.435358047 0 46609654.435358047 66681347.36496067 0 0 0 0 114456906.90382862 -44162114.062687904 0 -44162114.062687904 29200671.716258049 0 0 0 0 33263610.059658051 -3092930.8864182234 0 -3092930.8864182234 107914441.27572441 0 0 0 0 18480100.275360107 -11294239.504796028 0 -11294239.504796028 73029011.750425339 0 0 0 0 23894669.428421021 -44400.495894670486 0 -44400.495894670486 12500430.219851971 0 0 0 0 24342758.060906172 -24270739.569247693 0 -24270739.569247693 44975536.346158981 0 0 0 0 -20969071.646659851 3360837.6277797222 0 3360837.6277797222 34508608.257707119 0 0 0 0 6844618.0160369873 -20702959.186015725 0 -20702959.186015725 28712734.491229534 0 0 0 0 43358323.948745728 -17557662.564631224 0 -17557662.564631224 70587526.712255538 0 0 0 0 43329208.778747559 -15362052.089883804 0 -15362052.089883804 24636115.17287612 0 0 0 0 108632362.70585632 48380845.805532932 0 48380845.805532932 26110556.312242508 0 0 0 0 102664233.58132219 -24767907.933910005 0 -24767907.933910005 32356973.275963306 0 0 0 0 36603872.458938599 1300175.852367878 0 1300175.852367878 23907435.788210869 0 0 0 0 38566224.958236694 -17865444.411266327 0 -17865444.411266327 46579552.254186034 0 0 0 0 34797070.330726624 7920928.1232714653 0 7920928.1232714653 -2118966.1845016479 0 0 0 0 62150955.443359375 34016707.698770046 0 34016707.698770046 11756674.120975018 0 0 0 0 62685916.843139648 -5843203.0658888817 0 -5843203.0658888817 4640303.3235926628 0 0 0 0 30025601.678171352 5563432.8798675323 0 5563432.8798675323 -4669358.8575311098 0 0 0 0 43770524.978569031 -1225234.0515402555 0 -1225234.0515402555 -20453623.359942436 0 0 0 0 45373979.350070953 -30077432.552121162 0 -30077432.552121162 -79375549.156420708 0 0 0 0 47876836.429855347 23544271.265951157 0 23544271.265951157 -6873563.350066185 0 0 0 0 31648155.635223895 7266517.8328510709 0 7266517.8328510709 -3660624.7260592799 0 0 0 0 13282885.351353992 4999234.4255530536 0 4999234.4255530536 1377495.8538508881 0 0 0 0 27288695.524360657 -8330512.9298071861 0 -8330512.9298071861 40025456.095422745 0 0 0 0 56558020.268383026 45967424.629639387 0 45967424.629639387 20274685.93353653 0 0 0 0 116081777.19338989 37362087.026212931 0 37362087.026212931 21203568.807336807 0 0 0 0 99600343.779891968 -19182580.4488554 0 -19182580.4488554 41390912.92053318 0 0 0 0 19356197.090110779 6065554.3035378456 0 6065554.3035378456 18064346.636856079 0 0 0 0 4267574.4907845892 1395358.952834364 0 1395358.952834364 181549.57891544187 0 0 0 0 29049805.682184219 -13410405.710363269 0 -13410405.710363269 -5370608.1896009445 0 0 0 0 2090353629.3205261 554425807.11708009 0 554425807.11708009 831883070.28673983 0 0 0 0 6277995023.1892242 307738950.98230731 0 307738950.98230731 1554852504.3336337 0 0 0 0 2387110.753556557 -410316.4147972092 0 -410316.4147972092 416031.79300256015 0 0 0 0 5764148276.4920044 1514004085.1641653 0 1514004085.1641653 -461162303.26436561 0 0 0 0 2514138028.0697632 1172383774.6671474 0 1172383774.6671474 237203297.10326582 0 0 0 0 3464151085.1076279 952954969.67333937 0 952954969.67333937 35892614.485446967 0 0 0 0 2907434988.5335999 758773032.97257626 0 758773032.97257626 297267899.92505378 0 0 0 0 3127466505.0769043 1020350684.3003561 0 1020350684.3003561 180622006.75277856 0 0 0 0 4644956.3859027289 -368153.16063232347 0 -368153.16063232347 299802.15432909003 0 0 0 0 3157875154.7564449 1201409782.7431097 0 1201409782.7431097 278937205.44897717 0 0 0 0 2922843435.1226807 1016841472.3359928 0 1016841472.3359928 328859163.60360229 0 0 0 0 2933600317.7289124 1194697522.9480696 0 1194697522.9480696 418003910.97928268 0 0 0 0 2120932790.7669621 765244051.15526175 0 765244051.15526175 -322838796.4620254 0 0 0 0 2148626778.8414717 1000322340.6520778 0 1000322340.6520778 -15363753.093722939 0 0 0 0 2028963270.6939392 614569455.79333639 0 614569455.79333639 -254881073.35897553 0 0 0 0 2169750163.2651825 748176096.97375226 0 748176096.97375226 -534069111.73960185 0 0 0 0 2004787624.79216 712635640.81923044 0 712635640.81923044 41964037.077830076 0 0 0 0 1124630379.1661377 107945318.83855326 0 107945318.83855326 40280127.116817862 0 0 0 0 2208210273.7470856 -294101122.0764901 0 -294101122.0764901 -55286212.319434166 0 0 0 0 322415324.27972412 82335675.249947205 0 82335675.249947205 157663229.99523753 0 0 0 0 829793614.53659058 -246836989.04861668 0 -246836989.04861668 202632766.3036049 0 0 0 0 405213361.61233521 38832190.484517932 0 38832190.484517932 295535152.23573136 0 0 0 0 -94072080.893684387 181181076.30210733 0 181181076.30210733 215033107.82014847 0 0 0 0 304154948.5905838 -64600801.54767406 0 -64600801.54767406 218924868.16309762 0 0 0 0 -198555508.70393372 -232764099.09594035 0 -232764099.09594035 280364625.54203975 0 0 0 0 625577640.13288879 -1235767928.450176 0 -1235767928.450176 -46550971.792092919 0 0 0 0 1346605126.511261 -144756746.91414344 0 -144756746.91414344 69495523.476867914 0 0 0 0 3034375955.1148071 -1332171557.0169559 0 -1332171557.0169559 -221956832.61534476 0 0 0 0 976376501.73119354 -604209912.62406325 0 -604209912.62406325 282245221.72979951 0 0 0 0 5356566447.5413971 2300951863.8701086 0 2300951863.8701086 1545306767.8904433 0 0 0 0 4388608.4710514694 -1412678.9903317541 0 -1412678.9903317541 446153.84857650206 0 0 0 0 2285873877.5436096 2016086935.8184819 0 2016086935.8184819 1638861511.2262871 0 0 0 0 -3843836.7273864746 -144932242.50375772 0 -144932242.50375772 -472197479.15731382 0 0 0 0 -65795611.064903259 294340482.93414646 0 294340482.93414646 -100173566.42833138 0 0 0 0 60653500.969207764 101584889.47464287 0 101584889.47464287 -110177604.50667524 0 0 0 0 92920324.991439819 235605384.3412087 0 235605384.3412087 -387214829.08635807 0 0 0 0 1130618188.0281219 879720693.22430992 0 879720693.22430992 856112137.83079839 0 0 0 0 10542637.760527432 -3758629.3515097573 0 -3758629.3515097573 833040.77348929271 0 0 0 0 1047754282.384903 986276235.98322773 0 986276235.98322773 848602438.99713945 0 0 0 0 2092172082.9836426 1346803565.2097559 0 1346803565.2097559 661190462.02779853 0 0 0 0 2278397908.100647 545024302.74919021 0 545024302.74919021 281369990.23807377 0 0 0 0 1044390374.4272003 1103704966.6565752 0 1103704966.6565752 1145322650.6347213 0 0 0 0 4108473096.5891876 817594320.80528355 0 817594320.80528355 315992267.74275506 0 0 0 0 2869203413.8800507 55168475.202230141 0 55168475.202230141 1120188782.1384873 0 0 0 0 3466017284.3308563 571571392.83804727 0 571571392.83804727 356023669.69587189 0 0 0 0 2885887171.8964119 126297795.26212835 0 126297795.26212835 342584758.79954624 0 0 0 0 2395143992.3391266 -249026014.74915254 0 -249026014.74915254 263421152.62610579 0 0 0 0 3456694743.8961411 -364177722.78847647 0 -364177722.78847647 -356088863.97800106 0 0 0 0 2502992182.0017595 547145268.52498198 0 547145268.52498198 162388067.41290319 0 0 0 0 427839854.26003647 643573613.18444633 0 643573613.18444633 253239270.42952085 0 0 0 0 3696269.9806162268 508221.80297519825 0 508221.80297519825 -983815.75067748874 0 0 0 0 1464891355.7509918 -1128558516.1791005 0 -1128558516.1791005 -618088469.27995503 0 0 0 0 1025610051.3376312 143491815.52970618 0 143491815.52970618 312866.34246375709 0 0 0 0 3457225459.6543322 1252114615.7733893 0 1252114615.7733893 -300080790.96281642 0 0 0 0 2810155993.0963879 370377739.9507221 0 370377739.9507221 60287216.677336693 0 0 0 0 2012825.9048226699 771313.83261209354 0 771313.83261209354 -112454.54608417026 0 0 0 0 2899250689.8117523 -40347217.833131947 0 -40347217.833131947 -1452062774.2889481 0 0 0 0 2982055.3031751737 -36903.543224934489 0 -36903.543224934489 -405933.20604581473 0 0 0 0 2620473503.4448853 1759518695.9805038 0 1759518695.9805038 58186479.87357235 0 0 0 0 362194740.33828735 -23033751.87201345 0 -23033751.87201345 -190873094.27631509 0 0 0 0 3169714886.3849602 -323536117.47091174 0 -323536117.47091174 -766656164.80210996 0 0 0 0 1734809095.3022156 334346516.13787299 0 334346516.13787299 -146491920.75484443 0 0 0 0 2147211176.9886093 931432958.4309268 0 931432958.4309268 -197834345.69103599 0 0 0 0 570327147.05419922 490428529.22341859 0 490428529.22341859 124831573.01010656 0 0 0 0 1388359302.0162964 1189562088.67484 0 1189562088.67484 -92292428.316551536 0 0 0 0 1740133563.028717 1015235914.6023976 0 1015235914.6023976 -178044719.24158737 0 0 0 0 1610689997.533371 415135471.60537583 0 415135471.60537583 193198485.5093348 0 0 0 0 1513368006.1067505 879807313.37776041 0 879807313.37776041 315648679.07581693 0 0 0 0 1382514103.8579407 889870115.54657423 0 889870115.54657423 315414886.27069211 0 0 0 0 606463410.7545929 597502410.24513829 0 597502410.24513829 545061209.46733618 0 0 0 0 1339404261.6741886 701277232.13798642 0 701277232.13798642 140816789.92041975 0 0 0 0 14182129.838218786 -5207192.4087069146 0 -5207192.4087069146 955768.58869058941 0 0 0 0 636318097.81112671 551961243.86660349 0 551961243.86660349 188028391.83159614 0 0 0 0 587113051.38571167 719294152.80653262 0 719294152.80653262 205153709.19750431 0 0 0 0 -2718316.9842643738 -64175213.472802639 0 -64175213.472802639 -71185818.811962128 0 0 0 0 63502200.28805542 16045426.626564503 0 16045426.626564503 -39188473.406791791 0 0 0 0 440886999.30265045 -123591233.04577968 0 -123591233.04577968 167545431.35501766 0 0 0 0 18354958.186306298 -5748079.1614115369 0 -5748079.1614115369 -329797.01893735444 0 0 0 0 48650097.413848877 -16495216.524324417 0 -16495216.524324417 -38286577.545925945 0 0 0 0 165301499.73110962 337336917.27148682 0 337336917.27148682 1106878557.1607299 0 0 0 0 1439281124.2345276 448745712.11406446 0 448745712.11406446 69446968.399347544 0 0 0 0 682889283.07861328 377216060.25507009 0 377216060.25507009 34726785.849017859 0 0 0 0 1453753901.3262939 -47684711.860271513 0 -47684711.860271513 -149270813.01486826 0 0 0 0 113558972.7835083 827647888.63280904 0 827647888.63280904 170537877.74431038 0 0 0 0 886963.71319150925 572717.91900691763 0 572717.91900691763 566900.67941286089 0 0 0 0 713367359.71524048 784168300.50320625 0 784168300.50320625 72777875.310929179 0 0 0 0 540420017.64761353 -29881872.771486729 0 -29881872.771486729 -44082514.369911313 0 0 0 0 1198097891.6108398 -86853984.970615268 0 -86853984.970615268 -67709482.723135471 0 0 0 0 705097826.48200989 110227632.68009758 0 110227632.68009758 61085409.579949677 0 0 0 0 708997575.71671677 227002925.07941464 0 227002925.07941464 -22151859.172198296 0 0 0 0 782504025.34388733 78898123.764239028 0 78898123.764239028 -79139409.964136094 0 0 0 0 622818054.31744385 146279189.36030275 0 146279189.36030275 -52050.17165118696 0 0 0 0 447155442.06716919 30449422.659601331 0 30449422.659601331 -59070801.33707276 0 0 0 0 154893458.47973633 77643663.325600088 0 77643663.325600088 44720896.717806756 0 0 0 0 419182871.87245178 110754718.03331447 0 110754718.03331447 -135379.69093105709 0 0 0 0 90719679.293624878 -16736674.856442053 0 -16736674.856442053 -187184.9506682739 0 0 0 0 35851905.745880127 -41511609.762386262 0 -41511609.762386262 69144339.373271257 0 0 0 0 7931014.0875179805 624024.60900142789 0 624024.60900142789 147191.86739243244 0 0 0 0 585091859.90380859 183244747.47057286 0 183244747.47057286 -34871364.450937212 0 0 0 0 24813503.485946655 -16467666.133302229 0 -16467666.133302229 30053406.965076156 0 0 0 0 9837808.8700959347 593147.46208495647 0 593147.46208495647 267370.03482297575 0 0 0 0 196327927.78436279 213196909.14078906 0 213196909.14078906 66171865.054022968 0 0 0 0 20272124.029754639 3778973.8378114887 0 3778973.8378114887 -4398722.5989664048 0 0 0 0 5603348.2564987838 1701993.9162346944 0 1701993.9162346944 -1534744.1542828314 0 0 0 0 11060734.05682373 11421422.140083585 0 11421422.140083585 6576885.760649357 0 0 0 0 155762245.4768219 146498060.73154107 0 146498060.73154107 63828657.399592243 0 0 0 0 1579565.0715725794 492044.58547510207 0 492044.58547510207 -289901.79170961946 0 0 0 0 108005091.77011108 21951899.864780068 0 21951899.864780068 -12534185.665782213 0 0 0 0 76336078.870422363 29635872.850472093 0 29635872.850472093 19138018.934490561 0 0 0 0 89305097.248184204 7042732.761500299 0 7042732.761500299 -24390761.659902573 0 0 0 0 64540907.973373413 17646166.87432611 0 17646166.87432611 7257105.5051422119 0 0 0 0 67440354.225603104 30630044.180376776 0 30630044.180376776 8233607.7397494316 0 0 0 0 58579719.8309021 12985230.793718815 0 12985230.793718815 -8078237.6119818687 0 0 0 0 59688794.560400963 -2791623.7965852916 0 -2791623.7965852916 -14816426.576007366 0 0 0 0 56037453.271514893 -6091061.7875302434 0 -6091061.7875302434 -17259870.379511118 0 0 0 0 37028565.937713623 -9102511.5756533146 0 -9102511.5756533146 -23640595.380092621 0 0 0 0 40171866.092849731 12463589.104673982 0 12463589.104673982 -3237002.3292684555 0 0 0 0 7285708.0236317571 6944944.5216760449 0 6944944.5216760449 -2410443.7429124173 0 0 0 0 42320733.670166016 15863129.844724894 0 15863129.844724894 2129182.1105394363 0 0 0 0 40236131.671356201 13490839.318001032 0 13490839.318001032 -5144004.8113460541 0 0 0 0 36375484.04208374 -655715.62046575546 0 -655715.62046575546 -8064655.2526657581 0 0 0 0 52672884.99458313 23191325.063652515 0 23191325.063652515 127296.22934293747 0 0 0 0 57341897.337692261 7007376.1790220141 0 7007376.1790220141 -9064609.3229060173 0 0 0 0 33476628.987457275 539663.6026699543 0 539663.6026699543 -14101319.200319767 0 0 0 0 54856796.046234131 -2761083.2114779949 0 -2761083.2114779949 -44857395.079089165 0 0 0 0 20895651.225860596 20935513.714159012 0 20935513.714159012 48235789.679374695 0 0 0 0 2835291.9188297521 91252.55286731571 0 91252.55286731571 -119872.64425811591 0 0 0 0 68382924.397491455 35850846.128185511 0 35850846.128185511 -40457146.718284607 0 0 0 0 41676030.860168457 14875352.131723523 0 14875352.131723523 -12852160.196641922 0 0 0 0 53591287.983810425 34491013.500579596 0 34491013.500579596 17908755.278283119 0 0 0 0 2836397.4075446129 -780208.05344682932 0 -780208.05344682932 -1697796.6651474116 0 0 0 0 39315148.328674316 -24927081.023790121 0 -24927081.023790121 -15374147.855507851 0 0 0 0 26729944.817596436 17626333.722361565 0 17626333.722361565 18971912.044803709 0 0 0 0 19320654.502410889 -10954663.969042659 0 -10954663.969042659 -3506072.7684717178 0 0 0 0 12473176.99694249 3723475.0228465968 0 3723475.0228465968 -1800603.4326394724 0 0 0 0 35170690.822933197 -1162211.1560028791 0 -1162211.1560028791 -3924155.2931146622 0 0 0 0 23604144.949798584 9939475.4438889623 0 9939475.4438889623 -19565482.530869484 0 0 0 0 7984283.8500612965 4329519.124519214 0 4329519.124519214 -357726.83532592421 0 0 0 0 8300873.9956512451 1537033.8802127838 0 1537033.8802127838 -2121049.929359436 0 0 0 0 7701284.2742004395 1345788.319870472 0 1345788.319870472 -1837982.6134569645 0 0 0 0 6193894.3207855225 3215559.3312759399 0 3215559.3312759399 -2384227.926779747 0 0 0 0 6431815.6962491497 1627018.1388610378 0 1627018.1388610378 -808376.12520224554 0 0 0 0 8176849.6923427582 1731603.0638002455 0 1731603.0638002455 -1516003.4105005264 0 0 0 0 8064556.3934936523 1013337.8652410507 0 1013337.8652410507 858701.42426776886 0 0 0 0 17513204.969116211 18568051.126654863 0 18568051.126654863 -1667850.6471118927 0 0 0 0 11758815.521759033 384139.92188167572 0 384139.92188167572 501404.86173057556 0 0 0 0 -6258746.2904663086 21895451.395273089 0 21895451.395273089 7298272.8375885487 0 0 0 0 5659293.0587616684 4198380.8817171864 0 4198380.8817171864 147542.54157742951 0 0 0 0 9738944.9164123535 1491536.3721570969 0 1491536.3721570969 297914.50052928925 0 0 0 0 -27667.400389745831 -61743.996461152099 0 -61743.996461152099 22737.308436611143 0 0 0 0 14840175.713806152 3186546.9671974182 0 3186546.9671974182 -2587454.2614498138 0 0 0 0 -8785741.0610351562 59991367.743275046 0 59991367.743275046 20970339.797547817 0 0 0 0 31508455.512039185 -1114257.0512886047 0 -1114257.0512886047 -15129714.63081646 0 0 0 0 12974249.294830322 40355437.158886433 0 40355437.158886433 -59401536.299753189 0 0 0 0 1747626.4759766082 504697.77744130418 0 504697.77744130418 -6678.1537712740246 0 0 0 0 6421190.8253308032 7413994.8946287669 0 7413994.8946287669 -1251084.9397889038 0 0 0 0 35949970.746980667 197267.88141599298 0 197267.88141599298 -4292549.304444313 0 0 0 0 41321765.996630669 28922671.875634402 0 28922671.875634402 -1532632.448266983 0 0 0 0 17571228.936172485 5891380.8760025501 0 5891380.8760025501 5062712.8536815643 0 0 0 0 20159524.52061554 829083.61392003298 0 829083.61392003298 -5575575.4213645346 0 0 0 0 34610395.833770752 -5534.1702780723572 0 -5534.1702780723572 -1036612.7372430563 0 0 0 0 132243164.03012848 10209830.705792785 0 10209830.705792785 -93910686.266607761 0 0 0 0 20802694.57359314 57290030.885468245 0 57290030.885468245 59007370.373607635 0 0 0 0 4844221.4353222847 29666030.896340713 0 29666030.896340713 -48041533.684045792 0 0 0 0 1447006.3247389048 3633482.5276803202 0 3633482.5276803202 -494892.37870894605 0 0 0 0 -20458403.959220886 25808816.815549135 0 25808816.815549135 -41021855.248704195 0 0 0 0 106952644.79043579 108849193.14633727 0 108849193.14633727 -161458621.29294252 0 0 0 0 62889526.761932373 217463101.76969397 0 217463101.76969397 -34660094.315399766 0 0 0 0 121132070.99580765 64953593.441807508 0 64953593.441807508 -53785511.418177605 0 0 0 0 96010485.86340332 37889336.628580093 0 37889336.628580093 -63240710.056688309 0 0 0 0 39322759.41986084 13757793.780480623 0 13757793.780480623 -42549044.992846251 0 0 0 0 67289009.725128174 47197617.645843983 0 47197617.645843983 -23724808.374348998 0 0 0 0 -11772837.924758911 95442707.63114202 0 95442707.63114202 25609918.805097461 0 0 0 0 -5501254.3288879395 141561441.81802094 0 141561441.81802094 86930993.301751375 0 0 0 0 42899834.324157715 114315147.78119689 0 114315147.78119689 60591452.887913138 0 0 0 0 69752893.177337646 5506449.0959580392 0 5506449.0959580392 -12560897.661660284 0 0 0 0 84503045.958572388 -75435706.35023047 0 -75435706.35023047 214954643.23073307 0 0 0 0 56125770.711380005 169608816.76783431 0 169608816.76783431 252364968.69059783 0 0 0 0 -151096944.34692383 72951975.943789154 0 72951975.943789154 104273818.86776471 0 0 0 0 -73931454.277404785 145130348.47362322 0 145130348.47362322 115902825.76411612 0 0 0 0 -296829.25295251235 157156.30438319966 0 157156.30438319966 204639.34357909439 0 0 0 0 -805152.12644958496 3584420.6770955324 0 3584420.6770955324 -4652808.9999609739 0 0 0 0 10065455.076641083 -7943400.7737321556 0 -7943400.7737321556 7495877.4860088825 0 0 0 0 6136121.5577906705 461240.79771875218 0 461240.79771875218 -933178.25932961714 0 0 0 0 4046569.2065491565 2739363.874351792 0 2739363.874351792 657614.47595900728 0 0 0 0 10838013.491394043 1067653.8098105192 0 1067653.8098105192 -594655.23882973194 0 0 0 0 -22267602.550415039 -6543137.2866629362 0 -6543137.2866629362 22403869.086189747 0 0 0 0 14651509.45728302 2188630.1768752337 0 2188630.1768752337 -588216.31728637218 0 0 0 0 12324632.712188721 -2226094.77257514 0 -2226094.77257514 -207079.9214669466 0 0 0 0 9315086.0691726096 -156008.52060063556 0 -156008.52060063556 -247935.66884784447 0 0 0 0 -15349723.185653687 5054781.2325747013 0 5054781.2325747013 71037921.545014143 0 0 0 0 -15256227.726135254 12236619.85002315 0 12236619.85002315 -1615307.7949421406 0 0 0 0 21377660.690368652 -15551735.992807209 0 -15551735.992807209 -21605621.695579171 0 0 0 0 17353644.462554932 -15671309.585252881 0 -15671309.585252881 -17304951.436417818 0 0 0 0 20555174.576263428 -3774412.4832866192 0 -3774412.4832866192 -18101776.916956261 0 0 0 0 18036929.995361328 -9809.0040199756622 0 -9809.0040199756622 -4662248.4460389614 0 0 0 0 3715548.7185252961 655641.66005985811 0 655641.66005985811 -359208.75704664481 0 0 0 0 14195985.812034607 -3188219.1287931204 0 -3188219.1287931204 -4365471.0434374809 0 0 0 0 12283712.786529541 1144698.7304215431 0 1144698.7304215431 -1030875.7361319065 0 0 0 0 20748495.815078735 -9537685.2883881927 0 -9537685.2883881927 -5874290.0812151432 0 0 0 0 16482940.224243164 -5116153.9481022954 0 -5116153.9481022954 -10109311.903069675 0 0 0 0 -629285.65235900879 -10431501.137880743 0 -10431501.137880743 -5681466.6271512508 0 0 0 0 -19723609.081390381 -18689615.449432969 0 -18689615.449432969 8096149.9555597305 0 0 0 0 1154886.6400497202 370748.05193491653 0 370748.05193491653 -152658.46528987054 0 0 0 0 12639813.251152039 3976205.4845587611 0 3976205.4845587611 -2136834.8232939839 0 0 0 0 15427935.403991699 -11822620.682034016 0 -11822620.682034016 -316835.54637914896 0 0 0 0 9827721.4038391113 -21232133.243353367 0 -21232133.243353367 48556375.772638798 0 0 0 0 11390281.134361267 -28279585.185686201 0 -28279585.185686201 6165657.1178574562 0 0 0 0 28214648.384979248 -27596195.673652813 0 -27596195.673652813 -13197322.910574511 0 0 0 0 25997302.809272766 -16493962.945755698 0 -16493962.945755698 -33176838.166793823 0 0 0 0 45724941.24432373 -54789797.692286491 0 -54789797.692286491 4880986.1955715418 0 0 0 0 86202818.231121063 -9431013.6515210569 0 -9431013.6515210569 -79130871.385141611 0 0 0 0 1068205.018794097 -219510.81713047996 0 -219510.81713047996 -157466.86217023613 0 0 0 0 388993320.9697113 -280170178.19176066 0 -280170178.19176066 85095506.18653512 0 0 0 0 -207176304.56817627 26781360.240904331 0 26781360.240904331 230642388.9847396 0 0 0 0 494127550.94470024 455373233.90688884 0 455373233.90688884 -258074392.83729517 0 0 0 0 460021769.49728394 -211871974.14817688 0 -211871974.14817688 -129873689.79050153 0 0 0 0 -50757176.557571411 -90787105.268151492 0 -90787105.268151492 -93731536.678463817 0 0 0 0 122125403.68525696 18167623.970209181 0 18167623.970209181 -28804505.682451576 0 0 0 0 -40231572.926254272 26956661.539126232 0 26956661.539126232 84618420.928199321 0 0 0 0 17104863.356933594 45379383.695542455 0 45379383.695542455 -72261810.4519521 0 0 0 0 7606430.6765441895 -9482013.2425761223 0 -9482013.2425761223 -18913315.741540194 0 0 0 0 -30920967.793893814 30176562.805929311 0 30176562.805929311 11959219.040516376 0 0 0 0 1312300.7043889761 -894078.8173522912 0 -894078.8173522912 -779887.97970898403 0 0 0 0 -36893312.791931152 -3099939.5061818361 0 -3099939.5061818361 6045618.8468371406 0 0 0 0 -20201967.964511871 -49237882.650799468 0 -49237882.650799468 -30882985.798479483 0 0 0 0 15320697.567977212 -115560.62591407914 0 -115560.62591407914 -769114.02802810678 0 0 0 0 -34463092.602172852 -49422474.870091796 0 -49422474.870091796 62794520.82917431 0 0 0 0 120873171.22767258 -14749675.437241711 0 -14749675.437241711 -107066126.02523521 0 0 0 0 16295310.759948969 -299117.64773086179 0 -299117.64773086179 -815998.35573413945 0 0 0 0 -6243140.3846893311 50069363.779423237 0 50069363.779423237 -93525363.680953264 0 0 0 0 23442347.491165161 22363565.355717301 0 22363565.355717301 -14513505.238520622 0 0 0 0 5707988.1557312012 4409847.1999018788 0 4409847.1999018788 11478818.469166875 0 0 0 0 7385292.7841033936 20363339.639529049 0 20363339.639529049 19500762.45926559 0 0 0 0 5124047.9314804077 7477150.554817915 0 7477150.554817915 -1825215.7259473801 0 0 0 0 9395567.2220113333 1908721.9125038944 0 1908721.9125038944 469349.49499172461 0 0 0 0 901863.27454279363 2394419.0042527188 0 2394419.0042527188 -459435.89491773897 0 0 0 0 -6096488.9464874268 -12993708.075466424 0 -12993708.075466424 -12764067.412280649 0 0 0 0 20704672.994949341 5614693.70921278 0 5614693.70921278 -23033819.310923815 0 0 0 0 1597584.7214238942 67461.933032736182 0 67461.933032736182 -13012.414618528914 0 0 0 0 5426552.999740161 -3021327.8677309193 0 -3021327.8677309193 -3471615.0850208341 0 0 0 0 2515842.6095733643 498678.94523143768 0 498678.94523143768 -1036739.8107331991 0 0 0 0 6776694.0000354517 -392498.40298856422 0 -392498.40298856422 -588092.50421684235 0 0 0 0 5411240.4238433838 644253.18641018867 0 644253.18641018867 -895020.44818788767 0 0 0 0 5863709.1533727646 1145080.9153787438 0 1145080.9153787438 -1627786.7313809588 0 0 0 0 14701641.300735474 614087.27672040462 0 614087.27672040462 2731120.8766646385 0 0 0 0 6507387.3230344132 767895.2419381775 0 767895.2419381775 -415368.4428363709 0 0 0 0 3031536.9849624783 -352765.05829096213 0 -352765.05829096213 205290.13970356481 0 0 0 0 4523503.4292144775 227598.78754067421 0 227598.78754067421 -602351.61505413055 0 0 0 0 2419710.975402832 342971.18350791931 0 342971.18350791931 -175054.9790058136 0 0 0 0 5705398.5549197346 -407593.41992182657 0 -407593.41992182657 -944766.94277617568 0 0 0 0 2340571.8951416016 1006117.4558811188 0 1006117.4558811188 -2315865.6612892151 0 0 0 0 12088069.706626641 -401260.67686358094 0 -401260.67686358094 -552641.68535113637 0 0 0 0 4115008.245300293 -18409.658579349518 0 -18409.658579349518 -127428.17816734314 0 0 0 0 3105074.1654766053 1429401.4275198588 0 1429401.4275198588 -821452.49082541594 0 0 0 0 3920491.1577758789 678627.23099398613 0 678627.23099398613 -840587.44314193726 0 0 0 0 9387788.8284476027 1615349.5648737783 0 1615349.5648737783 -2653206.7644373807 0 0 0 0 2676444.2540893555 1025408.8722801208 0 1025408.8722801208 -2349789.0993118286 0 0 0 0 12081723.292492591 -595402.37580953911 0 -595402.37580953911 -729812.61880658986 0 0 0 0 2148301.6221923828 1053747.2078380585 0 1053747.2078380585 -15031.492520332336 0 0 0 0 45239833.405090332 7217616.3547896147 0 7217616.3547896147 3602431.9107379913 0 0 0 0 2300789.4040523246 296205.19211181253 0 296205.19211181253 -82900.461501400219 0 0 0 0 32170859.228792191 912991.48009553552 0 912991.48009553552 -332840.95692491531 0 0 0 0 4295215.5569050293 572772.85703117028 0 572772.85703117028 315542.89808870736 0 0 0 0 4191327.954498291 225200.96669995785 0 225200.96669995785 -760636.12375423312 0 0 0 0 7634542.4129109606 -2415698.6085690036 0 -2415698.6085690036 -1394723.4831237488 0 0 0 0 5529456.3052215576 2834572.7754539847 0 2834572.7754539847 2044796.7358141541 0 0 0 0 11851287.054344177 249232.12090939283 0 249232.12090939283 486107.60655927658 0 0 0 0 8227127.7115936279 829460.02810323238 0 829460.02810323238 1815556.9643418789 0 0 0 0 8954313.0542373657 3163175.399521485 0 3163175.399521485 -93951.758053123951 0 0 0 0 7412291.7961883545 1366199.9258281291 0 1366199.9258281291 336090.06628757715 0 0 0 0 8615884.618057251 1339863.2752358317 0 1339863.2752358317 -1087895.9261357784 0 0 0 0 5623594.5214849655 -2291406.0589877889 0 -2291406.0589877889 -740762.62707295862 0 0 0 0 9537692.1207122803 -632043.57263207436 0 -632043.57263207436 -941906.43243432045 0 0 0 0 13411263.609664917 -19317512.394973487 0 -19317512.394973487 -5845245.6241235733 0 0 0 0 54899690.046844482 661782.72280025482 0 661782.72280025482 -6687541.4703252316 0 0 0 0 750201.47544969246 -195447.81803069636 0 -195447.81803069636 -244859.35946542316 0 0 0 0 75563244.649169922 -48445108.277318045 0 -48445108.277318045 -61693567.084541321 0 0 0 0 6711192.1158447266 12806.862573981285 0 12806.862573981285 -2419078.5425149202 0 0 0 0 192161869.52542114 64392132.922661483 0 64392132.922661483 -72088569.679177955 0 0 0 0 8785028.3660430908 -1346044.5450237989 0 -1346044.5450237989 -1611452.6520953178 0 0 0 0 5783328.0492858887 1882098.2648164034 0 1882098.2648164034 -1190618.9713954926 0 0 0 0 5643211.553276062 1762937.948872745 0 1762937.948872745 -1147462.7483620644 0 0 0 0 3086301.5975379944 1999756.8842332959 0 1999756.8842332959 -1162968.017444849 0 0 0 0 16209635.530693054 26658036.597250935 0 26658036.597250935 -14766083.354518883 0 0 0 0 4866622.9975471497 -1314220.481777221 0 -1314220.481777221 -3328190.4175977707 0 0 0 0 2772041.4112738669 -36500.291583972983 0 -36500.291583972983 -1681316.9514751711 0 0 0 0 -2555352.2066650391 1216009.2251469269 0 1216009.2251469269 3552.2530751086274 0 0 0 0 -9824116.2049179077 -21071010.661369607 0 -21071010.661369607 259767007.6413148 0 0 0 0 4687003.6195965726 -2203352.9025583081 0 -2203352.9025583081 -1181092.76185311 0 0 0 0 137644829.94995117 48980759.805865824 0 48980759.805865824 -129309145.28320301 0 0 0 0 5494992.3790232353 205153.45087215304 0 205153.45087215304 -127657.41941085322 0 0 0 0 222113492.75848389 -135269979.51190895 0 -135269979.51190895 -11706717.126356065 0 0 0 0 -2227912.3993424326 -1653491.5011804812 0 -1653491.5011804812 4281602.0053211916 0 0 0 0 -1395197.4114990234 3218824.501247406 0 3218824.501247406 786161.6236243248 0 0 0 0 -657037083.79821014 -1985637765.6939178 0 -1985637765.6939178 -902601457.8871026 0 0 0 0 8842953870.5968323 19297200903.327438 0 19297200903.327438 -6544814449.4575434 0 0 0 0 -61997481.019722857 8588280.8818730731 0 8588280.8818730731 10396411.583197681 0 0 0 0 1885213.8590431586 400504.77585887164 0 400504.77585887164 -1665281.6086196487 0 0 0 0 2163750.2478637695 799197.8153706789 0 799197.8153706789 -2694439.4022631943 0 0 0 0 -4013003.6250419617 -28518616.717862979 0 -28518616.717862979 2089788.1617251914 0 0 0 0 2021602.6638336182 3678716.4528149962 0 3678716.4528149962 354543.62715893984 0 0 0 0 2156552.4477996826 4170638.5298641175 0 4170638.5298641175 954643.89596014284 0 0 0 0 -7076200.9452285767 -3607855.2354119495 0 -3607855.2354119495 21993485.328185469 0 0 0 0 -10682768.677131653 8251600.8611533903 0 8251600.8611533903 4510390.0429905653 0 0 0 0 7382647.6621055603 5467542.9987191129 0 5467542.9987191129 566440.39016160369 0 0 0 0 17719630.532455444 4932285.3731579781 0 4932285.3731579781 -1384946.1070674658 0 0 0 0 13720345.088363647 16904213.009159207 0 16904213.009159207 7417635.4418526888 0 0 0 0 -16395528.410064697 32204977.880597234 0 32204977.880597234 7552376.452082634 0 0 0 0 -31542273.724292755 4593008.4125231616 0 4593008.4125231616 20127272.514972985 0 0 0 0 -152275.17493787408 148730.76699078828 0 148730.76699078828 815688.41060830792 0 0 0 0 7575394.6444854736 -43895257.376627333 0 -43895257.376627333 70544911.915600434 0 0 0 0 -175362442.29005432 108555948.82514083 0 108555948.82514083 87981107.918417811 0 0 0 0 -23823789.999130249 122678443.83974624 0 122678443.83974624 54146430.596433401 0 0 0 0 233189626.21442413 -34285356.730439425 0 -34285356.730439425 -166730613.27505469 0 0 0 0 -27472562.384643555 101870055.25254786 0 101870055.25254786 -150075277.51547331 0 0 0 0 -704841.1844028458 513152.95589261875 0 513152.95589261875 3459127.0178989219 0 0 0 0 -9921177.3630981445 -1714999054.5594549 0 -1714999054.5594549 -2506993752.1677985 0 0 0 0 66010406.392120361 375237383.13261235 0 375237383.13261235 -2274703829.9116726 0 0 0 0 133988368.32818604 -73485609.410699546 0 -73485609.410699546 -953602517.78919244 0 0 0 0 -106116869.94657898 -629740870.79405212 0 -629740870.79405212 -2259210.0055591268 0 0 0 0 -115764132.47523117 -926349815.16024768 0 -926349815.16024768 -663529574.90481782 0 0 0 0 -59664052.645544052 -1188751382.193857 0 -1188751382.193857 -1214834213.3237994 0 0 0 0 -828392262.79418945 -1507800200.1640086 0 -1507800200.1640086 3594981.1955823037 0 0 0 0 -295794795.70194393 -299986415.72521603 0 -299986415.72521603 -132963211.2219944 0 0 0 0 -157575834.02842712 -436133113.4896825 0 -436133113.4896825 599057.5571698338 0 0 0 0 -134021719.27359772 -534247348.12530673 0 -534247348.12530673 -294310994.08323693 0 0 0 0 28166529.673080444 -301638316.31811941 0 -301638316.31811941 -446927544.94808036 0 0 0 0 113524300.87359428 -77079270.773298562 0 -77079270.773298562 -207069387.16786432 0 0 0 0 25377395.875778198 -178360232.1169005 0 -178360232.1169005 -87715353.760037482 0 0 0 0 33820654.020858765 -5518974.4378482103 0 -5518974.4378482103 -7388281.8428418636 0 0 0 0 61986053.408828735 -110241512.21647596 0 -110241512.21647596 -153130404.93898177 0 0 0 0 -105137048.77059937 35092549.473028779 0 35092549.473028779 42577673.615012407 0 0 0 0 -155330548.64678955 3466.5316567420959 0 3466.5316567420959 55823822.251435101 0 0 0 0 407857.3348396346 -333000.23160317726 0 -333000.23160317726 24496.566102848854 0 0 0 0 179160340.99451447 -51533346.109404862 0 -51533346.109404862 -222478605.64221466 0 0 0 0 -103174352.53512573 -9343666.7465155125 0 -9343666.7465155125 101520966.30304515 0 0 0 0 10474456.319438934 577042.40006869473 0 577042.40006869473 -7244369.6251359731 0 0 0 0 5362201.0268630981 1784054.5624375939 0 1784054.5624375939 -4584052.814296186 0 0 0 0 6175551.5685424805 -1197845.873714149 0 -1197845.873714149 6345898.2687863857 0 0 0 0 12118528.034790039 18161045.223775297 0 18161045.223775297 1281952.9495716132 0 0 0 0 15892158.223369345 -788252.34700794704 0 -788252.34700794704 -649408.80166200385 0 0 0 0 14095399.660186768 7442240.6257279813 0 7442240.6257279813 -27339887.705812395 0 0 0 0 350950430.95545959 -131278362.1651485 0 -131278362.1651485 -235429405.6323396 0 0 0 0 34847337.628387451 -20712638.482723363 0 -20712638.482723363 -50295830.019917771 0 0 0 0 16580479.350149117 -578673.9211059669 0 -578673.9211059669 -766402.45805322914 0 0 0 0 -125334270.06944275 43527073.959314823 0 43527073.959314823 86669371.898403823 0 0 0 0 -13561372.082946777 8219134.383611232 0 8219134.383611232 42889681.685628355 0 0 0 0 1773468.1021788828 35650.506657317281 0 35650.506657317281 -1034356.2297513726 0 0 0 0 14132188.905014038 31888444.702744246 0 31888444.702744246 -9339585.2196809053 0 0 0 0 12280325.828285217 4136458.8341674507 0 4136458.8341674507 -4454695.5185517073 0 0 0 0 16564404.252157211 4492522.8723190948 0 4492522.8723190948 -19059503.398693085 0 0 0 0 7785958.0177045763 472134.26795708947 0 472134.26795708947 -173412.84501797185 0 0 0 0 88759335.716053009 -26174406.930751488 0 -26174406.930751488 4725243.951043874 0 0 0 0 7084490.3187614083 -2800245.1391201336 0 -2800245.1391201336 -175675.79526402242 0 0 0 0 787401.43728671968 -1232618.7959362771 0 -1232618.7959362771 -24521.173450995826 0 0 0 0 -103235765.37759399 39508716.070197344 0 39508716.070197344 -17506855.179153889 0 0 0 0 44012515.503326416 47829859.517213106 0 47829859.517213106 -37196466.161186501 0 0 0 0 8412935.9882049561 -20679377.460039258 0 -20679377.460039258 -33092858.67495513 0 0 0 0 8836919.3443145752 1704072.1297584176 0 1704072.1297584176 -10123115.148233963 0 0 0 0 14344646.784744263 7704594.1017711163 0 7704594.1017711163 -10146808.491224784 0 0 0 0 12886066.094512939 13045541.913822174 0 13045541.913822174 -3454018.4041290283 0 0 0 0 2605577.0658798218 11456904.603728771 0 11456904.603728771 12513040.179929256 0 0 0 0 5086065.4607849121 6345127.623096168 0 6345127.623096168 -3626779.1937466562 0 0 0 0 4721634.8856582642 663420.79387164116 0 663420.79387164116 -975227.99781107903 0 0 0 0 7137049.8674933463 988626.37090851925 0 988626.37090851925 163933.26559488484 0 0 0 0 7671965.0878038406 462684.48534745723 0 462684.48534745723 -3887952.1965265274 0 0 0 0 9222770.4873886108 8868580.2595030069 0 8868580.2595030069 -14226462.565536559 0 0 0 0 7794865.5886688232 -15984246.799184442 0 -15984246.799184442 9185944.0505428314 0 0 0 0 1799356.5367469788 -5515804.9992409945 0 -5515804.9992409945 2331111.1206636429 0 0 0 0 10830756.782196045 -1552429.7293205261 0 -1552429.7293205261 -857278.08385276794 0 0 0 0 8915519.2854156494 2042013.1191120148 0 2042013.1191120148 1272634.8343839645 0 0 0 0 12205729.484451294 -733670.15434741974 0 -733670.15434741974 -2514896.9651780128 0 0 0 0 781738.05056294799 356672.08929657377 0 356672.08929657377 -473055.48928146716 0 0 0 0 6026787.7019805908 -4420880.4704580307 0 -4420880.4704580307 -3673653.4721308351 0 0 0 0 1405360.8547479361 833242.23987062857 0 833242.23987062857 -48031.498186894984 0 0 0 0 4171057.5998458862 4674033.3662087917 0 4674033.3662087917 -1935796.5470557213 0 0 0 0 516275.9940482676 421524.07199728116 0 421524.07199728116 -69509.779036080115 0 0 0 0 4988015.36769104 29508951.310383558 0 29508951.310383558 53790923.925529003 0 0 0 0 -3776484.2693519592 245114.36677348614 0 245114.36677348614 15326506.351964474 0 0 0 0 16429324.121276855 -23708129.760774136 0 -23708129.760774136 43451825.881302714 0 0 0 0 57268858.526100159 -43088363.922930002 0 -43088363.922930002 21838051.619796753 0 0 0 0 133689475.09477997 2882110.8967328072 0 2882110.8967328072 -12799969.371193886 0 0 0 0 32499453.213088989 8495975.1691460609 0 8495975.1691460609 -10516916.066165924 0 0 0 0 60304596.503601074 -29634739.45526278 0 -29634739.45526278 -1274423.2067022324 0 0 0 0 29118161.225616455 -11314552.835654259 0 -11314552.835654259 -9669752.4256083965 0 0 0 0 34361453.727783203 -13956594.049139023 0 -13956594.049139023 -10749148.935951233 0 0 0 0 30455024.431732178 6495094.3045196533 0 6495094.3045196533 -16880502.964438438 0 0 0 0 50000736.520748138 4615206.7017197609 0 4615206.7017197609 -13638808.531721115 0 0 0 0 26884864.010467529 3394995.3940219879 0 3394995.3940219879 -12249710.593008995 0 0 0 0 26555351.907852173 1808938.3584785461 0 1808938.3584785461 -16620862.173585892 0 0 0 0 16249257.800506592 -21509328.769134998 0 -21509328.769134998 12796452.187318623 0 0 0 0 26218838.048370361 -23641539.73195076 0 -23641539.73195076 13799069.617743492 0 0 0 0 21039288.88923645 -17440474.960489988 0 -17440474.960489988 7848982.7509412766 0 0 0 0 32218733.364002228 -23598444.09959954 0 -23598444.09959954 2940529.0726966858 0 0 0 0 21887949.27835083 -14796822.489450455 0 -14796822.489450455 -3895634.5603227615 0 0 0 0 22366603.458526611 -17026937.176251888 0 -17026937.176251888 80808.622222900391 0 0 0 0 14060229.773544312 -10964272.939581871 0 -10964272.939581871 -3714542.0883436203 0 0 0 0 20735922.728881836 -6985644.5170507431 0 -6985644.5170507431 -11758647.917479515 0 0 0 0 31562636.706634521 -13704421.301056385 0 -13704421.301056385 -9824720.178229332 0 0 0 0 16710365.010520935 -2944157.5461335182 0 -2944157.5461335182 -8238306.4617509842 0 0 0 0 22601895.17150116 -9748689.7582335472 0 -9748689.7582335472 -7905236.1553697586 0 0 0 0 12220868.940063477 859364.12305212021 0 859364.12305212021 -26350981.435071945 0 0 0 0 14932836.517868042 5340307.0572743416 0 5340307.0572743416 -18947198.844888687 0 0 0 0 30182077.055114746 5059681.212313652 0 5059681.212313652 -21191215.437710762 0 0 0 0 21813644.558776855 8897698.2726869583 0 8897698.2726869583 -27004841.778957367 0 0 0 0 24552712.016571045 -1852309.6554918289 0 -1852309.6554918289 -18388820.967397809 0 0 0 0 37545372.50951767 -8174880.3068544865 0 -8174880.3068544865 -19582919.873842239 0 0 0 0 10487601.427642822 5723313.5017971992 0 5723313.5017971992 -15776381.582278252 0 0 0 0 28730856.780738831 -3192632.7748818398 0 -3192632.7748818398 -18415020.021845818 0 0 0 0 19324545.197814941 5662462.4425811768 0 5662462.4425811768 -30961411.603669167 0 0 0 0 14270910.39705658 13857946.09905076 0 13857946.09905076 -24187318.930657387 0 0 0 0 16988527.604934692 -520496.85816669464 0 -520496.85816669464 -6839127.830532074 0 0 0 0 21898820.100410461 19096487.296535969 0 19096487.296535969 1528467.183539629 0 0 0 0 27467746.770124435 -6959681.4475077391 0 -6959681.4475077391 -2884369.249669075 0 0 0 0 13175703.24976531 1185915.266416464 0 1185915.266416464 -188347.84900883958 0 0 0 0 20192853.722457886 -1824064.2260632515 0 -1824064.2260632515 -10124586.512228012 0 0 0 0 16044940.801681519 1670975.033747673 0 1670975.033747673 -10672442.864310622 0 0 0 0 13299680.22766044 1837199.363051787 0 1837199.363051787 668757.07887115725 0 0 0 0 10630827.397304606 508242.10497991554 0 508242.10497991554 -66884.672688251361 0 0 0 0 16969549.145401001 -640608.42108511925 0 -640608.42108511925 -5109994.7961864471 0 0 0 0 8561022.4443588257 1363448.3279914856 0 1363448.3279914856 -1209282.7864141464 0 0 0 0 12714741.52980423 -7423900.3633618355 0 -7423900.3633618355 -1650889.2784032822 0 0 0 0 6812841.3598861694 467437.67607045174 0 467437.67607045174 -5608171.5102024078 0 0 0 0 9590055.4347841181 -1381850.9266281575 0 -1381850.9266281575 1562707.2095941813 0 0 0 0 15800604.240570068 -3067777.2055053711 0 -3067777.2055053711 -6523918.3535103798 0 0 0 0 16093021.478103638 -7288318.3970432281 0 -7288318.3970432281 -1769311.1844763756 0 0 0 0 16709007.259124756 -9266751.8951253891 0 -9266751.8951253891 3207492.5960977077 0 0 0 0 14080240.536600113 -10607412.761677712 0 -10607412.761677712 2524662.5547218323 0 0 0 0 12492313.554046631 1833630.8827018738 0 1833630.8827018738 1064438.1377460957 0 0 0 0 9299119.882819958 1233783.1499927193 0 1233783.1499927193 -632006.89685371192 0 0 0 0 14063528.648551941 579240.5726351738 0 579240.5726351738 535595.53376197815 0 0 0 0 13474783.282150269 -1156602.4785432816 0 -1156602.4785432816 1656983.3611950874 0 0 0 0 1927579.2154909968 -191532.41511233151 0 -191532.41511233151 -635183.96293407213 0 0 0 0 8800833.9960875958 355936.05056197196 0 355936.05056197196 1513991.9711945658 0 0 0 0 9732609.9944915771 -688814.65429878235 0 -688814.65429878235 -2754726.5557289124 0 0 0 0 8501155.398815155 1347207.5074057579 0 1347207.5074057579 -103007.01901817322 0 0 0 0 8307919.7862167358 1068136.7525880337 0 1068136.7525880337 -2660974.7604581565 0 0 0 0 809708.36631011963 6012393.9433016777 0 6012393.9433016777 3416128.9913287163 0 0 0 0 8478803.1459274292 1930942.2813243866 0 1930942.2813243866 -6879598.7222537994 0 0 0 0 6936609.0486297607 -356325.98118567467 0 -356325.98118567467 -2967704.9472184181 0 0 0 0 9617306.8274839744 -2194517.9057053998 0 -2194517.9057053998 -1253231.0027386369 0 0 0 0 28602262.93825531 -4978836.8479791284 0 -4978836.8479791284 -27805595.970626831 0 0 0 0 90771.629243005067 -465225.80592895369 0 -465225.80592895369 65123.185976086374 0 0 0 0 -2997234.8888549805 -24687468.423152685 0 -24687468.423152685 5410304.9049148411 0 0 0 0 10055996.662994385 -4386061.3152472973 0 -4386061.3152472973 -19699653.945866466 0 0 0 0 12965142.264796082 209825.78423728026 0 209825.78423728026 -613026.75523420447 0 0 0 0 5198904.7117723525 1909364.7978951414 0 1909364.7978951414 -808108.17462459928 0 0 0 0 4923695.435836792 2943661.8298988342 0 2943661.8298988342 -17383072.030277371 0 0 0 0 9523440.1349044144 -7677092.571713428 0 -7677092.571713428 -3935057.1587258833 0 0 0 0 16474366.534667015 97760.835128441453 0 97760.835128441453 -10415835.847860575 0 0 0 0 37715743.479190826 -7574071.2689319849 0 -7574071.2689319849 -7953476.871083051 0 0 0 0 9035577.2012939453 -4762603.3199975491 0 -4762603.3199975491 483611.19657510519 0 0 0 0 2447563.4348003529 -812705.97078393586 0 -812705.97078393586 -339583.36270657345 0 0 0 0 36613103.831932068 -20830107.336302191 0 -20830107.336302191 7021861.3720870167 0 0 0 0 30016689.446027756 -846362.09938760102 0 -846362.09938760102 7008469.1028469801 0 0 0 0 20447994.723709106 -9128256.0957899988 0 -9128256.0957899988 -11795772.122502327 0 0 0 0 17092377.474117279 -13753504.084632933 0 -13753504.084632933 -10502925.125349998 0 0 0 0 6895327.318092132 -2018032.1730356105 0 -2018032.1730356105 -2297769.8878960642 0 0 0 0 14707365.892608643 7321014.7378712595 0 7321014.7378712595 -17788570.490032077 0 0 0 0 20828557.127815247 -13036141.926986456 0 -13036141.926986456 -9935.9834146499634 0 0 0 0 35221149.024787903 7917066.8144674301 0 7917066.8144674301 -35289678.621097803 0 0 0 0 12871779.881515592 -1144816.0289435924 0 -1144816.0289435924 -329028.75114697794 0 0 0 0 15092907.82481575 -12043704.913245648 0 -12043704.913245648 2048118.2033004761 0 0 0 0 20953621.561988831 9013781.6796402931 0 9013781.6796402931 -13607961.812133074 0 0 0 0 9994679.655888848 -2167644.6392561067 0 -2167644.6392561067 -1501581.1048619128 0 0 0 0 2031921.3063234687 1567064.7131942837 0 1567064.7131942837 -872796.67351608141 0 0 0 0 15804588.654983521 -7203623.1662559509 0 -7203623.1662559509 6866924.7546707392 0 0 0 0 12236510.264713287 -2124590.8807799816 0 -2124590.8807799816 -357899.5382566452 0 0 0 0 31813559.209846497 -2601330.8182884157 0 -2601330.8182884157 -13872981.203485489 0 0 0 0 12441121.928781845 -4917679.3730016388 0 -4917679.3730016388 -1540293.0155295171 0 0 0 0 9271131.1029586792 -6881579.4598665237 0 -6881579.4598665237 705018.59518754482 0 0 0 0 10668886.024303436 -839437.69337517023 0 -839437.69337517023 -1579999.33816576 0 0 0 0 10190012.574157715 -4018760.0018545389 0 -4018760.0018545389 -9701550.489923954 0 0 0 0 10288379.625889778 22572799.442761332 0 22572799.442761332 -5448573.1072039604 0 0 0 0 4346121.9822330661 -1175267.9141228739 0 -1175267.9141228739 -2091925.1532339109 0 0 0 0 18697524.521339417 -16702782.400691211 0 -16702782.400691211 -5531269.7403738499 0 0 0 0 24203552.390460968 -4979681.3083598018 0 -4979681.3083598018 -15712217.344097197 0 0 0 0 13008050.194455199 -3182026.7555983672 0 -3182026.7555983672 -54799.281608450459 0 0 0 0 16347840.724855423 -5479622.0344697833 0 -5479622.0344697833 -4287538.7868430018 0 0 0 0 43960773.565933228 -18484715.941397667 0 -18484715.941397667 1420759.8512029648 0 0 0 0 35064880.454612732 -11360327.238436222 0 -11360327.238436222 -3648726.1916031837 0 0 0 0 12794280.02282675 -4600161.3619904695 0 -4600161.3619904695 -4213468.676393725 0 0 0 0 35592201.447608948 -20474063.873167038 0 -20474063.873167038 -4398960.9538235664 0 0 0 0 37536470.909065247 -14496360.532701969 0 -14496360.532701969 459152.82410097122 0 0 0 0 12041714.896027431 -6851457.6561701745 0 -6851457.6561701745 453040.07186609833 0 0 0 0 9072882.7392272949 -6138043.686504364 0 -6138043.686504364 -10972882.268423438 0 0 0 0 30587589.070623398 -18598603.986481041 0 -18598603.986481041 -10004875.099919081 0 0 0 0 1036251.5978775024 -5505857.7991354465 0 -5505857.7991354465 -3018828.7317657471 0 0 0 0 21270194.570301529 -7382491.1522726677 0 -7382491.1522726677 -4773752.5515133701 0 0 0 0 8987547.0594711304 1249126.3110368252 0 1249126.3110368252 -1712554.7466487885 0 0 0 0 8938278.0172093213 -3638084.0915122777 0 -3638084.0915122777 501008.15771441744 0 0 0 0 5571192.4689826965 -7209234.4953818023 0 -7209234.4953818023 8229971.648165226 0 0 0 0 2475336.8983688354 -4159047.1610546112 0 -4159047.1610546112 -3205561.9539699554 0 0 0 0 3623064.7984160446 1835820.1404962614 0 1835820.1404962614 2537156.3143876083 0 0 0 0 31766373.226390839 -9096412.3337497711 0 -9096412.3337497711 8967915.7461013794 0 0 0 0 25184834.658279419 -15197326.793693066 0 -15197326.793693066 16330846.780029297 0 0 0 0 12552120.711079784 -10222219.663726814 0 -10222219.663726814 -1238763.5988181226 0 0 0 0 2830648.1319938973 17866.585796278901 0 17866.585796278901 -1759356.7698799041 0 0 0 0 25890052.499694824 -2767452.4376819134 0 -2767452.4376819134 -4094422.4068183899 0 0 0 0 28981972.376373291 -22518056.892794847 0 -22518056.892794847 8090859.7046792507 0 0 0 0 16352181.687944591 3711649.8898462281 0 3711649.8898462281 324674.4979656823 0 0 0 0 14771732.867202759 -3265629.9989962578 0 -3265629.9989962578 -3724646.1161704063 0 0 0 0 1771546.5332510956 -268026.23244070634 0 -268026.23244070634 -487176.99923566706 0 0 0 0 14506600.543356206 -3059613.3521298245 0 -3059613.3521298245 -3157505.9050485613 0 0 0 0 9274084.7795562744 -1558785.5668494701 0 -1558785.5668494701 -6768204.9932909012 0 0 0 0 25284342.260498047 7228497.6610584259 0 7228497.6610584259 2411323.334467411 0 0 0 0 31371152.444988251 6295748.6003592014 0 6295748.6003592014 2452509.0104532242 0 0 0 0 32571620.072006226 3337935.346581459 0 3337935.346581459 -3357687.3342061043 0 0 0 0 10346545.683377359 -1088269.6014385298 0 -1088269.6014385298 3185812.4437611885 0 0 0 0 23069410.361564636 10166226.970014811 0 10166226.970014811 -1295972.7076368332 0 0 0 0 27483653.634735107 -12254166.441373825 0 -12254166.441373825 3336114.068136692 0 0 0 0 31765055.851593018 11248588.26412487 0 11248588.26412487 -7331740.3821363449 0 0 0 0 -10177532.907333374 18166548.71022296 0 18166548.71022296 6086254.4994518757 0 0 0 0 6342641.2967113052 -1475826.4096056484 0 -1475826.4096056484 1154061.8252491234 0 0 0 0 25626831.796543121 28036302.881882966 0 28036302.881882966 -1610501.1587371826 0 0 0 0 -11164358.166542053 -16837533.297155619 0 -16837533.297155619 2810014.3656110764 0 0 0 0 66969253.874099731 4112723.1665718555 0 4112723.1665718555 -11381134.61080265 0 0 0 0 82202457.367950439 24210589.257114887 0 24210589.257114887 11040461.262677193 0 0 0 0 68754913.806854248 45632387.554587841 0 45632387.554587841 65280433.150705338 0 0 0 0 107750099.41333008 -10897444.394553185 0 -10897444.394553185 42683858.101213455 0 0 0 0 48318788.898742676 13605772.414445877 0 13605772.414445877 17080269.406705499 0 0 0 0 26974594.858200073 33787175.722166061 0 33787175.722166061 22520408.829042077 0 0 0 0 39840112.208175659 9739661.0184226036 0 9739661.0184226036 -12194338.961914539 0 0 0 0 32800290.769050598 7136623.8812084198 0 7136623.8812084198 -9651879.579513073 0 0 0 0 11697843.803627014 -25681137.183094978 0 -25681137.183094978 4386861.4161176682 0 0 0 0 47321850.702606201 607245.54544639587 0 607245.54544639587 -14074644.444056928 0 0 0 0 11427947.827464134 -6361122.1681868155 0 -6361122.1681868155 30145.368226607796 0 0 0 0 16329909.408966064 -6544956.6870610714 0 -6544956.6870610714 -45392.796371847391 0 0 0 0 -197034.05844116211 16847144.509580851 0 16847144.509580851 -33617393.690170765 0 0 0 0 -3888619.2102966309 12076608.980899811 0 12076608.980899811 -5618013.9257860184 0 0 0 0 -5129338.1409912109 25997127.384069443 0 25997127.384069443 -27404801.413712978 0 0 0 0 424064.97220060974 11510.161863772199 0 11510.161863772199 -258097.54219361581 0 0 0 0 -3298624.5189743042 17904894.536586761 0 17904894.536586761 -12077452.666994095 0 0 0 0 1192387.3938993141 -7234868.7409811048 0 -7234868.7409811048 39876.277215702459 0 0 0 0 29331526.583114624 -15743431.78731966 0 -15743431.78731966 2564428.4122888446 0 0 0 0 41606226.473999023 -83059648.422892332 0 -83059648.422892332 33636080.07629776 0 0 0 0 -48585553.143066406 -8040513.2715220451 0 -8040513.2715220451 -4024615.10206227 0 0 0 0 259479403.87654018 -12580717.009204984 0 -12580717.009204984 2304657.4765701294 0 0 0 0 71953960.48679924 48287205.451851778 0 48287205.451851778 12287684.061136246 0 0 0 0 6261717.2899529114 -3342823.7807254251 0 -3342823.7807254251 -1197375.5862838593 0 0 0 0 -689980.97625460476 -19165.007613770664 0 -19165.007613770664 481710.98441340448 0 0 0 0 495128.10165482759 -228017.23104396649 0 -228017.23104396649 -184255.65824894654 0 0 0 0 185159408.8245697 21745721.881044388 0 21745721.881044388 -6285410.1679697037 0 0 0 0 69014687.607879639 99158071.314205408 0 99158071.314205408 129172730.37280321 0 0 0 0 -26334960.708686829 48458040.552247524 0 48458040.552247524 23853107.231642723 0 0 0 0 18037435.391643524 21867448.792140841 0 21867448.792140841 -14997585.82639122 0 0 0 0 39551904.894363403 15916947.809188843 0 15916947.809188843 -13444090.167739868 0 0 0 0 5524085.8922653198 -126783856.91784975 0 -126783856.91784975 29126685.221273422 0 0 0 0 31741596.342926025 62314263.308854342 0 62314263.308854342 14173086.154577255 0 0 0 0 -13118624.821640015 95471231.0316751 0 95471231.0316751 92019196.651765108 0 0 0 0 6646248.4091821499 -3389510.3872699942 0 -3389510.3872699942 -241880.45204150025 0 0 0 0 105761544.87686157 35475267.44248116 0 35475267.44248116 -31269755.327539444 0 0 0 0 86930698.591827393 34438566.261347294 0 34438566.261347294 -7812490.2965764999 0 0 0 0 60269788.964477539 73146640.647694588 0 73146640.647694588 -8549103.183362484 0 0 0 0 44107826.519775391 62383777.650460482 0 62383777.650460482 -10439134.114640713 0 0 0 0 32036809.356086731 23582494.118532687 0 23582494.118532687 -26313818.279231548 0 0 0 0 76695947.451164246 7268452.9387661219 0 7268452.9387661219 -64244742.956317902 0 0 0 0 3209859.9665564895 -931739.25666661002 0 -931739.25666661002 -462854.0494551264 0 0 0 0 114398054.03872681 2437784.3316721916 0 2437784.3316721916 -34478090.847074509 0 0 0 0 29848770.943939209 28522428.949972153 0 28522428.949972153 -42432490.359165788 0 0 0 0 29263785.777984619 -2503841.9977607727 0 -2503841.9977607727 -2354218.2150723934 0 0 0 0 -36306035.36114502 -17343941.811238527 0 -17343941.811238527 -3688467.9573937356 0 0 0 0 5378806.8435951397 -1771018.9245678028 0 -1771018.9245678028 -1007015.6848980128 0 0 0 0 -23469940.756454468 1306255.0421695709 0 1306255.0421695709 2027158.2928540111 0 0 0 0 -5029298.2586364746 -46342755.595592976 0 -46342755.595592976 -41225538.350845337 0 0 0 0 22979522.978057861 -1174124.616874814 0 -1174124.616874814 -12920038.357330203 0 0 0 0 7325924.400894165 -33586466.80786182 0 -33586466.80786182 -18033475.362868071 0 0 0 0 4037863.6379394531 -42186537.220879078 0 -42186537.220879078 -11986990.291484118 0 0 0 0 -26807756.7006073 -50802782.079411805 0 -50802782.079411805 -8098364.4637928009 0 0 0 0 -12520186.720453978 -10877847.008110058 0 -10877847.008110058 29228585.62328434 0 0 0 0 -41724338.511795044 -7522553.9472596645 0 -7522553.9472596645 20954285.077236176 0 0 0 0 -12611898.95584166 -15848175.105647298 0 -15848175.105647298 -29873778.215062141 0 0 0 0 10570619.159301758 19380232.644144058 0 19380232.644144058 53497642.99926281 0 0 0 0 19602220.016387939 -18411462.30687809 0 -18411462.30687809 25276141.366907597 0 0 0 0 25096788.141967773 9677131.6006689072 0 9677131.6006689072 80079842.030313969 0 0 0 0 85696294.246582031 -6504480.4712152481 0 -6504480.4712152481 56950769.694431543 0 0 0 0 261498908.82855415 31118385.189953357 0 31118385.189953357 39875700.48050499 0 0 0 0 110290997.22729492 51120892.640275478 0 51120892.640275478 120670159.67798615 0 0 0 0 92830260.144737244 -6344804.1630969048 0 -6344804.1630969048 18127413.267704964 0 0 0 0 96949389.261077881 -27189449.653630733 0 -27189449.653630733 96445932.243936539 0 0 0 0 27071909.019882202 -6063012.0008769035 0 -6063012.0008769035 19586744.429624557 0 0 0 0 1134291.5124798045 -855707.11012437567 0 -855707.11012437567 1797967.0308421256 0 0 0 0 7008071.2375946045 -3869792.5248088837 0 -3869792.5248088837 -1605858.2111605406 0 0 0 0 5891784.6701610181 -2131737.1021950431 0 -2131737.1021950431 -933585.36943935137 0 0 0 0 5829399.9444732666 361257.34807538986 0 361257.34807538986 270896.75114309788 0 0 0 0 5608473.5232963562 49182.590385735035 0 49182.590385735035 -162771.57128477097 0 0 0 0 3251350.2867833823 -1367942.6584854051 0 -1367942.6584854051 536260.25167814991 0 0 0 0 6248229.4816324292 -507083.80863093585 0 -507083.80863093585 -2027624.140645029 0 0 0 0 -6003219.9307937622 -5716568.3335006833 0 -5716568.3335006833 -3110693.9992820621 0 0 0 0 2289425.5902502723 1909989.5489575937 0 1909989.5489575937 1768445.1927010296 0 0 0 0 -205961141.53166962 -102596925.77550739 0 -102596925.77550739 137464416.3698445 0 0 0 0 -784778.31109619141 -1769567.2418157756 0 -1769567.2418157756 -2104338.537168026 0 0 0 0 -575549.81193341687 -418570.56589115039 0 -418570.56589115039 -90905.84525413526 0 0 0 0 144324825.80917358 -57765485.045516253 0 -57765485.045516253 -162531876.22276318 0 0 0 0 -561863.77125199139 96681.330080430023 0 96681.330080430023 491398.94708140148 0 0 0 0 -803780.36433410645 706971.08048820496 0 706971.08048820496 1939864.8812574148 0 0 0 0 -707832.3324553296 530430.10330143664 0 530430.10330143664 2766632.0329247201 0 0 0 0 1968067.7809104919 2003355.0807561278 0 2003355.0807561278 705648.16144990921 0 0 0 0 -210698.05040433258 -367790.97407868505 0 -367790.97407868505 1124474.980580417 0 0 0 0 -4733170.7620697021 -1736928.2476127744 0 -1736928.2476127744 4602182.5553016663 0 0 0 0 26260644.658863068 -52734468.992795259 0 -52734468.992795259 103293901.1047765 0 0 0 0 115227966.12775421 -108875042.51020046 0 -108875042.51020046 16784638.495652273 0 0 0 0 368127597.35399246 -153057615.9711861 0 -153057615.9711861 1908764.0150597095 0 0 0 0 18188.305432580411 -263533.71799213439 0 -263533.71799213439 342443.06820117519 0 0 0 0 -3856490.3581848145 -320011687.98566163 0 -320011687.98566163 59139819.302941948 0 0 0 0 -9576879.0343170166 -9625530.1311450005 0 -9625530.1311450005 3568645.6495673656 0 0 0 0 8060443.0425491333 7274381.863926053 0 7274381.863926053 -2932979.3689570427 0 0 0 0 413057.52687401325 -314194.92372275889 0 -314194.92372275889 1383210.9111728226 0 0 0 0 1019732.9223480225 314894.68630933762 0 314894.68630933762 -6474259.7672948837 0 0 0 0 -29554.8203125 4466328.9940679073 0 4466328.9940679073 15315483.659740448 0 0 0 0 4022642.86328125 -4981097.6553125381 0 -4981097.6553125381 1954722.5832157135 0 0 0 0 1270014.4617080688 -6289575.5588514805 0 -6289575.5588514805 -1668351.4169120789 0 0 0 0 -4014710.7407302856 -1492151.6924681664 0 -1492151.6924681664 2844745.2465815544 0 0 0 0 2348126.5879745483 -3927333.965285182 0 -3927333.965285182 1388020.1969895363 0 0 0 0 14378557.051246643 -5317127.1209640503 0 -5317127.1209640503 -8957.0509233474731 0 0 0 0 4041634.7865600586 -5704775.1627173424 0 -5704775.1627173424 7926927.9013671279 0 0 0 0 27619833.175209999 -13376386.112407625 0 -13376386.112407625 2919994.2999734879 0 0 0 0 9415088.2365570068 -7987614.0236959457 0 -7987614.0236959457 7445524.7464537024 0 0 0 0 -6021940.8187255859 -13197951.808645487 0 -13197951.808645487 14324006.430026054 0 0 0 0 2018130.258682251 -14262205.297284603 0 -14262205.297284603 14241312.609675407 0 0 0 0 12232487.63999939 -21043827.585141659 0 -21043827.585141659 6638014.9403457642 0 0 0 0 -8037778.8396911621 -3611965.4503326416 0 -3611965.4503326416 30837568.499222755 0 0 0 0 -38173309.72303772 -16069848.976242065 0 -16069848.976242065 26811876.925541282 0 0 0 0 -10959572.742225647 -25751541.152145028 0 -25751541.152145028 9280547.3967413902 0 0 0 0 -31658832.195102692 12297713.506937742 0 12297713.506937742 108072186.00919056 0 0 0 0 -14654119.056900024 -61357139.358494878 0 -61357139.358494878 34977803.780256271 0 0 0 0 11371919.102081299 -83295128.481110573 0 -83295128.481110573 49119279.595802307 0 0 0 0 -15322888.033004761 -68191618.637001038 0 -68191618.637001038 -34549186.784404278 0 0 0 0 -117267210.62820435 -92722796.247600079 0 -92722796.247600079 23904918.951565325 0 0 0 0 -107994154.19010925 -1896108.074159503 0 -1896108.074159503 -60841170.015743732 0 0 0 0 21593088.014526367 -104220899.57052767 0 -104220899.57052767 -51741372.180374146 0 0 0 0 -173013513.98979187 -65224007.081897259 0 -65224007.081897259 24040891.238038063 0 0 0 0 133954663.3170166 12078019.794237614 0 12078019.794237614 -19061042.427383423 0 0 0 0 3159322.6777405031 80512.370767105371 0 80512.370767105371 -211422.65179407736 0 0 0 0 86805502.266082764 -38370516.697705269 0 -38370516.697705269 -13643.776284337044 0 0 0 0 24056707.670837402 -18176552.589116573 0 -18176552.589116573 7599968.2031178474 0 0 0 0 72499690.749084473 19098297.660356998 0 19098297.660356998 5375282.7349235862 0 0 0 0 79687327.19789505 -27365944.404678047 0 -27365944.404678047 818180.47357654572 0 0 0 0 32756625.896942139 -8426669.9290053844 0 -8426669.9290053844 579116.91410398483 0 0 0 0 26817768.361304067 -4251541.3186979452 0 -4251541.3186979452 461939.46268269711 0 0 0 0 41191444.364135742 -5319418.7421741486 0 -5319418.7421741486 -8784917.3891825676 0 0 0 0 41807427.578399658 -6201336.7429383993 0 -6201336.7429383993 -8901489.9922146052 0 0 0 0 36229525.708221436 -8051480.8191950321 0 -8051480.8191950321 4395381.0587420464 0 0 0 0 45720525.455200195 -14864911.714916229 0 -14864911.714916229 -843056.99031031132 0 0 0 0 41808183.530761719 -6706755.8325284719 0 -6706755.8325284719 -8329295.8767176867 0 0 0 0 41343211.170318604 4782678.2705993652 0 4782678.2705993652 4655018.7673248947 0 0 0 0 41566685.999847412 -6471848.6778366566 0 -6471848.6778366566 -7066427.4165101051 0 0 0 0 63922086.731460571 -3827750.7488402128 0 -3827750.7488402128 -7237507.883254528 0 0 0 0 31987950.395591736 -3742726.2328867316 0 -3742726.2328867316 -209049.34803974628 0 0 0 0 43893633.639709473 -139596198.89217377 0 -139596198.89217377 81359360.791117191 0 0 0 0 81680352.733978271 -87785782.686579943 0 -87785782.686579943 -118844835.08057737 0 0 0 0 10729092.133096796 -600770.49420074001 0 -600770.49420074001 -1364709.4050079305 0 0 0 0 6287549.549331665 -128625151.17020452 0 -128625151.17020452 -32668851.0835886 0 0 0 0 -1915315.1736602783 -120128140.74447978 0 -120128140.74447978 -18601602.685357571 0 0 0 0 -14835020.419708252 -130074176.61277175 0 -130074176.61277175 -25045921.966100216 0 0 0 0 -8661863.3977203369 -136058923.40291274 0 -136058923.40291274 -30605281.827670783 0 0 0 0 24969784.646857262 50331965.425962768 0 50331965.425962768 -18960231.407088041 0 0 0 0 5989435.3880456686 1171487.5603246186 0 1171487.5603246186 -3202254.402844666 0 0 0 0 31012091.065891266 -2314760.4839220047 0 -2314760.4839220047 -1687914.8296437263 0 0 0 0 54233431.153396606 -4363774.9465067387 0 -4363774.9465067387 -5965209.2294397354 0 0 0 0 11586391.048812784 -211222.98729915731 0 -211222.98729915731 -405742.72501924704 0 0 0 0 25010619.473885506 -6819965.8940374264 0 -6819965.8940374264 1487806.6225794177 0 0 0 0 17782706.531394958 15486605.69630146 0 15486605.69630146 -6928286.98229599 0 0 0 0 24739848.133987427 -7877704.2238674164 0 -7877704.2238674164 1013788.1172423363 0 0 0 0 30566330.903526306 -3465616.3801563978 0 -3465616.3801563978 4133985.8438835144 0 0 0 0 14470623.837581888 795108.07087074639 0 795108.07087074639 -889721.19753870915 0 0 0 0 58072479.935836792 21514603.269164503 0 21514603.269164503 -108197695.31501913 0 0 0 0 6419379.7961273193 -2151993.8250097036 0 -2151993.8250097036 -6475015.3875305057 0 0 0 0 10363799.061246194 -1831180.8096936997 0 -1831180.8096936997 328641.25087382999 0 0 0 0 11832693.830404624 -4569747.8533407338 0 -4569747.8533407338 711222.27879940125 0 0 0 0 5918258.3991088867 -661978.33103573322 0 -661978.33103573322 -5216038.3310093284 0 0 0 0 14188747.235417524 -2529539.4823196521 0 -2529539.4823196521 1461605.63922631 0 0 0 0 33744392.825226784 -34543534.851027578 0 -34543534.851027578 -4873790.4792256355 0 0 0 0 75046404.788909912 -47317427.477793932 0 -47317427.477793932 -151509167.18017411 0 0 0 0 -10370064.665380478 -36625253.464410551 0 -36625253.464410551 -81715341.480334044 0 0 0 0 146610523.10614014 -96640581.613343477 0 -96640581.613343477 -58772512.198196888 0 0 0 0 130759598.10972595 15282795.402177334 0 15282795.402177334 -83231891.941300869 0 0 0 0 6440239.8998718262 6189608.1800808907 0 6189608.1800808907 -77587804.244367838 0 0 0 0 31324626.425170898 63458494.982819676 0 63458494.982819676 7388980.7847704887 0 0 0 0 60965053.024833679 53878874.248030543 0 53878874.248030543 6310156.4670987129 0 0 0 0 154349685.46154785 153152139.81845844 0 153152139.81845844 69536868.806241512 0 0 0 0 21163636.153182983 -111011405.26353163 0 -111011405.26353163 57720301.101346016 0 0 0 0 85082450.611625671 -3107854.5455107689 0 -3107854.5455107689 -51114827.142656326 0 0 0 0 365301747.50273132 -43702617.557294369 0 -43702617.557294369 -48295407.719087839 0 0 0 0 111683966.91776276 -183757652.44743478 0 -183757652.44743478 206191613.32452106 0 0 0 0 34174861.055435181 -57738049.974168301 0 -57738049.974168301 27132890.668865919 0 0 0 0 2781131.131652832 19979198.638609767 0 19979198.638609767 116730524.96511984 0 0 0 0 351599789.63950348 -137397836.63010931 0 -137397836.63010931 54436112.977313995 0 0 0 0 95238.029420595616 -59697.114959914237 0 -59697.114959914237 547484.14732790762 0 0 0 0 7767091.1927185059 21903805.81215024 0 21903805.81215024 21797313.264870405 0 0 0 0 169675678.24420166 131426028.4143343 0 131426028.4143343 -168997772.1620698 0 0 0 0 364541466.97976685 -113913012.400316 0 -113913012.400316 83721671.75527747 0 0 0 0 -115386428.59298706 10491276.584779978 0 10491276.584779978 76079908.271994591 0 0 0 0 -595004.63376713544 1228303.0554463523 0 1228303.0554463523 235151.63674948289 0 0 0 0 -36681917.675201416 -5542180.0021438599 0 -5542180.0021438599 24729512.844147116 0 0 0 0 164387528.90657043 -92724422.472971261 0 -92724422.472971261 -427568285.45121062 0 0 0 0 2815541.1413269043 1479279.4184241295 0 1479279.4184241295 8478245.5576397181 0 0 0 0 -30069722.48979187 36949253.174631029 0 36949253.174631029 -8490170.8756020069 0 0 0 0 -28327389.629272461 30703010.85377723 0 30703010.85377723 13829025.77091217 0 0 0 0 17501142.207122803 81699198.177474976 0 81699198.177474976 65716021.716569573 0 0 0 0 36791251.882209778 60969960.155626029 0 60969960.155626029 -41836262.513201475 0 0 0 0 -1729459.8610839844 44409122.960840225 0 44409122.960840225 -44200580.73469308 0 0 0 0 15696472.590467997 3978038.2955935765 0 3978038.2955935765 1300439.8076662791 0 0 0 0 13387018.088297255 4191456.1036400218 0 4191456.1036400218 1270474.9015669392 0 0 0 0 464844389.66473389 169587690.31880063 0 169587690.31880063 57908636.588129401 0 0 0 0 956840502.575634 -612654044.04498684 0 -612654044.04498684 176705037.66560233 0 0 0 0 1110602.9314176477 2473410.7359361202 0 2473410.7359361202 216608.64023088152 0 0 0 0 227029925.86151123 -248050376.13616979 0 -248050376.13616979 96796054.733150333 0 0 0 0 2198787451.8778839 -249947313.73378843 0 -249947313.73378843 -682433873.63668585 0 0 0 0 3464868537.3276176 -924501466.85515785 0 -924501466.85515785 -537403986.68549871 0 0 0 0 2200246309.8544312 -303682391.61793298 0 -303682391.61793298 -212475371.36678612 0 0 0 0 1108257015.9154968 -386205917.87201601 0 -386205917.87201601 76083474.762744337 0 0 0 0 2180544087.6692581 -927265255.54656875 0 -927265255.54656875 -280692515.38990486 0 0 0 0 3460464118.6689224 -1859908810.3081388 0 -1859908810.3081388 293080069.86873704 0 0 0 0 1735572494.0843086 -1324864398.0725667 0 -1324864398.0725667 561767907.78108287 0 0 0 0 1377398223.8488159 -892663421.64332318 0 -892663421.64332318 545749502.00235617 0 0 0 0 10903494.091428302 3413416.5705909133 0 3413416.5705909133 1212359.5118338927 0 0 0 0 -2465401.5191888809 5218476.0775894597 0 5218476.0775894597 872626.35709453968 0 0 0 0 327959351.36875916 -197566539.91772449 0 -197566539.91772449 -439190536.13594735 0 0 0 0 -18551105.395774841 20647051.377529681 0 20647051.377529681 11296354.344734907 0 0 0 0 1874513.2453765273 3521186.8698950438 0 3521186.8698950438 926360.2261678034 0 0 0 0 1366194335.7231598 -2399255929.1593151 0 -2399255929.1593151 2684628118.861866 0 0 0 0 -232365660.28050232 864341697.29379618 0 864341697.29379618 1544354914.0708842 0 0 0 0 3445418958.5258789 3789879.0578439678 0 3789879.0578439678 -2243060.3337511299 0 0 0 0 1250395.5749343187 1029356.4384317808 0 1029356.4384317808 1302160.3517314193 0 0 0 0 1280532499.048027 835437011.41231775 0 835437011.41231775 -14769598.514301062 0 0 0 0 3457106205.5202866 2586757532.8323064 0 2586757532.8323064 1093580520.0642383 0 0 0 0 1582941253.9029236 986527014.7285428 0 986527014.7285428 48077137.635176837 0 0 0 0 3461898748.3589096 836738938.15577483 0 836738938.15577483 -362545174.43438959 0 0 0 0 1162863504.0772552 440558867.94881022 0 440558867.94881022 60307970.723218851 0 0 0 0 933275790.04266357 554324255.70265245 0 554324255.70265245 181506689.49153093 0 0 0 0 686873924.77104187 859303202.58282411 0 859303202.58282411 590712111.17766285 0 0 0 0 -117533068.82411957 68992118.728497714 0 68992118.728497714 229233614.93074906 0 0 0 0 -109639724.6120224 -15242633.119207561 0 -15242633.119207561 88534721.183616281 0 0 0 0 153917630.61453247 -38842299.607202157 0 -38842299.607202157 86095341.527849674 0 0 0 0 46151747.815299988 23619851.786740698 0 23619851.786740698 182043637.86711186 0 0 0 0 808878126.22224426 499145883.07550073 0 499145883.07550073 310327201.25656021 0 0 0 0 1182671651.4004974 197414030.92479694 0 197414030.92479694 3288650.3298747838 0 0 0 0 438790860.04397583 286089289.93602049 0 286089289.93602049 75476659.350350171 0 0 0 0 926995344.53175354 213968270.41868266 0 213968270.41868266 -44117341.68779102 0 0 0 0 172887537.29859161 -174363137.63704723 0 -174363137.63704723 180769971.85838133 0 0 0 0 538870334.6370697 -89623430.050718859 0 -89623430.050718859 37928545.611960664 0 0 0 0 1233725328.3677521 23888158.266614318 0 23888158.266614318 2897695.3386028409 0 0 0 0 668197551.49849701 197546146.11746046 0 197546146.11746046 89216815.276127517 0 0 0 0 1573442325.031601 371301226.18439245 0 371301226.18439245 66058075.405319095 0 0 0 0 1642181439.8723373 376925199.41543418 0 376925199.41543418 -22568139.958472013 0 0 0 0 1597681849.0834503 407332460.585316 0 407332460.585316 -16977049.582215287 0 0 0 0 1160131392.8435478 231927191.83317482 0 231927191.83317482 -19651855.937902093 0 0 0 0 1694903579.9282799 730465367.58216834 0 730465367.58216834 401433519.31786454 0 0 0 0 1529312416.703186 260936475.5579215 0 260936475.5579215 -195663461.98907894 0 0 0 0 3464654661.752388 1497243514.0512781 0 1497243514.0512781 590366157.21550179 0 0 0 0 5058190.1766232029 226248.47151089832 0 226248.47151089832 -544004.68148956005 0 0 0 0 1704914705.7065735 418524787.02511764 0 418524787.02511764 -328433356.4040904 0 0 0 0 1729789226.4045105 552482994.38639343 0 552482994.38639343 -142122423.75550857 0 0 0 0 1562551218.9440765 473937696.49324262 0 473937696.49324262 -169491988.92334867 0 0 0 0 1030483782.6642456 -953298928.62324297 0 -953298928.62324297 412404579.83324331 0 0 0 0 1795722127.5207367 -1406735458.4263525 0 -1406735458.4263525 654734314.89818192 0 0 0 0 1144497536.1867657 -755160988.14469528 0 -755160988.14469528 440608123.34553266 0 0 0 0 378732606.53279114 -381224917.21071529 0 -381224917.21071529 683766284.22890925 0 0 0 0 640598663.39607239 -1124409109.4449549 0 -1124409109.4449549 1248636038.1546178 0 0 0 0 2092999661.7976227 -1099351076.5109191 0 -1099351076.5109191 213792442.01166281 0 0 0 0 3460105065.0946388 -2087797475.8647358 0 -2087797475.8647358 729454192.32428908 0 0 0 0 1867607583.6423225 -1051643576.9457748 0 -1051643576.9457748 203741844.50453773 0 0 0 0 2721837863.4235382 -1135514296.4752691 0 -1135514296.4752691 853213.56637999695 0 0 0 0 1912056392.1543159 -982431111.56848788 0 -982431111.56848788 237757781.68577379 0 0 0 0 1315739296.2609253 -464408531.92279953 0 -464408531.92279953 278397441.66293681 0 0 0 0 1233832230.0720711 -625751753.01170695 0 -625751753.01170695 327281461.70337474 0 0 0 0 313919516.86351013 -425822559.91966224 0 -425822559.91966224 507726939.37043339 0 0 0 0 633667452.20287323 -297083759.59990692 0 -297083759.59990692 371437032.12815988 0 0 0 0 636136399.77586746 -615335401.96969962 0 -615335401.96969962 559065289.85795164 0 0 0 0 216800497.22306442 -368869335.62063366 0 -368869335.62063366 313087485.50149035 0 0 0 0 287938077.80008698 -318943165.02831137 0 -318943165.02831137 347030061.38377929 0 0 0 0 7213758.537660256 -537634.5857719956 0 -537634.5857719956 -2753574.0147307049 0 0 0 0 230905150.65785217 -72471735.355843604 0 -72471735.355843604 183659949.98230088 0 0 0 0 2523747.0340232849 1086552.1640491486 0 1086552.1640491486 -1695413.6727387905 0 0 0 0 3234924.9123382568 1246949.4463979006 0 1246949.4463979006 -4324233.4710748196 0 0 0 0 5399330.860351 660727.67983286642 0 660727.67983286642 -1521736.8555731308 0 0 0 0 1645940.3743026853 481047.61573318765 0 481047.61573318765 -1271917.8071525369 0 0 0 0 -17155542.854354858 -388756199.33451629 0 -388756199.33451629 664419158.74701381 0 0 0 0 590547936.50441742 -362955121.74676418 0 -362955121.74676418 228213675.21751881 0 0 0 0 26645507.516090393 23232976.100078553 0 23232976.100078553 -24149550.582984686 0 0 0 0 8962261.7512553018 494395.68811884429 0 494395.68811884429 -1255089.406929756 0 0 0 0 -11928258.466384888 13326829.466161221 0 13326829.466161221 36432688.184486501 0 0 0 0 -24991573.863105774 -101888375.28353757 0 -101888375.28353757 -74599517.605886698 0 0 0 0 186136.4959884882 394805.29701480322 0 394805.29701480322 32591.404069230834 0 0 0 0 13187489.063064575 111655.81319744885 0 111655.81319744885 13342062.856868334 0 0 0 0 23203857.314422607 27755121.590637535 0 27755121.590637535 -9546623.7268330455 0 0 0 0 -142096.40130615234 -20184736.28991621 0 -20184736.28991621 -32664491.442892611 0 0 0 0 -72253738.319107056 -42956633.164737858 0 -42956633.164737858 28820270.410722226 0 0 0 0 128603549.23423767 37380980.582185358 0 37380980.582185358 -28149068.016821034 0 0 0 0 4381776.5073968526 -3255.2133147120476 0 -3255.2133147120476 -837302.51262942376 0 0 0 0 -65580090.564467132 18800306.714224603 0 18800306.714224603 -1229793.848602742 0 0 0 0 1303851.4438730907 -291874.23333120346 0 -291874.23333120346 -1402599.5516815691 0 0 0 0 -5296290.9681777954 35974538.241816878 0 35974538.241816878 -118578660.47891879 0 0 0 0 -67797193.632141113 -126632622.22348875 0 -126632622.22348875 -67155997.103251159 0 0 0 0 -15734547.053581238 -103663164.82621513 0 -103663164.82621513 -89640464.398433223 0 0 0 0 -3628805.8680324554 -156906206.10418063 0 -156906206.10418063 -108784652.98293144 0 0 0 0 36922608.398002625 -87808586.362306625 0 -87808586.362306625 -89336967.052438527 0 0 0 0 29476174.06760788 -113561478.38656366 0 -113561478.38656366 25509010.558833361 0 0 0 0 105689501.16374969 -87222381.617568046 0 -87222381.617568046 -109479649.93594249 0 0 0 0 -235042.7702255249 -17697677.09307082 0 -17697677.09307082 -141557193.33683428 0 0 0 0 504353.50621797517 1658341.75973496 0 1658341.75973496 144693.94413567812 0 0 0 0 -9113624.8641471863 11807390.961815756 0 11807390.961815756 -140616.4619557783 0 0 0 0 16314689.990325928 -171170975.18419898 0 -171170975.18419898 -430445484.27372867 0 0 0 0 1088873470.6350403 -915135484.40400672 0 -915135484.40400672 1023173458.7882985 0 0 0 0 7499006.4431242868 -972009.45435081981 0 -972009.45435081981 -1254264.6496637398 0 0 0 0 13736966.262825012 -9789140.616641745 0 -9789140.616641745 -19663282.872261226 0 0 0 0 612300344.7837944 -2056811797.755446 0 -2056811797.755446 3432880608.9603834 0 0 0 0 2311560.6652538031 -892232.02598427329 0 -892232.02598427329 -99429.530939650285 0 0 0 0 3424105090.5514069 1677721.3885932816 0 1677721.3885932816 -3006936.1947651766 0 0 0 0 1575301.844545152 -277870.54889612604 0 -277870.54889612604 -264566.97255399317 0 0 0 0 2506341309.6817017 2023853389.0330698 0 2023853389.0330698 833129234.33748567 0 0 0 0 3459973289.2106056 1925629474.3841 0 1925629474.3841 724725715.07127762 0 0 0 0 7055866.6798324585 188283782.67322057 0 188283782.67322057 111878050.65929542 0 0 0 0 2362679.694216907 -286395.64312775992 0 -286395.64312775992 -190336.64081763994 0 0 0 0 -456590575.24616241 -121173948.00067063 0 -121173948.00067063 182672436.57977819 0 0 0 0 3384327417.9097748 1745505924.5805659 0 1745505924.5805659 742639159.49277747 0 0 0 0 1849967619.0349503 975207692.25093126 0 975207692.25093126 408050196.46097994 0 0 0 0 5459992.0749278963 -1225358.3515989091 0 -1225358.3515989091 322384.35978066642 0 0 0 0 1786450347.9998579 642262803.08754933 0 642262803.08754933 243840338.06110501 0 0 0 0 3465473522.4965897 931685857.51764941 0 931685857.51764941 -334011356.40657842 0 0 0 0 2316252528.4774857 405226556.41266948 0 405226556.41266948 -489173516.85830033 0 0 0 0 2140596580.6915665 398982583.88370675 0 398982583.88370675 -480683587.56136972 0 0 0 0 2087573884.4223194 488988814.38544321 0 488988814.38544321 -154524695.00084639 0 0 0 0 1125024278.966156 -72192488.821865678 0 -72192488.821865678 -201470538.16246945 0 0 0 0 2096224357.7210636 11840836.37879768 0 11840836.37879768 -320209468.76686168 0 0 0 0 3463704130.9684486 -188120019.2374956 0 -188120019.2374956 -715763415.20493484 0 0 0 0 9760504.9003744125 -131478293.66695011 0 -131478293.66695011 26021299.828556061 0 0 0 0 73232297.260162354 40875138.77162993 0 40875138.77162993 86874177.392399371 0 0 0 0 -39600098.650217056 152911223.55673075 0 152911223.55673075 52589329.907231331 0 0 0 0 1111593550.8933105 -81368165.642328978 0 -81368165.642328978 -66954586.822351575 0 0 0 0 846193196.43353271 203569431.13487482 0 203569431.13487482 -190770308.95707184 0 0 0 0 845996909.88805103 199679649.56333932 0 199679649.56333932 -115817621.33786905 0 0 0 0 635232244.90877533 -81409233.415226698 0 -81409233.415226698 -37237885.488708049 0 0 0 0 -3883780.854528904 -34397299.478239834 0 -34397299.478239834 10502569.83621788 0 0 0 0 -9581676.9508980513 88355574.348612756 0 88355574.348612756 114373852.49473524 0 0 0 0 7507780.0867935754 -2074910.9111808501 0 -2074910.9111808501 1457015.4867537627 0 0 0 0 680182853.01446533 573681319.50047517 0 573681319.50047517 259965203.42831612 0 0 0 0 80025594.430686951 140627318.65324575 0 140627318.65324575 76918341.564973831 0 0 0 0 108949239.7645092 77841365.877452433 0 77841365.877452433 -206398544.36217138 0 0 0 0 -27219235.470916748 -99803901.263801098 0 -99803901.263801098 -211146197.60347065 0 0 0 0 -144708212.49390411 -14076169.430079713 0 -14076169.430079713 106912014.83673355 0 0 0 0 13475225.073448181 -47574483.303629667 0 -47574483.303629667 -100672808.21883172 0 0 0 0 -6264717.0023460388 -33730337.625323027 0 -33730337.625323027 -28956973.871593028 0 0 0 0 8541978.8592300415 -53213155.762334764 0 -53213155.762334764 -81868592.76224041 0 0 0 0 9378235.130607605 -89454392.999084294 0 -89454392.999084294 -123659319.48000918 0 0 0 0 -145998.25622519106 82769.772077896632 0 82769.772077896632 264796.00673383696 0 0 0 0 2787464.7447738647 -39686558.451885939 0 -39686558.451885939 -97119271.151582897 0 0 0 0 32953969.476461411 -7362915.5136815682 0 -7362915.5136815682 -30668988.777415991 0 0 0 0 43111055.292016983 -58072833.19719623 0 -58072833.19719623 -115313419.50033978 0 0 0 0 19518183.197380066 4064779.1389364004 0 4064779.1389364004 49179641.297669888 0 0 0 0 75245870.216072083 -12065208.068253158 0 -12065208.068253158 -56735003.965396784 0 0 0 0 8331640.6646728516 -15587278.78106761 0 -15587278.78106761 -21866893.811952591 0 0 0 0 12081326.305526733 -25333640.707046866 0 -25333640.707046866 -20152014.732878923 0 0 0 0 2118674.6471633911 -7414184.5473476648 0 -7414184.5473476648 12412236.808769464 0 0 0 0 10983724.905366167 -2049026.090823818 0 -2049026.090823818 1268913.0376736103 0 0 0 0 6910174.9192733765 -9641872.5025486946 0 -9641872.5025486946 29540601.800361156 0 0 0 0 -11934550.195579529 -28791512.856508374 0 -28791512.856508374 37247785.139134169 0 0 0 0 -8617276.6700515747 -22709966.179100513 0 -22709966.179100513 40494618.044572473 0 0 0 0 -4744920.4184169769 -14765145.469348788 0 -14765145.469348788 43379992.206418991 0 0 0 0 -24573420.082260132 -23714916.859246731 0 -23714916.859246731 41513709.111827135 0 0 0 0 35675570.096626282 -49480687.107799292 0 -49480687.107799292 60409383.290170252 0 0 0 0 119888963.69023895 -48653955.478336811 0 -48653955.478336811 -3483605.0669641495 0 0 0 0 53955627.268882751 -26669698.593341351 0 -26669698.593341351 -16679974.786985397 0 0 0 0 -35369735.241027832 -23090898.009105682 0 -23090898.009105682 -14938557.813236713 0 0 0 0 159261421.01120377 28632434.305285811 0 28632434.305285811 -15297445.614970207 0 0 0 0 71622185.124740601 12028812.147196889 0 12028812.147196889 -32685029.295191765 0 0 0 0 35194878.254936218 -6545286.2716368437 0 -6545286.2716368437 10508910.422418594 0 0 0 0 6581481.0609748363 -32030210.924435265 0 -32030210.924435265 -49972137.22387886 0 0 0 0 1683575.6558421161 -423300.1975659281 0 -423300.1975659281 -876258.38870387711 0 0 0 0 27256940.62121582 -4104717.9405133724 0 -4104717.9405133724 -4295459.4106321335 0 0 0 0 24706368.330722809 -11371101.992723405 0 -11371101.992723405 -14635967.788584232 0 0 0 0 20916634.454299927 -3494404.4687891006 0 -3494404.4687891006 -449030.515873909 0 0 0 0 3012218.6183289532 496001.76100999862 0 496001.76100999862 241508.29899615515 0 0 0 0 22472193.191734314 -9559038.107753396 0 -9559038.107753396 -17903877.433463335 0 0 0 0 22565454.776985168 -13484527.19745779 0 -13484527.19745779 -12009747.264662266 0 0 0 0 11990289.169139862 -17893086.991519332 0 -17893086.991519332 -13864107.287146568 0 0 0 0 42089193.767396927 -66548345.054622121 0 -66548345.054622121 344866.11128923297 0 0 0 0 46705885.736579895 -68915160.041315913 0 -68915160.041315913 -13882458.157927051 0 0 0 0 52871688.135810852 -68547420.119283259 0 -68547420.119283259 -17271336.864762038 0 0 0 0 52261391.176448822 -43095129.334605277 0 -43095129.334605277 -53575359.437364638 0 0 0 0 54355871.519854546 -29970373.408429049 0 -29970373.408429049 20207752.822733819 0 0 0 0 49686973.406589508 -4625583.741739139 0 -4625583.741739139 -10456501.594826698 0 0 0 0 50464573.320378304 -10684557.442429081 0 -10684557.442429081 -165337.70089507103 0 0 0 0 44395875.934764862 -1624005.0692605972 0 -1624005.0692605972 -9642783.1341018379 0 0 0 0 47964996.22290802 -5390868.7806944847 0 -5390868.7806944847 -9983717.3682460934 0 0 0 0 64823191.805608749 11917263.592988968 0 11917263.592988968 -7029437.3519349098 0 0 0 0 58927599.11907196 -431230.6431517601 0 -431230.6431517601 -22565940.130816579 0 0 0 0 42337218.749328613 543862.41307026148 0 543862.41307026148 -9544124.7746565342 0 0 0 0 50680192.287994385 30154643.786189079 0 30154643.786189079 22045729.344856501 0 0 0 0 9508619.5114121735 -195297.3365404699 0 -195297.3365404699 3468866.6621923447 0 0 0 0 12117959.108650208 -37316348.864517003 0 -37316348.864517003 -110234920.86510432 0 0 0 0 -7017817.817779541 25736164.331664681 0 25736164.331664681 -72345869.824079394 0 0 0 0 474752.57083187997 464082.45253351331 0 464082.45253351331 -29298.570775929256 0 0 0 0 9645279.2823643088 14645356.606340505 0 14645356.606340505 -5165114.1173920631 0 0 0 0 3896350.5705909729 1197958.6994147301 0 1197958.6994147301 -1903809.3578932285 0 0 0 0 3781130.1266098022 112578.16270959377 0 112578.16270959377 -1901792.8973073959 0 0 0 0 3038640.8925087396 1212175.870609032 0 1212175.870609032 -1769586.2319387486 0 0 0 0 7582086.8071975708 -1347098.3190534115 0 -1347098.3190534115 415129.68212991953 0 0 0 0 798088.7389458986 256344.45619930141 0 256344.45619930141 -95344.869258082705 0 0 0 0 20402143.440914154 5029901.9231979847 0 5029901.9231979847 -3802794.5151379108 0 0 0 0 45715346.63899231 5541804.7827326059 0 5541804.7827326059 -13103352.327173233 0 0 0 0 2923383.7224273682 147619.50952935219 0 147619.50952935219 -1713348.790166378 0 0 0 0 5440080.1632648334 1600613.4540109728 0 1600613.4540109728 -2373372.5306272311 0 0 0 0 3127609.2264213562 1718031.7345632315 0 1718031.7345632315 -2933887.8811292648 0 0 0 0 57510081.352706909 -31754623.729201376 0 -31754623.729201376 60664146.642074049 0 0 0 0 -6215925.9695320129 1955602.1454623342 0 1955602.1454623342 8915716.9729413986 0 0 0 0 -244344.03755443171 376668.91497202497 0 376668.91497202497 -451057.08962539863 0 0 0 0 5060110.1947879819 1275335.0226013009 0 1275335.0226013009 -1581579.6481758021 0 0 0 0 43658968.996047974 -10801630.344094992 0 -10801630.344094992 -1964799.179833889 0 0 0 0 44973456.127738953 -12556870.710420609 0 -12556870.710420609 -3818508.9145656228 0 0 0 0 38667142.561141968 -1372946.0292541981 0 -1372946.0292541981 1930098.6487588882 0 0 0 0 53685928.685031891 -5656595.9005300999 0 -5656595.9005300999 -9205584.263915062 0 0 0 0 44797920.619915009 -7164256.4232764244 0 -7164256.4232764244 -11959566.556410789 0 0 0 0 46566800.716573715 -4117626.2237704992 0 -4117626.2237704992 -8026246.0876402855 0 0 0 0 37005486.504688263 -7419604.3353655338 0 -7419604.3353655338 -1217480.5010266304 0 0 0 0 -15280040.071029663 -21504555.61793232 0 -21504555.61793232 7474551.8879187107 0 0 0 0 27273100.582920074 -24996093.474094629 0 -24996093.474094629 -18859226.965213776 0 0 0 0 37208844.289886475 -4775032.8328874111 0 -4775032.8328874111 -4151815.3124539256 0 0 0 0 34472766.222206116 -9629606.0410509109 0 -9629606.0410509109 -5763330.6083948612 0 0 0 0 11123297.417331696 -12973519.594153404 0 -12973519.594153404 9538380.8704601526 0 0 0 0 2656832.3302497864 247499.6438369751 0 247499.6438369751 7093457.3505973816 0 0 0 0 14619983.264636993 8630105.1752667427 0 8630105.1752667427 11953285.613871932 0 0 0 0 19216596.028853416 -348355.42064464092 0 -348355.42064464092 2853614.4019880295 0 0 0 0 -14598425.952850342 6270331.653604269 0 6270331.653604269 29123205.823292971 0 0 0 0 -13510969.649059296 -61637402.716855288 0 -61637402.716855288 48783499.662575126 0 0 0 0 -18758902.020190239 2275252.6495007277 0 2275252.6495007277 139587164.22781444 0 0 0 0 -30517684.043708801 -38134790.537107587 0 -38134790.537107587 16896170.47037524 0 0 0 0 10753685.05079937 -108196990.82131365 0 -108196990.82131365 -126122200.37355459 0 0 0 0 13404333.371276855 -78106757.336487293 0 -78106757.336487293 41207198.822513908 0 0 0 0 40557093.006109238 -8532163.3645962477 0 -8532163.3645962477 -14008295.945836544 0 0 0 0 555375.84284463152 246815.97297900077 0 246815.97297900077 -630901.40851387754 0 0 0 0 39169409.281017303 -12066526.535964549 0 -12066526.535964549 2883479.7765452862 0 0 0 0 48591602.988960266 -3684425.2518461943 0 -3684425.2518461943 -10456994.129945934 0 0 0 0 57996845.223255157 -10949340.271932244 0 -10949340.271932244 -9255855.1879575551 0 0 0 0 63423681.785205841 -28232429.786134988 0 -28232429.786134988 6543599.2557169832 0 0 0 0 951845.94801366702 403327.9716914352 0 403327.9716914352 -1109018.097307079 0 0 0 0 70173501.218702316 -29186290.641385756 0 -29186290.641385756 -63957340.255218208 0 0 0 0 80109416.327301025 -62269556.891014323 0 -62269556.891014323 -4406665.7403048351 0 0 0 0 50700152.9907341 3588162.876026988 0 3588162.876026988 -17155243.331667334 0 0 0 0 52485114.103982925 2311688.9186703563 0 2311688.9186703563 -51265672.480627537 0 0 0 0 577822.3400901556 254946.31170352548 0 254946.31170352548 -658488.23361114867 0 0 0 0 60990931.48041153 2503837.4423686266 0 2503837.4423686266 -59928997.865903378 0 0 0 0 32704593.742218018 -29861310.374720335 0 -29861310.374720335 -54005567.9828493 0 0 0 0 39176610.147127151 -8899307.1313010454 0 -8899307.1313010454 -11757437.896273613 0 0 0 0 39501769.385164261 -11396505.359889805 0 -11396505.359889805 -31942217.73212862 0 0 0 0 25519768.024391174 -17473786.70924902 0 -17473786.70924902 -7393349.5442900658 0 0 0 0 23717597.131396294 -3710415.4190854207 0 -3710415.4190854207 -3568026.7811942399 0 0 0 0 38892601.202135086 -6033884.4277088046 0 -6033884.4277088046 -24929200.672217369 0 0 0 0 5417710.3024735916 -2960922.8074661624 0 -2960922.8074661624 -1835334.2081595431 0 0 0 0 47717927.032604218 -25616591.851383448 0 -25616591.851383448 976383.60613935441 0 0 0 0 15787652.513973236 30974848.559651494 0 30974848.559651494 -61776726.93419528 0 0 0 0 26511412.275039673 7360822.1265051365 0 7360822.1265051365 -33939841.247724414 0 0 0 0 55542343.951286316 -40566630.716331251 0 -40566630.716331251 757301.54192242026 0 0 0 0 2515557.6624237858 -1504919.0599360531 0 -1504919.0599360531 -1254790.9139060411 0 0 0 0 27180951.91179657 -4863179.5029626191 0 -4863179.5029626191 -51495061.068131506 0 0 0 0 28036689.66153717 498482.80415758491 0 498482.80415758491 -22937630.176676869 0 0 0 0 -8780357.3571224213 64260881.165031612 0 64260881.165031612 -182897951.43996629 0 0 0 0 171898057.95497513 16640882.314749956 0 16640882.314749956 -192958918.85101849 0 0 0 0 35085772.870252609 -113328028.19760557 0 -113328028.19760557 -120859785.81953859 0 0 0 0 -25655450.350852966 -93524891.455828816 0 -93524891.455828816 10674876.970381677 0 0 0 0 845200.58007652499 -421358.6316351369 0 -421358.6316351369 -574680.26753267669 0 0 0 0 19240087.994884491 -22651451.424673304 0 -22651451.424673304 7776621.0607040813 0 0 0 0 14623493.920107841 -39546835.768096425 0 -39546835.768096425 -54039718.578643888 0 0 0 0 8165166.3972291946 14485729.965538062 0 14485729.965538062 -50782297.508001745 0 0 0 0 18950141.436820984 -17811405.768519565 0 -17811405.768519565 -33194409.448188715 0 0 0 0 67443928.453274727 -21501150.526700363 0 -21501150.526700363 18121036.138018787 0 0 0 0 141636339.87735367 -61277855.850890391 0 -61277855.850890391 4130942.9285125658 0 0 0 0 746480.41095075011 -208969.86232374236 0 -208969.86232374236 -121402.80567249193 0 0 0 0 -5320714.4075074196 102969082.38730015 0 102969082.38730015 -69014248.505928919 0 0 0 0 56537718.466552734 45764983.118324786 0 45764983.118324786 -52822747.265642747 0 0 0 0 90093372.141561508 -66312401.403038621 0 -66312401.403038621 -214517167.72931892 0 0 0 0 61577.114127965644 -157006.32715441519 0 -157006.32715441519 56894.96930745244 0 0 0 0 114323515.92625618 105844369.60499272 0 105844369.60499272 -9673776.5788244605 0 0 0 0 125701029.69572449 -41077283.167456329 0 -41077283.167456329 -66536141.484198928 0 0 0 0 143944001.39179039 26585698.137198448 0 26585698.137198448 -114102210.31048214 0 0 0 0 98689419.731135368 53175425.169245318 0 53175425.169245318 -64440701.371320844 0 0 0 0 146480411.70821381 -36998028.771935001 0 -36998028.771935001 -78013623.42511642 0 0 0 0 175694352.41111374 -142025820.59487474 0 -142025820.59487474 112798182.71484752 0 0 0 0 68947775.835155487 24525900.335741222 0 24525900.335741222 126018235.57551587 0 0 0 0 88975945.901935577 96608875.519228339 0 96608875.519228339 -79610569.335262299 0 0 0 0 -26556510.327232361 -166693782.13409972 0 -166693782.13409972 92612253.305258989 0 0 0 0 1027666.5411258647 320697.03631935362 0 320697.03631935362 40857.416430031648 0 0 0 0 45763563.209720612 26908178.185490131 0 26908178.185490131 21577362.481761694 0 0 0 0 13225999.328681946 -4617394.2860431671 0 -4617394.2860431671 6463561.2098772526 0 0 0 0 11653370.143596649 -525611.18498182297 0 -525611.18498182297 3885346.3408660889 0 0 0 0 8958601.732749939 -2557213.988576889 0 -2557213.988576889 5469198.7043466568 0 0 0 0 8627035.6464071274 -1126773.4758617878 0 -1126773.4758617878 749308.07053947449 0 0 0 0 8419124.19947052 -2399029.1891460419 0 -2399029.1891460419 469616.98494911194 0 0 0 0 3525235.584633884 974241.18208754621 0 974241.18208754621 -105935.58070566063 0 0 0 0 123401396.43430138 -187193997.07476914 0 -187193997.07476914 217155146.43811035 0 0 0 0 94665319.383882523 -70728721.050803065 0 -70728721.050803065 81501683.021939963 0 0 0 0 327919663.93596458 -79695865.219214082 0 -79695865.219214082 18098890.758544922 0 0 0 0 197494877.8878727 -4302317.9225548506 0 -4302317.9225548506 212121804.60301208 0 0 0 0 142063726.42004585 -35182989.366249561 0 -35182989.366249561 7478363.0992207527 0 0 0 0 163193018.28998566 -122155103.66972339 0 -122155103.66972339 83136023.107076168 0 0 0 0 3150665.2219581604 1674308.9077868462 0 1674308.9077868462 -356285.99528598785 0 0 0 0 -314990.29827594757 5216196.1735105515 0 5216196.1735105515 -2986062.6871967316 0 0 0 0 -4235157.3323926926 4663471.7410107851 0 4663471.7410107851 1797124.9692726135 0 0 0 0 1935058.5413265228 3979274.7367734909 0 3979274.7367734909 -5388770.3008575439 0 0 0 0 -1463659.6638717651 3135058.7303524017 0 3135058.7303524017 4428235.9075126648 0 0 0 0 25007.270222712308 37115.783813497517 0 37115.783813497517 -17634.663908462971 0 0 0 0 -1397516.9286727905 2781129.6005058289 0 2781129.6005058289 6309306.9950637817 0 0 0 0 2511229.0162963867 3439751.9691720009 0 3439751.9691720009 -4907972.6028728485 0 0 0 0 39121.695119684562 1228336.3658097433 0 1228336.3658097433 3496786.9124365528 0 0 0 0 220042903.25704575 -37092106.304064035 0 -37092106.304064035 12664940.07173419 0 0 0 0 379520740.13263321 -40538715.620887041 0 -40538715.620887041 612361.01552677155 0 0 0 0 377604306.36461258 -184070208.30775398 0 -184070208.30775398 95869939.864828587 0 0 0 0 243898735.31537056 -143928690.61036372 0 -143928690.61036372 85435516.533926487 0 0 0 0 460875442.0005312 -56973001.09876895 0 -56973001.09876895 2914194.8784866333 0 0 0 0 884910.76917392388 324564.3726973068 0 324564.3726973068 534365.4075307264 0 0 0 0 5321633.7894325256 -3881465.4603714943 0 -3881465.4603714943 -181377.27144241333 0 0 0 0 -1174422.2066802979 -941647.31306838989 0 -941647.31306838989 -1464516.1624069214 0 0 0 0 7466929.8002523538 2720150.9931513136 0 2720150.9931513136 2574346.2060988676 0 0 0 0 10956439.643342972 -3701846.4654650688 0 -3701846.4654650688 -3674289.202296257 0 0 0 0 7128118.6540565491 -1913297.7682561874 0 -1913297.7682561874 668677.22251319885 0 0 0 0 10018745.70381546 -3442536.67715168 0 -3442536.67715168 -514872.22935199738 0 0 0 0 13362711.319389343 -3181336.360827446 0 -3181336.360827446 -754507.02978229523 0 0 0 0 11690392.310035706 -1200381.6332995892 0 -1200381.6332995892 -3562514.6965475082 0 0 0 0 3158534.2491912842 2788942.4088020325 0 2788942.4088020325 -3247190.9964351654 0 0 0 0 31259909.064853668 13319633.221830368 0 13319633.221830368 -11189069.751358986 0 0 0 0 11323317.653137591 -82788.956130938139 0 -82788.956130938139 37325.628999111941 0 0 0 0 667297.50535246683 3210786.640287553 0 3210786.640287553 951513.06418023957 0 0 0 0 2551447.4641990662 1261378.4316658974 0 1261378.4316658974 -2562862.8567047119 0 0 0 0 -1194811.1695976257 -1155268.293047905 0 -1155268.293047905 -555927.19046020508 0 0 0 0 -952504.84302520752 17574.809788227081 0 17574.809788227081 -1830277.2009210587 0 0 0 0 29004426.44647789 41543161.091880798 0 41543161.091880798 11584288.322426677 0 0 0 0 -232188.67037913948 2745990.3635362191 0 2745990.3635362191 967731.87304573972 0 0 0 0 -7327835.325510025 -1547662.9802980423 0 -1547662.9802980423 15660523.840083122 0 0 0 0 39015227.033773422 46726613.832651138 0 46726613.832651138 4647850.2804708481 0 0 0 0 35261564.666740417 35565521.790603638 0 35565521.790603638 32689929.041061401 0 0 0 0 -1269548.2623872757 -1078425.6138542891 0 -1078425.6138542891 -191510.74697399139 0 0 0 0 -1746569.2070999146 -343732.08330607414 0 -343732.08330607414 2366771.7628517151 0 0 0 0 -2606093.9243488312 1563855.8840219975 0 1563855.8840219975 -1775488.6280736923 0 0 0 0 -71286.944708008261 -75915.095329121221 0 -75915.095329121221 13950.056089854799 0 0 0 0 2601347.1536560059 -4510286.4002506733 0 -4510286.4002506733 2697245.1069803238 0 0 0 0 80693.519393920898 -1321711.7841272354 0 -1321711.7841272354 -1333528.8535311222 0 0 0 0 -497824.02683258057 -2506023.195391655 0 -2506023.195391655 1331444.7909698486 0 0 0 0 -1608865.6032180786 -508730.57294607162 0 -508730.57294607162 2807842.3285474777 0 0 0 0 -1758178.972574234 -343395.40481674671 0 -343395.40481674671 2625955.2337799072 0 0 0 0 -1732959.5272064209 -771006.08939218521 0 -771006.08939218521 5035991.0184569359 0 0 0 0 4513926.6879005432 -3381617.0722546577 0 -3381617.0722546577 -7307865.4699722528 0 0 0 0 10428639.227010727 -13321974.466197014 0 -13321974.466197014 5061192.8587832451 0 0 0 0 3228660.4022598267 1689071.0686655045 0 1689071.0686655045 -5839860.0289975405 0 0 0 0 4082514.3486881256 2618830.1482129097 0 2618830.1482129097 -5341647.5340518951 0 0 0 0 208087.44743987359 735771.27235013712 0 735771.27235013712 2125626.5608534459 0 0 0 0 -12062132.970957756 16799269.171229959 0 16799269.171229959 -12531076.848239899 0 0 0 0 15878469.758970261 4276940.3531321883 0 4276940.3531321883 -24440799.866224766 0 0 0 0 36520196.159118652 -24732893.56057775 0 -24732893.56057775 -3199300.1091122627 0 0 0 0 -7454539.5269069672 -9442479.4507110119 0 -9442479.4507110119 69206855.774608493 0 0 0 0 -9507748.1721572876 1559719.4949250221 0 1559719.4949250221 15232778.123258591 0 0 0 0 -5451545.1873226166 4516106.0775305033 0 4516106.0775305033 13460359.755254745 0 0 0 0 -3685539.1852283478 -3835093.7578471899 0 -3835093.7578471899 18513964.817585468 0 0 0 0 9081122.5580253601 22398702.171053201 0 22398702.171053201 -33455213.720327228 0 0 0 0 9067737.073979035 20558279.764058672 0 20558279.764058672 -497296.16999471188 0 0 0 0 -3233271.526473999 46305364.282448292 0 46305364.282448292 27686940.324620232 0 0 0 0 28235987.755347252 -37158987.119665429 0 -37158987.119665429 13332456.53807056 0 0 0 0 18921686.643354416 -18516141.501239154 0 -18516141.501239154 33343280.993730433 0 0 0 0 1378436.9254220407 1081900.7398317149 0 1081900.7398317149 97752.779964835878 0 0 0 0 6313875.1330337524 -4627057.5758907795 0 -4627057.5758907795 -23128777.144425303 0 0 0 0 594411.59115822054 178627.19726408646 0 178627.19726408646 -179336.07228196552 0 0 0 0 8048138.5443382263 7414126.0589965582 0 7414126.0589965582 -13696507.32342875 0 0 0 0 4863644.172460556 3004503.6225817204 0 3004503.6225817204 -2252531.2860603333 0 0 0 0 -17479422.013376236 3713996.3441917896 0 3713996.3441917896 8172899.4378619194 0 0 0 0 3251574.0986684635 3035853.3758619046 0 3035853.3758619046 -27411.770811603637 0 0 0 0 -10374578.430298805 -195674997.56588495 0 -195674997.56588495 608681431.05888367 0 0 0 0 -45957426.083667755 23555324.33474648 0 23555324.33474648 -3592640.9849641323 0 0 0 0 1264692.889080002 -1209705.8430175995 0 -1209705.8430175995 2099565.5241766791 0 0 0 0 498286555.91847992 471684161.12148827 0 471684161.12148827 -43673369.465657607 0 0 0 0 890081069.61083221 -96483170.211174011 0 -96483170.211174011 445732339.77164555 0 0 0 0 99444303.974506378 458131794.04750788 0 458131794.04750788 60428763.583496928 0 0 0 0 9853500.0611438751 4393357.9027299881 0 4393357.9027299881 -4412040.8347716331 0 0 0 0 4212703.6499877982 4289749.9025541283 0 4289749.9025541283 -556809.23632622696 0 0 0 0 13692036.217338443 4112272.8963406011 0 4112272.8963406011 -11456143.365738869 0 0 0 0 13393961.868562698 12565218.663838387 0 12565218.663838387 -23373758.009248734 0 0 0 0 3505491.8477611542 5255805.1973332763 0 5255805.1973332763 1428557.0295316726 0 0 0 0 7425562.3745136261 8149055.5479400456 0 8149055.5479400456 972638.74581730366 0 0 0 0 1879357.6273479462 6147590.3406943083 0 6147590.3406943083 2122140.1879310608 0 0 0 0 164704.54280387453 1887968.2994116377 0 1887968.2994116377 2713261.8402835834 0 0 0 0 1155627.1738033295 6436165.6446251869 0 6436165.6446251869 3038740.4489818811 0 0 0 0 -5241085.7983970642 2595509.7429172993 0 2595509.7429172993 5724422.5189054012 0 0 0 0 -880729.19382095337 10286770.072089672 0 10286770.072089672 444199.63858401775 0 0 0 0 598185.93545722961 16219105.801593781 0 16219105.801593781 16629673.135411978 0 0 0 0 -2848779.5784912109 4266296.3173520565 0 4266296.3173520565 11101874.827195168 0 0 0 0 -2897765.1643246412 3146993.3246478289 0 3146993.3246478289 4930166.2816963196 0 0 0 0 -3748586.2491950989 1758602.8270483017 0 1758602.8270483017 6579621.9333641529 0 0 0 0 -3054815.0501065254 -1246275.981477797 0 -1246275.981477797 6638883.5869026184 0 0 0 0 -596054.5015186891 1786423.7974164735 0 1786423.7974164735 2781308.7354108333 0 0 0 0 -6333551.0320072174 3790940.9737965763 0 3790940.9737965763 5011358.8167495728 0 0 0 0 -4446609.7702789307 3528259.9509637356 0 3528259.9509637356 2101252.0264978409 0 0 0 0 -4310850.1609115601 3722356.8831124306 0 3722356.8831124306 1008375.7361335754 0 0 0 0 -590206.41290819645 5810413.9658438563 0 5810413.9658438563 2887801.2555294037 0 0 0 0 2215221.2839054093 892424.23567522829 0 892424.23567522829 -564567.83229747321 0 0 0 0 91899589.75693512 22241544.935474396 0 22241544.935474396 9128364.7948861122 0 0 0 0 22648054.02440834 25510292.89858532 0 25510292.89858532 28790474.761858463 0 0 0 0 73812696.451292992 27673876.014076233 0 27673876.014076233 23587705.985323906 0 0 0 0 50209097.95712471 13623686.139977455 0 13623686.139977455 32946378.843508482 0 0 0 0 73393767.006123185 29652986.398010731 0 29652986.398010731 19020756.400360107 0 0 0 0 65347496.227465868 43079585.516376495 0 43079585.516376495 51189196.944852829 0 0 0 0 9598243.4905309677 2331382.2476906776 0 2331382.2476906776 -10755095.572210312 0 0 0 0 856552.87436493253 246326.06209741347 0 246326.06209741347 -357739.55189133855 0 0 0 0 49864272.823207855 15618241.966623783 0 15618241.966623783 -10595705.333050255 0 0 0 0 52207446.645263493 -6161129.6450988948 0 -6161129.6450988948 7272099.210064888 0 0 0 0 9783196.4121351242 8133496.170838356 0 8133496.170838356 -3677174.8412303925 0 0 0 0 4240488.7792339325 1481072.9008247852 0 1481072.9008247852 -4207638.1034582257 0 0 0 0 -14727552.801722825 2998915.6586251557 0 2998915.6586251557 17874621.609627724 0 0 0 0 15276706.311149597 -15403169.136678815 0 -15403169.136678815 21364655.537417352 0 0 0 0 7435259.5782855749 19620028.646799862 0 19620028.646799862 27257364.355743408 0 0 0 0 82483134.323275089 -32403663.734028041 0 -32403663.734028041 -25714829.998061627 0 0 0 0 41407731.316242218 85220792.141696006 0 85220792.141696006 13909078.062835217 0 0 0 0 -3933201.2199773788 10134823.345425844 0 10134823.345425844 -7080575.2403146029 0 0 0 0 328099.69060121896 1998670.6530786476 0 1998670.6530786476 48545.551490437239 0 0 0 0 7807812.770485878 730751.3565762043 0 730751.3565762043 -9993885.0253462791 0 0 0 0 68721663.172564745 -18057776.755506277 0 -18057776.755506277 -3618630.1595894694 0 0 0 0 14382482.892334402 -14625648.877188206 0 -14625648.877188206 5526352.7102823257 0 0 0 0 -219271.36211831574 -355832.65603563469 0 -355832.65603563469 298602.14222459111 0 0 0 0 290791428.46853542 55471031.329288483 0 55471031.329288483 -69540214.515303135 0 0 0 0 125980.4111579196 -688635.38549098151 0 -688635.38549098151 161554.7534783252 0 0 0 0 -46159987.772901773 24289134.797215819 0 24289134.797215819 26993367.425574541 0 0 0 0 150721267.67653084 44631279.482845783 0 44631279.482845783 4779284.9467332363 0 0 0 0 139245152.78121161 -13736417.54924345 0 -13736417.54924345 43355028.057585716 0 0 0 0 7140953.2658118606 1742759.3789051771 0 1742759.3789051771 -9104895.4347438812 0 0 0 0 -2211109.5984454155 3123822.4841113091 0 3123822.4841113091 -457292.73194885254 0 0 0 0 6861737.1987080574 -10876162.669357538 0 -10876162.669357538 1331713.3591194153 0 0 0 0 1658204.6012102109 -641732.53265444702 0 -641732.53265444702 -580110.683522854 0 0 0 0 -18549231.494233131 12070028.8497715 0 12070028.8497715 59702136.659387589 0 0 0 0 288814.83703639254 -1029153.8951044226 0 -1029153.8951044226 621140.63093791855 0 0 0 0 183892754.21687555 24461710.636473656 0 24461710.636473656 -24704220.762512207 0 0 0 0 89104.708000278799 29312.134485210292 0 29312.134485210292 -21357.849015974673 0 0 0 0 169799662.42518234 -2767957.1270170212 0 -2767957.1270170212 -22510442.731518269 0 0 0 0 198040596.74496555 63118384.125812531 0 63118384.125812531 39287009.270744324 0 0 0 0 114289484.03501797 -7932199.5400333405 0 -7932199.5400333405 8482928.6526527405 0 0 0 0 143493303.82638365 67765850.912403047 0 67765850.912403047 -73645810.536361694 0 0 0 0 268311.06460752658 -847505.77444574167 0 -847505.77444574167 829273.68714139378 0 0 0 0 193372043.7720871 -53869741.748156548 0 -53869741.748156548 -13584283.529778481 0 0 0 0 137713278.8239994 54829306.460618973 0 54829306.460618973 28842179.905361176 0 0 0 0 -119357590.96397877 250549522.74043083 0 250549522.74043083 -96521640.962905884 0 0 0 0 116775949.85049438 22254763.409677505 0 22254763.409677505 8774766.5814476013 0 0 0 0 125199559.83113003 -3588688.7120723724 0 -3588688.7120723724 5897283.6805362701 0 0 0 0 -5397258.520386219 -34363042.466736317 0 -34363042.466736317 -40171568.945604324 0 0 0 0 -6334263.4405863285 -31721299.706712484 0 -31721299.706712484 -16924812.56735611 0 0 0 0 -16517303.332151413 -21170492.122056961 0 -21170492.122056961 39155221.829553604 0 0 0 0 -37551438.312116623 -4120784.1892929077 0 -4120784.1892929077 26176849.194488525 0 0 0 0 -27066705.323765755 -60619284.394886017 0 -60619284.394886017 -64600821.044168472 0 0 0 0 -105879110.04443264 -58598607.265123367 0 -58598607.265123367 -9100676.8653526306 0 0 0 0 10901563.520907879 -6134418.6194810867 0 -6134418.6194810867 -69143287.084650606 0 0 0 0 -73256071.081697404 10898923.004962742 0 10898923.004962742 -2385376.7326879501 0 0 0 0 -43134508.455949068 -69972747.306063414 0 -69972747.306063414 -42401018.830685616 0 0 0 0 4154388.7299938737 -2189290.9637160506 0 -2189290.9637160506 -3118603.0436232728 0 0 0 0 30246425.776870728 -8451828.8861532211 0 -8451828.8861532211 -22160805.656421185 0 0 0 0 18851185.296415854 -2121834.2296575918 0 -2121834.2296575918 -1968271.4420425449 0 0 0 0 25462702.835803986 -4985875.0427527428 0 -4985875.0427527428 -20135463.396741867 0 0 0 0 105674744.42368555 97741588.542209148 0 97741588.542209148 -83973865.882629395 0 0 0 0 14726866.808334351 -13434574.164385796 0 -13434574.164385796 -12754194.692322731 0 0 0 0 8143724.2932319641 -8754845.0334939957 0 -8754845.0334939957 -7593203.7246608734 0 0 0 0 90387941.729392529 -35883360.846636295 0 -35883360.846636295 -5700372.9547481537 0 0 0 0 83230770.241703033 -44051698.6669631 0 -44051698.6669631 318570.55777740479 0 0 0 0 153575331.06556651 -15587588.052756011 0 -15587588.052756011 -12688292.573884964 0 0 0 0 98902.407553052544 -333840.46745960531 0 -333840.46745960531 174200.26293845475 0 0 0 0 -62944990.646512985 -74035143.197372913 0 -74035143.197372913 124390750.70463562 0 0 0 0 -115740751.40334129 -165057868.60091019 0 -165057868.60091019 79170113.808143377 0 0 0 0 99547814.35466671 -1934305.340054512 0 -1934305.340054512 5861098.082788825 0 0 0 0 32174368.582942724 9031898.0295624733 0 9031898.0295624733 -10925553.920092583 0 0 0 0 25295124.111192703 22297819.87715435 0 22297819.87715435 19782677.950451575 0 0 0 0 72684764.932870865 12859909.453881741 0 12859909.453881741 19889669.607563972 0 0 0 0 43910427.765521467 46084992.582487106 0 46084992.582487106 36628990.227164268 0 0 0 0 25635625.733972549 36952650.925331593 0 36952650.925331593 36844848.205292702 0 0 0 0 47848801.906650782 21919053.3306216 0 21919053.3306216 -6184474.7198562622 0 0 0 0 6303526.2246074677 25210136.795684814 0 25210136.795684814 42113153.354357719 0 0 0 0 25127094.892625809 28441251.214473248 0 28441251.214473248 -40019771.774018288 0 0 0 0 33174973.609696388 -7541700.9986581802 0 -7541700.9986581802 -59726565.577273369 0 0 0 0 11572952.410101414 14401730.907565355 0 14401730.907565355 -2187171.05119133 0 0 0 0 16097133.861586988 -2372466.0977947973 0 -2372466.0977947973 -585961.14334137668 0 0 0 0 -42517899.473988056 -12025223.006681442 0 -12025223.006681442 -14006922.165453911 0 0 0 0 82604660.034733772 -36528861.821251869 0 -36528861.821251869 -139165618.57389355 0 0 0 0 13192210.910923004 -6948181.3317751884 0 -6948181.3317751884 -10949128.719055176 0 0 0 0 9906404.6323738098 -4577204.8545045853 0 -4577204.8545045853 -1792170.8465127945 0 0 0 0 13650641.688127531 -1477217.1778134266 0 -1477217.1778134266 -198322.83398644137 0 0 0 0 12214076.334320068 -4865597.5557594299 0 -4865597.5557594299 -7090110.6588563919 0 0 0 0 11390761.769325256 -3290328.3828201294 0 -3290328.3828201294 -65035.816429138184 0 0 0 0 11558858.548560739 320693.41086290777 0 320693.41086290777 3505859.7013807297 0 0 0 0 -117453.06645584106 -4717726.776918292 0 -4717726.776918292 8386768.7157583237 0 0 0 0 7191670.5438919067 -4975177.1070842743 0 -4975177.1070842743 -1586862.2835974693 0 0 0 0 8214079.3024711609 -8590904.0680561066 0 -8590904.0680561066 8519793.9248075485 0 0 0 0 17017773.459793091 -13801100.701533794 0 -13801100.701533794 8073032.5116343498 0 0 0 0 17891446.099542618 -3956452.6813157797 0 -3956452.6813157797 10578649.324314117 0 0 0 0 27529726.778244019 -8939209.6711688042 0 -8939209.6711688042 -1832035.8140964508 0 0 0 0 36045597.352714539 -13929547.082315445 0 -13929547.082315445 -15362793.958918571 0 0 0 0 17945125.44877243 -10396630.860954762 0 -10396630.860954762 -946893.07695770264 0 0 0 0 10732350.741455078 -10815912.864042282 0 -10815912.864042282 -344359.45368170738 0 0 0 0 20137494.468112946 -10499028.440698147 0 -10499028.440698147 -7350286.9051647186 0 0 0 0 13706388.670387268 -8374468.5173106194 0 -8374468.5173106194 -819799.54387569427 0 0 0 0 19468785.350608826 23731627.12009716 0 23731627.12009716 7292961.2948150635 0 0 0 0 55565591.887496948 12460932.149600983 0 12460932.149600983 -19525859.166108131 0 0 0 0 2234544.8955535889 2652018.9708662033 0 2652018.9708662033 -12525157.881784439 0 0 0 0 13485439.291374207 21598989.856984138 0 21598989.856984138 -22371917.021142006 0 0 0 0 12550329.052207947 4397740.2035989761 0 4397740.2035989761 -14995174.445701599 0 0 0 0 55042892.656169891 -16228926.22287035 0 -16228926.22287035 -11502011.440532684 0 0 0 0 29984016.215995789 -1709659.0355300903 0 -1709659.0355300903 -19081728.653251648 0 0 0 0 27648417.142894745 -12206689.081498384 0 -12206689.081498384 27511514.344121933 0 0 0 0 61306730.537376404 9747260.4135894775 0 9747260.4135894775 7341954.2468810081 0 0 0 0 64969163.305717468 -14486084.687132835 0 -14486084.687132835 -3652686.2409238815 0 0 0 0 -789948.97864438966 1021368.8093156354 0 1021368.8093156354 -367193.34095190396 0 0 0 0 39035735.48500824 -22874286.65424633 0 -22874286.65424633 4331781.1210597754 0 0 0 0 -1593116.0658950806 14057696.124183655 0 14057696.124183655 8794745.5079498291 0 0 0 0 -8767353.9637870789 8516859.9430599213 0 8516859.9430599213 8188853.2502012253 0 0 0 0 -2583353.2059707642 3923329.3284136057 0 3923329.3284136057 -5905709.5177800357 0 0 0 0 8738672.1978324074 3062493.1706021773 0 3062493.1706021773 -4637925.3628379907 0 0 0 0 475874183.82481384 -280653438.31125748 0 -280653438.31125748 118553248.90072107 0 0 0 0 845649927.89700508 -575817666.65830421 0 -575817666.65830421 90863528.340705514 0 0 0 0 585506690.30057907 -145542752.20547986 0 -145542752.20547986 -29597042.600268781 0 0 0 0 187184.35121311247 1005544.4520522254 0 1005544.4520522254 -89930.114873190934 0 0 0 0 552699971.53426361 -777269244.77833462 0 -777269244.77833462 518115244.91117948 0 0 0 0 868957175.52153778 -400772363.42108834 0 -400772363.42108834 437020078.1683892 0 0 0 0 564113.19733873685 -182081.04594992101 0 -182081.04594992101 56753.025548398495 0 0 0 0 382907043.47961426 -480242485.75621033 0 -480242485.75621033 474489920.87103128 0 0 0 0 505500897.44208813 -730853792.46984851 0 -730853792.46984851 640861606.53594804 0 0 0 0 3916760.9596683308 951228.70238177467 0 951228.70238177467 -68408.337694341666 0 0 0 0 612002137.15164185 -1044271752.132297 0 -1044271752.132297 624431628.95285904 0 0 0 0 -3527638.979903698 58599033.040364191 0 58599033.040364191 -232915866.13978791 0 0 0 0 120751465.56749725 -6467312.3044259548 0 -6467312.3044259548 143372835.20602822 0 0 0 0 142493969.48636436 -1009564049.803272 0 -1009564049.803272 -731328654.49233794 0 0 0 0 1024960057.9730892 -596246694.63413453 0 -596246694.63413453 -1686718164.7555916 0 0 0 0 1059778885.3251305 -288205670.76532388 0 -288205670.76532388 -215746171.1538862 0 0 0 0 -880357415.1687727 576268578.29085255 0 576268578.29085255 -153053833.01310802 0 0 0 0 -239437704.3219986 1546529286.1001821 0 1546529286.1001821 -556397542.90324879 0 0 0 0 2152353676.0510826 481181969.58326924 0 481181969.58326924 -38641595.028602242 0 0 0 0 1046156692.7600288 179136705.8337816 0 179136705.8337816 -71676458.05352661 0 0 0 0 88756297.112695694 1253857765.9389086 0 1253857765.9389086 335415693.52330846 0 0 0 0 -137766513.73801452 -204513945.18808812 0 -204513945.18808812 1393535393.1775146 0 0 0 0 1077626829.0319328 1517717314.682507 0 1517717314.682507 1630436447.0811491 0 0 0 0 852500710.12524605 912801921.56987441 0 912801921.56987441 65506040.11399591 0 0 0 0 -146774748.78965473 133043097.20062235 0 133043097.20062235 2831521199.6396322 0 0 0 0 528578.3653972405 483341.40813068859 0 483341.40813068859 -14528.56250189495 0 0 0 0 2991328009.3909073 764235807.83885646 0 764235807.83885646 1031349178.1436715 0 0 0 0 2592723941.5696564 1272626483.1796386 0 1272626483.1796386 616005734.82067084 0 0 0 0 732840.61782350112 73970.383126464381 0 73970.383126464381 -371413.80248846009 0 0 0 0 1160705574.9406328 -249688868.99009794 0 -249688868.99009794 1221322614.7310514 0 0 0 0 1460208492.0221767 -728374556.39586782 0 -728374556.39586782 190836737.14438099 0 0 0 0 1763873314.5889626 -302086794.29435116 0 -302086794.29435116 676598433.34412181 0 0 0 0 1136358101.2272243 -122320823.45560482 0 -122320823.45560482 998698283.37669814 0 0 0 0 48089932.074321747 357441455.62271333 0 357441455.62271333 -802272652.78377616 0 0 0 0 -88218634.97236824 1212959784.5848193 0 1212959784.5848193 -819474409.68361568 0 0 0 0 8371934.2963380814 -1092469.9489078522 0 -1092469.9489078522 -7264579.914044857 0 0 0 0 4941613.819210534 4024211.9056311022 0 4024211.9056311022 -2104187.4401332792 0 0 0 0 -41819294.063610077 1434196467.2131155 0 1434196467.2131155 -958676780.74053574 0 0 0 0 -376527087.20418549 1027383344.5431595 0 1027383344.5431595 -912894906.31635809 0 0 0 0 192663404.92530823 998327548.91979253 0 998327548.91979253 -665296678.00661421 0 0 0 0 11292579.746293068 4392513.2825489044 0 4392513.2825489044 -9082227.1133904457 0 0 0 0 587096640.09913301 -1471239700.6589813 0 -1471239700.6589813 309902846.21365237 0 0 0 0 8813098.6108782142 4098359.3453912488 0 4098359.3453912488 -2764203.2934546336 0 0 0 0 10883045.263069153 1837835.9086399078 0 1837835.9086399078 -11307216.441569328 0 0 0 0 383765.5584487915 637206580.21167183 0 637206580.21167183 20363190.256799936 0 0 0 0 1352893213.3173943 -821994977.00967896 0 -821994977.00967896 -233483891.19859695 0 0 0 0 12685184.894712934 518118.1738292533 0 518118.1738292533 -4976735.69074162 0 0 0 0 762671187.55210686 -257618790.5816637 0 -257618790.5816637 -456294569.97913289 0 0 0 0 19270793.917541504 3903621.5559930801 0 3903621.5559930801 -22222488.817125559 0 0 0 0 36493556.624404907 -1550585.316447258 0 -1550585.316447258 -21160457.766466141 0 0 0 0 15768129.717559913 -1164873.2228393676 0 -1164873.2228393676 -6306857.7129235324 0 0 0 0 14192486.397479534 3970618.4228453636 0 3970618.4228453636 -13907577.60048008 0 0 0 0 14307832.956554413 4481677.8571915627 0 4481677.8571915627 -44048556.728401184 0 0 0 0 13842753.608551979 1900552.1758069992 0 1900552.1758069992 -17972053.856836319 0 0 0 0 9460583.717253685 -10970805.997869492 0 -10970805.997869492 -22358399.272798777 0 0 0 0 9498462.730489254 -6912572.5094602108 0 -6912572.5094602108 -981923.75056362152 0 0 0 0 8080187.183195591 -228540.16506052017 0 -228540.16506052017 -9788642.0551376343 0 0 0 0 9277918.1988830566 -2530256.2184062004 0 -2530256.2184062004 -10531706.150876999 0 0 0 0 3113907.7044826178 -2018324.6052860126 0 -2018324.6052860126 -3035386.6773416041 0 0 0 0 4946050.7152746767 -9911221.854965426 0 -9911221.854965426 -1666783.7352209091 0 0 0 0 2999902.4163746834 -15018026.750652075 0 -15018026.750652075 1782461.3622894287 0 0 0 0 4833086.9125113487 -4779568.3463182449 0 -4779568.3463182449 10823114.759870052 0 0 0 0 3459371.8301655767 -1558503.6559891626 0 -1558503.6559891626 -1430871.6298922 0 0 0 0 9019992.3455887437 -4498361.2632004023 0 -4498361.2632004023 -3062187.5906312466 0 0 0 0 532786.7939603948 -1184815.7404743806 0 -1184815.7404743806 -400251.44783874322 0 0 0 0 2791417.3650860181 -106294.12990147283 0 -106294.12990147283 -1577267.1945469743 0 0 0 0 58465564.620241404 7860515.1883680224 0 7860515.1883680224 -3237168.0513111949 0 0 0 0 128781733.7854166 171114776.17356169 0 171114776.17356169 -167716604.65354598 0 0 0 0 95593859.944364578 -100633536.47375076 0 -100633536.47375076 -397183608.73593235 0 0 0 0 -18490275.496700332 275263478.83479995 0 275263478.83479995 -196300684.25926781 0 0 0 0 -206232764.29912674 10294821.053779125 0 10294821.053779125 -135357968.00154403 0 0 0 0 1229187.7742826033 -236871.22780386073 0 -236871.22780386073 -347875.76986418176 0 0 0 0 1236988071.820749 506029477.08684206 0 506029477.08684206 50433722.34956491 0 0 0 0 114565703.21482348 -516511201.0846138 0 -516511201.0846138 -122979686.78043962 0 0 0 0 35866073.310165048 65485361.578866005 0 65485361.578866005 234606428.1501708 0 0 0 0 1720543390.8232026 -70000894.031471848 0 -70000894.031471848 -160376877.7090044 0 0 0 0 1117927989.3734374 140426593.53815398 0 140426593.53815398 -157450086.1815083 0 0 0 0 1453319992.3587866 -755639.69087576866 0 -755639.69087576866 -186412542.83414841 0 0 0 0 881591397.65013075 -233757302.19743574 0 -233757302.19743574 -110383482.86622572 0 0 0 0 933397801.90241718 -7870984.591211915 0 -7870984.591211915 -195267627.28685209 0 0 0 0 9261459.6035413742 -2842678.7474470139 0 -2842678.7474470139 -8425937.0096130371 0 0 0 0 509895691.50147533 176867979.16447502 0 176867979.16447502 69626203.137110829 0 0 0 0 3543222.8076948584 -2059368.2427802298 0 -2059368.2427802298 -3737687.3240280203 0 0 0 0 1363542431.6409702 -37908405.272085547 0 -37908405.272085547 115210969.16308635 0 0 0 0 1320331099.4777093 56033834.695125341 0 56033834.695125341 -7101283.8226060867 0 0 0 0 1195349878.2420521 -292515681.40232766 0 -292515681.40232766 -110214349.30885315 0 0 0 0 1609763792.1901073 2844396.4039978981 0 2844396.4039978981 12782588.41234085 0 0 0 0 354595420.85640633 -1081331252.8482947 0 -1081331252.8482947 261516536.77600336 0 0 0 0 1439902653.036025 198784959.31263056 0 198784959.31263056 739951915.51900411 0 0 0 0 1424054520.4255285 55908733.558849066 0 55908733.558849066 180528971.64326185 0 0 0 0 1203205448.6894073 -81140619.1321688 0 -81140619.1321688 646717015.56515598 0 0 0 0 1163732119.9234676 -258663320.17250118 0 -258663320.17250118 79670606.698298454 0 0 0 0 1322090176.6147804 -113093659.91688216 0 -113093659.91688216 188647156.18681836 0 0 0 0 1364362433.1329355 -47831418.107330024 0 -47831418.107330024 15605232.714937806 0 0 0 0 1376107236.3992119 -371974971.13301712 0 -371974971.13301712 21979380.805532396 0 0 0 0 1273995104.7807665 -300001628.15981978 0 -300001628.15981978 -21951525.714541912 0 0 0 0 1546921487.4924636 -590028715.66493618 0 -590028715.66493618 4033264.0882103443 0 0 0 0 1710502236.6445799 -298634100.57548821 0 -298634100.57548821 -21953018.985446755 0 0 0 0 1533968389.9361758 -178735176.18321645 0 -178735176.18321645 -53941283.323500097 0 0 0 0 1510735928.3044968 -101173551.48315895 0 -101173551.48315895 -12066610.406909108 0 0 0 0 1497023782.6645603 -130378318.02165389 0 -130378318.02165389 -73584523.01940012 0 0 0 0 1559166965.2283545 -119348330.56187665 0 -119348330.56187665 -163292962.87228942 0 0 0 0 1966115463.6690762 -177709492.85345829 0 -177709492.85345829 -182222683.66245604 0 0 0 0 1636915476.3338952 -166052966.56180105 0 -166052966.56180105 -69180436.25107336 0 0 0 0 1913043251.9159245 -350965435.81243426 0 -350965435.81243426 -316935711.27097845 0 0 0 0 1818906667.8182025 -14960898.054512262 0 -14960898.054512262 -133632705.31450164 0 0 0 0 2315024433.2058334 -232329408.79607701 0 -232329408.79607701 -282744428.77273726 0 0 0 0 1812294124.4341946 -17117945.3331635 0 -17117945.3331635 43723093.068665385 0 0 0 0 2662287710.0584774 -53215888.793079883 0 -53215888.793079883 -430644879.33295381 0 0 0 0 2674225614.9673414 -418439063.08014202 0 -418439063.08014202 -534050919.71928239 0 0 0 0 3464084425.8019218 59509163.224760227 0 59509163.224760227 -762537144.01188719 0 0 0 0 2422352458.7489972 -495975448.48530984 0 -495975448.48530984 -523746436.6892823 0 0 0 0 3465419622.7314911 -1086772028.4105601 0 -1086772028.4105601 -532459227.33181316 0 0 0 0 2415354108.6052608 -587839337.1589632 0 -587839337.1589632 -227589114.38792205 0 0 0 0 1944371979.9048514 -1092312605.509819 0 -1092312605.509819 144435020.06643236 0 0 0 0 1291957305.6026592 -584442887.3253057 0 -584442887.3253057 18971429.983213514 0 0 0 0 1930037242.5525341 -1192259096.1399982 0 -1192259096.1399982 -488644259.6690464 0 0 0 0 3458669639.3390207 -2013187223.5595024 0 -2013187223.5595024 -327189143.79389054 0 0 0 0 878776801.41740227 -2169581766.7461467 0 -2169581766.7461467 1048403329.053066 0 0 0 0 2533174187.0209351 1365599985.1472838 0 1365599985.1472838 -1453533606.3992484 0 0 0 0 3169554.5589411743 -2764314.6893721581 0 -2764314.6893721581 410542.61954610609 0 0 0 0 -427093899.88494015 -76998070.07228905 0 -76998070.07228905 -58813792.411811709 0 0 0 0 480663653.66124535 -701731836.15544522 0 -701731836.15544522 354547241.79846334 0 0 0 0 1222891718.565979 -241117670.31429169 0 -241117670.31429169 -184589017.96985134 0 0 0 0 1180094784.2963142 -432153290.70391905 0 -432153290.70391905 9239144.7430829853 0 0 0 0 1409091999.5544348 -488270440.72622013 0 -488270440.72622013 -737053422.64753437 0 0 0 0 1114171909.0637307 418756.92535789311 0 418756.92535789311 -691754879.97644877 0 0 0 0 1493558241.0922089 -327149230.45850068 0 -327149230.45850068 -707253461.30844092 0 0 0 0 1135372912.1246243 -410383918.18159831 0 -410383918.18159831 191601826.55961677 0 0 0 0 1028303559.2385907 -473931446.41462362 0 -473931446.41462362 344911223.37273562 0 0 0 0 1096846585.9166908 -447773189.04231882 0 -447773189.04231882 236783036.09973249 0 0 0 0 1230738871.8331604 -455403721.8323797 0 -455403721.8323797 -376002916.02765667 0 0 0 0 1436944604.0867577 -601394597.92939067 0 -601394597.92939067 -301926105.18577653 0 0 0 0 1322180738.4946814 -794327976.06326771 0 -794327976.06326771 -624917489.11227775 0 0 0 0 977803548.45672846 -878174028.1747402 0 -878174028.1747402 -189159361.51655257 0 0 0 0 1203152318.2175713 -562835591.62418413 0 -562835591.62418413 -647175970.57502651 0 0 0 0 437265618.54506111 923005.97448049486 0 923005.97448049486 -442690795.8987447 0 0 0 0 8929044.1736990903 1128361.6642567795 0 1128361.6642567795 -876004.23581421073 0 0 0 0 858070734.33625603 514126871.22007716 0 514126871.22007716 -1558635598.8707547 0 0 0 0 1041542561.7596226 -717229099.68692064 0 -717229099.68692064 -547852329.47008061 0 0 0 0 874721311.64793777 -485011432.00058472 0 -485011432.00058472 -577266256.9543314 0 0 0 0 970904781.42673492 -520858600.81058383 0 -520858600.81058383 -722633942.70006025 0 0 0 0 1282706890.7862492 -1455918295.6307397 0 -1455918295.6307397 428034073.23603797 0 0 0 0 -386896355.4237709 981197813.47762299 0 981197813.47762299 429229371.27768528 0 0 0 0 1516848171.969635 -1972610137.6224661 0 -1972610137.6224661 1054403687.4640762 0 0 0 0 -1261409612.087532 205325839.24812198 0 205325839.24812198 3498426674.7788582 0 0 0 0 841947486.22285175 349760632.91488862 0 349760632.91488862 -1360803356.9907734 0 0 0 0 3380334.3072260879 -2189163.9196003303 0 -2189163.9196003303 369640.25535513833 0 0 0 0 1680252549.6349869 -2749167341.3326445 0 -2749167341.3326445 283929357.83373868 0 0 0 0 1722984419.8236523 -420041815.16354275 0 -420041815.16354275 -1707787893.9555895 0 0 0 0 1952087263.9011946 -690984985.65143573 0 -690984985.65143573 -980428020.75873613 0 0 0 0 1482515292.4807911 -382763842.48032701 0 -382763842.48032701 -909811096.17633128 0 0 0 0 1467520452.5401649 -1288835081.8729632 0 -1288835081.8729632 1275296846.2902749 0 0 0 0 2517412233.5766716 -1401525381.7404132 0 -1401525381.7404132 -497455407.88681149 0 0 0 0 1218199650.9128685 -2831952926.835845 0 -2831952926.835845 1438757542.9667892 0 0 0 0 5127709.8234822974 27433.568651465233 0 27433.568651465233 -761482.03869900876 0 0 0 0 535233552.67043686 531351940.51605868 0 531351940.51605868 -878112135.62736285 0 0 0 0 218126161.77806091 -159825955.60350817 0 -159825955.60350817 299709714.00208956 0 0 0 0 257106246.32498169 -448940792.62601244 0 -448940792.62601244 -288641857.27579939 0 0 0 0 -403476886.63189125 -13354430.060265288 0 -13354430.060265288 89098800.18360436 0 0 0 0 -143678611.81447601 -463313879.09842533 0 -463313879.09842533 55151267.209132046 0 0 0 0 89059456.342708588 -414563457.58045512 0 -414563457.58045512 420242151.78990078 0 0 0 0 60316895.979944229 -375968300.72825229 0 -375968300.72825229 390556103.54679132 0 0 0 0 1656654830.7121735 -109127637.67755228 0 -109127637.67755228 -617480680.40734124 0 0 0 0 324756739.2423954 -207350800.29726404 0 -207350800.29726404 272547350.5698266 0 0 0 0 381248559.08008194 -266396685.30247954 0 -266396685.30247954 101452217.96854526 0 0 0 0 969758328.73163986 -185189004.53593156 0 -185189004.53593156 237011294.90137315 0 0 0 0 1806161162.1048603 -354957820.16270912 0 -354957820.16270912 66867920.190836444 0 0 0 0 2341598206.335247 -1039147953.9217186 0 -1039147953.9217186 195165638.05468744 0 0 0 0 3466014705.4825907 -593727397.56845701 0 -593727397.56845701 -13839535.01380812 0 0 0 0 1958655542.9334717 -115058055.52366361 0 -115058055.52366361 -150281714.41184238 0 0 0 0 3457944692.0723062 344033176.76412529 0 344033176.76412529 -419309924.02965546 0 0 0 0 1431208262.5020218 -3037042933.1968875 0 -3037042933.1968875 776488262.63520551 0 0 0 0 565730894.59165382 1002082423.7613459 0 1002082423.7613459 759313875.05050826 0 0 0 0 2034434364.2288232 -514308551.95357442 0 -514308551.95357442 1753581214.5018392 0 0 0 0 146908583.00554848 50597211.565310538 0 50597211.565310538 29387327.786738396 0 0 0 0 121623911.93600464 38709357.11725235 0 38709357.11725235 -39849903.33743763 0 0 0 0 999741.87085129507 -828211.4578162618 0 -828211.4578162618 -700710.90487922495 0 0 0 0 152049090.50489044 73123702.111608267 0 73123702.111608267 114451171.11745071 0 0 0 0 210127027.68800354 44415973.312273026 0 44415973.312273026 -14537563.640577078 0 0 0 0 210242021.9498558 51335306.289567351 0 51335306.289567351 -3747986.1548957825 0 0 0 0 210384332.7438755 50944193.244806409 0 50944193.244806409 -3736114.3151521683 0 0 0 0 253736289.9852829 61715565.350191593 0 61715565.350191593 -11700255.572963953 0 0 0 0 175640943.69380188 61413272.756799698 0 61413272.756799698 -4706346.1055468321 0 0 0 0 109902289.49625397 61613961.678010941 0 61613961.678010941 -28975826.439814568 0 0 0 0 100842614.08125305 98825411.185312271 0 98825411.185312271 -104083430.48908997 0 0 0 0 7556226.0176811218 84410991.757526875 0 84410991.757526875 -33136910.281247377 0 0 0 0 56320120.338733673 -3741338.0429639816 0 -3741338.0429639816 -8537688.8007535934 0 0 0 0 3495759.2813134789 -16381213.894782044 0 -16381213.894782044 -11045334.044089317 0 0 0 0 109952948.66423035 604950.90706825256 0 604950.90706825256 12299090.163516402 0 0 0 0 44201684.778465271 -13005257.443377972 0 -13005257.443377972 9992096.151017189 0 0 0 0 76533341.344062805 53463240.952073097 0 53463240.952073097 -30608924.530456543 0 0 0 0 114421566.29764175 19996011.546593189 0 19996011.546593189 -1051815.5969429016 0 0 0 0 136295365.64157963 57359585.994080842 0 57359585.994080842 25353455.480155945 0 0 0 0 118581754.7293396 -1322751.2652666569 0 -1322751.2652666569 10871977.504477262 0 0 0 0 987690.01914771274 -776288.4578725528 0 -776288.4578725528 -787463.22194408951 0 0 0 0 102817623.24435496 -32744795.842434168 0 -32744795.842434168 25913559.601344109 0 0 0 0 106011367.47510457 -5068499.4856868237 0 -5068499.4856868237 19876525.222176075 0 0 0 0 177409408.25867367 -80289595.468321294 0 -80289595.468321294 -16265224.355230331 0 0 0 0 199032488.15850019 41724333.796153128 0 41724333.796153128 41710594.785394192 0 0 0 0 126651634.86092377 54946317.606619596 0 54946317.606619596 22934944.78941679 0 0 0 0 126509237.72431183 51897724.797994256 0 51897724.797994256 41897392.656885147 0 0 0 0 144273503.2570591 64154983.664912105 0 64154983.664912105 24015980.449778557 0 0 0 0 140621544.44727707 58620144.35170126 0 58620144.35170126 16924090.018165827 0 0 0 0 159192793.46793365 44380596.082345724 0 44380596.082345724 -3768980.4760847092 0 0 0 0 123191412.78006363 15304075.107800245 0 15304075.107800245 5102966.309592247 0 0 0 0 134489072.80214691 15650797.651952267 0 15650797.651952267 -19815776.64764595 0 0 0 0 111946757.03752899 38864488.382963657 0 38864488.382963657 21256072.215927124 0 0 0 0 99469824.595375061 5578764.4054211378 0 5578764.4054211378 4379141.0624494553 0 0 0 0 119687102.28956604 39578696.722082376 0 39578696.722082376 20907388.443345785 0 0 0 0 69526806.971370697 55135607.981482506 0 55135607.981482506 77710332.89958334 0 0 0 0 37842907.628044128 1199297.9234577417 0 1199297.9234577417 37647072.068930626 0 0 0 0 21691152.587838411 -12294216.361636311 0 -12294216.361636311 38867866.995436668 0 0 0 0 21191912.098205566 1141056.2728943825 0 1141056.2728943825 51150527.723621845 0 0 0 0 53996934.091529846 11556352.457146168 0 11556352.457146168 43031323.918253899 0 0 0 0 11112442.075737 -15665846.597651005 0 -15665846.597651005 49636012.238731563 0 0 0 0 9318672.2025756836 -14065706.544432163 0 -14065706.544432163 49882821.176418543 0 0 0 0 15298338.035270691 -32969023.942233443 0 -32969023.942233443 62666104.196666718 0 0 0 0 -132758.43844604492 -8922209.4492368698 0 -8922209.4492368698 86503618.842483044 0 0 0 0 1585934.9226284027 -8316790.5419715643 0 -8316790.5419715643 45938034.262903214 0 0 0 0 13651964.12329483 -16863524.70518446 0 -16863524.70518446 22926685.700365067 0 0 0 0 8805018.2197036743 18017880.458161354 0 18017880.458161354 -39882434.60959959 0 0 0 0 -17948686.585395813 3981641.5302672386 0 3981641.5302672386 28699970.135551333 0 0 0 0 59189128.504047394 -47221938.622178435 0 -47221938.622178435 -8411551.6469621658 0 0 0 0 -10636915.799892426 -24867225.581219912 0 -24867225.581219912 30982276.938717127 0 0 0 0 44401915.948488235 -24089314.326917768 0 -24089314.326917768 26350099.489608765 0 0 0 0 -14501496.967216492 25068556.661322117 0 25068556.661322117 129505212.95104432 0 0 0 0 -6523596.9397506714 2403616.4865896702 0 2403616.4865896702 110787383.63826895 0 0 0 0 9697031.6302337646 20928784.619895935 0 20928784.619895935 60930986.967315197 0 0 0 0 16015359.565414667 2491259.9221303612 0 2491259.9221303612 82823071.194759369 0 0 0 0 -17389550.453666687 27287020.361102104 0 27287020.361102104 100998998.74474573 0 0 0 0 49735100.410598755 -2266460.3731195927 0 -2266460.3731195927 32433680.675816298 0 0 0 0 9398666.3609924316 15046857.031772137 0 15046857.031772137 48263135.206017494 0 0 0 0 25171296.179180145 41548669.409314275 0 41548669.409314275 90238935.799172401 0 0 0 0 172555.31423187256 -16077928.8744874 0 -16077928.8744874 28857321.767830372 0 0 0 0 -17933429.884902954 -10935864.209415436 0 -10935864.209415436 -21462393.005676985 0 0 0 0 -17523053.29675293 36222172.078620911 0 36222172.078620911 -101241190.92398834 0 0 0 0 -41502655.509552002 -4770363.8890285492 0 -4770363.8890285492 -22371087.208870888 0 0 0 0 -42273826.80368042 34975471.240031242 0 34975471.240031242 -39009903.539066315 0 0 0 0 -15046054.182342529 4322242.0026187897 0 4322242.0026187897 46579220.947244287 0 0 0 0 8441610.6894779205 14191194.468184114 0 14191194.468184114 -1208577.6291713715 0 0 0 0 6720292.6610031128 -15037968.354018688 0 -15037968.354018688 -18555280.176996231 0 0 0 0 277805.68453414738 1026145.2061910371 0 1026145.2061910371 462001.45425400976 0 0 0 0 12702369.063247681 29797518.885128975 0 29797518.885128975 -67739194.846557617 0 0 0 0 25018704.467453003 15467568.705821991 0 15467568.705821991 -64492678.641265154 0 0 0 0 8621308.6084747314 16820719.301874638 0 16820719.301874638 43750.793309211731 0 0 0 0 -7187446.7081756592 17584701.025847435 0 17584701.025847435 204013.78402042389 0 0 0 0 -1289439.2997817993 28667276.712136745 0 28667276.712136745 -30157430.684680939 0 0 0 0 -28606598.109771729 11826406.610303879 0 11826406.610303879 -60018278.892475128 0 0 0 0 -41530907.391311646 30540979.003365517 0 30540979.003365517 -30117060.856975555 0 0 0 0 -14402054.303817749 11154020.498222351 0 11154020.498222351 60007705.452876329 0 0 0 0 -121700915.91973114 -72610051.17842555 0 -72610051.17842555 162798523.50875664 0 0 0 0 139462843.92586517 -25542529.461751938 0 -25542529.461751938 -136444379.89981556 0 0 0 0 -17140712.830410004 -8812157.3774795532 0 -8812157.3774795532 -6388209.9304046631 0 0 0 0 -1897889.2523193359 -8367913.5457117558 0 -8367913.5457117558 -21496897.574057102 0 0 0 0 16361019.167732239 759388.99297070503 0 759388.99297070503 -64126575.54679966 0 0 0 0 198393.64136915933 -526764.34292438067 0 -526764.34292438067 186662.99207529193 0 0 0 0 -13059484.779663086 -14482969.995361328 0 -14482969.995361328 -191250129.8624115 0 0 0 0 9722.0432844907045 -13156.753553327173 0 -13156.753553327173 -2770.5711927819066 0 0 0 0 129051634.88217926 39385663.24262619 0 39385663.24262619 -83654675.813274384 0 0 0 0 -10694126.515193939 -18769647.751236916 0 -18769647.751236916 8746553.440325737 0 0 0 0 190370669.77235413 123408538.66548634 0 123408538.66548634 -10868046.510465622 0 0 0 0 200959813.2204895 126812988.34265709 0 126812988.34265709 -14355064.695716858 0 0 0 0 -176910693.58481979 -141620877.6073432 0 -141620877.6073432 -27827765.533574104 0 0 0 0 581376.88073142339 -423416.46996050328 0 -423416.46996050328 -717250.73471428081 0 0 0 0 107748255.85777283 -54838580.52347064 0 -54838580.52347064 26016264.602082253 0 0 0 0 252501680.81318665 50785774.486132622 0 50785774.486132622 -86944030.386156082 0 0 0 0 173920346.5513916 -8261474.1937599182 0 -8261474.1937599182 -127969238.95898819 0 0 0 0 90714756.889228821 76736966.053683281 0 76736966.053683281 31948398.724829674 0 0 0 0 132646014.0580101 -26547028.813002825 0 -26547028.813002825 -29569519.565989971 0 0 0 0 -32514.317409705371 672699.89855401416 0 672699.89855401416 183796.38731325639 0 0 0 0 -46236.155912514776 1308674.4640758196 0 1308674.4640758196 222611.30404571444 0 0 0 0 5494775.0997772217 -15775507.940574169 0 -15775507.940574169 -16042579.109243393 0 0 0 0 46209355.042327881 42819796.750386238 0 42819796.750386238 34395762.060168937 0 0 0 0 -11971304.396923065 -4737601.0721218586 0 -4737601.0721218586 33650816.206619263 0 0 0 0 4426513.4139556885 11301750.353721619 0 11301750.353721619 -2278471.0226736069 0 0 0 0 107937612.76063156 9358948.3884110451 0 9358948.3884110451 57231838.674116135 0 0 0 0 110962078.08718109 53810177.475574255 0 53810177.475574255 28991253.381504059 0 0 0 0 84305334.6641922 54201744.376172066 0 54201744.376172066 32284952.444703698 0 0 0 0 96907716.720910072 14217463.140100598 0 14217463.140100598 25533785.867273331 0 0 0 0 4444471.6077079773 7754129.2806997299 0 7754129.2806997299 32444886.702953339 0 0 0 0 44760411.434417725 40297994.171626091 0 40297994.171626091 29422104.91893959 0 0 0 0 61575107.162757874 25460474.295453072 0 25460474.295453072 -9426435.088760376 0 0 0 0 5051076.5118103027 -985681.32906484604 0 -985681.32906484604 7694093.7653675079 0 0 0 0 71893980.030982971 55141490.237630844 0 55141490.237630844 19345689.582801104 0 0 0 0 67677909.765499115 17760505.909007311 0 17760505.909007311 8776303.2761764526 0 0 0 0 58186610.517877579 27567463.862039804 0 27567463.862039804 10615622.146469116 0 0 0 0 79768365.221817017 22490507.141911983 0 22490507.141911983 -13638399.523776054 0 0 0 0 158916447.59370852 89024189.000639081 0 89024189.000639081 36774381.91071701 0 0 0 0 700782.92416161299 182713.91926044039 0 182713.91926044039 -500059.4955536304 0 0 0 0 -30230.014543287456 -607846.17592440359 0 -607846.17592440359 675320.59748871531 0 0 0 0 191448141.36148834 -139113634.54528046 0 -139113634.54528046 62855165.665930748 0 0 0 0 34587263.834465027 31048656.678831339 0 31048656.678831339 10776176.293435097 0 0 0 0 -20819940.904727936 17554795.559323311 0 17554795.559323311 30405713.337408066 0 0 0 0 134180308.44858551 19185538.162881851 0 19185538.162881851 -54573915.471281052 0 0 0 0 135595529.79016113 9292155.5029268265 0 9292155.5029268265 -14563451.46473217 0 0 0 0 124597961.81360626 -48419654.340809822 0 -48419654.340809822 13130044.764048576 0 0 0 0 68324.903683494776 552713.96015223581 0 552713.96015223581 15414.878030594671 0 0 0 0 145749156.90907288 1773073.1986703873 0 1773073.1986703873 -45100776.044377804 0 0 0 0 -151570.56619396713 -745359.16094727442 0 -745359.16094727442 680354.31234265491 0 0 0 0 -24187001.250350952 64176991.872979641 0 64176991.872979641 78148361.471274376 0 0 0 0 55906738.143203735 -72390748.722270489 0 -72390748.722270489 7796418.3747119904 0 0 0 0 -57428819.991504669 -7734046.7286486626 0 -7734046.7286486626 7653913.7613668442 0 0 0 0 163581285.81667328 18210776.748073578 0 18210776.748073578 -33650705.603820801 0 0 0 0 76259803.928726196 80951909.190280914 0 80951909.190280914 75955873.377531052 0 0 0 0 85279327.735843658 58194783.85205555 0 58194783.85205555 -2559429.0104064941 0 0 0 0 85669917.221466064 46857043.636862755 0 46857043.636862755 -11511586.521167755 0 0 0 0 83741387.995555878 42908438.822237492 0 42908438.822237492 -3526201.1876182556 0 0 0 0 92072798.448738098 38510047.768599987 0 38510047.768599987 -5363810.4981107712 0 0 0 0 -236669.42650488392 -940410.26721068285 0 -940410.26721068285 432016.82395728957 0 0 0 0 233718270.27650642 -21283454.890503764 0 -21283454.890503764 -40904712.124416351 0 0 0 0 70958885.994632721 814492.38612699509 0 814492.38612699509 -33378953.014591217 0 0 0 0 50114432.659095764 71782054.248796463 0 71782054.248796463 -22737728.22029686 0 0 0 0 43910132.946891785 53562964.759004593 0 53562964.759004593 -134120954.48223495 0 0 0 0 33995122.714558601 8073388.3965550661 0 8073388.3965550661 -29667554.987989426 0 0 0 0 -46540729.887107849 4336535.0460019112 0 4336535.0460019112 -26108680.958431244 0 0 0 0 -28794512.507411957 -113121255.86833262 0 -113121255.86833262 -141054127.17610931 0 0 0 0 -74038721.07901001 77433462.169178009 0 77433462.169178009 -148892692.76885033 0 0 0 0 63681593.809150696 -36221034.529919624 0 -36221034.529919624 -40952828.998158932 0 0 0 0 139665842.28486538 54420767.675068855 0 54420767.675068855 -121504688.17456818 0 0 0 0 63068821.657997131 -730830.48021125793 0 -730830.48021125793 -19062770.984589577 0 0 0 0 53157012.836219788 32642472.597367764 0 32642472.597367764 -4824243.3044691086 0 0 0 0 29439194.976768494 -46609433.520598412 0 -46609433.520598412 24330603.539544106 0 0 0 0 137424830.30467224 42795874.482718945 0 42795874.482718945 15878598.746543884 0 0 0 0 126206465.87775421 -43312329.555936813 0 -43312329.555936813 -13146719.773587227 0 0 0 0 96664111.031932831 -39971666.010616302 0 -39971666.010616302 3444353.4602003098 0 0 0 0 100258013.20942783 -80542977.196453869 0 -80542977.196453869 7539141.6815338135 0 0 0 0 158833807.94518852 -41621709.129520893 0 -41621709.129520893 -15026671.023735046 0 0 0 0 143471754.98063278 -72476029.980934024 0 -72476029.980934024 -23882185.47379303 0 0 0 0 527440.12484517135 -454080.15826976672 0 -454080.15826976672 -345970.46259338595 0 0 0 0 71029109.289171219 -26171909.999507904 0 -26171909.999507904 168578735.13307571 0 0 0 0 249526401.59557724 29383302.424292088 0 29383302.424292088 -17224914.267225266 0 0 0 0 182863383.84825134 -12877504.57118082 0 -12877504.57118082 29046820.014184952 0 0 0 0 4990385.3828830719 68696749.225234747 0 68696749.225234747 -61805860.927559853 0 0 0 0 33491248.648967743 -3029746.5043783188 0 -3029746.5043783188 -58383595.642343521 0 0 0 0 -289823.65409451351 428760.91132841166 0 428760.91132841166 557213.39127092715 0 0 0 0 117257642.04746246 -87634316.375597954 0 -87634316.375597954 -13155101.664290905 0 0 0 0 -424604.58929769322 763000.34235840384 0 763000.34235840384 943004.47685666103 0 0 0 0 19405762.138660431 26900782.786224365 0 26900782.786224365 -64376411.619985461 0 0 0 0 202022636.50999069 2038983.3452670574 0 2038983.3452670574 -54859089.271338463 0 0 0 0 71380488.016978264 782368.5577070713 0 782368.5577070713 113629973.06698322 0 0 0 0 68880778.293972015 -107733547.18057394 0 -107733547.18057394 58708730.288741112 0 0 0 0 154274676.00390625 79623421.207820892 0 79623421.207820892 -7116265.2846889496 0 0 0 0 196137410.63596916 -29470997.695074558 0 -29470997.695074558 -42331326.604784012 0 0 0 0 34338676.315116882 -79169189.946638107 0 -79169189.946638107 122206008.98987865 0 0 0 0 467061.86818740517 302772.28441642155 0 302772.28441642155 -329200.77084993059 0 0 0 0 11633286.185009003 18738096.592572212 0 18738096.592572212 -4425809.6935243607 0 0 0 0 -52085851.274311066 -2466486.7944226265 0 -2466486.7944226265 87486237.287764549 0 0 0 0 -24914323.787395477 75589127.419692993 0 75589127.419692993 -26007895.564089775 0 0 0 0 -347675.49950593524 457423.89738180116 0 457423.89738180116 605033.42804172635 0 0 0 0 17216423.375213623 -32260795.486701012 0 -32260795.486701012 23503941.560173988 0 0 0 0 42522548.852176666 43810421.073925018 0 43810421.073925018 -11242680.128873825 0 0 0 0 1643556.0603675842 -66882675.344176292 0 -66882675.344176292 -37222784.784769058 0 0 0 0 2560631.9715528116 -1244026.1095676948 0 -1244026.1095676948 -2407293.5026402655 0 0 0 0 6202072.9866638184 -23993.349485874176 0 -23993.349485874176 -4446372.9123296738 0 0 0 0 5875000.4124450684 2274661.4155440331 0 2274661.4155440331 -7157051.9744763374 0 0 0 0 8753848.7855963297 771401.71929564292 0 771401.71929564292 -4068233.1804379965 0 0 0 0 5050890.8283958435 915263.09933578968 0 915263.09933578968 -1388338.4827346802 0 0 0 0 -45433861.211511612 -49081101.732691526 0 -49081101.732691526 78987740.527572632 0 0 0 0 108794259.53506851 37692633.889853001 0 37692633.889853001 -49937792.927024841 0 0 0 0 5682961.394865389 -622447.19837081991 0 -622447.19837081991 -4051938.2872095765 0 0 0 0 13730161.518438339 8271772.7571222782 0 8271772.7571222782 -12806883.958837509 0 0 0 0 52209993.760465622 -10681820.070375681 0 -10681820.070375681 -3953107.7676951885 0 0 0 0 4692103.0560157485 -1727564.3212643526 0 -1727564.3212643526 -2653781.1608549296 0 0 0 0 7336270.3777656555 -729837.52786159515 0 -729837.52786159515 -748724.92805528641 0 0 0 0 4550033.1767855082 2275781.1645052787 0 2275781.1645052787 -3571600.8914039414 0 0 0 0 -13451916.359491348 -4163629.2223626375 0 -4163629.2223626375 -8668545.2959878445 0 0 0 0 3557502.324954344 1463725.7890878534 0 1463725.7890878534 -3203277.8236969137 0 0 0 0 -2708511.6030044556 3276117.3140136003 0 3276117.3140136003 -4407883.6371362209 0 0 0 0 -16962520.006732941 8282790.3504012823 0 8282790.3504012823 -4816326.5974418521 0 0 0 0 125945.18234909326 -361533.54256059881 0 -361533.54256059881 -989904.47244133241 0 0 0 0 52857211.853021622 -17142377.475180626 0 -17142377.475180626 -22390899.649626255 0 0 0 0 38603862.123931885 -28806106.478886127 0 -28806106.478886127 -23565554.056469083 0 0 0 0 4371378.990398407 9523299.5472621918 0 9523299.5472621918 -31309123.745895982 0 0 0 0 82836382.419281006 -37915917.347553253 0 -37915917.347553253 -7860539.9243841171 0 0 0 0 27041787.362388611 -22777688.43202877 0 -22777688.43202877 -11620474.534908295 0 0 0 0 43583873.740940094 -6158102.8660354316 0 -6158102.8660354316 -88883687.279790521 0 0 0 0 22060523.226554871 -8621193.7932138145 0 -8621193.7932138145 2116311.9974591434 0 0 0 0 123275931.0119524 22762895.687558942 0 22762895.687558942 -42594237.150538906 0 0 0 0 46532155.963806152 25655093.371728837 0 25655093.371728837 -3705622.7968560457 0 0 0 0 73913256.192017078 31008000.270430867 0 31008000.270430867 -18093709.500573635 0 0 0 0 42585651.642364502 28799025.312647343 0 28799025.312647343 -13029206.395605087 0 0 0 0 40356528.924190521 10068756.073270217 0 10068756.073270217 -24572565.900055647 0 0 0 0 40169404.301490784 13512890.737324595 0 13512890.737324595 -38093667.791144371 0 0 0 0 18119564.515399933 20686618.003974468 0 20686618.003974468 -24848606.808654875 0 0 0 0 38370390.226490974 12562774.49190557 0 12562774.49190557 -27255758.153285027 0 0 0 0 5067745.1984710693 -1569727.4021446407 0 -1569727.4021446407 -19881695.455319859 0 0 0 0 4047193.4825687408 804548.39667655528 0 804548.39667655528 -25405218.170266628 0 0 0 0 -16759492.200651824 -36538776.180160575 0 -36538776.180160575 -67438959.90472503 0 0 0 0 -15487236.540493011 6986621.8935141861 0 6986621.8935141861 -19370181.797999218 0 0 0 0 -4244614.6126213074 94130613.007672071 0 94130613.007672071 77390911.66627413 0 0 0 0 19661629.573278427 -32260621.895058066 0 -32260621.895058066 -130698056.57443973 0 0 0 0 -13391.416159365326 -164528.00745325582 0 -164528.00745325582 82796.717865176513 0 0 0 0 15090987.983459473 21487773.005576134 0 21487773.005576134 -90142782.602415636 0 0 0 0 8258397.1258735843 1279071.367477078 0 1279071.367477078 -3531249.1418121625 0 0 0 0 -4213032.6551055908 2377716.2058392763 0 2377716.2058392763 -25612860.665214002 0 0 0 0 11789608.399436951 -7450138.3907325957 0 -7450138.3907325957 -33610275.109839365 0 0 0 0 -5478803.5529518127 2619336.5364932716 0 2619336.5364932716 -18380315.987283349 0 0 0 0 -7047509.5309257507 -8540536.416034244 0 -8540536.416034244 -31073749.983441249 0 0 0 0 1547288.9098711014 -20087996.153850086 0 -20087996.153850086 -72814781.206140757 0 0 0 0 4767231.3737335205 1801532.9854664803 0 1801532.9854664803 -7361366.21728158 0 0 0 0 3465960.3725547791 577741.11607718468 0 577741.11607718468 -2614902.2211418152 0 0 0 0 5810464.0407725293 1731117.556984161 0 1731117.556984161 -3187555.5371799832 0 0 0 0 48116.05029296875 42752648.721421927 0 42752648.721421927 33312828.65974319 0 0 0 0 6302338.6352157593 -662444.95930445194 0 -662444.95930445194 -2976098.9723358154 0 0 0 0 4587382.8431396484 29941219.658370733 0 29941219.658370733 -57983598.247426331 0 0 0 0 35564220.407783508 7419049.3263264894 0 7419049.3263264894 -21264906.011209726 0 0 0 0 51998953.64632225 38901530.175522119 0 38901530.175522119 -15223509.085350037 0 0 0 0 -14767335.123535156 -4060117.5372319221 0 -4060117.5372319221 -2684584.8318172693 0 0 0 0 6176659.6710605621 30865753.766018897 0 30865753.766018897 8756192.8165109158 0 0 0 0 -46984414.25233078 4352920.5057367086 0 4352920.5057367086 -3401426.2852683067 0 0 0 0 -20633852.580271721 26736243.218058571 0 26736243.218058571 -49015778.711985111 0 0 0 0 -87794545.25737381 -11627320.9946208 0 -11627320.9946208 -62056095.982007265 0 0 0 0 -14839920.73544693 83916148.967272997 0 83916148.967272997 -51868056.928187467 0 0 0 0 -135757611.7378006 112633335.54816914 0 112633335.54816914 -52055679.20676177 0 0 0 0 39031799.439256191 118361812.18611135 0 118361812.18611135 -187106653.07750988 0 0 0 0 8417502.195189476 37913439.941919535 0 37913439.941919535 16020012.775411963 0 0 0 0 30564920.175333977 63966457.177278519 0 63966457.177278519 -93610860.649751186 0 0 0 0 43499286.064506531 80095305.009101629 0 80095305.009101629 -79752783.470001936 0 0 0 0 71311528.599754333 77479607.93655777 0 77479607.93655777 -89168603.842153311 0 0 0 0 67323775.076816559 12615276.723001599 0 12615276.723001599 -84888490.734930634 0 0 0 0 -14129956.472320557 30348072.751524985 0 30348072.751524985 -83802289.115419209 0 0 0 0 93808.627169949934 -253975.87553568324 0 -253975.87553568324 95970.492860251543 0 0 0 0 54404809.870182037 45851931.089069694 0 45851931.089069694 -92445067.079404235 0 0 0 0 128346580.20845985 2796294.4738434553 0 2796294.4738434553 -8513436.9043645859 0 0 0 0 186073736.43251801 -8314133.3214165568 0 -8314133.3214165568 -13476913.189035177 0 0 0 0 64804.147918548435 170237.98867619783 0 170237.98867619783 2370.8537714944687 0 0 0 0 41021394.391584396 55288875.921456814 0 55288875.921456814 -92543257.522774339 0 0 0 0 40706166.773166656 6878629.1474707127 0 6878629.1474707127 4189889.500171423 0 0 0 0 37836893.157501221 32460813.676316619 0 32460813.676316619 -13128394.562332153 0 0 0 0 42500463.576553345 26688679.79796648 0 26688679.79796648 -16537018.629060507 0 0 0 0 60714021.359039307 12873131.430635929 0 12873131.430635929 -40607165.32542634 0 0 0 0 56128576.888575554 42663568.496222496 0 42663568.496222496 -145349115.06287837 0 0 0 0 -63080862.271083832 214346844.23425388 0 214346844.23425388 -153240294.65131474 0 0 0 0 -100660650.71986771 182454358.07377911 0 182454358.07377911 -179408602.90306056 0 0 0 0 -106178189.46175933 89529792.996827498 0 89529792.996827498 -72639849.795594215 0 0 0 0 -294668932.24137688 120239943.94537807 0 120239943.94537807 -76051113.870018482 0 0 0 0 60296.605952099897 113695.04085542448 0 113695.04085542448 -518423.27260297397 0 0 0 0 -120910029.68385696 320115369.17143548 0 320115369.17143548 -143903863.75665665 0 0 0 0 -312152267.08566284 362068823.00527096 0 362068823.00527096 -52510631.942017078 0 0 0 0 27126299.414277077 -199186354.13118708 0 -199186354.13118708 -131819487.45605183 0 0 0 0 -50418774.341021538 46148578.444759429 0 46148578.444759429 11088226.026754379 0 0 0 0 -36409.92962092394 -65014.661651055329 0 -65014.661651055329 -627566.10299581056 0 0 0 0 54552408.026805878 55356885.131519675 0 55356885.131519675 -39061494.653705359 0 0 0 0 108961391.97175598 16866319.258304238 0 16866319.258304238 -23396066.591266394 0 0 0 0 109700.06509885518 226696.51507145073 0 226696.51507145073 68519.97181537631 0 0 0 0 61638262.800823212 -3470874.9891755581 0 -3470874.9891755581 17097988.277207136 0 0 0 0 206212311.21097946 -21067654.731029272 0 -21067654.731029272 -30545727.9301579 0 0 0 0 64840665.612110138 12156313.545959353 0 12156313.545959353 39187225.339072466 0 0 0 0 -2771789.4530000687 14217719.49833104 0 14217719.49833104 322819.85048055649 0 0 0 0 52206688.324504852 -42213220.922323465 0 -42213220.922323465 11110198.484899625 0 0 0 0 -776399.33402203768 -541104.13812898938 0 -541104.13812898938 279482.9823283758 0 0 0 0 42773666.836679459 -32608663.848126173 0 -32608663.848126173 25958455.190254688 0 0 0 0 37902561.584779739 -28347905.490574598 0 -28347905.490574598 22520795.180362225 0 0 0 0 32562475.545289993 -22124265.565910578 0 -22124265.565910578 9457049.2047629356 0 0 0 0 3601463.1777057648 3320256.9517800808 0 3320256.9517800808 -4125715.3739233017 0 0 0 0 -609055.13690435886 424792.06933738198 0 424792.06933738198 -14575.267666850588 0 0 0 0 -536838461.47077179 204899533.52480197 0 204899533.52480197 11528543.095954895 0 0 0 0 580962.28126591863 116798.27892335411 0 116798.27892335411 -678033.46267639543 0 0 0 0 3871312.5626535416 3316154.3906456828 0 3316154.3906456828 -169342707.58159208 0 0 0 0 2276840.8556060791 -4847227.3185536861 0 -4847227.3185536861 -2218135.9412409663 0 0 0 0 1411378.9673236981 1300608.8752630269 0 1300608.8752630269 -420775.80460383045 0 0 0 0 -66341608.022609711 131612468.55565333 0 131612468.55565333 -140826811.5641613 0 0 0 0 -57952419.581741333 137088487.11195087 0 137088487.11195087 -167848481.58632439 0 0 0 0 -148345865.29923248 122999961.59949565 0 122999961.59949565 -64173872.506077766 0 0 0 0 -91168805.47876358 20142942.974796772 0 20142942.974796772 47410577.62338829 0 0 0 0 -54260611.418453217 77235685.953096151 0 77235685.953096151 -175036634.02236414 0 0 0 0 -47089413.84888649 36349777.256107211 0 36349777.256107211 -85819125.677511692 0 0 0 0 -8863463.2412605286 56833222.553834915 0 56833222.553834915 -268155845.40981507 0 0 0 0 1154008.3023655321 1341447.9111255948 0 1341447.9111255948 478056.44791775662 0 0 0 0 -6092374.3809623718 -16048925.123993158 0 -16048925.123993158 -7014984.8334350586 0 0 0 0 -56744837.477211952 175840096.6751551 0 175840096.6751551 -261544847.00598764 0 0 0 0 -511150.83813448623 -277528.21997500956 0 -277528.21997500956 363076.07033138629 0 0 0 0 60875113.399450302 -39423493.965608001 0 -39423493.965608001 31277285.531653166 0 0 0 0 739678.8702791445 1340360.4516166011 0 1340360.4516166011 1185230.5293400188 0 0 0 0 7552090.1343154907 -18993222.036915779 0 -18993222.036915779 -23975352.031312704 0 0 0 0 -5864061.3133926392 22071122.417348623 0 22071122.417348623 15106301.96651125 0 0 0 0 -130615135.17585754 322405131.85316682 0 322405131.85316682 -206614550.14137459 0 0 0 0 -29614002.192016602 384363787.07677078 0 384363787.07677078 -488190347.73980522 0 0 0 0 -58817151.662576675 -33623385.432255566 0 -33623385.432255566 -113210684.23923349 0 0 0 0 35658499.831321716 339441730.98741913 0 339441730.98741913 182433742.23118973 0 0 0 0 -245483725.26858902 212787875.71187833 0 212787875.71187833 861105271.58353257 0 0 0 0 330558997.68210983 333477600.06329763 0 333477600.06329763 213045665.35123265 0 0 0 0 -7681048.0665516853 -29327441.045373693 0 -29327441.045373693 468298199.87634301 0 0 0 0 290267413.30875778 -139124817.66436768 0 -139124817.66436768 44749651.486506283 0 0 0 0 -68605437.793629646 9477382.1088433564 0 9477382.1088433564 -122471863.07465792 0 0 0 0 -13180917.851863861 67388354.522812963 0 67388354.522812963 -62163618.752122164 0 0 0 0 -58264416.740930557 -77775877.953249812 0 -77775877.953249812 61213982.600246429 0 0 0 0 48045317.788379669 -33827235.472020626 0 -33827235.472020626 -95446427.847152382 0 0 0 0 -71929750.545793533 -55570771.982446074 0 -55570771.982446074 25182367.318813503 0 0 0 0 -1007907.3578910828 -16183024.333641052 0 -16183024.333641052 15183938.630123913 0 0 0 0 -5521919.4315032959 118108886.86692214 0 118108886.86692214 129874310.37928176 0 0 0 0 -74198575.036754608 144964747.83475709 0 144964747.83475709 158884130.61517376 0 0 0 0 -114141.08323965734 -113050.9893807387 0 -113050.9893807387 217134.42536235321 0 0 0 0 -871541.67761993408 81682823.726330042 0 81682823.726330042 145300201.27149361 0 0 0 0 38718455.147159576 45112501.091571987 0 45112501.091571987 -9583468.2299904823 0 0 0 0 54143457.204551697 79832314.846039057 0 79832314.846039057 44206975.856249332 0 0 0 0 177863960.85396576 155193295.36864257 0 155193295.36864257 43353032.719925158 0 0 0 0 37364966.811042786 71644893.30294466 0 71644893.30294466 7047250.1891038418 0 0 0 0 95118138.796457291 41365185.719181836 0 41365185.719181836 -76493481.735719204 0 0 0 0 48962282.038352966 -11114120.87681973 0 -11114120.87681973 -68156107.303994417 0 0 0 0 3282047.2044769721 1375460.8972537806 0 1375460.8972537806 424746.85913777607 0 0 0 0 155069127.71540451 55686677.390896678 0 55686677.390896678 -11047782.547259808 0 0 0 0 -11560610.39458847 51606932.147330523 0 51606932.147330523 75129973.687302589 0 0 0 0 1028072.3679885864 -16408786.980392933 0 -16408786.980392933 13520283.83823514 0 0 0 0 -48495672.846484184 -149131573.99245191 0 -149131573.99245191 47965908.649252415 0 0 0 0 1370300.9244200699 -223794.40195578081 0 -223794.40195578081 -296801.67162364128 0 0 0 0 254446776.83236694 -130741930.63416672 0 -130741930.63416672 -73655493.022079706 0 0 0 0 128723042.82151031 301385970.42951274 0 301385970.42951274 330004842.46560538 0 0 0 0 10704249.515213013 158117996.09930003 0 158117996.09930003 206689742.84758711 0 0 0 0 91234296.686935425 40905449.650130987 0 40905449.650130987 14760339.473270178 0 0 0 0 400726812.30384636 189527386.71514958 0 189527386.71514958 48821906.216940403 0 0 0 0 247471718.90893555 -91669580.132534504 0 -91669580.132534504 35229281.493991554 0 0 0 0 255687647.09639359 -90347780.571717203 0 -90347780.571717203 27217963.936365843 0 0 0 0 95861639.417577744 -85493037.170793653 0 -85493037.170793653 117556295.84726024 0 0 0 0 196904393.63180923 -83157791.775274277 0 -83157791.775274277 36364186.457350969 0 0 0 0 59667.384453453589 79870.486899968237 0 79870.486899968237 62450.903202157235 0 0 0 0 163737653.06955671 6476175.1838647574 0 6476175.1838647574 -16311713.613232613 0 0 0 0 207530996.02088165 -34160879.789173603 0 -34160879.789173603 21948935.549382567 0 0 0 0 63043602.32119751 18203699.719483614 0 18203699.719483614 70696558.275136113 0 0 0 0 47070126.610286713 -22727277.352478147 0 -22727277.352478147 -11912634.086856842 0 0 0 0 -165745.19791799597 -187377.15820930246 0 -187377.15820930246 56380.826948793372 0 0 0 0 -101546337.23076487 71448243.992192775 0 71448243.992192775 24680713.439872503 0 0 0 0 -98788698.749838352 -13818077.091639966 0 -13818077.091639966 150451540.52186048 0 0 0 0 1710267.9708480835 35149835.315689802 0 35149835.315689802 168599940.05296522 0 0 0 0 112122161.03736305 -5845154.2964112759 0 -5845154.2964112759 -5367765.432071358 0 0 0 0 123259312.65539455 110157329.41610697 0 110157329.41610697 175098544.37403917 0 0 0 0 116964849.53875411 -57955740.187473252 0 -57955740.187473252 61270422.756411791 0 0 0 0 258330489.6364975 -19242771.406036258 0 -19242771.406036258 63085606.759205043 0 0 0 0 234827821.63383865 -58003062.700702786 0 -58003062.700702786 84026001.98526895 0 0 0 0 360657874.87129402 -115088323.33331281 0 -115088323.33331281 24771061.411512136 0 0 0 0 493961347.23200226 213096866.27797592 0 213096866.27797592 -89393385.531608522 0 0 0 0 356422657.0057354 223175484.06415522 0 223175484.06415522 124360112.68413711 0 0 0 0 -35133154.762835503 48311082.854037583 0 48311082.854037583 93159449.323675632 0 0 0 0 -264.70870987977833 157398.34082424268 0 157398.34082424268 849446.7141902342 0 0 0 0 714867424.38423347 34597361.749840438 0 34597361.749840438 70598308.484721184 0 0 0 0 347110079.79253769 -61703563.410150826 0 -61703563.410150826 60867826.75031653 0 0 0 0 114692792.42691803 75144138.664574385 0 75144138.664574385 242559249.55687451 0 0 0 0 98359284.697974205 4821313.3594604284 0 4821313.3594604284 100510562.38234329 0 0 0 0 -12752320.87902832 31742227.002763987 0 31742227.002763987 105889573.09892642 0 0 0 0 -16667170.259742737 12189796.407225609 0 12189796.407225609 181370100.7828638 0 0 0 0 -3571177.498298645 35556620.0049254 0 35556620.0049254 92202033.645401716 0 0 0 0 -25630623.211605072 -8091217.9178128839 0 -8091217.9178128839 -77903128.062436521 0 0 0 0 -65616537.322418213 -71555848.698403716 0 -71555848.698403716 38420937.060651064 0 0 0 0 4817338.6476430595 -4212400.8909057723 0 -4212400.8909057723 -2942032.0589158903 0 0 0 0 -5603314.0207271576 -149862338.96146634 0 -149862338.96146634 -177384515.82727504 0 0 0 0 -258179387.26613998 153416196.23292422 0 153416196.23292422 -179370200.12866902 0 0 0 0 -377928691.96008682 42634531.279206902 0 42634531.279206902 -130226554.47083712 0 0 0 0 -529537133.47049522 432937933.40040678 0 432937933.40040678 -213162550.43840027 0 0 0 0 720438925.97859192 505000947.47178984 0 505000947.47178984 -580611378.65093231 0 0 0 0 122121535.92272186 189139416.68142939 0 189139416.68142939 -180527837.36856794 0 0 0 0 342576513.26765633 -380985228.42828608 0 -380985228.42828608 -318770520.31706524 0 0 0 0 -12848866.547016144 -80264732.959773064 0 -80264732.959773064 -354950687.72821414 0 0 0 0 1032586646.8670921 -461572377.76124287 0 -461572377.76124287 -249270747.69999039 0 0 0 0 41908022.246655464 93606583.707835704 0 93606583.707835704 3894357.692858994 0 0 0 0 -112392985.08930969 -119095782.45921773 0 -119095782.45921773 28139383.703774374 0 0 0 0 80882549.677455902 -202880109.97252309 0 -202880109.97252309 -251764205.30033869 0 0 0 0 4787188.8773255832 -2226655.6362053081 0 -2226655.6362053081 -1498201.5481540733 0 0 0 0 47774672.274791718 -92039205.538146496 0 -92039205.538146496 -229739328.13133502 0 0 0 0 -474422284.45503998 79686763.559482574 0 79686763.559482574 -197555974.66161156 0 0 0 0 2177239.9929176345 -651202.99796804576 0 -651202.99796804576 -531961.13449179265 0 0 0 0 721027210.98587799 394863308.90241116 0 394863308.90241116 -97349254.144926503 0 0 0 0 546537980.67672729 360600347.49399519 0 360600347.49399519 -101995238.95499116 0 0 0 0 -97864724.379066467 144461602.39267054 0 144461602.39267054 434843960.31161237 0 0 0 0 573141036.4535141 40401128.339103416 0 40401128.339103416 -113317209.05621025 0 0 0 0 621753323.0871315 303040948.79037678 0 303040948.79037678 -30706222.681221377 0 0 0 0 25251605.948588669 39898898.773981214 0 39898898.773981214 46463962.112205505 0 0 0 0 24969774.259401321 47544005.677512288 0 47544005.677512288 51252686.335166931 0 0 0 0 90764260.743141174 25494281.062595367 0 25494281.062595367 50136644.13053894 0 0 0 0 12909901.346583754 8935621.6775360107 0 8935621.6775360107 3864609.5266311169 0 0 0 0 10766994.386340678 7660236.9496662859 0 7660236.9496662859 5569173.0913645457 0 0 0 0 19692951.71778696 7118001.0791721661 0 7118001.0791721661 12805407.754492499 0 0 0 0 21077908.592202142 -3029449.1527524525 0 -3029449.1527524525 -15347312.506391672 0 0 0 0 -13805226.328277588 -28813520.021685243 0 -28813520.021685243 -17366602.566834331 0 0 0 0 104185681.71136475 40828521.790603638 0 40828521.790603638 -1556078.8340759277 0 0 0 0 74936068.073493958 53146322.845424652 0 53146322.845424652 118766642.39509583 0 0 0 0 -1317898.3139632847 -1789762.9899461577 0 -1789762.9899461577 -457544.84978151787 0 0 0 0 12751225.890409231 8403481.8829975128 0 8403481.8829975128 8943362.5703668594 0 0 0 0 16222590.58176291 8624389.8960599899 0 8624389.8960599899 10971790.080230713 0 0 0 0 18794603.985669553 7123519.5317276716 0 7123519.5317276716 8314865.1650428772 0 0 0 0 17281105.021271944 2262451.9760494232 0 2262451.9760494232 2438466.9453048706 0 0 0 0 16373904.059882641 4132533.9792203903 0 4132533.9792203903 -150124.22469806671 0 0 0 0 93642928.355602264 21844380.50652957 0 21844380.50652957 -14187692.362411022 0 0 0 0 18885537.402040426 641023.824911932 0 641023.824911932 -383602.13969092304 0 0 0 0 14797242.745890498 -1492509.0846948624 0 -1492509.0846948624 2301877.2722563744 0 0 0 0 12982655.42603761 1452736.5531744957 0 1452736.5531744957 7698262.6724472046 0 0 0 0 26548506.345848083 -17856747.145899177 0 -17856747.145899177 -40270807.291579247 0 0 0 0 12434181.676961606 4464783.9262452675 0 4464783.9262452675 916642.3023323433 0 0 0 0 5284029.6018089373 1998344.9474522769 0 1998344.9474522769 -2782804.343409251 0 0 0 0 -11177941.161037445 -24465989.532228887 0 -24465989.532228887 -15364821.769313097 0 0 0 0 22898025.955682755 34421829.223831981 0 34421829.223831981 10017852.763980389 0 0 0 0 -6626540.372177124 13288579.441452742 0 13288579.441452742 51710417.878097415 0 0 0 0 1204599.3251724243 -27542682.435517311 0 -27542682.435517311 -25978547.511606693 0 0 0 0 15192816.361629486 -10566206.617530048 0 -10566206.617530048 -19074091.894759417 0 0 0 0 -16059310.197299957 57731072.800260305 0 57731072.800260305 142161966.67891705 0 0 0 0 -17859316.734546661 16376991.580368459 0 16376991.580368459 51359182.455308795 0 0 0 0 -40770720.682638168 -30566644.955823362 0 -30566644.955823362 69430847.342787981 0 0 0 0 -12523362.666110992 -14645735.843801737 0 -14645735.843801737 8745555.300927639 0 0 0 0 -31908544.911645889 -43524752.775064647 0 -43524752.775064647 8145513.8082289696 0 0 0 0 -69524650.141616821 -45553605.235331535 0 -45553605.235331535 6915824.6664769799 0 0 0 0 -13068756.703807831 -70545600.789064825 0 -70545600.789064825 -63456757.046340585 0 0 0 0 1110139.0280650631 -10006017.095736574 0 -10006017.095736574 -4162414.308792721 0 0 0 0 11918666.2862854 -22762746.060994148 0 -22762746.060994148 -45832265.971276641 0 0 0 0 -11993857.906341553 -18321055.170357108 0 -18321055.170357108 -15912554.28530103 0 0 0 0 62852871.441581726 36381033.4461689 0 36381033.4461689 100632930.8686409 0 0 0 0 4752231.0570719521 1128120.3463594774 0 1128120.3463594774 251937.64433817938 0 0 0 0 29178954.393985264 1924209.3378936518 0 1924209.3378936518 -15187942.139941122 0 0 0 0 91832751.868286133 94368998.717773438 0 94368998.717773438 47816993.999008179 0 0 0 0 75363950.66450119 -68761908.922267914 0 -68761908.922267914 -103576941.32539821 0 0 0 0 3845424.6577224731 -82846453.778017998 0 -82846453.778017998 -10326863.492769241 0 0 0 0 94477265.23223114 60996241.378312111 0 60996241.378312111 118890333.2862854 0 0 0 0 83424044.952667236 152460736.83436012 0 152460736.83436012 126244779.49238014 0 0 0 0 32465245.753938206 -4379257.9061480984 0 -4379257.9061480984 -12806965.785512131 0 0 0 0 138845998.03010368 114506458.41420603 0 114506458.41420603 5334891.0791473389 0 0 0 0 -7012816.262878418 -62499878.376002312 0 -62499878.376002312 13277762.455826044 0 0 0 0 19466319.48059082 16430909.134101868 0 16430909.134101868 -1396729.760764122 0 0 0 0 -68955514.224964142 -6991505.4576759338 0 -6991505.4576759338 182512196.01644611 0 0 0 0 17836499.997467034 1263128.2935976982 0 1263128.2935976982 -1620309.9578092992 0 0 0 0 61061791.622322083 23287397.37906456 0 23287397.37906456 10364762.771087646 0 0 0 0 149956871.61346436 130279923.56924438 0 130279923.56924438 67236737.036405563 0 0 0 0 55245773.039907932 44670627.840625763 0 44670627.840625763 -18580306.078033447 0 0 0 0 -47063125.622966766 42627139.652004242 0 42627139.652004242 8112103.0471458435 0 0 0 0 -3871275.0691277273 50156.916607886553 0 50156.916607886553 5035616.7138627097 0 0 0 0 25378264.449310303 75260906.443108797 0 75260906.443108797 -7993394.2061309814 0 0 0 0 30504450.741371155 45783546.839580059 0 45783546.839580059 51807217.972175598 0 0 0 0 18939119.07377696 9037403.6803030968 0 9037403.6803030968 10382960.957174301 0 0 0 0 14747817.320216671 5909797.4497065544 0 5909797.4497065544 9401239.4964466095 0 0 0 0 205662.54484558105 24133.667974472046 0 24133.667974472046 1035815.276260376 0 0 0 0 7612253.0523900213 -1955380.0938184876 0 -1955380.0938184876 8807757.5174144953 0 0 0 0 6305588.8430492049 2714565.7155539403 0 2714565.7155539403 7886271.1991421385 0 0 0 0 11123836.828804597 7319124.9976411359 0 7319124.9976411359 5451987.0084135821 0 0 0 0 20264580.94571209 9747625.2767009735 0 9747625.2767009735 117827.06516075134 0 0 0 0 -4485434.2925319672 243331.1197681427 0 243331.1197681427 6129477.6010193825 0 0 0 0 -3426019.9843788147 575842.00023126602 0 575842.00023126602 6113356.1554293633 0 0 0 0 1635331.3762346231 890011.0826344511 0 890011.0826344511 11908940.665836174 0 0 0 0 3768454.8317246726 2792602.357149167 0 2792602.357149167 6895426.6993859103 0 0 0 0 -76097662.387727737 -15462914.112661839 0 -15462914.112661839 5991537.9850708246 0 0 0 0 14772027.088359833 13238008.147471428 0 13238008.147471428 12546572.105643272 0 0 0 0 120644157.95577145 -3534163.5824117661 0 -3534163.5824117661 -23543680.746135712 0 0 0 0 35859855.987760544 84352215.082818031 0 84352215.082818031 22220545.029419422 0 0 0 0 -52708379.689723015 65972954.893585443 0 65972954.893585443 142171338.98777008 0 0 0 0 75419870.879192591 58622293.455614924 0 58622293.455614924 -15271796.115093231 0 0 0 0 13741066.857205868 4910210.0964355469 0 4910210.0964355469 10185139.583747864 0 0 0 0 23847441.630234718 17402963.296262741 0 17402963.296262741 11222168.131841183 0 0 0 0 33547458.368974209 3842569.2593955994 0 3842569.2593955994 -257565.01891613007 0 0 0 0 7825751.2921516597 3609189.7066995995 0 3609189.7066995995 8405312.0354915429 0 0 0 0 3647552.1899790205 2018850.8629856072 0 2018850.8629856072 -252819.72544374689 0 0 0 0 110389663.32439232 74522390.877512455 0 74522390.877512455 -67324037.118505478 0 0 0 0 -17997323.162714005 53581737.319760323 0 53581737.319760323 -51502382.047719955 0 0 0 0 13536789.911432266 12843203.131543159 0 12843203.131543159 -28278273.05709362 0 0 0 0 2687108.9541127253 -154311.33237436973 0 -154311.33237436973 -1020017.2707389956 0 0 0 0 1551513.1538015013 345899.16964965872 0 345899.16964965872 -202364.04895590805 0 0 0 0 32036266.023679733 142585481.95402431 0 142585481.95402431 27475588.128044128 0 0 0 0 44300642.404515266 158701086.01154876 0 158701086.01154876 48514856.287922859 0 0 0 0 127401210.42898655 -96714526.249190092 0 -96714526.249190092 89108606.138940811 0 0 0 0 223723242.23045158 131216884.71168494 0 131216884.71168494 35804011.423397064 0 0 0 0 14079438.566978455 24431415.15207243 0 24431415.15207243 9969883.6043272018 0 0 0 0 -3009490.1329174042 58333944.649536848 0 58333944.649536848 356669339.96167803 0 0 0 0 412885946.31043124 -119229579.30819935 0 -119229579.30819935 65763618.910187721 0 0 0 0 359057807.64001966 90782141.721021712 0 90782141.721021712 28694472.675153732 0 0 0 0 -101451396.47265148 44415958.650706291 0 44415958.650706291 133888595.48351622 0 0 0 0 -10577.552635908127 9641572.4990126565 0 9641572.4990126565 -56231097.206055641 0 0 0 0 -132194954.72445107 -160603677.16041923 0 -160603677.16041923 80766525.060525537 0 0 0 0 242960612.03988838 -144777517.75087404 0 -144777517.75087404 -11188501.203998804 0 0 0 0 38974505.157274485 17296619.694994926 0 17296619.694994926 7941948.9028863907 0 0 0 0 26290119.672413111 5007349.5837516785 0 5007349.5837516785 6358701.8332676888 0 0 0 0 21107287.018313885 4600830.0573620796 0 4600830.0573620796 12700130.048460007 0 0 0 0 28980903.858848333 305733.08773899078 0 305733.08773899078 9292618.3697652817 0 0 0 0 -144164754.22786808 -92090264.846876383 0 -92090264.846876383 -11109106.584911525 0 0 0 0 4303284.3748593228 1933589.7763338671 0 1933589.7763338671 7399794.9747644458 0 0 0 0 29977680.919538975 16939316.317685604 0 16939316.317685604 19625701.751062393 0 0 0 0 3490160.3254675632 1596991.0822059363 0 1596991.0822059363 6528549.9346615374 0 0 0 0 37776830.483303785 13796939.336641312 0 13796939.336641312 5388353.9970550537 0 0 0 0 25197217.163908005 10414395.722644329 0 10414395.722644329 3203988.3249114826 0 0 0 0 24310148.286736727 8617637.4827227592 0 8617637.4827227592 10919505.457046509 0 0 0 0 20965042.379776001 763903.58172512054 0 763903.58172512054 3305471.3526218012 0 0 0 0 15173903.77661138 10525.956160539761 0 10525.956160539761 -845101.43504855293 0 0 0 0 55076820.140481949 -38183302.649817586 0 -38183302.649817586 -14303524.719147682 0 0 0 0 127453632.30527496 -35158523.784659624 0 -35158523.784659624 -24102919.512453079 0 0 0 0 6527773.2633285522 20708297.669126272 0 20708297.669126272 9891483.7553260326 0 0 0 0 77837594.479404449 8831676.3746341467 0 8831676.3746341467 -32190541.446271896 0 0 0 0 30266835.820663452 -37716741.389633417 0 -37716741.389633417 28339215.173443556 0 0 0 0 24120854.699025631 3329933.2818598747 0 3329933.2818598747 4412334.0872035027 0 0 0 0 -15798343.990402222 -8887051.7234029174 0 -8887051.7234029174 -5810841.2302181721 0 0 0 0 14967028.138014667 1203498.8008671207 0 1203498.8008671207 -1683900.0605362891 0 0 0 0 22219528.267556548 13155643.724199474 0 13155643.724199474 9986863.4995651245 0 0 0 0 2418799.9683742523 -30647792.314143121 0 -30647792.314143121 -64383708.438212872 0 0 0 0 69709169.051870346 -38021448.931329489 0 -38021448.931329489 -82589743.233992428 0 0 0 0 122770294.59370804 72987273.838261038 0 72987273.838261038 -85535704.501314163 0 0 0 0 17778337.973108292 1318686.7036914825 0 1318686.7036914825 -17598525.554875135 0 0 0 0 -11920946.97296524 -39093147.808227658 0 -39093147.808227658 -70748986.222807407 0 0 0 0 26029670.027496934 9865476.6519683599 0 9865476.6519683599 5284199.2365627289 0 0 0 0 4775876.8631212842 2519325.3077061879 0 2519325.3077061879 5937624.6999896206 0 0 0 0 4523787.9601898193 1459068.1963047981 0 1459068.1963047981 -8118846.1729784012 0 0 0 0 2065578.0938262939 -3139830.7406618595 0 -3139830.7406618595 -533126.07700704783 0 0 0 0 9645126.0142411999 -2025996.1484932075 0 -2025996.1484932075 -108225.42708700312 0 0 0 0 -103511000.09965515 -42375395.584295511 0 -42375395.584295511 57952134.5354352 0 0 0 0 9974544.064813327 -1189141.9100794243 0 -1189141.9100794243 -69815.792461586185 0 0 0 0 3723734.4768656231 5931555.0832836181 0 5931555.0832836181 5673167.7109535094 0 0 0 0 1717532.9290122986 4403949.129191637 0 4403949.129191637 4155312.8099430427 0 0 0 0 8261102.2198448181 11640047.781440794 0 11640047.781440794 3229209.8473906517 0 0 0 0 5613823.7969551086 424219.98881983757 0 424219.98881983757 -8272250.001411438 0 0 0 0 5897550.0242454996 2757095.6705661574 0 2757095.6705661574 2203291.4727803981 0 0 0 0 710822.38954898994 82509.004509715363 0 82509.004509715363 -68994.91246996983 0 0 0 0 -7633081.2768859863 7448578.1195487976 0 7448578.1195487976 -1409555.3270816803 0 0 0 0 16654800.815155029 10391461.241114855 0 10391461.241114855 -1064521.3851333857 0 0 0 0 23859683.067855835 6046613.5330357552 0 6046613.5330357552 -11986881.314279079 0 0 0 0 798375.88915011287 234623.82465774845 0 234623.82465774845 -473488.44425984577 0 0 0 0 2503770.536432378 304374.33091967367 0 304374.33091967367 -639085.21596101532 0 0 0 0 61016577.407142639 95284782.319066763 0 95284782.319066763 32837060.386317253 0 0 0 0 28275902.859802246 -4067691.8451395035 0 -4067691.8451395035 5086229.5163450241 0 0 0 0 8748340.889831543 2067410.2379620075 0 2067410.2379620075 60923961.472794533 0 0 0 0 27075974.467437744 -13234100.864549398 0 -13234100.864549398 4556258.5345058441 0 0 0 0 148964372.62244797 59243636.278828859 0 59243636.278828859 20622567.953499317 0 0 0 0 109795242.39579773 90518280.145923138 0 90518280.145923138 14327110.564229846 0 0 0 0 139467107.81906128 78867060.594623089 0 78867060.594623089 11074971.518152237 0 0 0 0 100500617.6905365 66598883.390518188 0 66598883.390518188 41889011.06973774 0 0 0 0 427729422.97608948 41479547.843907595 0 41479547.843907595 -21007797.949018478 0 0 0 0 143706385.92722511 47633121.692843974 0 47633121.692843974 -2359298.1444473267 0 0 0 0 525808.96923878044 -404017.04868684337 0 -404017.04868684337 -436070.85172407818 0 0 0 0 610811248.5007019 91870554.211344957 0 91870554.211344957 -2976877.8881102018 0 0 0 0 271175509.76033783 -162903331.92996609 0 -162903331.92996609 133421473.861619 0 0 0 0 21394635.230148315 18611373.234986067 0 18611373.234986067 54787422.026433468 0 0 0 0 -376291922.89939117 -92445586.643718958 0 -92445586.643718958 -263780718.53631175 0 0 0 0 -87503380.051854134 376632240.00066137 0 376632240.00066137 -78195944.740550399 0 0 0 0 516061759.840065 -208419207.60556298 0 -208419207.60556298 39079465.165458858 0 0 0 0 -307110671.40273666 499309596.21957827 0 499309596.21957827 67002909.065900564 0 0 0 0 16014.013316512108 629369.35585332103 0 629369.35585332103 962930.80170997384 0 0 0 0 -475062327.56639862 335441323.64685214 0 335441323.64685214 271278855.25387478 0 0 0 0 -246950245.72707367 -68617085.839174584 0 -68617085.839174584 413931110.61471212 0 0 0 0 -12176951.449157715 186300793.52835253 0 186300793.52835253 105786489.03393441 0 0 0 0 -142685229.04665661 156779847.7137441 0 156779847.7137441 281877591.90039062 0 0 0 0 4382239.5692120753 -3434913.8101068647 0 -3434913.8101068647 -1159898.4314080658 0 0 0 0 654301376.02145386 191339192.94578457 0 191339192.94578457 -32728508.293974429 0 0 0 0 501419703.12858582 762269831.83037353 0 762269831.83037353 409475248.21552861 0 0 0 0 839606137.69499969 56195145.587495089 0 56195145.587495089 -132034865.91593504 0 0 0 0 -455401887.74351501 -288521606.74048257 0 -288521606.74048257 45219678.617065907 0 0 0 0 -286889471.38869858 -399431946.52673626 0 -399431946.52673626 -228049477.87007999 0 0 0 0 13700646.696479797 -22335646.698496401 0 -22335646.698496401 -10467617.569957271 0 0 0 0 11877374.412851065 -2440834.814785054 0 -2440834.814785054 163789.14258694038 0 0 0 0 -169719706.9666748 -101868687.31395578 0 -101868687.31395578 -167847593.53846002 0 0 0 0 -333210829.85681534 2476969.189095974 0 2476969.189095974 342463465.61991549 0 0 0 0 646916192.91636658 394778528.90397882 0 394778528.90397882 67568931.063230038 0 0 0 0 -346148594.17823029 210006147.37360203 0 210006147.37360203 818601024.10505009 0 0 0 0 183220.88255171478 -1087244.1879345721 0 -1087244.1879345721 183446.55275025827 0 0 0 0 -7989615.8226013184 -14369279.479384065 0 -14369279.479384065 10621507.400727749 0 0 0 0 12207083.570494924 -1093872.8421242861 0 -1093872.8421242861 -1333070.7083934154 0 0 0 0 517555565.91185045 -676620809.25285828 0 -676620809.25285828 -619206670.56755376 0 0 0 0 64941094.825866699 16603049.773191929 0 16603049.773191929 -6087408.657074213 0 0 0 0 6976820.620010376 25281881.125778913 0 25281881.125778913 69205101.333853364 0 0 0 0 9659990.0045623779 -3171687.8989818096 0 -3171687.8989818096 48792696.428048611 0 0 0 0 12672809.345901489 10994914.014747381 0 10994914.014747381 24901845.153158426 0 0 0 0 15508677.852134705 9634168.3474962711 0 9634168.3474962711 24623493.929857731 0 0 0 0 22120332.638900757 -19251204.832210541 0 -19251204.832210541 22799726.58700943 0 0 0 0 11814558.795639038 -890977.21151351929 0 -890977.21151351929 28265411.235409021 0 0 0 0 17697878.327774048 8616099.725242734 0 8616099.725242734 14164905.137636423 0 0 0 0 17057451.269607544 -3965828.6917209625 0 -3965828.6917209625 24120082.069566965 0 0 0 0 23200516.985290527 784270.67259454727 0 784270.67259454727 7456921.3856735229 0 0 0 0 11657588.10887146 8514363.5864822865 0 8514363.5864822865 8812818.5415154696 0 0 0 0 20746069.619293213 -828129.98070794344 0 -828129.98070794344 15783860.061988831 0 0 0 0 19978339.117675781 5961055.6052319705 0 5961055.6052319705 -8276334.4257032871 0 0 0 0 11155347.026714958 2877056.4063549256 0 2877056.4063549256 1326842.1915591962 0 0 0 0 21460554.483795166 7849674.1002094746 0 7849674.1002094746 1631888.295769453 0 0 0 0 11981946.868751526 3945359.1374450624 0 3945359.1374450624 164040.02174210548 0 0 0 0 24594395.529075623 14784830.907620549 0 14784830.907620549 -1804730.4603517056 0 0 0 0 16010857.722236633 8012752.1901746988 0 8012752.1901746988 1169212.589982897 0 0 0 0 19478590.673330307 6079332.8538731933 0 6079332.8538731933 1610095.0705187321 0 0 0 0 -112065064.04808426 -123841757.57837152 0 -123841757.57837152 -93083323.975013733 0 0 0 0 16948906.769496918 -5714594.596941933 0 -5714594.596941933 -24566399.52801919 0 0 0 0 11910050.591754854 -2519804.1044846429 0 -2519804.1044846429 613195.46003291255 0 0 0 0 -183982560.48993683 -28043760.328043699 0 -28043760.328043699 73255381.360758781 0 0 0 0 -39697368.545547485 30968795.620974302 0 30968795.620974302 37630428.906181335 0 0 0 0 -32489263.050113678 -30764426.622498751 0 -30764426.622498751 4542956.4870252609 0 0 0 0 -67827151.292034149 -59693278.700859547 0 -59693278.700859547 -68649.173377037048 0 0 0 0 1864906.6739787906 759194.24566737516 0 759194.24566737516 -1648737.9695934912 0 0 0 0 -85126048.381996155 -5438124.8783655167 0 -5438124.8783655167 32484947.611862183 0 0 0 0 -12436415.484580994 -4016659.0114183426 0 -4016659.0114183426 2543146.1247389317 0 0 0 0 18681500.212333679 -1133112.9338741302 0 -1133112.9338741302 -616669.14621719718 0 0 0 0 2383541.1398838214 -576809.49615945574 0 -576809.49615945574 4420469.3249510834 0 0 0 0 -22981389.158029556 57186629.886008501 0 57186629.886008501 -73747794.473078966 0 0 0 0 -9599715.0218849182 -11714170.987797022 0 -11714170.987797022 8348589.1568288803 0 0 0 0 -27861195.078315735 -1363097.794301033 0 -1363097.794301033 3025267.2548470497 0 0 0 0 3516594.7968063354 30607414.447450638 0 30607414.447450638 23874010.266064644 0 0 0 0 -21397893.689350128 11253322.754638672 0 11253322.754638672 27296666.126869678 0 0 0 0 -39778786.223279953 35197815.019538164 0 35197815.019538164 49437495.170780182 0 0 0 0 107438665.16946793 108726234.47636127 0 108726234.47636127 18617845.524376869 0 0 0 0 67569590.803897858 57109993.515163422 0 57109993.515163422 19954744.354920387 0 0 0 0 18513642.638645172 97133120.143773317 0 97133120.143773317 62629353.622498512 0 0 0 0 -79292429.365379333 60470833.212358713 0 60470833.212358713 49482614.477669716 0 0 0 0 95870906.842792511 212418279.39799976 0 212418279.39799976 133204221.54762268 0 0 0 0 101888187.51410294 159109523.32939243 0 159109523.32939243 16928474.977113724 0 0 0 0 115360604.54990196 95547659.348777771 0 95547659.348777771 10031342.07617712 0 0 0 0 235158597.02733994 127849592.5944128 0 127849592.5944128 -6526531.6682529449 0 0 0 0 110138582.72241163 86922008.296980411 0 86922008.296980411 20010385.059540749 0 0 0 0 182259746.98645592 45979615.768990755 0 45979615.768990755 -19205060.273480415 0 0 0 0 79553397.382286072 113648627.79161787 0 113648627.79161787 89622326.949783325 0 0 0 0 176674528.22193527 181435130.25598478 0 181435130.25598478 136709138.07012272 0 0 0 0 66602796.07175827 77847343.146129608 0 77847343.146129608 21543455.951598644 0 0 0 0 54351106.366458893 66217175.515833139 0 66217175.515833139 46488212.735542297 0 0 0 0 -183380495.36650467 112661497.61015272 0 112661497.61015272 25353118.376821995 0 0 0 0 170208152.35685849 242128681.26764205 0 242128681.26764205 57870324.335534096 0 0 0 0 474740.04552084021 -574622.76725562382 0 -574622.76725562382 3480418.8040461624 0 0 0 0 10705017.537502289 25949361.114622593 0 25949361.114622593 3262347.6116805077 0 0 0 0 -172336.53730492108 -406433.25844723824 0 -406433.25844723824 1545782.7232400561 0 0 0 0 258448377.27200699 97767425.349217415 0 97767425.349217415 14834746.821389198 0 0 0 0 -171280268.99259853 -63353207.927606583 0 -63353207.927606583 82171084.514698029 0 0 0 0 -443991.59427024331 293180.4439033391 0 293180.4439033391 1334746.5750513785 0 0 0 0 -191539233.58305168 -55532126.745596409 0 -55532126.745596409 146127559.75343311 0 0 0 0 128081817.16535187 -105815810.97677183 0 -105815810.97677183 -15409963.920934677 0 0 0 0 130747612.25452805 -29983471.138252735 0 -29983471.138252735 -6496755.6844272614 0 0 0 0 -299062.50637389999 1060079.0767612495 0 1060079.0767612495 2676554.9688876532 0 0 0 0 146160455.94929409 -173936077.3405025 0 -173936077.3405025 16001739.353225708 0 0 0 0 -191376496.68193436 402516629.03722572 0 402516629.03722572 153326651.35157132 0 0 0 0 148212.01618053392 1556025.3586234162 0 1556025.3586234162 2896658.3070905581 0 0 0 0 60620576.151132584 -90879536.23809576 0 -90879536.23809576 5042135.3098373413 0 0 0 0 74250008.907934189 -88835291.444467545 0 -88835291.444467545 -16590020.358493805 0 0 0 0 56882332.363193035 -61677198.918715477 0 -61677198.918715477 -17107271.739694595 0 0 0 0 78377560.470676422 -78917980.688339233 0 -78917980.688339233 -3661846.470993042 0 0 0 0 88285281.331230164 -45410311.370415688 0 -45410311.370415688 -62716459.394456863 0 0 0 0 26770538.058231354 -24526818.500832558 0 -24526818.500832558 3794355.9648303986 0 0 0 0 -27443541.758789062 22018736.480306625 0 22018736.480306625 261311076.16813374 0 0 0 0 44204009.979257584 13100659.027514935 0 13100659.027514935 67291200.585933685 0 0 0 0 88686621.467704773 27328688.579180717 0 27328688.579180717 -219170815.57525063 0 0 0 0 93825202.800735474 -90586057.290510178 0 -90586057.290510178 -29979291.486214638 0 0 0 0 -28094545.62405014 136131855.40824986 0 136131855.40824986 -181550374.58231354 0 0 0 0 44099561.85477829 -46399246.306041718 0 -46399246.306041718 -58025374.866504669 0 0 0 0 -3991877.1979255676 -25432279.107320786 0 -25432279.107320786 -61085636.64827919 0 0 0 0 47096129.137023926 -3289610.9095697403 0 -3289610.9095697403 -122458454.28073311 0 0 0 0 3615442.7854499817 2943419.4771060944 0 2943419.4771060944 -51205644.328273773 0 0 0 0 3593560.1995971501 -153805.9749282375 0 -153805.9749282375 -42791029.826662064 0 0 0 0 -6622008.467124939 20578473.94557476 0 20578473.94557476 -65104717.387410164 0 0 0 0 -25773062.245464325 -71128223.951633692 0 -71128223.951633692 1837635.7695388794 0 0 0 0 -6664379.9486732483 -14286368.744231224 0 -14286368.744231224 3314787.6654835939 0 0 0 0 -47443912.23530817 10191675.089904785 0 10191675.089904785 6513674.3079071045 0 0 0 0 233642.00073858723 1638186.3917915067 0 1638186.3917915067 2581276.8140726723 0 0 0 0 2581394.3122088015 349079.66560723446 0 349079.66560723446 -1444897.3834720403 0 0 0 0 2332817.2427435145 2213808.8699367703 0 2213808.8699367703 -247704.81042046519 0 0 0 0 -10232274.503057003 29874145.804756045 0 29874145.804756045 -22906289.559482574 0 0 0 0 26247208.563278198 -19508581.95608139 0 -19508581.95608139 43732423.848937988 0 0 0 0 108677555.66617584 81151668.674497604 0 81151668.674497604 49010937.899405479 0 0 0 0 140036365.43542862 151038852.4933567 0 151038852.4933567 66612169.577625275 0 0 0 0 61444631.290771484 -85048071.192892075 0 -85048071.192892075 15317240.746649742 0 0 0 0 210479590.78954983 48909243.972728848 0 48909243.972728848 -34488662.874773026 0 0 0 0 169868357.30047607 -105901432.33410645 0 -105901432.33410645 -61826025.550116062 0 0 0 0 105348013.52882385 -13447731.225061417 0 -13447731.225061417 -21215881.62840271 0 0 0 0 69217496.012508392 -22767365.214673996 0 -22767365.214673996 -19102937.150702715 0 0 0 0 94110101.845291138 196019.41168260574 0 196019.41168260574 -28092860.072742462 0 0 0 0 126427949.16335678 33549942.250928879 0 33549942.250928879 -1571369.8823947906 0 0 0 0 17859859.758079529 30337105.625471115 0 30337105.625471115 37960689.230660439 0 0 0 0 -11631890.788007736 20595341.742604256 0 20595341.742604256 47395766.82975769 0 0 0 0 3929740.8250207445 1549564.3046035399 0 1549564.3046035399 2790636.2280164454 0 0 0 0 46890931.549835205 -14451007.407782078 0 -14451007.407782078 -2366011.0764598846 0 0 0 0 84506281.963092804 9569914.820941925 0 9569914.820941925 -11645007.50462532 0 0 0 0 98532022.879163742 -12661493.876112938 0 -12661493.876112938 -3338524.3903889656 0 0 0 0 5504061.968947636 -1003891.794670257 0 -1003891.794670257 -3011491.0914491224 0 0 0 0 -1865163.2985935211 2253479.336199522 0 2253479.336199522 1341939.1540794373 0 0 0 0 17846987.316604286 38077283.809230328 0 38077283.809230328 -16517078.341440201 0 0 0 0 1117370.3568634321 5409376.8354588561 0 5409376.8354588561 8788600.8733080477 0 0 0 0 52194496.867067337 -498667.74755954742 0 -498667.74755954742 47472933.371936798 0 0 0 0 102104027.55900955 11336098.003329277 0 11336098.003329277 -7455887.9429664612 0 0 0 0 88355991.324502945 6398362.6494779587 0 6398362.6494779587 -9061735.4046497345 0 0 0 0 83377193.346195221 161404388.71027517 0 161404388.71027517 71737215.883846283 0 0 0 0 -730216.97068360075 2860909.5947632678 0 2860909.5947632678 6982994.1222127369 0 0 0 0 211149642.09651184 -167125595.15375519 0 -167125595.15375519 -41703301.721141815 0 0 0 0 4856757.7053176165 -8736936.3605356216 0 -8736936.3605356216 -24310545.104309082 0 0 0 0 828948.89871331712 -4118508.3136572591 0 -4118508.3136572591 2337099.8699183166 0 0 0 0 -3633122.7855934561 579118.09835375845 0 579118.09835375845 4173752.4227191885 0 0 0 0 -50334056.369698659 -50379936.528910637 0 -50379936.528910637 -4571364.085059166 0 0 0 0 -78664312.30753994 68147300.445296049 0 68147300.445296049 -79795887.858470917 0 0 0 0 118312029.7363472 224940410.32619667 0 224940410.32619667 160852767.07787561 0 0 0 0 331488938.73977661 481176874.80673599 0 481176874.80673599 341399475.57845688 0 0 0 0 57851.826747119427 462079.93096526153 0 462079.93096526153 816896.99327004049 0 0 0 0 13674511.899184465 63015702.494119048 0 63015702.494119048 381220188.23540497 0 0 0 0 3828098.0081737041 -49951476.389448762 0 -49951476.389448762 41838730.293716431 0 0 0 0 1808085.7669867817 558809.49652018771 0 558809.49652018771 -1638550.5646512667 0 0 0 0 19217458.114393234 10953264.18558979 0 10953264.18558979 -2303867.4786624908 0 0 0 0 854145.4884902779 99252.644839386456 0 99252.644839386456 -773877.05593612604 0 0 0 0 42157987.946121216 -23081189.429588318 0 -23081189.429588318 -2869402.6709133685 0 0 0 0 61399154.138395309 45545653.267205238 0 45545653.267205238 -69254737.391246796 0 0 0 0 149687215.09831619 14208322.876441956 0 14208322.876441956 73602138.928768158 0 0 0 0 257399256.28886032 220060110.17706203 0 220060110.17706203 6827067.5650444031 0 0 0 0 363528630.76450348 140074097.17769432 0 140074097.17769432 -57203061.618145466 0 0 0 0 -172262433.32176733 75349571.422195792 0 75349571.422195792 18374906.641771317 0 0 0 0 289647860.56707382 296554828.49357414 0 296554828.49357414 -19810009.88906002 0 0 0 0 118536809.49875641 288237639.37340832 0 288237639.37340832 -5920512.8681488037 0 0 0 0 420476395.45437622 145246813.8616991 0 145246813.8616991 -130956135.58748245 0 0 0 0 118888303.20182419 304036884.81779289 0 304036884.81779289 194286643.6111393 0 0 0 0 789732000.51667023 644820799.15118122 0 644820799.15118122 -471272962.33837128 0 0 0 0 -84759769.972080231 459898483.44616199 0 459898483.44616199 99148398.79114151 0 0 0 0 6418693.7024661563 777815.04378963588 0 777815.04378963588 -4826388.7832016796 0 0 0 0 122727745.33737087 43391857.384354115 0 43391857.384354115 -10320560.097566605 0 0 0 0 -76117021.01656723 -763885522.87852669 0 -763885522.87852669 732710890.04126549 0 0 0 0 168198361.15668488 491595285.34713173 0 491595285.34713173 190213234.54055214 0 0 0 0 -10157082.2628479 203401375.44743347 0 203401375.44743347 758726957.37236404 0 0 0 0 -34227224.250222206 301105672.97062397 0 301105672.97062397 372097741.98210144 0 0 0 0 137087784.3747406 126004748.81972122 0 126004748.81972122 588471556.71067429 0 0 0 0 1060422465.5401211 -6602815.4177112579 0 -6602815.4177112579 -218765054.05800724 0 0 0 0 -970708.81584120169 768804.2010955438 0 768804.2010955438 3172974.8882998396 0 0 0 0 829230008.31322384 -413682065.42188931 0 -413682065.42188931 219601730.04837036 0 0 0 0 -2673654.4600097965 386775.91331981122 0 386775.91331981122 2840173.069871692 0 0 0 0 28690956.458896637 85443004.023441315 0 85443004.023441315 370631476.98205566 0 0 0 0 -53106960.580543518 -230786792.89248657 0 -230786792.89248657 -68460990.931495667 0 0 0 0 -9526010.9558417499 -55951616.152763844 0 -55951616.152763844 54310938.374444962 0 0 0 0 356112857.79891372 310204235.96736526 0 310204235.96736526 203452159.5711174 0 0 0 0 -261926.10628145974 -2938514.2133408352 0 -2938514.2133408352 1394497.1358377486 0 0 0 0 -455846840.90431666 269811523.38311291 0 269811523.38311291 526665766.67874146 0 0 0 0 135901418.09700966 167804878.51593399 0 167804878.51593399 158594423.07488728 0 0 0 0 93658759.586750984 292116982.44727707 0 292116982.44727707 324999865.10245514 0 0 0 0 12530046.338279724 279234764.75408554 0 279234764.75408554 380676590.66993833 0 0 0 0 47529544.080635071 325374192.7252388 0 325374192.7252388 313097712.75417435 0 0 0 0 43181081.696611404 318877279.73881721 0 318877279.73881721 312926269.94670486 0 0 0 0 52701351.895339966 82290144.501506805 0 82290144.501506805 99078918.312520027 0 0 0 0 67919404.161167145 253654744.17619133 0 253654744.17619133 86161527.885055542 0 0 0 0 43990149.87381202 311923339.26817036 0 311923339.26817036 414732836.63660431 0 0 0 0 40697693.09038353 -4263469.7044868469 0 -4263469.7044868469 290360652.33961487 0 0 0 0 47918728.110451698 12242801.452830315 0 12242801.452830315 -81215283.895484924 0 0 0 0 94445076.948551178 111964752.32957458 0 111964752.32957458 -18730725.833602905 0 0 0 0 172763052.50302696 102881885.33588791 0 102881885.33588791 -155045224.82324982 0 0 0 0 81192278.783709526 -25898296.280249596 0 -25898296.280249596 -198037523.90550232 0 0 0 0 -245116175.16737652 69288922.344038963 0 69288922.344038963 272649095.50521851 0 0 0 0 -183149299.32068825 145744120.38538361 0 145744120.38538361 366024346.56375694 0 0 0 0 159841655.83807564 190275835.02015686 0 190275835.02015686 77553538.89907074 0 0 0 0 209508014.12492347 29678216.016090393 0 29678216.016090393 -18265227.329406738 0 0 0 0 82272061.730669022 112590558.2154274 0 112590558.2154274 -27321854.409454346 0 0 0 0 108820803.8128047 145172250.37738609 0 145172250.37738609 -232916162.00021362 0 0 0 0 164528283.09744728 69737751.928962708 0 69737751.928962708 -321762146.86068726 0 0 0 0 65397317.36473155 59231226.283432007 0 59231226.283432007 -38270149.617904663 0 0 0 0 -8818487.531929493 -103512765.28637695 0 -103512765.28637695 -184719546.00749207 0 0 0 0 6379581.064340787 1667074.2892260803 0 1667074.2892260803 1244784.9609679244 0 0 0 0 71009184.96904254 144627927.04734802 0 144627927.04734802 -146126938.60028744 0 0 0 0 188693084.8625592 -63272215.235852242 0 -63272215.235852242 -14951279.098754883 0 0 0 0 15691010.458082795 -19356647.838310242 0 -19356647.838310242 -8702878.1225318909 0 0 0 0 3114834.1801991812 -1378250.5164421201 0 -1378250.5164421201 -2684922.2572732568 0 0 0 0 88524898.030437469 216028285.50030518 0 216028285.50030518 -336984128.53453827 0 0 0 0 18341676.046428211 -535632.58842293546 0 -535632.58842293546 -8762527.9446327258 0 0 0 0 24580573.62140274 18948619.215154648 0 18948619.215154648 -1295785.7352600098 0 0 0 0 5607832.1615886688 -2395862.2930221558 0 -2395862.2930221558 -79799952.779716492 0 0 0 0 -7585303.6038246155 -31005504.904338837 0 -31005504.904338837 -136337096.73603058 0 0 0 0 11635185.500820436 16947054.076450162 0 16947054.076450162 712022.59088550135 0 0 0 0 -32335546.998710632 96162808.497322083 0 96162808.497322083 -136965662.40412903 0 0 0 0 38699811.12141037 216294266.72267151 0 216294266.72267151 -176440212.32524109 0 0 0 0 106313657.85722685 16262781.678663254 0 16262781.678663254 -208411461.80929565 0 0 0 0 -37373290.166532516 147655945.77613068 0 147655945.77613068 -223072740.0955925 0 0 0 0 -72360696.226161957 -13142297.122047424 0 -13142297.122047424 -401824670.53930664 0 0 0 0 598439.92976082675 164517.51610755548 0 164517.51610755548 -76003.093455851078 0 0 0 0 20993936.108156204 12408814.438428879 0 12408814.438428879 -4031060.5180282593 0 0 0 0 65506772.429053307 2037772.5955910683 0 2037772.5955910683 -16808989.663915634 0 0 0 0 13013688.353742275 4502322.6677981708 0 4502322.6677981708 -9653387.1604354084 0 0 0 0 -17632900.17150116 -109911745.96872902 0 -109911745.96872902 -215000712.88923264 0 0 0 0 85964426.042658806 24234401.60777998 0 24234401.60777998 -4367092.9142456055 0 0 0 0 187521616.14505005 315983932.56025314 0 315983932.56025314 -244121173.44910812 0 0 0 0 118574955.15694427 -15189866.543682098 0 -15189866.543682098 -356334280.51694298 0 0 0 0 21244196.950130463 83522795.105657578 0 83522795.105657578 29450056.074932098 0 0 0 0 -42331613.068767548 -73471606.95029068 0 -73471606.95029068 -57499732.203556061 0 0 0 0 -124474642.65354538 71973196.364187241 0 71973196.364187241 187061899.59276962 0 0 0 0 -102966493.68010521 -27642131.180443764 0 -27642131.180443764 -88725167.889827728 0 0 0 0 2117328.9563192604 -2022172.2960470244 0 -2022172.2960470244 -1879893.8425189927 0 0 0 0 49927428.678324699 122979088.31381702 0 122979088.31381702 83657485.15587616 0 0 0 0 89761583.417502403 165035390.76286888 0 165035390.76286888 14706263.773643494 0 0 0 0 34147473.432367325 91066310.53666687 0 91066310.53666687 57614213.453220367 0 0 0 0 171211155.27903366 -60005904.83685112 0 -60005904.83685112 -64258074.482673645 0 0 0 0 165941872.54071617 -34976841.56010437 0 -34976841.56010437 24765543.977523804 0 0 0 0 635195.27056032862 -753147.5657535193 0 -753147.5657535193 1903154.3573678583 0 0 0 0 57759480.261846542 127797377.86922836 0 127797377.86922836 247316037.64830971 0 0 0 0 643463397.85017776 5448252.2441558838 0 5448252.2441558838 30208716.331027985 0 0 0 0 301171575.33445168 -88756116.027351379 0 -88756116.027351379 45645520.426229477 0 0 0 0 350424907.26936793 189617061.40816641 0 189617061.40816641 84511512.967514038 0 0 0 0 14551493.417682886 114181405.98835206 0 114181405.98835206 141420664.382164 0 0 0 0 57304068.57258606 107085139.74923706 0 107085139.74923706 97578953.156316757 0 0 0 0 -86867447.043279648 46811935.526189804 0 46811935.526189804 233919022.25038338 0 0 0 0 7447352.4107990265 -192734059.962883 0 -192734059.962883 -57324196.384887695 0 0 0 0 -83366450.270700455 -141981833.95660686 0 -141981833.95660686 437760220.02440125 0 0 0 0 410972645.33298016 387050796.29594612 0 387050796.29594612 408948494.04182434 0 0 0 0 279066157.40891552 85770326.301679611 0 85770326.301679611 -234993066.62966537 0 0 0 0 57164517.938461304 53963825.722558975 0 53963825.722558975 -236327957.49785811 0 0 0 0 29248966.670196533 -14286759.072854519 0 -14286759.072854519 -199188474.79661322 0 0 0 0 116268217.3362236 74651376.274050713 0 74651376.274050713 -24876868.00412941 0 0 0 0 3880721.4507640554 -3690752.5498845428 0 -3690752.5498845428 -3448780.7705122912 0 0 0 0 51944154.569732666 98410086.254101753 0 98410086.254101753 40663702.381933212 0 0 0 0 -12841215.843024254 55212122.412204742 0 55212122.412204742 44233428.954898834 0 0 0 0 43712920.275058746 139265994.00259304 0 139265994.00259304 135655026.35728645 0 0 0 0 -100125457.41153717 -49861982.055671692 0 -49861982.055671692 56459890.497802734 0 0 0 0 3920676.4597679107 -3782185.5367521476 0 -3782185.5367521476 -3388654.4986567162 0 0 0 0 -133379008.03450394 -45525414.782922745 0 -45525414.782922745 126785997.71317959 0 0 0 0 -51578526.069347382 19246746.281108856 0 19246746.281108856 59315871.017059326 0 0 0 0 -95164811.268388748 45286669.588030338 0 45286669.588030338 281938042.33998489 0 0 0 0 174856233.3860054 282697676.62588882 0 282697676.62588882 190543105.1790657 0 0 0 0 30420419.192676544 123200149.05245113 0 123200149.05245113 15880793.972633362 0 0 0 0 30781283.374698639 111684988.89626217 0 111684988.89626217 44205136.716861725 0 0 0 0 11189914.055183411 79353649.018591881 0 79353649.018591881 132213502.06926918 0 0 0 0 48150382.677947998 115788021.7248497 0 115788021.7248497 45057803.435722351 0 0 0 0 10987581.75403595 75412173.309288979 0 75412173.309288979 57087626.852074623 0 0 0 0 -74803986.922782898 -43275452.856257915 0 -43275452.856257915 -5559359.7889728546 0 0 0 0 37352151.328735352 -8204190.9718937874 0 -8204190.9718937874 -37438036.001385689 0 0 0 0 -63043386.801039696 -32108812.364216864 0 -32108812.364216864 -66961482.132304192 0 0 0 0 2292060.1526429411 2054857.750479531 0 2054857.750479531 -1759760.6914422938 0 0 0 0 -10656809.459014893 -63791870.545715332 0 -63791870.545715332 -1678216.0448551178 0 0 0 0 83925185.497264862 256727457.75183201 0 256727457.75183201 189070753.02193925 0 0 0 0 610114.30666732788 111092853.79392147 0 111092853.79392147 194085120.9769516 0 0 0 0 199095960.90322876 -48319668.396869659 0 -48319668.396869659 -48827302.041614532 0 0 0 0 2539144.4346139356 1709100.3100261865 0 1709100.3100261865 -2320441.3108948739 0 0 0 0 271626008.67673111 239532017.9665556 0 239532017.9665556 -19734777.962160423 0 0 0 0 -58290500.547052383 -106579771.64598727 0 -106579771.64598727 -30098781.515208244 0 0 0 0 -24108577.921756744 -13139912.319441259 0 -13139912.319441259 -57529409.94774735 0 0 0 0 190371355.2363739 -129639994.46509552 0 -129639994.46509552 -3688927.3926956058 0 0 0 0 285759215.07299042 28486164.047900677 0 28486164.047900677 -113716106.52598047 0 0 0 0 424382786.34615457 131703613.98701626 0 131703613.98701626 -29273205.842031479 0 0 0 0 418647706.92282057 -54140094.058959305 0 -54140094.058959305 -50961602.084054947 0 0 0 0 90012049.355453491 -125068695.92562675 0 -125068695.92562675 16072503.213025093 0 0 0 0 131747049.65722656 -9229045.8436379433 0 -9229045.8436379433 -51320027.297640562 0 0 0 0 122983319.5459137 -34901591.70046249 0 -34901591.70046249 -119768377.07342169 0 0 0 0 150676555.17356491 3610955.7807329521 0 3610955.7807329521 -204788831.77195698 0 0 0 0 -42009025.878952026 -98865785.995419979 0 -98865785.995419979 -99707187.098447323 0 0 0 0 38940531.5038414 25458302.207450271 0 25458302.207450271 18810686.056429148 0 0 0 0 5385062.1737033054 4874719.1328023206 0 4874719.1328023206 -1047643.8866941279 0 0 0 0 -43869535.272842407 -44238344.288081408 0 -44238344.288081408 -60987376.543715954 0 0 0 0 120853989.03319979 -26068737.054902315 0 -26068737.054902315 -136316562.99623299 0 0 0 0 1223200.0016726973 -2020006.8545197705 0 -2020006.8545197705 -267244.15930913948 0 0 0 0 -26807411.850128174 -4887664.2441778183 0 -4887664.2441778183 22959507.091505051 0 0 0 0 105336794.79182339 28771064.715139121 0 28771064.715139121 259141383.35316563 0 0 0 0 -124106274.76014137 103893466.32010961 0 103893466.32010961 -120392437.51775002 0 0 0 0 2013574.6873145802 -1878968.6355181513 0 -1878968.6355181513 -1882316.9591226024 0 0 0 0 -299797004.43613815 8630345.7476254106 0 8630345.7476254106 115889276.82433128 0 0 0 0 -160160091.25396729 60025164.766610146 0 60025164.766610146 230667147.52572632 0 0 0 0 110526333.77061701 165371286.90783662 0 165371286.90783662 40183380.67196703 0 0 0 0 142098747.88843632 155485045.44996643 0 155485045.44996643 42662879.90897131 0 0 0 0 119017705.40847015 159992455.29378176 0 159992455.29378176 187154711.89059925 0 0 0 0 114220498.49147034 43987207.436074257 0 43987207.436074257 -32062762.672703117 0 0 0 0 169852072.62070847 63077475.694821835 0 63077475.694821835 -93840988.747709036 0 0 0 0 -9846293.4032897949 -28622748.61573267 0 -28622748.61573267 -119808381.99367535 0 0 0 0 -62640912.231502533 91887977.555773258 0 91887977.555773258 67347455.546059132 0 0 0 0 -132639355.88319778 -26054640.6784904 0 -26054640.6784904 -36785348.436669588 0 0 0 0 -19479779.568496704 39263804.286108494 0 39263804.286108494 -210932480.50241041 0 0 0 0 -1053007.6701254845 3279206.5404558182 0 3279206.5404558182 2458425.8335227966 0 0 0 0 23710391.722576141 28277178.15152812 0 28277178.15152812 13150651.220567703 0 0 0 0 4993948.0483446438 -1266613.2654035757 0 -1266613.2654035757 -1572398.6059273027 0 0 0 0 1660704.9173624723 4717724.1419017818 0 4717724.1419017818 5681514.5066939658 0 0 0 0 350499.5231719017 679590.81597757339 0 679590.81597757339 581409.82527542114 0 0 0 0 7460918.5187202189 4390918.9589290339 0 4390918.9589290339 1708972.256090079 0 0 0 0 393861.82064997382 630774.52702081343 0 630774.52702081343 2035912.0248340978 0 0 0 0 299256.80577754974 4121014.7363080978 0 4121014.7363080978 2265353.7970924377 0 0 0 0 1535003.3777036667 4991053.3722505569 0 4991053.3722505569 1750089.8697853088 0 0 0 0 251176.16883742809 3804697.2489895821 0 3804697.2489895821 785414.57046699524 0 0 0 0 4597026.3714319151 7899417.7668977454 0 7899417.7668977454 5937271.0002070665 0 0 0 0 10975860.506571084 8990376.1343057901 0 8990376.1343057901 10595678.777644206 0 0 0 0 14429642.090641022 -1159716.0714912415 0 -1159716.0714912415 2479677.6720428467 0 0 0 0 12444812.849840155 8255143.9215954356 0 8255143.9215954356 4418915.9987439997 0 0 0 0 939572.32896703482 3382581.9498569369 0 3382581.9498569369 -561529.1658115387 0 0 0 0 8920219.6952228677 2706359.5900495788 0 2706359.5900495788 696182.60321419081 0 0 0 0 -52436987.211555481 85795750.257473946 0 85795750.257473946 -225722141.44942331 0 0 0 0 4762986.501075523 5447729.7986712083 0 5447729.7986712083 3994527.6515749153 0 0 0 0 -46470244.421089172 26106454.69781971 0 26106454.69781971 -165279011.57895279 0 0 0 0 16832305.25605917 24301121.778283507 0 24301121.778283507 -11708538.467090607 0 0 0 0 28847034.86548233 18792218.541521549 0 18792218.541521549 -15609240.324010849 0 0 0 0 9300740.0716820825 -145385.03735140234 0 -145385.03735140234 -3365478.8904850986 0 0 0 0 42048244.725234032 7983296.9852259159 0 7983296.9852259159 -15567586.140037537 0 0 0 0 1516530.3020321217 859650.82245816477 0 859650.82245816477 -346896.07005774882 0 0 0 0 25753309.214689255 -1744493.7023630142 0 -1744493.7023630142 -14767049.751728058 0 0 0 0 3541608.7488355637 4554587.4100885391 0 4554587.4100885391 -1537521.74457407 0 0 0 0 20801096.531837463 3900944.2162723541 0 3900944.2162723541 -19449245.130503654 0 0 0 0 10111472.017230988 11996476.824604988 0 11996476.824604988 -14457650.646766663 0 0 0 0 4958360.2543141767 4931971.7205183385 0 4931971.7205183385 145739.13040484674 0 0 0 0 11751791.989646912 2209495.8008842468 0 2209495.8008842468 2795347.3796052933 0 0 0 0 56369886.056594849 -182717.91173505783 0 -182717.91173505783 21722187.101629853 0 0 0 0 64128094.114531994 38757377.325306118 0 38757377.325306118 10006859.997404575 0 0 0 0 14645698.069385529 20552018.58236599 0 20552018.58236599 18389020.785028458 0 0 0 0 100292902.92357635 -58057289.56769371 0 -58057289.56769371 -221324373.04767126 0 0 0 0 -8252681.17237854 19767407.111647606 0 19767407.111647606 10272304.836375237 0 0 0 0 8769163.7269906644 8420769.1011642329 0 8420769.1011642329 -162590.54445977067 0 0 0 0 -2352461.1881256104 8032889.5279092789 0 8032889.5279092789 6085465.3741140366 0 0 0 0 1494913.4566726685 836437.92649936676 0 836437.92649936676 19545651.217468262 0 0 0 0 -9057555.1773414612 16537195.020800591 0 16537195.020800591 24893127.426046371 0 0 0 0 -3210191.9692592621 -3070660.2966146469 0 -3070660.2966146469 -5972690.3029289246 0 0 0 0 18816566.36416626 10965377.534259796 0 10965377.534259796 -298953.30422210693 0 0 0 0 12047678.10389505 11494053.289812827 0 11494053.289812827 13238600.77357357 0 0 0 0 26979631.269771576 31633679.277433395 0 31633679.277433395 -1958094.3903598785 0 0 0 0 32554298.964767456 35039994.756966591 0 35039994.756966591 38206755.24576664 0 0 0 0 2096975.5447178734 394051.67219175212 0 394051.67219175212 -704790.80255936831 0 0 0 0 83457252.934104919 14128763.689592361 0 14128763.689592361 -1464868.0125350952 0 0 0 0 14397603.994045258 6181126.5502705574 0 6181126.5502705574 -2154002.1816596985 0 0 0 0 13827073.313965462 2293313.6708703572 0 2293313.6708703572 -285963.97186014615 0 0 0 0 20687752.173757553 13260117.047543764 0 13260117.047543764 3071937.4091444016 0 0 0 0 54820875.824134827 30107030.806628644 0 30107030.806628644 31452597.951322556 0 0 0 0 4896087.3339920994 -749391.6870026486 0 -749391.6870026486 -1671425.2779656067 0 0 0 0 -10388524.182510376 13739249.724448919 0 13739249.724448919 4384234.053855896 0 0 0 0 82908849.565383911 24518257.653236628 0 24518257.653236628 -10322785.499570929 0 0 0 0 16944687.669376373 37969767.63818121 0 37969767.63818121 -8121651.0048229694 0 0 0 0 45862686.349943161 19641181.291098475 0 19641181.291098475 -9734815.1010360718 0 0 0 0 30824709.928993225 -44617173.927290678 0 -44617173.927290678 -11438489.463663191 0 0 0 0 14168913.868667912 541528.16273478419 0 541528.16273478419 -4799277.0675789807 0 0 0 0 49007003.058459282 109284281.72482733 0 109284281.72482733 35377517.515470505 0 0 0 0 11631967.048641216 1317192.066952128 0 1317192.066952128 -7188565.4990412081 0 0 0 0 39221474.075131893 -7154738.9752425253 0 -7154738.9752425253 -6401216.1738448143 0 0 0 0 17113869.733787537 10502579.534952819 0 10502579.534952819 6692765.6985201836 0 0 0 0 83800092.050731659 -25998413.479753971 0 -25998413.479753971 26367853.296071053 0 0 0 0 11561477.789543152 15589.265010222793 0 15589.265010222793 7757425.9379397035 0 0 0 0 7333603.8400497437 24780168.584320694 0 24780168.584320694 10591286.453540146 0 0 0 0 1600619.5327682495 18334345.445860863 0 18334345.445860863 -15205900.592140675 0 0 0 0 8710180.7159156799 31021066.78340435 0 31021066.78340435 -11552740.21980381 0 0 0 0 -10193245.481626511 16076713.45136869 0 16076713.45136869 83635523.536754131 0 0 0 0 36965463.711544037 -165997283.62739563 0 -165997283.62739563 -81224598.111487389 0 0 0 0 47721509.938961029 116617030.50514412 0 116617030.50514412 -22571340.780322075 0 0 0 0 1722260.9097671509 -111514934.70819092 0 -111514934.70819092 -7802415.2640657425 0 0 0 0 -61965727.321460724 18199767.037219048 0 18199767.037219048 9274921.7138795853 0 0 0 0 55335372.905235291 -125895015.56530666 0 -125895015.56530666 -171217413.38838434 0 0 0 0 4526836.7309136856 3503327.0109546017 0 3503327.0109546017 -3116045.7321745791 0 0 0 0 -55950860.918410301 -1470216.1383844614 0 -1470216.1383844614 -95071864.313657761 0 0 0 0 3266171.86769104 -15066642.93093586 0 -15066642.93093586 -152977210.09864402 0 0 0 0 2279544.0752372406 2151923.227714804 0 2151923.227714804 -976302.08279312565 0 0 0 0 47529972.453025818 77240419.485678226 0 77240419.485678226 98154829.959499419 0 0 0 0 -21788839.744827271 -6050627.025393486 0 -6050627.025393486 7888901.7094478607 0 0 0 0 -6649680.1944046021 -24047314.871671915 0 -24047314.871671915 -86266265.299163342 0 0 0 0 15904909.337211609 46129026.229716778 0 46129026.229716778 9365042.0420684963 0 0 0 0 -9209403.1301689148 31027148.092147931 0 31027148.092147931 73404491.347812831 0 0 0 0 110079813.15531063 56277806.902715296 0 56277806.902715296 22396091.801593959 0 0 0 0 -147271693.80355823 385781455.22901773 0 385781455.22901773 -48097197.363771439 0 0 0 0 125797018.70338821 -31139648.342534542 0 -31139648.342534542 -59916455.169775575 0 0 0 0 -22698607.053981781 -78135040.316276073 0 -78135040.316276073 -17838850.559277475 0 0 0 0 7736086.6553325318 -2311672.9386331611 0 -2311672.9386331611 1521014.8990741936 0 0 0 0 -10633491.187934875 7077915.0851281881 0 7077915.0851281881 -50554423.140578747 0 0 0 0 66739742.176905632 -57944358.586455703 0 -57944358.586455703 -10562886.30492878 0 0 0 0 177141573.09575033 -71433664.108729333 0 -71433664.108729333 -21258424.758625984 0 0 0 0 -70700318.335651398 -165711797.82559514 0 -165711797.82559514 -48452428.152109861 0 0 0 0 -50358945.805896759 4211889.4256002903 0 4211889.4256002903 53219023.225559592 0 0 0 0 -41726585.003293037 -52132052.644706428 0 -52132052.644706428 322840908.03885365 0 0 0 0 -122856163.77931976 -57702813.798632324 0 -57702813.798632324 107077776.01547241 0 0 0 0 146252879.75604773 157966571.19203037 0 157966571.19203037 109167994.91456127 0 0 0 0 497057820.96002007 -449897449.81734085 0 -449897449.81734085 379045448.87389421 0 0 0 0 41170690.943488158 -12493994.735308725 0 -12493994.735308725 -9604796.3889388498 0 0 0 0 50888957.57922864 116498500.41680585 0 116498500.41680585 42589644.840037823 0 0 0 0 154386856.41212463 39380484.58530283 0 39380484.58530283 97890197.955791026 0 0 0 0 2475237.3927912861 -662637.17459959572 0 -662637.17459959572 349302.96902680956 0 0 0 0 318502505.43209076 -508945945.86643624 0 -508945945.86643624 322478209.74354839 0 0 0 0 37134151.574784093 -9094016.8197666574 0 -9094016.8197666574 -10996910.82790163 0 0 0 0 1242497292.3168182 -805406131.68377781 0 -805406131.68377781 583229746.98439407 0 0 0 0 -562977688.24947357 715337601.66764164 0 715337601.66764164 -187057673.72721815 0 0 0 0 123992159.27872467 181681429.53014946 0 181681429.53014946 119180121.5447464 0 0 0 0 131779953.52041626 34945941.13950491 0 34945941.13950491 102121593.6104821 0 0 0 0 64169133.627227783 -38627404.718481779 0 -38627404.718481779 12996580.613984704 0 0 0 0 22475927.266803741 22645446.211246014 0 22645446.211246014 -12077901.189315796 0 0 0 0 23167903.002815247 13712728.960871696 0 13712728.960871696 -37005793.324140549 0 0 0 0 9406078.0016059577 2892111.5340328719 0 2892111.5340328719 -8966545.9894574508 0 0 0 0 109827961.87471771 2343087.7695243359 0 2343087.7695243359 23317588.996563911 0 0 0 0 95973911.981280327 67244016.716089994 0 67244016.716089994 97334254.29691124 0 0 0 0 164686100.50884247 82208876.131800652 0 82208876.131800652 34118100.417110145 0 0 0 0 188668417.80448914 156490845.55854797 0 156490845.55854797 29434700.146863103 0 0 0 0 153252569.59390259 109251468.5624752 0 109251468.5624752 33210137.105714798 0 0 0 0 60209989.792678833 68984259.188331604 0 68984259.188331604 19823361.128316879 0 0 0 0 147169821.61420751 -192821386.49844742 0 -192821386.49844742 112104153.28311682 0 0 0 0 44217667.931481138 -15181966.4509208 0 -15181966.4509208 -8090935.1386416182 0 0 0 0 -33672000.036891937 -112721047.18082047 0 -112721047.18082047 22886198.664546967 0 0 0 0 4917272.5491732657 7765866.3331565727 0 7765866.3331565727 -9912965.7959570698 0 0 0 0 186551504.18735123 125162297.58968419 0 125162297.58968419 -125821127.54294205 0 0 0 0 -103634520.79821777 266597485.76493645 0 266597485.76493645 227228934.10028076 0 0 0 0 7172290.5646858811 5034204.936176084 0 5034204.936176084 -10045033.068983663 0 0 0 0 42037980.546188354 -54817551.591047287 0 -54817551.591047287 -109637098.94889641 0 0 0 0 133065316.2830658 62266419.304423332 0 62266419.304423332 -54937100.501254082 0 0 0 0 14641486.658622742 -51759383.919336319 0 -51759383.919336319 37051918.03304863 0 0 0 0 2188956.4259288982 2061599.1505362764 0 2061599.1505362764 -1702014.400296797 0 0 0 0 42440106.405075073 107372602.21071148 0 107372602.21071148 86904467.205988884 0 0 0 0 30773245.137557983 12897781.616642952 0 12897781.616642952 8120038.8939762115 0 0 0 0 23588102.563066006 35960545.349507272 0 35960545.349507272 -18496241.315455437 0 0 0 0 23194538.246055603 34544079.573775053 0 34544079.573775053 -18388508.119346619 0 0 0 0 4356091.0494967028 3570191.2034499496 0 3570191.2034499496 -3074321.822675786 0 0 0 0 1851617.105255127 51787381.14914608 0 51787381.14914608 56863840.292827606 0 0 0 0 -37397798.062644958 19936502.098588943 0 19936502.098588943 61356292.251033783 0 0 0 0 29417941.233207703 25926416.956150055 0 25926416.956150055 60261809.691062927 0 0 0 0 27289740.272865295 31722096.536664009 0 31722096.536664009 49122616.184211731 0 0 0 0 29372153.193120956 35953643.164336205 0 35953643.164336205 44167300.552185059 0 0 0 0 3817996.0255321935 -200796.58730920404 0 -200796.58730920404 -1326193.3430304043 0 0 0 0 -34493297.854194641 16031922.254865646 0 16031922.254865646 15009532.824462891 0 0 0 0 74852844.232681274 34314844.869724274 0 34314844.869724274 25503938.77323246 0 0 0 0 101515054.70497131 42612937.962905884 0 42612937.962905884 27666437.776763916 0 0 0 0 39189209.25718689 36746868.616558075 0 36746868.616558075 50957953.075733185 0 0 0 0 57231419.08013916 11212652.529547691 0 11212652.529547691 33108009.665924072 0 0 0 0 49990979.309661865 7542085.6847496033 0 7542085.6847496033 31346494.679210663 0 0 0 0 52068342.003814697 -171577.56330490112 0 -171577.56330490112 2068466.4320602417 0 0 0 0 41184067.546443939 -21658973.983078957 0 -21658973.983078957 10999409.350719452 0 0 0 0 -31685144.041130066 -26502117.371692657 0 -26502117.371692657 49850970.333774567 0 0 0 0 11224152.193908691 4950712.2291755676 0 4950712.2291755676 44551361.793956757 0 0 0 0 36242795.609458923 -20244992.822729111 0 -20244992.822729111 50358699.434959412 0 0 0 0 90161643.354759216 -48208621.202005386 0 -48208621.202005386 20405500.766061783 0 0 0 0 45250595.610397339 -4256799.5786952972 0 -4256799.5786952972 16594353.046379089 0 0 0 0 62130820.623662949 35287177.417974949 0 35287177.417974949 -30420571.706550598 0 0 0 0 -78503510.339767456 56292518.677093506 0 56292518.677093506 70638990.828408241 0 0 0 0 102218546.60476303 11525996.664023638 0 11525996.664023638 -23158131.5440979 0 0 0 0 20433981.103263855 -157611212.60065699 0 -157611212.60065699 -66974681.082313538 0 0 0 0 8976965.2740402222 71483202.916591644 0 71483202.916591644 41276163.932762146 0 0 0 0 134641311.00907135 217953995.26256561 0 217953995.26256561 246341523.46893215 0 0 0 0 -124672764.31105804 -74041248.673430443 0 -74041248.673430443 318140940.83110905 0 0 0 0 205876140.85189056 -6113263.1464891434 0 -6113263.1464891434 -174003240.96230507 0 0 0 0 4722383.474786263 2893625.8856609585 0 2893625.8856609585 -4087796.228058083 0 0 0 0 75855948.771514893 -11574153.839874268 0 -11574153.839874268 -48539498.622623444 0 0 0 0 387507166.39037323 131097056.44345427 0 131097056.44345427 -155584410.12940788 0 0 0 0 4469498.5942386165 2658344.3646172276 0 2658344.3646172276 -3806072.2134995433 0 0 0 0 -77270207.339550018 46990762.550115585 0 46990762.550115585 37852179.63658905 0 0 0 0 46662168.13759613 8421803.2648868561 0 8421803.2648868561 -142898259.57214355 0 0 0 0 82127457.931152344 -26344254.18970871 0 -26344254.18970871 -69548170.455438614 0 0 0 0 4994258.4571244903 3707923.488825053 0 3707923.488825053 -3309066.6914691073 0 0 0 0 9208539.7843742371 31390686.578006744 0 31390686.578006744 -17645609.344350815 0 0 0 0 -54795184.834621429 79331856.098162651 0 79331856.098162651 55450379.267503738 0 0 0 0 76191677.850837708 -61224000.126598358 0 -61224000.126598358 -61141930.109352112 0 0 0 0 -19599448.679725647 -24673885.907606125 0 -24673885.907606125 61946872.942739487 0 0 0 0 2240252.4188267253 1437547.6923392992 0 1437547.6923392992 -2000142.9104224369 0 0 0 0 -59346422.540267944 20919524.682448387 0 20919524.682448387 107458828.77678299 0 0 0 0 29232118.191703796 50537467.011203766 0 50537467.011203766 87882754.315795898 0 0 0 0 57397373.78830719 35220834.348068237 0 35220834.348068237 41284328.431575775 0 0 0 0 37448207.718841553 -3448669.5650291443 0 -3448669.5650291443 68069568.311992645 0 0 0 0 9869098.1645965576 14647649.331623077 0 14647649.331623077 59779812.229112625 0 0 0 0 3012514.0178375244 45160433.137207031 0 45160433.137207031 37376846.808169603 0 0 0 0 21424018.308776855 43445929.149974823 0 43445929.149974823 37297226.300086975 0 0 0 0 30001028.357013702 23049090.817224503 0 23049090.817224503 34997553.999389648 0 0 0 0 6736335.02684021 23133613.507598877 0 23133613.507598877 35496867.556587219 0 0 0 0 11285163.674060822 32962227.522475719 0 32962227.522475719 19724253.106330872 0 0 0 0 -3565787.8482971191 37831121.529155731 0 37831121.529155731 25548310.354747772 0 0 0 0 882061.89929962158 43637895.683601379 0 43637895.683601379 7723853.8555927277 0 0 0 0 5924748.1651039124 21713881.097269058 0 21713881.097269058 47123576.19834137 0 0 0 0 12708578.558982849 39933344.032012939 0 39933344.032012939 81134011.701114655 0 0 0 0 46766212.495552063 36340460.738332748 0 36340460.738332748 35892390.030319214 0 0 0 0 9132470.9497833252 26095425.584012985 0 26095425.584012985 49891382.993637085 0 0 0 0 26802914.409225464 47267958.972736359 0 47267958.972736359 25560007.927974701 0 0 0 0 29123267.02986145 39515594.363185883 0 39515594.363185883 39639173.129377365 0 0 0 0 124282478.97504425 46034837.466794968 0 46034837.466794968 23239836.204442978 0 0 0 0 55260903.306146622 62576045.694747925 0 62576045.694747925 76514483.980125427 0 0 0 0 33941132.754692078 47246683.963882446 0 47246683.963882446 73370238.375129223 0 0 0 0 108371622.72119904 128243814.79130936 0 128243814.79130936 121067757.28533554 0 0 0 0 29883013.908433914 29252139.506830215 0 29252139.506830215 121789402.1968956 0 0 0 0 1607316.0344655495 -2591424.293138383 0 -2591424.293138383 1529029.1482718773 0 0 0 0 -93857043.516914368 -40030883.758407593 0 -40030883.758407593 79311438.91664505 0 0 0 0 439804490.03521156 131679720.03710747 0 131679720.03710747 29471454.236623764 0 0 0 0 201929236.76130295 19184697.938836098 0 19184697.938836098 35882044.343845367 0 0 0 0 115369670.88269806 26523290.603738308 0 26523290.603738308 36971653.157360077 0 0 0 0 121647607.52493286 36716485.912200928 0 36716485.912200928 18728392.002040863 0 0 0 0 157657626.75959969 2957162.852016449 0 2957162.852016449 -5064637.5301437378 0 0 0 0 6823687.8768303692 -3189097.9947079215 0 -3189097.9947079215 3695973.7786345966 0 0 0 0 89884213.011007309 -7485845.7876834869 0 -7485845.7876834869 -381644.52327728271 0 0 0 0 67215422.364238739 15697952.135316849 0 15697952.135316849 -18700862.632938385 0 0 0 0 34504861.966995239 40777201.529056549 0 40777201.529056549 -12858700.684411049 0 0 0 0 58210188.667976379 27456427.36574173 0 27456427.36574173 -10457607.531253338 0 0 0 0 107727781.91867447 20660371.038190842 0 20660371.038190842 4642126.8557777405 0 0 0 0 69186695.989179611 38285462.894352436 0 38285462.894352436 74488.413974761963 0 0 0 0 61556695.098266602 41839193.703742981 0 41839193.703742981 24078305.422079086 0 0 0 0 63470598.286719322 50237916.931362152 0 50237916.931362152 9263699.6862716675 0 0 0 0 32328024.447372437 37866307.039203644 0 37866307.039203644 5723671.4473762512 0 0 0 0 20295732.602214813 62450087.309617996 0 62450087.309617996 -7962539.4463195801 0 0 0 0 26528040.453979492 38112675.202400208 0 38112675.202400208 -12233081.688400269 0 0 0 0 14999524.331886292 29638847.889980316 0 29638847.889980316 6233746.9001159668 0 0 0 0 -37740876.399230957 44946333.134941101 0 44946333.134941101 3549720.8751525879 0 0 0 0 3609314.4273764305 1108308.7304238006 0 1108308.7304238006 244191.68831920251 0 0 0 0 2685008.4591751099 5815373.000082016 0 5815373.000082016 -1107002.6750144958 0 0 0 0 16252821.345210116 12602698.400130957 0 12602698.400130957 5961557.3612539694 0 0 0 0 17414378.629837036 46680362.911590576 0 46680362.911590576 2325226.7719182968 0 0 0 0 -1617481.8728256226 -1116807.702393055 0 -1116807.702393055 494933.34600067139 0 0 0 0 15306446.516072471 6823749.8657025546 0 6823749.8657025546 71614.218999300152 0 0 0 0 18303101.687728882 40412465.505298615 0 40412465.505298615 -10964783.402709961 0 0 0 0 46960252.177089691 55399386.42352438 0 55399386.42352438 -3875986.0106887817 0 0 0 0 45890603.220649719 43909425.857913971 0 43909425.857913971 -28120458.17678833 0 0 0 0 74444661.864868164 -8409056.0708498955 0 -8409056.0708498955 -41289417.498285294 0 0 0 0 35215386.724770501 17941672.807498142 0 17941672.807498142 5589623.7959955502 0 0 0 0 15075027.666914344 2669127.2851550654 0 2669127.2851550654 -5900167.0428750673 0 0 0 0 28448119.18862915 8715264.5203380585 0 8715264.5203380585 -4723266.864713192 0 0 0 0 9359060.0978044998 6330525.8752056621 0 6330525.8752056621 625507.78488054033 0 0 0 0 36388812.074554443 16772684.75773859 0 16772684.75773859 -544726.7209186554 0 0 0 0 11729534.652674787 8062588.9359442703 0 8062588.9359442703 4900447.4743031412 0 0 0 0 30905118.055725098 9148840.0665159225 0 9148840.0665159225 4928106.5263390541 0 0 0 0 22571911.440853119 20054292.983065605 0 20054292.983065605 1476060.1691865921 0 0 0 0 31605744.485229492 15519396.564875126 0 15519396.564875126 -5397437.7129554749 0 0 0 0 41210186.524627686 26675728.332354546 0 26675728.332354546 -20803370.331341743 0 0 0 0 -28164808.562606812 77760446.303995132 0 77760446.303995132 7972487.4221067429 0 0 0 0 42444631.200845256 19242909.186317656 0 19242909.186317656 3497282.6690937527 0 0 0 0 64844873.659651756 7549139.718875885 0 7549139.718875885 -33805663.646198273 0 0 0 0 77017946.274581909 47653723.08441925 0 47653723.08441925 -53606304.298152924 0 0 0 0 5935599.4980429746 12576539.605341978 0 12576539.605341978 13180144.652074136 0 0 0 0 4240481.6073638909 7830143.0892906338 0 7830143.0892906338 7692394.4457597844 0 0 0 0 -37587664.488464355 45826765.191906929 0 45826765.191906929 1501286.583240509 0 0 0 0 44740658.299545288 16259719.214511871 0 16259719.214511871 685368.65341949463 0 0 0 0 44845055.725090027 16701989.890621185 0 16701989.890621185 1726886.0568237305 0 0 0 0 13990160.885475159 35077062.93073082 0 35077062.93073082 99058.281817376614 0 0 0 0 32664993.37802887 13258353.030586243 0 13258353.030586243 7347290.8737564087 0 0 0 0 15446156.158746388 -1741543.9500812702 0 -1741543.9500812702 -4649616.4463176187 0 0 0 0 67404240.224577427 27385196.639925241 0 27385196.639925241 2879059.6335449219 0 0 0 0 61438082.263793945 24055997.855552673 0 24055997.855552673 19818703.565494537 0 0 0 0 690036.46087842435 -2216588.7787687127 0 -2216588.7787687127 -1207308.5956943589 0 0 0 0 66782088.966629028 21573831.449752808 0 21573831.449752808 956322.85078430176 0 0 0 0 62647969.396240234 25918863.700653076 0 25918863.700653076 -1086845.5195617676 0 0 0 0 66244334.866622925 23465359.579231262 0 23465359.579231262 -3783945.4730644226 0 0 0 0 58506290.222824097 19206691.657867432 0 19206691.657867432 -2849777.7367630005 0 0 0 0 68965394.417915344 13514808.898452759 0 13514808.898452759 8965397.1387405396 0 0 0 0 58506879.323021822 18736200.560353745 0 18736200.560353745 16210519.865760803 0 0 0 0 4050057.6568222046 -2509221.2758483887 0 -2509221.2758483887 -1330717.8988876343 0 0 0 0 7906853.6873779297 9967764.6473808289 0 9967764.6473808289 5080387.8782501221 0 0 0 0 11981473.38173629 9116239.6254929863 0 9116239.6254929863 4253965.2532871254 0 0 0 0 11160462.720527101 -4412325.7805813365 0 -4412325.7805813365 -2265025.6887988448 0 0 0 0 6430595.8997192383 4069418.5479888916 0 4069418.5479888916 966289.76978397369 0 0 0 0 9471478.2432250977 -1260179.7237091064 0 -1260179.7237091064 -2823977.1186618805 0 0 0 0 10407842.099319458 6471604.9617004395 0 6471604.9617004395 -315138.11846542358 0 0 0 0 12215779.951992244 3669054.8427919233 0 3669054.8427919233 -636592.23235177808 0 0 0 0 3134633.272819519 1797303.0192127228 0 1797303.0192127228 4555857.0664520264 0 0 0 0 709624.86584559828 501709.45578445494 0 501709.45578445494 67016.042020063847 0 0 0 0 31269655.686367035 6275324.0206192732 0 6275324.0206192732 3277892.0307674408 0 0 0 0 21338727.905227661 7891822.509098053 0 7891822.509098053 5548353.6475977898 0 0 0 0 18023453.933654785 6302739.9991426468 0 6302739.9991426468 5578080.4831552505 0 0 0 0 16828071.777587891 15330509.177264214 0 15330509.177264214 -9474413.58979702 0 0 0 0 19858059.827056885 5729288.0415811539 0 5729288.0415811539 5710922.7831687927 0 0 0 0 6792764.8044502065 5548211.5026002824 0 5548211.5026002824 2813350.255115876 0 0 0 0 22069364.422229767 9103241.3438024521 0 9103241.3438024521 6167858.4176959991 0 0 0 0 16809823.758740127 -797182.371059414 0 -797182.371059414 -8672317.9790706094 0 0 0 0 39929981.326789856 4579188.6758704185 0 4579188.6758704185 9162521.9949321747 0 0 0 0 42056618.167922974 13164962.376399994 0 13164962.376399994 735631.13546276093 0 0 0 0 13258339.757995605 17141319.468906403 0 17141319.468906403 10573566.732421875 0 0 0 0 28991389.060203552 14720396.650991201 0 14720396.650991201 -14852378.766139984 0 0 0 0 82362028.38343811 55698537.040721893 0 55698537.040721893 -13785152.836681366 0 0 0 0 2581309.7116792649 3274145.3566671722 0 3274145.3566671722 1879151.4491898231 0 0 0 0 3217860.7034993619 2660570.2305663675 0 2660570.2305663675 1299857.0397982672 0 0 0 0 23108034.345825195 -3338386.6168708801 0 -3338386.6168708801 -12077315.45573616 0 0 0 0 9249996.6657409668 11615881.903400421 0 11615881.903400421 -13110941.787094116 0 0 0 0 44142817.992233276 -16111588.162252903 0 -16111588.162252903 3140702.5756797791 0 0 0 0 91838824.557315826 43059204.09936595 0 43059204.09936595 21509408.815076828 0 0 0 0 1349511.3014596924 913685.40012780949 0 913685.40012780949 -714199.48943324108 0 0 0 0 -46070408.855796814 -29043378.981205225 0 -29043378.981205225 -20593451.532797813 0 0 0 0 52347496.15020752 36457851.608979225 0 36457851.608979225 -210992923.84798798 0 0 0 0 61163539.455566406 46719529.402482986 0 46719529.402482986 -210565861.42467016 0 0 0 0 14678275.439071655 10932520.393476486 0 10932520.393476486 34873707.321783066 0 0 0 0 450446.67852850631 1212777.7845043764 0 1212777.7845043764 811036.48838504776 0 0 0 0 -1591763.9736862183 43362766.239668846 0 43362766.239668846 -29674626.102342606 0 0 0 0 54582514.793907166 110375627.16573954 0 110375627.16573954 -61985391.293180466 0 0 0 0 -5979245.7947998047 -83469374.459169865 0 -83469374.459169865 -177381099.08630943 0 0 0 0 19497635.613845825 16845626.81760788 0 16845626.81760788 -14923857.581254959 0 0 0 0 13026033.906536102 -27680636.834472179 0 -27680636.834472179 -58797524.120168686 0 0 0 0 70391111.287948608 27848896.710045815 0 27848896.710045815 -159856451.35669041 0 0 0 0 61894197.955383301 58614930.969478607 0 58614930.969478607 -165721919.71566486 0 0 0 0 82006387.945960999 36434547.281029761 0 36434547.281029761 -153540761.21398354 0 0 0 0 88426173.940124512 -3558901.8594017029 0 -3558901.8594017029 -239616084.37350368 0 0 0 0 132755814.84881592 58893830.698823929 0 58893830.698823929 -169827170.4922595 0 0 0 0 147133529.23614502 94554438.786300182 0 94554438.786300182 -154539045.79696918 0 0 0 0 119380620.43017578 56167045.867290497 0 56167045.867290497 -94320438.833246231 0 0 0 0 7572429.7316589355 116047160.05913353 0 116047160.05913353 -139180605.76328421 0 0 0 0 68547362.731290817 48459096.233327687 0 48459096.233327687 -73042327.166063309 0 0 0 0 20658462.261199951 4684914.9616136551 0 4684914.9616136551 -21747543.638568878 0 0 0 0 17854835.997909546 40799974.610971451 0 40799974.610971451 -67864144.005204201 0 0 0 0 16466642.632060051 14440144.721969068 0 14440144.721969068 -11152422.980886459 0 0 0 0 4400745.5704140328 3193956.6470782869 0 3193956.6470782869 91605.528051812202 0 0 0 0 42455818.352233887 22517369.070567608 0 22517369.070567608 -15655493.202296734 0 0 0 0 -136389094.34573364 142117022.05854416 0 142117022.05854416 -56724461.570485115 0 0 0 0 1202928.6566486508 1212933.028241232 0 1212933.028241232 48628.871083604172 0 0 0 0 -2514191.0484580994 59386377.015626013 0 59386377.015626013 -14400487.266496658 0 0 0 0 -46730412.751899719 40873784.692665339 0 40873784.692665339 94775758.28507328 0 0 0 0 -30241480.493232727 109229795.41873795 0 109229795.41873795 -105764831.42058468 0 0 0 0 496370.77580661327 -705707.30485048285 0 -705707.30485048285 -81364.016556763963 0 0 0 0 341607454.47480774 -186056921.15147805 0 -186056921.15147805 -334127109.43958372 0 0 0 0 27043095.698272705 139624627.82528067 0 139624627.82528067 205448826.69318146 0 0 0 0 169491157.23532486 -26323794.244741827 0 -26323794.244741827 21771956.002680063 0 0 0 0 376768942.63517761 8661964.7662479877 0 8661964.7662479877 -101400804.61059952 0 0 0 0 53572413.272384644 170657383.7519083 0 170657383.7519083 -170033499.87592602 0 0 0 0 119404350.04975891 50311072.458418369 0 50311072.458418369 -129135611.98077583 0 0 0 0 232891537.45449829 195459047.10110617 0 195459047.10110617 44284973.769897461 0 0 0 0 211287699.97946167 61942273.204082489 0 61942273.204082489 -96996364.785181522 0 0 0 0 103736863.93209839 -54161399.255405426 0 -54161399.255405426 9501443.7302541733 0 0 0 0 73327288.935028076 20369202.997272968 0 20369202.997272968 -43999005.283817291 0 0 0 0 151869037.62936401 -138877797.81364822 0 -138877797.81364822 -33162851.117199898 0 0 0 0 -73497711.765869141 -69643144.225004196 0 -69643144.225004196 18237750.601437569 0 0 0 0 123511578.69523621 -30943994.928265095 0 -30943994.928265095 -8632486.7227573395 0 0 0 0 262635183.19348145 -60147150.862597466 0 -60147150.862597466 -54062829.174095601 0 0 0 0 166422969.26846313 -81545886.888190746 0 -81545886.888190746 -55123063.892845154 0 0 0 0 290398920.46984863 -121219793.59385729 0 -121219793.59385729 -6877799.289226532 0 0 0 0 184135777.99075317 33572290.122986078 0 33572290.122986078 239827037.13545179 0 0 0 0 -225226968.2332077 225646929.73354152 0 225646929.73354152 -17353496.97292912 0 0 0 0 196608734.00338745 8200847.8652553558 0 8200847.8652553558 77120346.992081761 0 0 0 0 3225252.8632664382 1465000.9366592802 0 1465000.9366592802 -613539.45396355283 0 0 0 0 -194409268.67129517 102878490.95631742 0 102878490.95631742 23995465.74766016 0 0 0 0 -332103674.12036133 -27795293.870445371 0 -27795293.870445371 12842627.855837822 0 0 0 0 57442537.764404297 -245487924.62487984 0 -245487924.62487984 -297688788.81212616 0 0 0 0 36830638.864135742 -273223.22446250916 0 -273223.22446250916 -171943871.72766972 0 0 0 0 -21376316.173187256 16640070.352588296 0 16640070.352588296 -109052476.82444382 0 0 0 0 -113366294.4130249 -50197270.770124912 0 -50197270.770124912 -152456903.82487977 0 0 0 0 -127899464.62634277 -243372740.80319643 0 -243372740.80319643 -202589654.51828384 0 0 0 0 -30812882.263153076 -25805258.303674906 0 -25805258.303674906 12611083.854702979 0 0 0 0 -186497015.04611206 6213657.5301023722 0 6213657.5301023722 45640436.525305748 0 0 0 0 76565589.50453186 60364068.697322518 0 60364068.697322518 22166250.879143041 0 0 0 0 -15557943.110301971 -12457464.527928501 0 -12457464.527928501 -32982447.593883038 0 0 0 0 69273019.23336792 154142913.30849171 0 154142913.30849171 -165547113.09175539 0 0 0 0 -25540982.399993896 5150156.8538255692 0 5150156.8538255692 -9969781.4517297745 0 0 0 0 234961437.2649231 109899111.19690466 0 109899111.19690466 -171887217.75501537 0 0 0 0 4326721.0632044375 1720751.5854020603 0 1720751.5854020603 -1114847.0278745228 0 0 0 0 208247.93643546849 -48769.577681140974 0 -48769.577681140974 -66345.308010506444 0 0 0 0 -25655217.130851746 6197251.098377943 0 6197251.098377943 -98329.409696578979 0 0 0 0 -48086513.657989502 302414261.454916 0 302414261.454916 -182941943.01767874 0 0 0 0 63234205.081542969 56209212.4778409 0 56209212.4778409 -236952644.37289858 0 0 0 0 1471633.869257614 -322475.53153498471 0 -322475.53153498471 -1227211.5011608959 0 0 0 0 -22672876.145126343 -1544632.7043437958 0 -1544632.7043437958 -13981522.559481859 0 0 0 0 27952453.927154541 120746102.57633686 0 120746102.57633686 139009118.77458465 0 0 0 0 120650964.61108398 -96532242.947795868 0 -96532242.947795868 -35456613.924375534 0 0 0 0 -134906857.29460907 36418058.736825943 0 36418058.736825943 217715685.46592999 0 0 0 0 182724912.62944984 117421591.44409573 0 117421591.44409573 -64925524.139188766 0 0 0 0 3615561.0031723678 546697.12648744136 0 546697.12648744136 -966860.64050670154 0 0 0 0 238507811.16360474 -69167567.571240425 0 -69167567.571240425 -5696004.8050684929 0 0 0 0 12251426.283035278 -11764027.577212811 0 -11764027.577212811 82612758.712032318 0 0 0 0 12200739.112075806 -7487712.0529437065 0 -7487712.0529437065 20044735.009437084 0 0 0 0 4241940.4258785248 23082260.640450954 0 23082260.640450954 73143665.000937462 0 0 0 0 7850217.9446563721 40966401.51330328 0 40966401.51330328 13032242.341166496 0 0 0 0 65310061.170930862 29185265.733674526 0 29185265.733674526 12405872.796849251 0 0 0 0 107778176.3011055 28163140.670476615 0 28163140.670476615 -50784006.605883598 0 0 0 0 23267439.328071594 91612041.866691351 0 91612041.866691351 -33419618.112600327 0 0 0 0 -69099776.723068237 63964663.645544529 0 63964663.645544529 -111422435.10544109 0 0 0 0 55463624.952209473 56667233.152421594 0 56667233.152421594 -111005221.79856777 0 0 0 0 -9288771.6694641113 121147557.71147728 0 121147557.71147728 -98986349.677359819 0 0 0 0 858336.47525177896 -954531.28127596329 0 -954531.28127596329 -146924.13660048795 0 0 0 0 126626849.07801819 196249970.5810256 0 196249970.5810256 -223195069.7965799 0 0 0 0 10691836.672637939 98706946.106579542 0 98706946.106579542 -119545775.81211162 0 0 0 0 375957.16818273813 -562086.93842832244 0 -562086.93842832244 -75054.081681906886 0 0 0 0 -91982847.071807861 182710561.92852497 0 182710561.92852497 260451790.94317627 0 0 0 0 63299557.841949463 148509907.16744518 0 148509907.16744518 -91409210.741797447 0 0 0 0 146566918.73484039 74166400.50048995 0 74166400.50048995 -377338061.65443921 0 0 0 0 230038821.19882202 51048497.670283318 0 51048497.670283318 -147514265.12035799 0 0 0 0 -59111770.599754333 -49955378.827627182 0 -49955378.827627182 -31947047.483579636 0 0 0 0 49259474.993438721 87693014.095812798 0 87693014.095812798 -146991744.30190471 0 0 0 0 14219053.042800903 132920867.12668812 0 132920867.12668812 -5154611.2469596863 0 0 0 0 -4645298.9652099609 142960974.87549877 0 142960974.87549877 59551677.98325634 0 0 0 0 15846297.931274414 5773267.2216272354 0 5773267.2216272354 1139877.9558773041 0 0 0 0 23379544.657211304 25367697.567382157 0 25367697.567382157 16117125.345915735 0 0 0 0 7060819.0338240303 9253962.7175384834 0 9253962.7175384834 4406555.7321678372 0 0 0 0 24961753.956085205 8517965.0337352753 0 8517965.0337352753 1223355.9954528809 0 0 0 0 18913501.268981934 8358019.0232467651 0 8358019.0232467651 2037547.1636619568 0 0 0 0 15114252.4609375 3393087.4558672905 0 3393087.4558672905 -1970654.7078380585 0 0 0 0 14710071.972632583 7198263.603253115 0 7198263.603253115 762244.44014000893 0 0 0 0 14026248.869033813 2593362.8107385635 0 2593362.8107385635 -2456674.9702205658 0 0 0 0 9724263.0505894125 2807308.6836492643 0 2807308.6836492643 -2800969.1695997166 0 0 0 0 16278964.830154419 1942058.2345962524 0 1942058.2345962524 -42324.606499671936 0 0 0 0 13023780.108410876 3327228.1098129824 0 3327228.1098129824 516470.93454739451 0 0 0 0 22580441.935340881 709678.25254297256 0 709678.25254297256 -957145.85125732422 0 0 0 0 7563574.3229751587 7250657.4680876732 0 7250657.4680876732 6826726.8927211761 0 0 0 0 33283842.020339966 989153.93647193909 0 989153.93647193909 -1243588.7372131348 0 0 0 0 484574.63503456116 145465.50857958198 0 145465.50857958198 -308275.57075419649 0 0 0 0 17732796.273207821 7153895.5589047894 0 7153895.5589047894 1764456.080330818 0 0 0 0 22619467.057983398 6068947.5327949524 0 6068947.5327949524 -973605.78637313843 0 0 0 0 9666486.7496489882 11599175.981517371 0 11599175.981517371 4926391.6687164288 0 0 0 0 19069457.087154388 6201525.1089173555 0 6201525.1089173555 1205724.9528160095 0 0 0 0 66162675.374237061 26641650.585457563 0 26641650.585457563 3095768.5613071918 0 0 0 0 11277543.532652929 5542398.256461639 0 5542398.256461639 625701.12624351494 0 0 0 0 21062807.354232788 3649518.5683336258 0 3649518.5683336258 3718632.0040078163 0 0 0 0 25771821.046340942 3707851.6403169632 0 3707851.6403169632 -483177.78043746948 0 0 0 0 22207047.363470845 7532271.5790110491 0 7532271.5790110491 3406110.6774953213 0 0 0 0 10445088.831583787 13642467.734784108 0 13642467.734784108 4430744.5826426949 0 0 0 0 21073460.135040283 7050460.6061859131 0 7050460.6061859131 1555802.0785150528 0 0 0 0 21048741.339286804 7462638.6887865067 0 7462638.6887865067 82024.132295131683 0 0 0 0 32811819.945960999 14535435.257898331 0 14535435.257898331 3130523.5412902832 0 0 0 0 12440950.169542253 9460937.5470042117 0 9460937.5470042117 924591.28206055611 0 0 0 0 15765972.698917389 13016235.234224319 0 13016235.234224319 43216.974983215332 0 0 0 0 23493412.717262268 6098894.1054592133 0 6098894.1054592133 2169474.9473795891 0 0 0 0 21445136.447947469 11141234.500988547 0 11141234.500988547 542636.48315988854 0 0 0 0 17462930.172821045 10675806.089334488 0 10675806.089334488 10619546.766828537 0 0 0 0 9899648.9869516362 7009757.1142682824 0 7009757.1142682824 1078617.3588552643 0 0 0 0 27186314.957004547 7700158.2822847366 0 7700158.2822847366 -1443340.5001277924 0 0 0 0 26120035.033121109 13113116.78379631 0 13113116.78379631 5136093.9077720642 0 0 0 0 27073833.376647949 9010342.7819776535 0 9010342.7819776535 -2794452.4259781837 0 0 0 0 16291068.84308967 5135787.1946773548 0 5135787.1946773548 -2347550.8846924491 0 0 0 0 37308308.127227783 9764998.0889339447 0 9764998.0889339447 -4932476.3212413788 0 0 0 0 26943069.937459946 9229853.9376194477 0 9229853.9376194477 4165651.3277740479 0 0 0 0 16743929.849044835 3368138.1278240085 0 3368138.1278240085 -1922773.5824689511 0 0 0 0 13324503.698708814 1487794.8963272609 0 1487794.8963272609 -3274183.6128659584 0 0 0 0 29888847.561088562 13380931.100371361 0 13380931.100371361 3275437.9517056942 0 0 0 0 14901668.934406601 1937693.9719088376 0 1937693.9719088376 -2987533.3834605347 0 0 0 0 18948504.712997437 5190731.2002434731 0 5190731.2002434731 1454323.8396492004 0 0 0 0 18975162.173790455 5564653.5644523054 0 5564653.5644523054 2116349.2190666199 0 0 0 0 13332647.365277585 -4185769.2490704544 0 -4185769.2490704544 -5182261.3588399813 0 0 0 0 -34044431.743362427 -22239204.113585711 0 -22239204.113585711 -7162814.0631757975 0 0 0 0 -367304.51898927242 -440835.19211024418 0 -440835.19211024418 -1208467.5021267051 0 0 0 0 -22085653.540655136 27544868.774986893 0 27544868.774986893 -81547610.141881943 0 0 0 0 -76058587.332397461 54928825.117626667 0 54928825.117626667 -62457762.46492362 0 0 0 0 33822870.267700195 13490247.657977581 0 13490247.657977581 2371772.5884656906 0 0 0 0 168996002.18008804 4887668.5637514591 0 4887668.5637514591 -34236556.056535721 0 0 0 0 152611756.49311066 -17221097.346807241 0 -17221097.346807241 -36918676.026015282 0 0 0 0 67523538.69631958 -14345960.414801836 0 -14345960.414801836 -6561749.9989889264 0 0 0 0 138903024.70059204 -5450300.7235393524 0 -5450300.7235393524 -19667303.743210793 0 0 0 0 65704536.112808228 5120924.0686357021 0 5120924.0686357021 -6463328.2434082031 0 0 0 0 11799372.956993103 184305297.7823745 0 184305297.7823745 101999753.08326244 0 0 0 0 57557.047090232372 -172413.61289994419 0 -172413.61289994419 -455457.9647626637 0 0 0 0 304947472.90170288 81881019.353194237 0 81881019.353194237 -24616874.158612728 0 0 0 0 189537487.96681595 -24639451.93799758 0 -24639451.93799758 -24811334.235682487 0 0 0 0 168734449.36534119 44769090.838084698 0 44769090.838084698 8386498.733479023 0 0 0 0 77828523.05456543 3258918.7770557404 0 3258918.7770557404 -116728256.62154841 0 0 0 0 79703853.442771912 199169060.87250233 0 199169060.87250233 264270218.21372128 0 0 0 0 2482906.365676403 2063471.9765954865 0 2063471.9765954865 274555.044052465 0 0 0 0 257860474.08475876 -51619208.66684854 0 -51619208.66684854 -43773350.459035873 0 0 0 0 245745975.98672485 -353008904.7600131 0 -353008904.7600131 -115073066.3122139 0 0 0 0 462274554.7381134 163325407.42145753 0 163325407.42145753 -76892459.107686996 0 0 0 0 -260319336.13571167 64502918.201278687 0 64502918.201278687 356439502.79000902 0 0 0 0 325922928.46454239 -253616874.89068615 0 -253616874.89068615 -134158353.78514862 0 0 0 0 -112803096.11972046 -278306753.47263336 0 -278306753.47263336 -51223604.083292961 0 0 0 0 23698798.109741211 49059385.873407841 0 49059385.873407841 -75330841.738946274 0 0 0 0 -43629422.925216675 -25789100.248054028 0 -25789100.248054028 116820071.69099617 0 0 0 0 177423480.41561127 52792021.132939339 0 52792021.132939339 -212068208.86454582 0 0 0 0 26370233.279754639 3807572.6894629002 0 3807572.6894629002 2462851.450243949 0 0 0 0 16206241.491850555 -3650911.3563465476 0 -3650911.3563465476 -4138476.4517089082 0 0 0 0 -317979860.13444519 -64546867.338740826 0 -64546867.338740826 163558813.50083733 0 0 0 0 42762584.629081726 19973344.125096798 0 19973344.125096798 164728.67716622353 0 0 0 0 35093302.010472298 10110138.497276986 0 10110138.497276986 -501625.87643331289 0 0 0 0 33787768.41759491 318140.52485080063 0 318140.52485080063 -1467016.8670381848 0 0 0 0 17082103.612890262 3468983.5144716352 0 3468983.5144716352 -3170885.9022729723 0 0 0 0 22526965.079870299 -678508.30369922146 0 -678508.30369922146 -2347656.550622928 0 0 0 0 19474326.410607338 9705069.6703534722 0 9705069.6703534722 -4053920.1676015854 0 0 0 0 18777488.80115509 5500139.1175684929 0 5500139.1175684929 -2304253.6789970398 0 0 0 0 23821014.576257836 4276563.8357834769 0 4276563.8357834769 -6524916.4950608537 0 0 0 0 46809166.939769745 40244671.655618668 0 40244671.655618668 -42633581.618836403 0 0 0 0 28135853.320028938 -10894007.923232166 0 -10894007.923232166 -11057830.796045866 0 0 0 0 50789729.863757789 -61686383.840812415 0 -61686383.840812415 3041822.2421379089 0 0 0 0 13660265.906433105 17347484.496116638 0 17347484.496116638 9078879.6544113159 0 0 0 0 13526314.338242531 19321105.507226467 0 19321105.507226467 -7223446.9683074951 0 0 0 0 29275084.405044556 7282822.2440223694 0 7282822.2440223694 1217089.8765449524 0 0 0 0 -8950929.9532775879 36372806.102034569 0 36372806.102034569 -21059959.110854626 0 0 0 0 40187410.944155753 10861171.867217854 0 10861171.867217854 -2618989.1634328249 0 0 0 0 28993688.719684601 44735880.97387743 0 44735880.97387743 -58549907.334190369 0 0 0 0 49051076.925483704 46129520.004362106 0 46129520.004362106 -45037572.080985069 0 0 0 0 26865135.537123494 8651681.6155275535 0 8651681.6155275535 -7320622.9430547999 0 0 0 0 15423402.632923126 45181893.318406582 0 45181893.318406582 -50968899.619384766 0 0 0 0 4553571.5293017905 -153933.88705186918 0 -153933.88705186918 -937166.37664717343 0 0 0 0 37035567.098434448 -551945.5850315094 0 -551945.5850315094 16466000.664491653 0 0 0 0 79953490.992450714 56236752.83011055 0 56236752.83011055 -21704737.944333553 0 0 0 0 61719612.716856956 3697091.4495856762 0 3697091.4495856762 -41209836.853673935 0 0 0 0 21876979.873413086 19006600.823190212 0 19006600.823190212 33308009.608499527 0 0 0 0 23240632.078489304 13594015.357038856 0 13594015.357038856 8549381.3064155579 0 0 0 0 22574078.218994141 27368482.19859314 0 27368482.19859314 21389484.323876381 0 0 0 0 13561090.650981903 35766752.410544395 0 35766752.410544395 -22708073.430826187 0 0 0 0 24822564.852598909 8463115.4474320356 0 8463115.4474320356 -9768640.2507790979 0 0 0 0 39526509.799694061 22316481.877365112 0 22316481.877365112 21530812.67738533 0 0 0 0 35882285.774604797 9285239.6188316345 0 9285239.6188316345 24072402.80934906 0 0 0 0 32864109.733436584 31924891.345286965 0 31924891.345286965 24205837.623140454 0 0 0 0 -3712331.6989898682 2796261.7197093964 0 2796261.7197093964 -17667428.85200119 0 0 0 0 -300254.014295578 27633723.799838305 0 27633723.799838305 19723295.536735535 0 0 0 0 41113555.090797424 38704866.997322083 0 38704866.997322083 -25513886.718097687 0 0 0 0 26573934.757505417 9225452.4927186966 0 9225452.4927186966 -57165889.159431458 0 0 0 0 24580296.68265152 12846777.096904755 0 12846777.096904755 -19002851.719257355 0 0 0 0 119521942.2492218 47614468.61214447 0 47614468.61214447 9876289.9548797607 0 0 0 0 27471450.332556777 7303961.0273790155 0 7303961.0273790155 -10009691.674222348 0 0 0 0 148597891.61084747 6857063.8456325531 0 6857063.8456325531 -31145246.657798767 0 0 0 0 3174468.2731133401 217524.7967253346 0 217524.7967253346 -544978.91554132476 0 0 0 0 71684983.272136688 47011454.488492966 0 47011454.488492966 42353663.608646393 0 0 0 0 5955166.7664675303 -7094316.7557360297 0 -7094316.7557360297 -5756036.3037028257 0 0 0 0 -31620018.621627808 -32277932.222110748 0 -32277932.222110748 -949484.53894805908 0 0 0 0 36111687.276461229 -1912274.217383476 0 -1912274.217383476 -10254007.444536116 0 0 0 0 13112248.196891785 5339176.3823013306 0 5339176.3823013306 5528826.5607566833 0 0 0 0 26266795.720564842 16163837.504947662 0 16163837.504947662 -99611.844017028809 0 0 0 0 160708652.41336823 -39733448.563558578 0 -39733448.563558578 -18108857.743164062 0 0 0 0 3466093.4673271179 12720968.075418472 0 12720968.075418472 7415642.5522050858 0 0 0 0 1491556.4319095649 -12735.291525548324 0 -12735.291525548324 -60702.23191793263 0 0 0 0 27618863.809116364 -16028956.643795013 0 -16028956.643795013 19512563.224840164 0 0 0 0 78213378.753786087 -11135562.432169914 0 -11135562.432169914 -22143100.170974731 0 0 0 0 62422834.998195648 23241735.388479233 0 23241735.388479233 -57452054.531822205 0 0 0 0 -2888152.6114215851 27139811.882773399 0 27139811.882773399 -3736466.9065628052 0 0 0 0 110856977.05846405 91080639.520755768 0 91080639.520755768 -34347167.748394012 0 0 0 0 7125716.3996811863 2152998.5714277588 0 2152998.5714277588 -2388605.6811092813 0 0 0 0 18710448.068793327 440891.50609939173 0 440891.50609939173 -10510017.925761025 0 0 0 0 158814691.4623127 -15186090.276603699 0 -15186090.276603699 35825692.328479767 0 0 0 0 102357782.73738575 124753138.47242737 0 124753138.47242737 -77424858.546548843 0 0 0 0 152918736.27938402 40796793.719701052 0 40796793.719701052 -159597158.98056793 0 0 0 0 21561508.462658882 20891259.927449226 0 20891259.927449226 29065048.758201599 0 0 0 0 83387106.708599091 59696019.457408905 0 59696019.457408905 -69362125.276470184 0 0 0 0 77142827.002304077 14492168.21021843 0 14492168.21021843 -2682249.1842041016 0 0 0 0 5621507.7658685595 935936.62413439341 0 935936.62413439341 -814412.1890893206 0 0 0 0 89511324.034139633 30218360.588693619 0 30218360.588693619 -44737226.517959595 0 0 0 0 36475379.809768677 53577384.293670654 0 53577384.293670654 114335191.71166801 0 0 0 0 67646885.372257233 46533048.013751984 0 46533048.013751984 -25729998.903289795 0 0 0 0 6189314.0514144897 -25522147.630340576 0 -25522147.630340576 -28378208.199798584 0 0 0 0 -3197534.3593673706 56654641.846626282 0 56654641.846626282 1021937.1546173096 0 0 0 0 18517700.069972508 5502694.8501072899 0 5502694.8501072899 4049199.9611909837 0 0 0 0 33406779.098876953 54628464.999420166 0 54628464.999420166 -34753092.384840012 0 0 0 0 59341912.6043396 24306177.990608215 0 24306177.990608215 14411041.222000122 0 0 0 0 61841157.546384811 28864429.791599274 0 28864429.791599274 -15668534.315597534 0 0 0 0 46319448.94301033 30434880.983697891 0 30434880.983697891 9424779.849407196 0 0 0 0 19158712.130798869 19027491.261474881 0 19027491.261474881 6326495.6872431505 0 0 0 0 55802518.028436661 43416811.712398529 0 43416811.712398529 -831272.14186477661 0 0 0 0 11090068.003059387 42077533.322147369 0 42077533.322147369 7082635.2260818481 0 0 0 0 10211594.019398572 5970972.2200931013 0 5970972.2200931013 448655.32008736022 0 0 0 0 5733970.7217636108 11452913.624679565 0 11452913.624679565 1830219.1946687698 0 0 0 0 21269095.653894436 17356070.722921833 0 17356070.722921833 4925767.9304378685 0 0 0 0 30408854.12424469 1856166.1970028877 0 1856166.1970028877 -4531654.3273696899 0 0 0 0 16850987.87322998 10002994.145553589 0 10002994.145553589 -822406.51431274414 0 0 0 0 25305195.016521454 11189164.811544418 0 11189164.811544418 -4184483.8662834167 0 0 0 0 22300337.136039495 12175342.569674838 0 12175342.569674838 -333492.95346914604 0 0 0 0 36450055.79553318 16752116.343488216 0 16752116.343488216 -4573058.8132095337 0 0 0 0 25650304.446919009 16808301.726594757 0 16808301.726594757 -5384470.5774580603 0 0 0 0 24753694.505569458 13774584.813468933 0 13774584.813468933 233014.61013031006 0 0 0 0 23242763.284454346 1408215.5685882568 0 1408215.5685882568 13338083.68497467 0 0 0 0 22228054.11928691 -9483987.7957487293 0 -9483987.7957487293 -14821567.437927924 0 0 0 0 1545495.0523078665 423800.43856483698 0 423800.43856483698 -99954.250566912815 0 0 0 0 21828468.987952329 7652561.8186434302 0 7652561.8186434302 -5057986.4843580034 0 0 0 0 26068615.178726196 5898686.1250371933 0 5898686.1250371933 -11902242.725400925 0 0 0 0 24123067.535682678 21791303.581604004 0 21791303.581604004 -20821639.689310074 0 0 0 0 27640448.240837097 5186133.8843078613 0 5186133.8843078613 17349235.292858124 0 0 0 0 32077869.754032135 20430677.141332626 0 20430677.141332626 -11292300.495071411 0 0 0 0 12611386.990913391 18998959.728189468 0 18998959.728189468 -9456576.4426651001 0 0 0 0 29761986.079788208 22675872.016563416 0 22675872.016563416 -7004021.4354095459 0 0 0 0 1569222.4953988604 271480.84926319495 0 271480.84926319495 -37695.993678215891 0 0 0 0 21822018.457226358 5505807.4168474581 0 5505807.4168474581 -10088951.966395302 0 0 0 0 14568634.970027395 7722868.2284272946 0 7722868.2284272946 2606985.1674341038 0 0 0 0 47205937.773563385 27249711.295734406 0 27249711.295734406 23824646.446044922 0 0 0 0 54867913.836557388 59268537.877952576 0 59268537.877952576 33865998.157924652 0 0 0 0 1504812697.5380745 1157215323.6029305 0 1157215323.6029305 461055481.32082653 0 0 0 0 3456953389.3237286 2936455623.2355866 0 2936455623.2355866 2052007650.990747 0 0 0 0 8281372.8234866448 711666.82074582949 0 711666.82074582949 3292208.2845705096 0 0 0 0 1515077748.6354651 1094524315.4572508 0 1094524315.4572508 511538613.92511702 0 0 0 0 3010129.3739328962 -130969.63409150322 0 -130969.63409150322 4104680.996747701 0 0 0 0 5355565.1608657837 -1707515.3061904907 0 -1707515.3061904907 3976594.2961626053 0 0 0 0 9991047.8568555471 -3082297.3200052055 0 -3082297.3200052055 4654658.5985712353 0 0 0 0 3779377.4836807251 -4727020.5932435989 0 -4727020.5932435989 242657.86848640442 0 0 0 0 863564743.47762799 21593393.569049835 0 21593393.569049835 -106974663.99935436 0 0 0 0 587090336.09113216 526567711.09301496 0 526567711.09301496 379128413.0898419 0 0 0 0 2109867581.0362825 922348551.29727232 0 922348551.29727232 382112827.88785636 0 0 0 0 1382982269.805891 1148327771.6510062 0 1148327771.6510062 475918790.67781234 0 0 0 0 1202485399.4825366 -53478996.29727219 0 -53478996.29727219 -47999455.061020553 0 0 0 0 1497535.5391829703 -32484.113587008615 0 -32484.113587008615 1609552.0330067773 0 0 0 0 1349741575.0270662 696790559.62035787 0 696790559.62035787 179988316.60556969 0 0 0 0 1772934123.4791079 597972300.33110046 0 597972300.33110046 139038942.7187348 0 0 0 0 2103916043.3457568 980842385.52547729 0 980842385.52547729 -76689301.047979414 0 0 0 0 3466193953.7872143 1791559890.8248534 0 1791559890.8248534 243512334.94809246 0 0 0 0 3464134569.3969822 663482506.10167706 0 663482506.10167706 -522374841.84192532 0 0 0 0 2513951217.9204617 914961977.08446097 0 914961977.08446097 -71184746.625966281 0 0 0 0 3464746333.1928253 59627708.270766638 0 59627708.270766638 -762528139.85902619 0 0 0 0 2678465230.8900747 503674615.92107719 0 503674615.92107719 -554856506.85896337 0 0 0 0 2647304754.979239 325880813.03731179 0 325880813.03731179 -385997723.61235523 0 0 0 0 1456682593.432138 179123147.07088244 0 179123147.07088244 -63746462.931725264 0 0 0 0 1557884711.2521644 33653783.70558244 0 33653783.70558244 -138873485.302176 0 0 0 0 2259784907.7726212 119831561.57034051 0 119831561.57034051 -248301178.76760852 0 0 0 0 2032370760.9412897 134863855.46831036 0 134863855.46831036 -248700039.34907874 0 0 0 0 1446589677.2088461 265863769.74253964 0 265863769.74253964 -106508326.15648848 0 0 0 0 1960179131.5324054 325506371.65442216 0 325506371.65442216 -187045245.37947536 0 0 0 0 1945256328.5573745 364945496.36009276 0 364945496.36009276 -191927755.28064543 0 0 0 0 1947583272.6809878 454102787.66747475 0 454102787.66747475 -198350010.67087144 0 0 0 0 2341535577.6156392 489151702.40859783 0 489151702.40859783 -232792070.11560357 0 0 0 0 1342648905.2190719 490599874.62575114 0 490599874.62575114 7940199.804466784 0 0 0 0 1708166348.3280926 413926174.23371989 0 413926174.23371989 -53117073.737372518 0 0 0 0 523958582.75860357 456906460.49363053 0 456906460.49363053 223973364.0770081 0 0 0 0 256562757.50148845 139647839.09888506 0 139647839.09888506 215230419.50368375 0 0 0 0 298135782.43429399 42274074.278491676 0 42274074.278491676 159565267.03650093 0 0 0 0 514584583.00748062 82238045.98536776 0 82238045.98536776 77979709.685431302 0 0 0 0 73332927.296710491 -36431592.236825645 0 -36431592.236825645 160683688.95567358 0 0 0 0 250090860.11140823 97186948.140052974 0 97186948.140052974 114906661.20790148 0 0 0 0 472718711.0767591 204515333.18965644 0 204515333.18965644 126370728.3913579 0 0 0 0 791344356.97567558 60775321.935847878 0 60775321.935847878 72102705.446225643 0 0 0 0 1312287892.6323307 294340941.66202337 0 294340941.66202337 -11738116.080792189 0 0 0 0 865596155.18057346 318808394.56508029 0 318808394.56508029 46584574.796779513 0 0 0 0 1454127992.0708427 194697448.68743092 0 194697448.68743092 -90939940.579490662 0 0 0 0 1206867014.377733 258560222.95350492 0 258560222.95350492 -9855514.98303473 0 0 0 0 1066700397.6836159 -47729484.205183864 0 -47729484.205183864 -33786441.289969444 0 0 0 0 514529281.85950184 165556843.27587128 0 165556843.27587128 112849639.9470619 0 0 0 0 438602067.74393082 68746795.606096447 0 68746795.606096447 136457050.18417621 0 0 0 0 237883617.06126225 155427591.57622242 0 155427591.57622242 176274043.83303738 0 0 0 0 468401078.46475345 -163539190.69074368 0 -163539190.69074368 39719787.901632309 0 0 0 0 1345124329.2992766 -177368358.96146476 0 -177368358.96146476 -59985741.723300099 0 0 0 0 153512086.78822756 382172033.81457531 0 382172033.81457531 213625467.87006986 0 0 0 0 -94336602.91191113 -140757129.45175907 0 -140757129.45175907 382318448.37279165 0 0 0 0 -145551018.91892016 80400090.373405561 0 80400090.373405561 94781412.143298328 0 0 0 0 163454054.35363126 -152215878.04278076 0 -152215878.04278076 230867515.34793854 0 0 0 0 147439268.6797471 105806251.64150977 0 105806251.64150977 325332159.01543707 0 0 0 0 6096823.3720872402 253939946.5658392 0 253939946.5658392 207824038.73937869 0 0 0 0 217007859.5033989 186846453.82821488 0 186846453.82821488 124756749.81154108 0 0 0 0 150305751.77028418 87307512.508663535 0 87307512.508663535 8948007.8935848475 0 0 0 0 -3746284.0077326894 188287589.35052496 0 188287589.35052496 32592995.851969719 0 0 0 0 93088767.5679138 -62310003.262561619 0 -62310003.262561619 130355993.79024005 0 0 0 0 190370073.34401655 -239128319.25038064 0 -239128319.25038064 170917925.33937156 0 0 0 0 -223110.31926489371 -467615.29748120485 0 -467615.29748120485 1671463.1914633829 0 0 0 0 -496331869.81473732 -58548360.289153099 0 -58548360.289153099 -79750449.679224014 0 0 0 0 62226243.250454903 94400177.865634441 0 94400177.865634441 -204462078.62796545 0 0 0 0 -245262467.94825435 41724183.915021978 0 41724183.915021978 69042227.549571961 0 0 0 0 952251.76418127469 -1027795.2714996242 0 -1027795.2714996242 3499705.0449413285 0 0 0 0 -66478.729366675951 -15196.030819504173 0 -15196.030819504173 119326.98790257424 0 0 0 0 -155035952.00437427 -154566196.16303539 0 -154566196.16303539 -205816432.61848593 0 0 0 0 -429962955.50729942 235877057.81532562 0 235877057.81532562 -115824014.63711387 0 0 0 0 263191862.22311735 4305195.6040616035 0 4305195.6040616035 43206625.30898273 0 0 0 0 -76273585.307876587 -7869844.4893069267 0 -7869844.4893069267 27777188.776719093 0 0 0 0 91584466.376917839 174625273.61356282 0 174625273.61356282 -120489051.16927528 0 0 0 0 69319470.130814552 7383676.1533783674 0 7383676.1533783674 -10375958.045208693 0 0 0 0 -131491365.9926486 -57957457.006747007 0 -57957457.006747007 92239089.978872478 0 0 0 0 150921305.73971796 -47081438.263523638 0 -47081438.263523638 65009442.989935338 0 0 0 0 73621761.366976589 50714652.201554544 0 50714652.201554544 107649083.73177409 0 0 0 0 69519591.278409481 -16994796.09659183 0 -16994796.09659183 70336281.101847529 0 0 0 0 36019702.810589552 28774268.671800673 0 28774268.671800673 92105830.166033745 0 0 0 0 -66381750.119923592 -62779876.593266368 0 -62779876.593266368 109617430.38626304 0 0 0 0 -57499660.964500852 -22869702.310314655 0 -22869702.310314655 409857.78065389395 0 0 0 0 -168498270.14465982 69615296.806104183 0 69615296.806104183 47592561.62038821 0 0 0 0 -78998298.862328351 -37329090.049820706 0 -37329090.049820706 33518772.551663578 0 0 0 0 -36827390.676472187 -62190706.814368606 0 -62190706.814368606 4373647.0458222628 0 0 0 0 -28936940.271590114 -55464758.410906404 0 -55464758.410906404 -47661534.946931839 0 0 0 0 6974824.4056949615 -19912173.852233887 0 -19912173.852233887 24140300.941889763 0 0 0 0 42221416.801931381 8037733.6738586426 0 8037733.6738586426 -3340655.078868866 0 0 0 0 13895015.74185412 -1984623.1108901105 0 -1984623.1108901105 1858186.9681757125 0 0 0 0 1596926.2609949112 -115562385.30107093 0 -115562385.30107093 -110998702.42501938 0 0 0 0 -42632667.219921112 -49203674.194754213 0 -49203674.194754213 -61275126.868983507 0 0 0 0 -13449357.765194178 -108365055.0590415 0 -108365055.0590415 68720082.00890255 0 0 0 0 114765018.86184454 -59981496.91637373 0 -59981496.91637373 -61770501.632209301 0 0 0 0 65628551.537725925 -55912061.575964585 0 -55912061.575964585 212351299.94610834 0 0 0 0 249537283.73104715 -148236733.51005101 0 -148236733.51005101 -114988354.11517644 0 0 0 0 113171614.67497206 534347460.79741573 0 534347460.79741573 581054867.55451941 0 0 0 0 5260094.210191817 -3172268.8517209911 0 -3172268.8517209911 3706397.0772853666 0 0 0 0 159206140.70492053 51585145.174958944 0 51585145.174958944 -286946906.48409295 0 0 0 0 -6309085.5157661438 -20346960.580650091 0 -20346960.580650091 25244107.738148928 0 0 0 0 9809902.4230883196 -6711227.2359228162 0 -6711227.2359228162 7943783.5405679168 0 0 0 0 12219475.445026398 -5692367.1349573135 0 -5692367.1349573135 -7035893.9584560394 0 0 0 0 8546524.0117874146 -7780281.0087294579 0 -7780281.0087294579 -1676211.9818406105 0 0 0 0 18738259.718678579 653842.85691755079 0 653842.85691755079 1974959.5980120469 0 0 0 0 -14080042.921097755 -51022340.032863855 0 -51022340.032863855 -15506110.568834305 0 0 0 0 -76000772.253257751 30191846.181224465 0 30191846.181224465 193911892.2664609 0 0 0 0 870149.9357444793 -2243513.8814514573 0 -2243513.8814514573 6700451.4078035913 0 0 0 0 3646508.7971725464 -6344656.1837491989 0 -6344656.1837491989 3493245.2755270004 0 0 0 0 16933731.93356942 -11636730.914486699 0 -11636730.914486699 6003048.4928431194 0 0 0 0 18825665.556854248 -40955486.411439896 0 -40955486.411439896 -146420660.28645515 0 0 0 0 6382908.5009918213 -89440122.484436035 0 -89440122.484436035 -96364635.824978828 0 0 0 0 20184001.12173216 -6249466.7044686377 0 -6249466.7044686377 3078108.9215481528 0 0 0 0 54248209.903793335 -96816956.141073227 0 -96816956.141073227 -224959311.94704247 0 0 0 0 -8190373.5354537964 1378302.8187408447 0 1378302.8187408447 17015506.47984314 0 0 0 0 14312924.968383789 -689969.32158088684 0 -689969.32158088684 -19441615.724246979 0 0 0 0 -433304.37193561159 245841.79683691729 0 245841.79683691729 3389818.1511682505 0 0 0 0 8844614.3687152863 -3369981.2206249237 0 -3369981.2206249237 9132298.9873189926 0 0 0 0 11133630.072808444 -13271.816372840665 0 -13271.816372840665 5484484.7171210004 0 0 0 0 10398491.139640808 -7005622.1137990952 0 -7005622.1137990952 -7390297.6558132172 0 0 0 0 21332665.450767145 6918747.615900985 0 6918747.615900985 -2118662.7958275443 0 0 0 0 24584683.935997307 3595624.2293588249 0 3595624.2293588249 -2686674.573504867 0 0 0 0 34127599.945170403 3954020.5741281509 0 3954020.5741281509 16530637.272499084 0 0 0 0 5736259.3178100586 -1761506.7002639771 0 -1761506.7002639771 -34029493.440843582 0 0 0 0 45628970.043915987 2771926.5274000168 0 2771926.5274000168 -6699327.0459136963 0 0 0 0 25299505.977143463 -7854193.3502322212 0 -7854193.3502322212 1710053.9527345523 0 0 0 0 3625304.9523303136 2638774.5952337384 0 2638774.5952337384 -2994278.8746718001 0 0 0 0 52596378.696594238 92716670.761573792 0 92716670.761573792 -132679754.08319855 0 0 0 0 39704848.321857452 20286188.876102448 0 20286188.876102448 24846865.442295074 0 0 0 0 24004597.765888378 1543315.4489010125 0 1543315.4489010125 132320.99967576237 0 0 0 0 12177147.112861633 -4112420.5814585686 0 -4112420.5814585686 -24744717.966394424 0 0 0 0 30834792.677434921 19683989.780212402 0 19683989.780212402 32986122.016204834 0 0 0 0 20304177.700574167 -3496537.3455089554 0 -3496537.3455089554 2561323.6526782243 0 0 0 0 66226112.169647217 -7781839.9577331543 0 -7781839.9577331543 16726860.537368774 0 0 0 0 25387576.68006134 24605469.459100723 0 24605469.459100723 29617702.63609314 0 0 0 0 94270334.043746948 -110553882.75338745 0 -110553882.75338745 -165590558.37395191 0 0 0 0 92554193.249267578 -52351794.835811615 0 -52351794.835811615 -287454687.91371441 0 0 0 0 4547904.6042251587 -14743121.874955177 0 -14743121.874955177 -215974891.50573349 0 0 0 0 71460092.174819946 -35135954.688936234 0 -35135954.688936234 -219677182.88607407 0 0 0 0 34500574.14390564 -2221348.9741897583 0 -2221348.9741897583 -304586173.49606323 0 0 0 0 72621536.923629761 -60179359.723028183 0 -60179359.723028183 -246634498.50483894 0 0 0 0 17763603.117782593 -54290874.944992065 0 -54290874.944992065 -408206138.56643295 0 0 0 0 64372697.118181229 7397050.9231250286 0 7397050.9231250286 -331567544.12322998 0 0 0 0 45628825.42288208 -39225782.897956848 0 -39225782.897956848 -232181944.08934021 0 0 0 0 94469224.844787598 17179777.744720459 0 17179777.744720459 -429100293.33812714 0 0 0 0 27679543.114517119 -6889725.9586157342 0 -6889725.9586157342 -1995239.8377099629 0 0 0 0 107335965.3989563 -25140171.490825653 0 -25140171.490825653 -365219091.30687666 0 0 0 0 74225999.016555786 23163195.825271606 0 23163195.825271606 -318560228.0851593 0 0 0 0 23382203.903915405 -25482079.717594147 0 -25482079.717594147 -359597535.51127625 0 0 0 0 49625414.264068604 33389607.372322083 0 33389607.372322083 -358235378.4858017 0 0 0 0 27603506.504033387 1772846.9442341332 0 1772846.9442341332 -1812507.3348945961 0 0 0 0 191190974.28434753 8528978.1034851074 0 8528978.1034851074 -51665523.736614227 0 0 0 0 81150453.82182312 50637108.324487686 0 50637108.324487686 -556286117.23180771 0 0 0 0 70462541.577484131 -32691492.404102325 0 -32691492.404102325 -385240766.61242485 0 0 0 0 28723269.269821167 110095592.43134499 0 110095592.43134499 -436603280.18907833 0 0 0 0 30443421.074038591 -532251.39259463735 0 -532251.39259463735 -2864113.7665761188 0 0 0 0 4712975.0921859741 -32380943.226150513 0 -32380943.226150513 -45325344.314915657 0 0 0 0 60090398.365394592 -73209178.454530716 0 -73209178.454530716 -15251256.303963661 0 0 0 0 153765919.13090897 -15655928.471849442 0 -15655928.471849442 -40271303.799407959 0 0 0 0 79444570.473155975 61589558.833686829 0 61589558.833686829 25058702.448745728 0 0 0 0 89096688.35484314 -117083840.27129364 0 -117083840.27129364 16706160.222536087 0 0 0 0 -54461593.936294556 -9832867.3291378021 0 -9832867.3291378021 -12116733.468429565 0 0 0 0 3194187.1773376465 -33131753.961954117 0 -33131753.961954117 10559950.777189255 0 0 0 0 49107516.255751133 15026091.965367317 0 15026091.965367317 11123135.276636124 0 0 0 0 7379344.827911377 6592637.941783905 0 6592637.941783905 -41018099.489881516 0 0 0 0 14749820.28399542 11795185.660382459 0 11795185.660382459 -5859749.5878241863 0 0 0 0 -43315253.924346924 13087904.695957184 0 13087904.695957184 -12666852.355583191 0 0 0 0 -332462.7255198136 -1033615.605202646 0 -1033615.605202646 534207.30666800006 0 0 0 0 47678768.655539304 4595039.6577536464 0 4595039.6577536464 -28268534.807489395 0 0 0 0 63883711.237190485 49927776.32438755 0 49927776.32438755 -14900451.873247862 0 0 0 0 51562941.847236991 35512578.573075652 0 35512578.573075652 54422234.799461365 0 0 0 0 50088418.05918026 61044044.004209042 0 61044044.004209042 32294636.97163868 0 0 0 0 3203554.2097968608 677046.26594731957 0 677046.26594731957 -218934.08510978404 0 0 0 0 27777395.936125755 30990772.185943127 0 30990772.185943127 41252738.715436935 0 0 0 0 44298644.828691959 61519287.633355141 0 61519287.633355141 59608244.880700111 0 0 0 0 37889046.994567871 18514790.618217945 0 18514790.618217945 20447018.701368332 0 0 0 0 5354755.0075198347 -833909.19732159167 0 -833909.19732159167 1313261.2727497458 0 0 0 0 2553366.0523358583 492901.9669675827 0 492901.9669675827 2699096.0730891228 0 0 0 0 26929780.834877729 27356223.461673737 0 27356223.461673737 26106033.670185089 0 0 0 0 54150611.173272133 18999858.801314354 0 18999858.801314354 18354254.436027527 0 0 0 0 38269815.545617104 22540280.967472076 0 22540280.967472076 36806892.234638214 0 0 0 0 37789459.290195465 19521209.558506966 0 19521209.558506966 18430714.273878098 0 0 0 0 23876248.460025787 -13775379.887960434 0 -13775379.887960434 -17517955.951007843 0 0 0 0 10496058.628384914 -1866297.5512339678 0 -1866297.5512339678 1757478.4092040476 0 0 0 0 34446224.695877075 26323091.402921677 0 26323091.402921677 17969222.565624237 0 0 0 0 -3202918.6391487122 9986176.5970592499 0 9986176.5970592499 15961588.6369735 0 0 0 0 -235395.21120198537 -1816792.3941221205 0 -1816792.3941221205 1635417.5213849284 0 0 0 0 3753799.444236815 -802999.18324637413 0 -802999.18324637413 1371894.587808609 0 0 0 0 -49460552.752597794 -41554238.824518114 0 -41554238.824518114 -19716130.989257574 0 0 0 0 -86656208.737447083 -18382695.543522254 0 -18382695.543522254 10140602.151606068 0 0 0 0 1366750.616419056 -2279889.592218068 0 -2279889.592218068 4632952.0400199024 0 0 0 0 1084253.5308787227 -520098.77270245552 0 -520098.77270245552 1651677.2989298105 0 0 0 0 2925926.7488811612 -166514.08304691315 0 -166514.08304691315 1601964.4988102913 0 0 0 0 892633.60805487633 2153753.6739737988 0 2153753.6739737988 -512111.3696706295 0 0 0 0 73890902.44523263 -45996009.086524487 0 -45996009.086524487 109964350.25369012 0 0 0 0 3684734.824660778 2698877.7201197147 0 2698877.7201197147 -2788939.0186867714 0 0 0 0 -23268812.729207516 -67331066.636034012 0 -67331066.636034012 173145149.82742453 0 0 0 0 1681164.2240962088 151571.90222454071 0 151571.90222454071 -145098.60423278809 0 0 0 0 527471.46509228589 1335259.4213709389 0 1335259.4213709389 1026782.0703994732 0 0 0 0 1889211.7814882994 -50335634.308941841 0 -50335634.308941841 169560890.85649937 0 0 0 0 -47292653.802660704 -98180624.766432211 0 -98180624.766432211 181105800.78781128 0 0 0 0 -69747387.876108885 23148821.925504535 0 23148821.925504535 72501100.144611895 0 0 0 0 -12081482.75691691 6050756.1307319328 0 6050756.1307319328 30444950.646636963 0 0 0 0 -3522029.6993849277 -62724420.486958176 0 -62724420.486958176 148706754.31257886 0 0 0 0 418989.48207135405 1011954.6298905598 0 1011954.6298905598 -436909.56680265593 0 0 0 0 25973543.739233971 9955664.6432327032 0 9955664.6432327032 -13098725.694029212 0 0 0 0 30986499.226014137 51576368.678278863 0 51576368.678278863 33126248.699943315 0 0 0 0 126409764.45578201 141650803.02505237 0 141650803.02505237 -43065582.528846741 0 0 0 0 131447395.80863047 96433880.697466373 0 96433880.697466373 89230748.099722147 0 0 0 0 110562105.0297904 -9953013.7954192162 0 -9953013.7954192162 15223071.262647867 0 0 0 0 24142499.855854511 35288245.006622761 0 35288245.006622761 -4665134.095843792 0 0 0 0 107693215.45061707 90114008.937861204 0 90114008.937861204 20241522.923280478 0 0 0 0 -193884951.11331871 417436164.02451479 0 417436164.02451479 -1804481.1545984745 0 0 0 0 -51243994.067920208 68700640.00740388 0 68700640.00740388 -127071864.58492595 0 0 0 0 -102451111.1227569 2999625.1838530977 0 2999625.1838530977 60106595.46375984 0 0 0 0 -104877201.49289703 126831332.5046643 0 126831332.5046643 15876848.539482832 0 0 0 0 -778563.70415449142 4092007.1872834712 0 4092007.1872834712 2861183.3672840595 0 0 0 0 -5309575.1247887611 22290203.779302061 0 22290203.779302061 27855487.368086934 0 0 0 0 -6576815.0481815338 -13655158.213499367 0 -13655158.213499367 23596823.999749504 0 0 0 0 38239302.183665276 24939482.585163236 0 24939482.585163236 -3823816.1778627634 0 0 0 0 585841.58299015136 2245007.344455997 0 2245007.344455997 -999926.33098375669 0 0 0 0 61364910.383120537 -44236228.560057536 0 -44236228.560057536 -58451216.042768672 0 0 0 0 -3955760.3548641205 -4947292.6380011141 0 -4947292.6380011141 -6853690.9480394721 0 0 0 0 -40284899.783432007 -94665726.475896358 0 -94665726.475896358 294012800.09445572 0 0 0 0 49692868.356698036 61029280.029121876 0 61029280.029121876 43926428.395431757 0 0 0 0 -35307343.154908657 -97615899.658857346 0 -97615899.658857346 215122184.28913713 0 0 0 0 1303159.8440413699 1570927.3625575604 0 1570927.3625575604 1020432.3992397193 0 0 0 0 3519278.9741033316 3442668.731737107 0 3442668.731737107 1593988.88195467 0 0 0 0 100665.627171278 451963.93024873734 0 451963.93024873734 -130732.72556138039 0 0 0 0 2414755.3903231313 1804298.4072856542 0 1804298.4072856542 1087624.9903793964 0 0 0 0 3526794.4504021406 4117194.7260409594 0 4117194.7260409594 -1638906.0465764999 0 0 0 0 678609.8460271717 1835235.583675602 0 1835235.583675602 -1026271.9879872398 0 0 0 0 11616136.433403015 111636743.98626518 0 111636743.98626518 136194668.7684288 0 0 0 0 29569243.758973598 88389879.779983521 0 88389879.779983521 101134989.08301735 0 0 0 0 215017648.777771 -105190284.13637638 0 -105190284.13637638 61322916.278531075 0 0 0 0 -25019109.266262054 70293759.226954937 0 70293759.226954937 455776106.12505531 0 0 0 0 -255980.9827281097 930874.221914066 0 930874.221914066 477217.8232768426 0 0 0 0 656253.23942982499 407310.30073415407 0 407310.30073415407 -248083.49995074095 0 0 0 0 -244422426.43463898 -203689737.89054108 0 -203689737.89054108 492210598.9621067 0 0 0 0 649654493.41296911 317819876.75289178 0 317819876.75289178 -262961014.49737835 0 0 0 0 963794.59639104176 -974260.56424396532 0 -974260.56424396532 -344515.79366707336 0 0 0 0 378450043.97762251 445882971.25835872 0 445882971.25835872 -207354414.62306213 0 0 0 0 -54663706.853885651 246616466.84725475 0 246616466.84725475 117767257.57677841 0 0 0 0 188290859.26315498 23459.645560950041 0 23459.645560950041 -200723109.68259335 0 0 0 0 -40751051.394197464 -267870741.10289145 0 -267870741.10289145 312326815.02908897 0 0 0 0 114847802.31342316 126722608.78517175 0 126722608.78517175 -184925743.37911996 0 0 0 0 36809502.602449417 -99558935.328448772 0 -99558935.328448772 136867708.2338295 0 0 0 0 36238441.407087326 -50630110.215473175 0 -50630110.215473175 656623450.80895567 0 0 0 0 234589401.40060043 -174381449.57658088 0 -174381449.57658088 67917518.614005089 0 0 0 0 42844187.193618774 60814005.141505718 0 60814005.141505718 -99504210.076833725 0 0 0 0 -12462664.415548325 -148547754.97677588 0 -148547754.97677588 104302355.69031978 0 0 0 0 -37819376.019256592 58670078.736144722 0 58670078.736144722 -137995596.91270232 0 0 0 0 32705.218128694687 -218677.92452639062 0 -218677.92452639062 -90610.619528637268 0 0 0 0 25151047.471281052 50877833.022981584 0 50877833.022981584 3408086.8146554828 0 0 0 0 1349069.715981937 1441424.0845292211 0 1441424.0845292211 -727132.04211419728 0 0 0 0 106468777.4909935 41144263.49644208 0 41144263.49644208 -167918833.89101553 0 0 0 0 42533363.842591286 -38601041.772325382 0 -38601041.772325382 -150193167.6729722 0 0 0 0 -120906635.36735058 32043959.73924014 0 32043959.73924014 53650975.632636428 0 0 0 0 -17500002.498426437 125488754.97524989 0 125488754.97524989 -123256330.6997245 0 0 0 0 35145649.677085876 -68181383.9723984 0 -68181383.9723984 76341988.566996098 0 0 0 0 521540.85473550018 701546.78708009934 0 701546.78708009934 -328438.61904281745 0 0 0 0 15346943.664211273 -5201193.7081440687 0 -5201193.7081440687 -13854154.941579342 0 0 0 0 12868475.478013039 -2447759.5758287907 0 -2447759.5758287907 -9730835.9610528946 0 0 0 0 7813853.4085865021 -5441853.3333268166 0 -5441853.3333268166 3117789.3705369234 0 0 0 0 1544969.4261621025 17857.363665501587 0 17857.363665501587 -568350.99635183229 0 0 0 0 2755442.2675676346 772769.42363213003 0 772769.42363213003 -3259135.333316803 0 0 0 0 198294969.01688576 40937134.791391701 0 40937134.791391701 -41653980.310161114 0 0 0 0 -53522374.414402008 -484129451.74259043 0 -484129451.74259043 77048041.438948154 0 0 0 0 2050863.8888478167 704795.31495503522 0 704795.31495503522 -838767.91641673539 0 0 0 0 312599213.61259079 170501867.20999789 0 170501867.20999789 -90600639.001256943 0 0 0 0 1240672012.35215 -870704628.02148867 0 -870704628.02148867 -57100306.766945839 0 0 0 0 365062645.60573196 326982764.58204508 0 326982764.58204508 341528776.36467552 0 0 0 0 66850696.78371048 -119918416.33169699 0 -119918416.33169699 1052147398.799839 0 0 0 0 104793549.37175751 -67883469.106656432 0 -67883469.106656432 212161518.32472038 0 0 0 0 2259919.9038076401 74773355.027868032 0 74773355.027868032 -94472060.127092838 0 0 0 0 33503083.841392517 482990.79531812668 0 482990.79531812668 -16669889.924918413 0 0 0 0 180028081.69028854 -36670784.506116867 0 -36670784.506116867 -263832905.10384274 0 0 0 0 214244701.1883049 229215105.92427683 0 229215105.92427683 -89848876.684900284 0 0 0 0 266279556.33722687 222238535.67073154 0 222238535.67073154 -104161874.28630352 0 0 0 0 310351578.69940567 369893361.38472414 0 369893361.38472414 -166144403.07664394 0 0 0 0 229173921.81348038 199235891.79472685 0 199235891.79472685 -97864680.692927837 0 0 0 0 -42240639.32724762 -105877053.36854768 0 -105877053.36854768 112135119.71323586 0 0 0 0 1374042.6561372089 -1420751.4988345527 0 -1420751.4988345527 754617.79317982646 0 0 0 0 196160647.6063385 270749764.87009716 0 270749764.87009716 180370764.59883881 0 0 0 0 227026724.38811493 283651490.06628561 0 283651490.06628561 -390304258.15271139 0 0 0 0 149778529.68184757 52916365.226758033 0 52916365.226758033 -17690755.254877567 0 0 0 0 -64658267.137504578 25728088.466553211 0 25728088.466553211 69804705.661538124 0 0 0 0 25480037.955200195 376062318.36573648 0 376062318.36573648 -220821901.95876026 0 0 0 0 -30553232.715591431 8666891.885812521 0 8666891.885812521 71247971.147509009 0 0 0 0 81292773.95943737 2860585.2419899404 0 2860585.2419899404 -52207364.936987728 0 0 0 0 14686697.830733785 -3759011.1580805853 0 -3759011.1580805853 2812617.4728962556 0 0 0 0 -23121617.506851196 -123155430.80229759 0 -123155430.80229759 197886014.66583824 0 0 0 0 9718713.2090768702 1366649.4738675365 0 1366649.4738675365 -5145654.1881562024 0 0 0 0 66303351.784088135 -40156189.158385277 0 -40156189.158385277 463254177.19454956 0 0 0 0 97695089.597877502 -24458880.769576073 0 -24458880.769576073 -88012041.856216431 0 0 0 0 -36665037.078296661 161631921.76929188 0 161631921.76929188 22026710.536994934 0 0 0 0 294259959.04982758 -197578806.22094536 0 -197578806.22094536 355661443.14800406 0 0 0 0 50706408.456557274 -49415626.466705322 0 -49415626.466705322 3515234.2669718266 0 0 0 0 -122573748.27561378 -95442917.558885574 0 -95442917.558885574 -41821243.309783936 0 0 0 0 -36622189.746032715 -114709536.24812317 0 -114709536.24812317 -451694688.34962082 0 0 0 0 -1135142.5660969466 -493210.01478798036 0 -493210.01478798036 640707.86392580159 0 0 0 0 45372516.823132589 -17660191.95987178 0 -17660191.95987178 -5174534.3830381511 0 0 0 0 28563078.080946445 128010605.68348694 0 128010605.68348694 -14709221.996166229 0 0 0 0 154788368.32496643 -99777198.783437729 0 -99777198.783437729 -27095242.969650269 0 0 0 0 107913293.76502991 69817911.238191605 0 69817911.238191605 -462816131.31449127 0 0 0 0 150025215.30276203 -534036336.08338737 0 -534036336.08338737 552503839.77545929 0 0 0 0 -64596512.075317383 135553537.5715332 0 135553537.5715332 392280563.04191589 0 0 0 0 -699374503.43554688 810916762.19094849 0 810916762.19094849 -319988085.61950779 0 0 0 0 -1359608666.5177612 -225170328.09752178 0 -225170328.09752178 1249323456.3226166 0 0 0 0 89840108.610473633 73333837.031648636 0 73333837.031648636 273634161.0002594 0 0 0 0 33024000.219177246 138639063.44316483 0 138639063.44316483 264145545.9673233 0 0 0 0 -759283.02410280704 1702792.6199831069 0 1702792.6199831069 3069560.8029027879 0 0 0 0 1368496693.2019043 -64080921.897665977 0 -64080921.897665977 -279238001.79817009 0 0 0 0 74924095.017954111 -630250989.06595492 0 -630250989.06595492 -149260339.56417084 0 0 0 0 721354095.6769104 -404022692.09811401 0 -404022692.09811401 127853805.4309082 0 0 0 0 1036997357.46315 587418762.19405174 0 587418762.19405174 201010667.92310143 0 0 0 0 71294973.301498413 1646465123.2934742 0 1646465123.2934742 -897522183.40509796 0 0 0 0 51781385.890348494 6921929.0039388537 0 6921929.0039388537 -14834028.182762146 0 0 0 0 37020987.461107783 -4320259.0437555667 0 -4320259.0437555667 437228.16462896019 0 0 0 0 233504.1880367808 -17351780.110774048 0 -17351780.110774048 9381111.911431022 0 0 0 0 -10990555.042517923 -7068020.557894621 0 -7068020.557894621 6337666.8950159959 0 0 0 0 3423660950.8101196 -2081345091.5960541 0 -2081345091.5960541 1353069187.5753021 0 0 0 0 19286280.554814562 -14313574.46585973 0 -14313574.46585973 2722828.4842347298 0 0 0 0 -25868124.953323364 -38301825.115936279 0 -38301825.115936279 -29931892.135482788 0 0 0 0 225135654.45138073 153428831.46143627 0 153428831.46143627 -39415110.471208572 0 0 0 0 -197616110.47932243 -148193730.03286076 0 -148193730.03286076 561671823.47554874 0 0 0 0 85491657.074645042 -34666370.890837669 0 -34666370.890837669 -175027862.02265072 0 0 0 0 94882372.58732605 126278114.91847801 0 126278114.91847801 -22007076.123213768 0 0 0 0 7723137.8486328125 -20907477.247470856 0 -20907477.247470856 -23463066.717247009 0 0 0 0 24489640.209247984 -10183610.300093459 0 -10183610.300093459 2176721.3515397301 0 0 0 0 32214700.74887085 7240136.8513774872 0 7240136.8513774872 -37928601.385926247 0 0 0 0 -847220.95992171019 -407688.18496591412 0 -407688.18496591412 1839694.4036220936 0 0 0 0 72469856.772918701 87104327.808855057 0 87104327.808855057 -177424325.80119252 0 0 0 0 35439839.955084726 1709522.9920599069 0 1709522.9920599069 -9056094.0146485083 0 0 0 0 -612967841.26299286 -333701989.87203789 0 -333701989.87203789 197103604.16786575 0 0 0 0 29609398.674724326 -10546029.62597738 0 -10546029.62597738 2482824.4650706612 0 0 0 0 -59891232.232250214 -10342314.054040074 0 -10342314.054040074 -34121618.209690094 0 0 0 0 -320166002.89309692 -9710543.0763702393 0 -9710543.0763702393 49798624.679046631 0 0 0 0 -19015932.170209885 31982907.335700989 0 31982907.335700989 48561219.705474854 0 0 0 0 -31881727.512023926 -1621370.5040359497 0 -1621370.5040359497 17803118.987415314 0 0 0 0 38759901.978141785 -34427455.732128143 0 -34427455.732128143 -34818057.332260132 0 0 0 0 -348291267.83966064 -84012240.983003616 0 -84012240.983003616 -2636200.3096008301 0 0 0 0 19906008.749784037 -8703692.6202799734 0 -8703692.6202799734 5904849.0592648201 0 0 0 0 -14072326.96875 41020810.370822906 0 41020810.370822906 15329838.275100708 0 0 0 0 -64825596.637428284 -32826061.55787468 0 -32826061.55787468 8610508.5534095764 0 0 0 0 -29772.891022928059 -89845.720527013764 0 -89845.720527013764 323549.06539557874 0 0 0 0 -63019043.296325684 25328252.524147034 0 25328252.524147034 33263422.603666306 0 0 0 0 8908467.7354125977 68263255.229995728 0 68263255.229995728 -1018562529.7155342 0 0 0 0 -355380214.22192383 -91469951.696975708 0 -91469951.696975708 8254539.1400680542 0 0 0 0 -248068099.2429657 -95328031.533388138 0 -95328031.533388138 -296487854.51226807 0 0 0 0 1512253.2473934218 -4570675.9539107289 0 -4570675.9539107289 -808004.81156018283 0 0 0 0 -121415933.25740051 188490217.62599373 0 188490217.62599373 -289483411.98942566 0 0 0 0 -238515414.33343506 112365929.99873352 0 112365929.99873352 -289266105.98816299 0 0 0 0 -365014675.41387939 -81285497.946117401 0 -81285497.946117401 -401341636.04833984 0 0 0 0 -161183628.89230347 -162226332.29800415 0 -162226332.29800415 -823991175.184021 0 0 0 0 -124906475.81970215 12794900.895027161 0 12794900.895027161 -503111666.79301453 0 0 0 0 -20600665.343841553 109934412.75033569 0 109934412.75033569 -706616432.87121582 0 0 0 0 -54195207.663818359 -45514965.051208496 0 -45514965.051208496 -572369556.7961731 0 0 0 0 -101612987.52752686 22308301.275192261 0 22308301.275192261 -344664311.55766296 0 0 0 0 -128556501.8777771 -55244482.401252747 0 -55244482.401252747 -477266707.66737366 0 0 0 0 5911535.4696655273 -7888566.8426551819 0 -7888566.8426551819 -414102430.63239288 0 0 0 0 -30178881.852294922 -46892043.175987244 0 -46892043.175987244 -446308910.34091878 0 0 0 0 -20528185.939147949 71751484.125495911 0 71751484.125495911 -512998120.13279724 0 0 0 0 -54526506.443603516 -3883558.1704406738 0 -3883558.1704406738 -447177908.21070504 0 0 0 0 198060531.02742004 108904569.02772331 0 108904569.02772331 -219881231.81446457 0 0 0 0 -35240629.90145874 159025059.6139183 0 159025059.6139183 3569897.7722473145 0 0 0 0 49774362.558532715 117981818.94064522 0 117981818.94064522 -309141789.10749054 0 0 0 0 82067186.186859131 200314491.43265533 0 200314491.43265533 -131532758.38056183 0 0 0 0 212596274.5753479 157621530.51247597 0 157621530.51247597 -64305920.392692566 0 0 0 0 546494364.38793945 148589126.80413055 0 148589126.80413055 -190106478.23473549 0 0 0 0 660131249.4420929 -145980098.43123436 0 -145980098.43123436 -74109620.60416007 0 0 0 0 367101951.59858704 -79522605.934827805 0 -79522605.934827805 -64073960.974920511 0 0 0 0 3787485.09650575 4893269.0524988435 0 4893269.0524988435 701809.43907473981 0 0 0 0 153383790.03948975 -170631423.19281435 0 -170631423.19281435 210964258.26173019 0 0 0 0 3400641.7968913019 155824.38947463036 0 155824.38947463036 -1483268.683335986 0 0 0 0 -81388185.76457119 116437037.98673856 0 116437037.98673856 520911100.25557709 0 0 0 0 726459472.55400085 320695327.4530468 0 320695327.4530468 -22195834.646564484 0 0 0 0 196013612.25384521 165405126.06749344 0 165405126.06749344 -56474748.960763931 0 0 0 0 140393086.53964233 185510169.66735649 0 185510169.66735649 -39369815.794026375 0 0 0 0 121556621.95933533 159054039.51452637 0 159054039.51452637 3921529.724193573 0 0 0 0 96955019.195449829 52501707.86771965 0 52501707.86771965 -20195500.621245146 0 0 0 0 225328019.64299011 -22378669.67774868 0 -22378669.67774868 -63091848.81879425 0 0 0 0 250144475.9956665 23287586.048980713 0 23287586.048980713 -14842838.682973385 0 0 0 0 223817928.93408203 150626585.99299359 0 150626585.99299359 -132564884.63709641 0 0 0 0 250800122.03749084 142343035.30493355 0 142343035.30493355 -130343281.04689598 0 0 0 0 124443767.9989624 220511524.20775032 0 220511524.20775032 -141524075.68188858 0 0 0 0 274096473.27478409 221117714.58763266 0 221117714.58763266 -207935621.94695663 0 0 0 0 -15120876.541137695 243464756.51351166 0 243464756.51351166 -193205495.41759872 0 0 0 0 124890915.71157837 216158918.966465 0 216158918.966465 -202045994.4101181 0 0 0 0 105041249.18301392 226749838.21331787 0 226749838.21331787 -130488943.08871984 0 0 0 0 17748963.708648682 210478860.28329468 0 210478860.28329468 -126537811.68195343 0 0 0 0 182153732.09934998 213986996.80032349 0 213986996.80032349 -140794189.76229858 0 0 0 0 -18370674.988708496 65752609.244300842 0 65752609.244300842 -345856808.13243163 0 0 0 0 -145194597.25140381 57785222.851451874 0 57785222.851451874 -214466635.87171173 0 0 0 0 9378412.9736328125 93093207.065185547 0 93093207.065185547 -213878211.39975917 0 0 0 0 -41073793.993469238 115576713.81230164 0 115576713.81230164 -313178500.00396729 0 0 0 0 -91843281.743362427 133577062.05274963 0 133577062.05274963 -191618324.7365799 0 0 0 0 35929820.353424072 197434973.89362335 0 197434973.89362335 -187966239.91020513 0 0 0 0 37975157.956298828 171771877.54148674 0 171771877.54148674 -73075915.727897644 0 0 0 0 64452323.019775391 176759354.17396545 0 176759354.17396545 -124855290.13040161 0 0 0 0 -52348452.391937256 133236372.92214203 0 133236372.92214203 -138599487.27964783 0 0 0 0 43273433.163459778 116324944.77716827 0 116324944.77716827 -86809813.2862854 0 0 0 0 -9265979.3748168945 112570147.05047989 0 112570147.05047989 -156470325.68260193 0 0 0 0 39314685.415679932 84298396.86050415 0 84298396.86050415 -142118162.24105072 0 0 0 0 91143247.134681702 48543374.773247719 0 48543374.773247719 -174814828.24326324 0 0 0 0 -5387479.0801582336 18885897.464786649 0 18885897.464786649 -180583067.02324677 0 0 0 0 128031090.47471619 128206601.72246945 0 128206601.72246945 -85817054.0598526 0 0 0 0 124854723.7505188 102933418.3349514 0 102933418.3349514 -38447790.552894592 0 0 0 0 111873316.90550232 197970979.62009048 0 197970979.62009048 -20512862.326393127 0 0 0 0 122556272.09326172 181006842.75550079 0 181006842.75550079 -73222353.00112915 0 0 0 0 165612131.91004944 175301226.75846291 0 175301226.75846291 48218933.564884186 0 0 0 0 184442916.14953613 166687270.78315353 0 166687270.78315353 -8429802.887720108 0 0 0 0 231493126.47195435 148854314.65007782 0 148854314.65007782 -18684622.902774811 0 0 0 0 190328598.13259125 49757802.120210648 0 49757802.120210648 10510568.573516846 0 0 0 0 143357492.32966042 203513571.2142446 0 203513571.2142446 -30516556.612464905 0 0 0 0 119874561.36917114 236969959.85925293 0 236969959.85925293 -61111033.811317444 0 0 0 0 98745319.315032959 233922167.43909836 0 233922167.43909836 -17285077.996162415 0 0 0 0 112493142.54565048 202522218.10246611 0 202522218.10246611 -79659884.49647522 0 0 0 0 126237200.50344849 223461412.84850121 0 223461412.84850121 42391774.250766754 0 0 0 0 131430565.69509888 209788871.24645805 0 209788871.24645805 -7701376.3238191605 0 0 0 0 118690726.23768616 233597797.96327591 0 233597797.96327591 24781408.372343063 0 0 0 0 87021243.21321106 188343455.30112839 0 188343455.30112839 58231802.268429756 0 0 0 0 91323127.826499939 202361479.88959312 0 202361479.88959312 76350283.191833496 0 0 0 0 102511515.65856171 247447878.04392099 0 247447878.04392099 161303798.50040054 0 0 0 0 65473452.946899414 176464429.87109375 0 176464429.87109375 134205038.16467857 0 0 0 0 38620539.68309021 163364244.9867897 0 163364244.9867897 117707655.58810806 0 0 0 0 234663538.03329468 230761193.92717743 0 230761193.92717743 42740591.480053425 0 0 0 0 225206682.13975525 139455266.23729134 0 139455266.23729134 60004382.781893253 0 0 0 0 331567696.17557526 123112468.79103255 0 123112468.79103255 121570272.13172531 0 0 0 0 319856865.01446533 193831592.74437428 0 193831592.74437428 80746881.379659653 0 0 0 0 894940599.20414734 208349492.67502403 0 208349492.67502403 52262012.955860138 0 0 0 0 236710835.65494156 356388192.24155474 0 356388192.24155474 284787126.12037277 0 0 0 0 102510090.02641296 453092139.20804691 0 453092139.20804691 492870560.27473068 0 0 0 0 1492860.352214925 -59553.826962087303 0 -59553.826962087303 -782658.40950889233 0 0 0 0 -45457454.069168091 47867641.703472137 0 47867641.703472137 168174249.55021095 0 0 0 0 14301857.352355957 141287120.93326187 0 141287120.93326187 137599037.72653198 0 0 0 0 70479034.310379028 170692758.78347015 0 170692758.78347015 104154730.57658958 0 0 0 0 45244883.338386536 46555501.086153507 0 46555501.086153507 -66734429.122661591 0 0 0 0 18956447.272247314 48598025.267772675 0 48598025.267772675 30435665.481021881 0 0 0 0 2744885.1368865967 108123566.53842735 0 108123566.53842735 14783483.123941422 0 0 0 0 -6791903.7589569092 35140998.394558907 0 35140998.394558907 -1650918.3382396698 0 0 0 0 -6139875.638584137 83956987.622523546 0 83956987.622523546 72447586.261936188 0 0 0 0 50305708.022827148 142790766.89873219 0 142790766.89873219 71551913.749172211 0 0 0 0 50399485.996765137 144691359.16696548 0 144691359.16696548 75557688.784050465 0 0 0 0 55255262.816313744 83993621.109818935 0 83993621.109818935 19278725.478300095 0 0 0 0 90963425.376630783 168746590.67173147 0 168746590.67173147 40571728.304523468 0 0 0 0 142694631.01457214 100445640.95568252 0 100445640.95568252 22245335.800655365 0 0 0 0 52045738.529899597 46996173.037677288 0 46996173.037677288 26506050.296686649 0 0 0 0 46034731.806091309 78666986.264330864 0 78666986.264330864 34206557.015953064 0 0 0 0 14597931.74772644 15542508.250169754 0 15542508.250169754 -98154264.935403824 0 0 0 0 12760057.842666626 89195955.291527748 0 89195955.291527748 -54694660.952682972 0 0 0 0 59144226.007316589 55838530.08422029 0 55838530.08422029 -198933612.45468903 0 0 0 0 -78239052.005470276 96669805.883074284 0 96669805.883074284 -23285486.386856079 0 0 0 0 12453255.324920654 79117916.471178055 0 79117916.471178055 -21228337.785699844 0 0 0 0 -7779997.7150764465 28667338.118587255 0 28667338.118587255 -170096884.21427441 0 0 0 0 172545255.17703247 -92413496.366260529 0 -92413496.366260529 -253209926.43824947 0 0 0 0 -73066.599365234375 3123901.5799350739 0 3123901.5799350739 -8204930.828660965 0 0 0 0 2630417.3600796908 -820227.64762247168 0 -820227.64762247168 -2397431.7251918148 0 0 0 0 159273004.38046265 114477710.836689 0 114477710.836689 -217510692.58201468 0 0 0 0 2125500.5746459961 29452059.01500988 0 29452059.01500988 -170103110.85475063 0 0 0 0 9752831.7326812744 5758661.1232333183 0 5758661.1232333183 -12734832.075500488 0 0 0 0 3865521.5191780403 391472.14803952165 0 391472.14803952165 -983829.27557001729 0 0 0 0 50313185.963989258 45509761.374611855 0 45509761.374611855 -199710392.10720438 0 0 0 0 886129.6459883824 55682.436123993248 0 55682.436123993248 -867634.90305709839 0 0 0 0 248063300.87057495 43293707.871395111 0 43293707.871395111 -17034553.242057145 0 0 0 0 -148649826.62664795 78871855.483038425 0 78871855.483038425 6878216.5772981644 0 0 0 0 -155798274.74841309 -111352043.79027581 0 -111352043.79027581 -111760149.20745468 0 0 0 0 -274895718.73027039 42949262.086698055 0 42949262.086698055 34376085.42616272 0 0 0 0 171732412.75964355 -118181503.35759544 0 -118181503.35759544 -38669800.717540741 0 0 0 0 206963539.03533936 -20630090.962159157 0 -20630090.962159157 -97471935.915274143 0 0 0 0 323856572.69730377 -173432647.78702503 0 -173432647.78702503 -23736294.956557274 0 0 0 0 285656553.93710327 17021854.456157684 0 17021854.456157684 -148518444.15649986 0 0 0 0 404296148.23661304 -233567057.34466049 0 -233567057.34466049 62161589.54325676 0 0 0 0 405979173.11572266 -71572388.4082129 0 -71572388.4082129 -37559907.576495409 0 0 0 0 524745149.37327194 -52982406.362976819 0 -52982406.362976819 91452573.439538479 0 0 0 0 126974585.92735291 -87200734.244217277 0 -87200734.244217277 110871149.90467453 0 0 0 0 309691879.0933075 -156806322.96914524 0 -156806322.96914524 287582368.83376181 0 0 0 0 109172069.18008423 -81410181.4391817 0 -81410181.4391817 124397537.91682377 0 0 0 0 -7631303.6713638306 124781020.02073199 0 124781020.02073199 93725039.05490613 0 0 0 0 515928097.04325867 -498966799.59722555 0 -498966799.59722555 267518902.57801509 0 0 0 0 623506425.05699158 -543168453.61951804 0 -543168453.61951804 211643473.85278416 0 0 0 0 832887157.43452835 -402487783.94711459 0 -402487783.94711459 21018037.125328064 0 0 0 0 453805017.94228935 -239089319.03275245 0 -239089319.03275245 270373579.38423944 0 0 0 0 645803923.04728699 -145404430.67288208 0 -145404430.67288208 89351181.878756523 0 0 0 0 539898411.48651123 -156884807.63545513 0 -156884807.63545513 -56635091.008112431 0 0 0 0 477334820.48914528 -352874772.09544981 0 -352874772.09544981 51068075.675007343 0 0 0 0 532375111.12724304 -419966189.76841736 0 -419966189.76841736 142204998.0290246 0 0 0 0 566198453.75508118 -348160238.56429529 0 -348160238.56429529 4436529.6422958374 0 0 0 0 552715861.99720764 -472129425.73823404 0 -472129425.73823404 140358418.74234152 0 0 0 0 569184368.5549469 -425188497.28213549 0 -425188497.28213549 95175120.41008091 0 0 0 0 560497550.60476685 -328407444.55787659 0 -328407444.55787659 61578292.768122911 0 0 0 0 557306580.28462219 -340528317.84190989 0 -340528317.84190989 20801254.984176636 0 0 0 0 381806610.45266724 -314309023.51813316 0 -314309023.51813316 75029204.021830559 0 0 0 0 270641490.82821655 -82232235.343753815 0 -82232235.343753815 -77810842.40920639 0 0 0 0 396482405.26312256 -301982212.01921415 0 -301982212.01921415 3662002.2468662262 0 0 0 0 389168188.43688965 -298654264.30667973 0 -298654264.30667973 41088175.345964909 0 0 0 0 357969882.82354736 -205190253.21715558 0 -205190253.21715558 -21203820.194889069 0 0 0 0 98526191.018432617 -272592098.45317459 0 -272592098.45317459 81402582.279047012 0 0 0 0 -38604855.900726318 -21796693.390124321 0 -21796693.390124321 63315684.601008415 0 0 0 0 -707279.40606689453 3194419.344039917 0 3194419.344039917 -8155260.7704825401 0 0 0 0 58464781.369720459 103514396.70814705 0 103514396.70814705 -99073171.815771103 0 0 0 0 331768646.57180786 -137101151.13314629 0 -137101151.13314629 115335324.18302679 0 0 0 0 307845936.47106934 -293583596.20019817 0 -293583596.20019817 63028424.842451096 0 0 0 0 2989094.0768559948 594941.83521908149 0 594941.83521908149 -412901.71028113319 0 0 0 0 14985437.324043274 145481202.72286654 0 145481202.72286654 -89750626.173009872 0 0 0 0 2004001.1505034566 -1252796.0138443559 0 -1252796.0138443559 -2492665.5736657395 0 0 0 0 6431965.0169372559 134568322.60499763 0 134568322.60499763 -16726247.447377205 0 0 0 0 719415788.18593979 -101768601.56074953 0 -101768601.56074953 253159032.88827515 0 0 0 0 599285447.9282074 -394236882.31265736 0 -394236882.31265736 132242634.30371475 0 0 0 0 425638875.38290405 -241972069.09968185 0 -241972069.09968185 50333304.951749325 0 0 0 0 430499902.66925049 -606687141.00363159 0 -606687141.00363159 480737565.72510147 0 0 0 0 936304157.8035183 -49320125.715903282 0 -49320125.715903282 219778996.42972374 0 0 0 0 958351146.91104126 -231760981.44603634 0 -231760981.44603634 204975840.85567474 0 0 0 0 421006550.41593933 -133147809.24491787 0 -133147809.24491787 407066870.44554424 0 0 0 0 387819583.2696228 -132270971.1728487 0 -132270971.1728487 408883049.73297739 0 0 0 0 230320454.90122223 -186549340.81632185 0 -186549340.81632185 487147239.03138733 0 0 0 0 325905648.75764847 -226948116.85382509 0 -226948116.85382509 426995330.66178226 0 0 0 0 327158101.36196899 -370220809.34098434 0 -370220809.34098434 383118430.48865986 0 0 0 0 535459657.19478607 -233793340.43089199 0 -233793340.43089199 159087613.4034586 0 0 0 0 519452301.54375458 -323362260.18203998 0 -323362260.18203998 210117991.57532692 0 0 0 0 450205434.73455811 -384332182.00040311 0 -384332182.00040311 240868330.96355057 0 0 0 0 453898580.99455261 -385929309.06472325 0 -385929309.06472325 161087590.4605329 0 0 0 0 290185905.09751892 -379116225.41748619 0 -379116225.41748619 241488169.80740514 0 0 0 0 317668698.1674614 -354904887.92364651 0 -354904887.92364651 217302004.58367372 0 0 0 0 405160599.416008 -490505035.35834503 0 -490505035.35834503 257197843.95049292 0 0 0 0 518014337.50921631 -538422499.73933434 0 -538422499.73933434 277424849.40128601 0 0 0 0 328136843.17397308 -149680851.82908869 0 -149680851.82908869 43240869.685842037 0 0 0 0 211890304.99539185 -286242523.64512348 0 -286242523.64512348 236790860.93481255 0 0 0 0 351535254.52264404 -365877236.42805338 0 -365877236.42805338 225903668.01375496 0 0 0 0 626011267.0672226 -236609972.01834559 0 -236609972.01834559 54963633.45270586 0 0 0 0 116707971.43986511 49979782.56219697 0 49979782.56219697 -3911362.2987337112 0 0 0 0 -534936.21022706479 250428.602515053 0 250428.602515053 2103832.9959440953 0 0 0 0 388435566.36019516 -502395812.68116188 0 -502395812.68116188 546895080.66227293 0 0 0 0 166555931.14130402 -235013102.43934023 0 -235013102.43934023 737789873.08088684 0 0 0 0 252722618.57114029 -152702151.56373072 0 -152702151.56373072 455261894.32209969 0 0 0 0 157965510.57987976 -255333864.88986969 0 -255333864.88986969 377262993.83685684 0 0 0 0 108340641.00520325 -209919769.78799152 0 -209919769.78799152 210271193.25459099 0 0 0 0 51331576.983821869 -148282367.45249343 0 -148282367.45249343 313039312.38881302 0 0 0 0 205000565.51443481 -205959599.95295238 0 -205959599.95295238 270930794.29248333 0 0 0 0 164176263.03423309 -131528115.89046955 0 -131528115.89046955 85993044.419685364 0 0 0 0 132780752.77923584 -117220384.94822311 0 -117220384.94822311 201320749.69996643 0 0 0 0 212420339.14307213 -99617646.779927135 0 -99617646.779927135 369256003.61234093 0 0 0 0 268795924.0310936 -84148783.449962378 0 -84148783.449962378 445891080.91425133 0 0 0 0 206612289.91647339 -177164202.79123878 0 -177164202.79123878 494935156.47420788 0 0 0 0 291010868.71075439 -195968204.25000954 0 -195968204.25000954 373708988.08331108 0 0 0 0 362312188.27216339 -34902342.297484398 0 -34902342.297484398 221289431.49027252 0 0 0 0 483771347.65422058 59983857.87182045 0 59983857.87182045 582542751.42706299 0 0 0 0 503132768.76419067 -242894711.00849533 0 -242894711.00849533 506896394.88580847 0 0 0 0 301357417.72463989 -87522839.311304092 0 -87522839.311304092 190502293.68649101 0 0 0 0 243064067.58918762 -10120892.607524872 0 -10120892.607524872 120589223.30392838 0 0 0 0 279313399.52593231 -55931074.940714836 0 -55931074.940714836 48319884.442321777 0 0 0 0 431483076.58148956 6554244.5501461029 0 6554244.5501461029 50392559.665576935 0 0 0 0 253167251.75610352 80309244.701759338 0 80309244.701759338 23220505.43699646 0 0 0 0 275242932.30224609 -44524868.405324936 0 -44524868.405324936 42403053.616962433 0 0 0 0 243111221.37623596 -80839566.998316765 0 -80839566.998316765 202401882.33095932 0 0 0 0 188295373.34768677 -139434274.86590958 0 -139434274.86590958 175374178.01452446 0 0 0 0 164286030.39816284 -161582676.30898982 0 -161582676.30898982 93236515.460617065 0 0 0 0 170120319.63960266 -63173536.61102581 0 -63173536.61102581 51924245.817178726 0 0 0 0 173044568.11585903 -22881568.030150294 0 -22881568.030150294 -33801733.83014679 0 0 0 0 168950808.18959045 -116700090.54511338 0 -116700090.54511338 -35012397.267368317 0 0 0 0 114570935.49700928 -48478617.132278442 0 -48478617.132278442 -68105988.466997147 0 0 0 0 182098404.48504639 82188043.766504288 0 82188043.766504288 -37438172.322124481 0 0 0 0 184012221.45797729 -16697658.42222023 0 -16697658.42222023 -36635190.913459778 0 0 0 0 193805698.25296021 -83981427.852878571 0 -83981427.852878571 39189044.537826538 0 0 0 0 210230843.22665405 16591943.222120285 0 16591943.222120285 -2977858.4374542236 0 0 0 0 161055350.7348938 -69673033.058946609 0 -69673033.058946609 -96354342.075492859 0 0 0 0 135366490.86590576 32024530.318237305 0 32024530.318237305 -73938581.395824432 0 0 0 0 118901394.66746902 35811443.789423943 0 35811443.789423943 -70389161.651496887 0 0 0 0 90502486.703369141 72027616.614917755 0 72027616.614917755 -105730417.26663589 0 0 0 0 112790746.81025696 -11959752.496388435 0 -11959752.496388435 -129237307.69779968 0 0 0 0 109720416.52838135 34166555.356212616 0 34166555.356212616 -191813897.85856247 0 0 0 0 114949370.94120407 -52683079.147710919 0 -52683079.147710919 -214013012.32077026 0 0 0 0 48283179.238311768 6093561.4409770966 0 6093561.4409770966 -214272059.35118866 0 0 0 0 96353765.564361572 25742387.240644455 0 25742387.240644455 -336827995.71920013 0 0 0 0 41377158.820251465 -10851646.295600891 0 -10851646.295600891 -213622853.61935806 0 0 0 0 -1446625.9179229736 25318810.774986267 0 25318810.774986267 -288488195.6825943 0 0 0 0 68079034.860412598 30155791.446525574 0 30155791.446525574 -288248759.09460449 0 0 0 0 147457944.66160583 -110716523.26845646 0 -110716523.26845646 -123672895.1806488 0 0 0 0 82314384.596757889 -79604948.0826478 0 -79604948.0826478 -125434399.20119095 0 0 0 0 124457944.3319397 -90508632.743398666 0 -90508632.743398666 -144599207.25158691 0 0 0 0 112604075.95874023 -6123702.690284729 0 -6123702.690284729 -129190882.03759193 0 0 0 0 108574537.50310516 -54707233.124125481 0 -54707233.124125481 -291712943.61293411 0 0 0 0 97505712.209442139 -6086247.8979244232 0 -6086247.8979244232 -210995543.87049103 0 0 0 0 76524286.379968643 -114186769.29092836 0 -114186769.29092836 -105683438.45472336 0 0 0 0 110573233.30058289 -44870484.781122208 0 -44870484.781122208 -238131118.30979443 0 0 0 0 106702032.95606995 -88408280.707852364 0 -88408280.707852364 -94157470.889050484 0 0 0 0 90585634.32396698 -145756476.04602051 0 -145756476.04602051 -34595217.804389954 0 0 0 0 63359832.931167603 -149589548.99776268 0 -149589548.99776268 63413280.54176712 0 0 0 0 85482079.16028595 -133088408.0207324 0 -133088408.0207324 69254743.079769135 0 0 0 0 120933277.06065369 -79390318.310194016 0 -79390318.310194016 -35281749.338785172 0 0 0 0 114926839.4208374 -162942693.71783638 0 -162942693.71783638 69655998.579418182 0 0 0 0 -36037908.162078857 -54332194.045886993 0 -54332194.045886993 168290395.82092285 0 0 0 0 11531707.842010498 -92321994.167505264 0 -92321994.167505264 15744439.055906296 0 0 0 0 2844603.4181671143 -148939763.93829155 0 -148939763.93829155 167672337.25506783 0 0 0 0 10485002.878379822 -95049899.163495064 0 -95049899.163495064 86739501.76884079 0 0 0 0 42690229.845912933 -181491307.13910913 0 -181491307.13910913 208564138.54667664 0 0 0 0 20873289.147102356 -62019836.59953022 0 -62019836.59953022 -76588126.165800095 0 0 0 0 59264770.028175354 -119795479.5463748 0 -119795479.5463748 -107778577.4776535 0 0 0 0 -13403437.408439636 -98829277.061276436 0 -98829277.061276436 17077705.571004868 0 0 0 0 1188884.6166305542 -70503242.914580345 0 -70503242.914580345 -77004366.853693008 0 0 0 0 -58702224.30701828 -107661488.31456804 0 -107661488.31456804 5757016.3137168884 0 0 0 0 12203997.069161952 -8200912.7328560483 0 -8200912.7328560483 13498207.757156905 0 0 0 0 12076692.16576767 -2903999.3854266703 0 -2903999.3854266703 -22425760.037622225 0 0 0 0 -140723901.28182983 31289074.446200192 0 31289074.446200192 175859694.49010146 0 0 0 0 -34605282.017427206 -96797031.393406451 0 -96797031.393406451 174645981.58114624 0 0 0 0 -38387705.406219482 -6685862.3790998459 0 -6685862.3790998459 -23934168.859936476 0 0 0 0 -135350107.25881958 -24324393.262001038 0 -24324393.262001038 541933025.48176861 0 0 0 0 -63450516.107086182 137343059.44528389 0 137343059.44528389 265179903.79035378 0 0 0 0 -29815163.983603477 63964650.524872422 0 63964650.524872422 -53143149.431638718 0 0 0 0 8698361.6984834615 -6542099.7066017073 0 -6542099.7066017073 10363862.044851812 0 0 0 0 -124812232.71889114 -40266448.676112175 0 -40266448.676112175 118361768.8533926 0 0 0 0 192144659.99395752 243313925.17082977 0 243313925.17082977 763444482.43766022 0 0 0 0 1586169.4301427975 -4279327.1430180464 0 -4279327.1430180464 2285.7292009778321 0 0 0 0 -169207592.53513336 107175321.45924139 0 107175321.45924139 863495463.70297432 0 0 0 0 -17929054.059326172 -220697909.00756454 0 -220697909.00756454 1395058736.5187016 0 0 0 0 -161683490.78030396 -18663740.508471489 0 -18663740.508471489 543335461.49463558 0 0 0 0 -212085382.07777405 -121387391.16628981 0 -121387391.16628981 567120194.7289958 0 0 0 0 -206355732.51815796 -28342138.013552189 0 -28342138.013552189 734925653.89315891 0 0 0 0 -73619022.618843079 -107177372.66448212 0 -107177372.66448212 204811770.05853701 0 0 0 0 -74591353.146636963 -102708186.38344288 0 -102708186.38344288 285849154.45134735 0 0 0 0 -134717360.48605132 -8042803.3657484502 0 -8042803.3657484502 426434459.03410912 0 0 0 0 73547853.373363495 -167545511.30331421 0 -167545511.30331421 213632595.84243393 0 0 0 0 -18228269.88860321 -221633466.98114634 0 -221633466.98114634 423343593.01816368 0 0 0 0 -205563776.91599274 -193820634.58553362 0 -193820634.58553362 468558991.81530714 0 0 0 0 -410497594.14243317 -400969892.81731963 0 -400969892.81731963 684659424.51153708 0 0 0 0 54338134.883541107 -380334611.53226268 0 -380334611.53226268 600221867.89962959 0 0 0 0 -299034991.36956787 -105606856.87809253 0 -105606856.87809253 589297479.0195179 0 0 0 0 -248091503.47937775 -201373714.60767031 0 -201373714.60767031 755047071.11903095 0 0 0 0 -261434760.33248901 -363964779.56677032 0 -363964779.56677032 420209842.30504131 0 0 0 0 -652526104.14749908 -200101936.85109526 0 -200101936.85109526 578677443.29929173 0 0 0 0 -291933616.42678452 -116117116.09537849 0 -116117116.09537849 -63241878.140845835 0 0 0 0 -145446851.93519974 -435595676.34542572 0 -435595676.34542572 -701902811.76905441 0 0 0 0 -270461760.11978149 -462970541.25304604 0 -462970541.25304604 -148022355.87911797 0 0 0 0 1300825.8199338019 -725596.56495927274 0 -725596.56495927274 2451170.1959468573 0 0 0 0 -45731704.997150421 -23249679.387451589 0 -23249679.387451589 55470289.702405572 0 0 0 0 413369533.26209259 87174846.775727689 0 87174846.775727689 -473140530.54983711 0 0 0 0 -334659632.17409134 -403656082.56645745 0 -403656082.56645745 222643720.76653624 0 0 0 0 291730795.34181976 -370415909.31381178 0 -370415909.31381178 167864504.59510958 0 0 0 0 320224806.52141476 -211840257.57348412 0 -211840257.57348412 312887831.20505589 0 0 0 0 1162060090.7441635 -461472585.95109129 0 -461472585.95109129 -150201610.04901779 0 0 0 0 -243525623.33320618 -250844826.99887776 0 -250844826.99887776 684901520.93267655 0 0 0 0 -129307502.09166718 -94002183.31229496 0 -94002183.31229496 637129011.47371924 0 0 0 0 125204419.14230919 -420425132.00360084 0 -420425132.00360084 1166086967.7984238 0 0 0 0 146098287.03822327 -382003170.09600496 0 -382003170.09600496 909421413.15259933 0 0 0 0 273425274.66433716 -231811946.11258531 0 -231811946.11258531 1038365982.1493554 0 0 0 0 1067387671.9499207 -533507035.30608892 0 -533507035.30608892 1062009790.4399309 0 0 0 0 1097505356.7368393 -791763799.66816568 0 -791763799.66816568 1054410120.6786004 0 0 0 0 1326536567.3603172 -633918206.32032061 0 -633918206.32032061 756173929.5397011 0 0 0 0 1575578730.3318253 -904010400.73600125 0 -904010400.73600125 997296729.71524 0 0 0 0 1079249708.3835526 -697126234.17731857 0 -697126234.17731857 1476517746.5948133 0 0 0 0 1740612947.0547218 -993467992.5361805 0 -993467992.5361805 611283648.75746906 0 0 0 0 859780403.90359497 -431383295.71199584 0 -431383295.71199584 640857426.43515146 0 0 0 0 848307774.40798187 -665401042.28333473 0 -665401042.28333473 644888221.45425081 0 0 0 0 1156789746.7017593 -530708860.99336791 0 -530708860.99336791 88244450.03799808 0 0 0 0 1404158004.8208923 -459791581.05463278 0 -459791581.05463278 22513024.335258365 0 0 0 0 2037442629.4185152 -455594271.68467456 0 -455594271.68467456 -470047681.59076953 0 0 0 0 2013122484.4459152 -539983752.98834872 0 -539983752.98834872 -583760992.58753681 0 0 0 0 2768585624.795887 -797178742.10076571 0 -797178742.10076571 -673396595.53779745 0 0 0 0 2598614758.5330963 -994974527.34734035 0 -994974527.34734035 -175064832.07764143 0 0 0 0 2261853006.3673706 -773159282.53046322 0 -773159282.53046322 -138292363.47158498 0 0 0 0 3464026391.7865067 -1302789276.6590242 0 -1302789276.6590242 -339142754.29051811 0 0 0 0 1746398894.8922882 -1384603421.8146768 0 -1384603421.8146768 1461641916.2116661 0 0 0 0 3467016693.0530701 -1788776069.5413558 0 -1788776069.5413558 515685371.06337118 0 0 0 0 2424284345.7441483 -1071019535.7963594 0 -1071019535.7963594 60785039.893270999 0 0 0 0 1259251844.0677261 -1193104825.4059765 0 -1193104825.4059765 1431104290.5924284 0 0 0 0 3455645286.2630939 -3119550039.4566464 0 -3119550039.4566464 3111409062.1589594 0 0 0 0 5931389.7258342542 -3710848.4724965352 0 -3710848.4724965352 2169291.9702020041 0 0 0 0 480257827.19521332 463849385.36054987 0 463849385.36054987 156570836.25557855 0 0 0 0 1321444864.7288218 -953492552.12434137 0 -953492552.12434137 1556121932.1888871 0 0 0 0 816298145.28918457 -1123826766.7579985 0 -1123826766.7579985 1569527097.8468199 0 0 0 0 695310420.42677307 -869307268.69084167 0 -869307268.69084167 1879226708.680357 0 0 0 0 2211099.7036672756 -899320.36580803432 0 -899320.36580803432 -244329.19504650589 0 0 0 0 -9409523.7594604492 301287993.50283813 0 301287993.50283813 1793687641.8683214 0 0 0 0 13000711.027485095 -3709253.0412718197 0 -3709253.0412718197 1753024.1036561222 0 0 0 0 -6154427.6267166138 -61459740.738106549 0 -61459740.738106549 -130672772.39984518 0 0 0 0 -68499660.920028687 -195103380.86970368 0 -195103380.86970368 101918430.95688984 0 0 0 0 -137834463.46261597 19930263.110198654 0 19930263.110198654 130626548.01621145 0 0 0 0 194025236.85239792 71284655.84855333 0 71284655.84855333 -103866614.30784923 0 0 0 0 -22626746.086229324 -53557206.05388888 0 -53557206.05388888 5852597.7568781674 0 0 0 0 -96591547.412399292 36024546.108251654 0 36024546.108251654 99828257.391216189 0 0 0 0 534666.57285118476 -235602.90262532583 0 -235602.90262532583 -64371.233297225583 0 0 0 0 -10661205.859426498 -10531472.331203498 0 -10531472.331203498 12369002.445228755 0 0 0 0 10598993.360092163 -5863516.1743654609 0 -5863516.1743654609 -14480015.254200086 0 0 0 0 1503048.0648098513 -1177436.9853779769 0 -1177436.9853779769 -322283.87336430606 0 0 0 0 -2071760.4598579407 -4097896.9633057117 0 -4097896.9633057117 -1634653.1564363837 0 0 0 0 231085079.3175354 192730847.02651921 0 192730847.02651921 -179612604.28703445 0 0 0 0 3046899.5345270149 2882456.16221363 0 2882456.16221363 3402884.2984263003 0 0 0 0 3923327.528829705 1735499.2402157779 0 1735499.2402157779 2878024.1868700259 0 0 0 0 10388996.280860901 -5177794.8785064323 0 -5177794.8785064323 28619126.374473393 0 0 0 0 298484.46559617668 -937129.20900509111 0 -937129.20900509111 1836343.361267067 0 0 0 0 3429083656.1657867 -1045819.3068726356 0 -1045819.3068726356 -1261393.5899175294 0 0 0 0 3338928039.1137085 175944567.0663 0 175944567.0663 -158670779.74013782 0 0 0 0 650854447.6798172 -1667664707.8978033 0 -1667664707.8978033 371516692.7112056 0 0 0 0 1836570.6477758996 1035284.7043677466 0 1035284.7043677466 1635710.6646791166 0 0 0 0 3448879568.6781154 -854216387.37460542 0 -854216387.37460542 -468871256.88336498 0 0 0 0 2215260704.2872047 121939688.71411406 0 121939688.71411406 -44322529.293443978 0 0 0 0 404418138.70775843 472421647.31145722 0 472421647.31145722 256916332.80269009 0 0 0 0 -63196049.963071823 -230526149.65683174 0 -230526149.65683174 263530452.89039269 0 0 0 0 -132349116.61402321 -16940108.505154204 0 -16940108.505154204 351321728.89527828 0 0 0 0 2979898069.7937088 -266932251.29968488 0 -266932251.29968488 444195651.91394925 0 0 0 0 2656701285.3521881 -18193425.490407676 0 -18193425.490407676 588828646.58934057 0 0 0 0 3068763635.6748047 254257556.7566292 0 254257556.7566292 234444409.96198967 0 0 0 0 3466243466.737793 18064865.642694078 0 18064865.642694078 300643087.08178967 0 0 0 0 2339382403.2609253 399262680.89842021 0 399262680.89842021 266332340.99446192 0 0 0 0 2635382019.9616241 19632983.974511214 0 19632983.974511214 195895966.12303275 0 0 0 0 2345123422.9537354 -104604390.65007976 0 -104604390.65007976 418668790.96026909 0 0 0 0 2946239703.4644623 -619452524.20041716 0 -619452524.20041716 47801525.046284199 0 0 0 0 3025971962.1854248 -419489973.78981405 0 -419489973.78981405 402651937.50299668 0 0 0 0 3180710994.0595474 -860190299.75623536 0 -860190299.75623536 -308508533.85589707 0 0 0 0 768681.43907489628 -1084609.1708759442 0 -1084609.1708759442 1105270.4799895196 0 0 0 0 3953436248.3317108 -919082147.49481499 0 -919082147.49481499 220666608.57508516 0 0 0 0 3271510082.3503113 -833006699.36000133 0 -833006699.36000133 702671511.17135465 0 0 0 0 3923034380.9765778 -958124608.50317633 0 -958124608.50317633 439651661.23041987 0 0 0 0 2883760142.9384232 -292844164.89408016 0 -292844164.89408016 560641527.76146746 0 0 0 0 3636544022.9376678 -418073352.0240308 0 -418073352.0240308 549635379.77672255 0 0 0 0 3659945245.1148987 70206153.970434248 0 70206153.970434248 810431319.95501709 0 0 0 0 3030158971.3875885 -226816510.19923282 0 -226816510.19923282 750736065.25976324 0 0 0 0 4169154116.1449356 -1120042290.7286847 0 -1120042290.7286847 280151081.24287987 0 0 0 0 4271610.7123949304 -181798.94263870083 0 -181798.94263870083 -873790.09265654313 0 0 0 0 21076896.416320801 17603197.893340111 0 17603197.893340111 28477299.80244112 0 0 0 0 3534595788.0355873 -634583917.45085788 0 -634583917.45085788 197951358.43217444 0 0 0 0 4560854899.370697 -382221436.0091064 0 -382221436.0091064 246927297.40403467 0 0 0 0 1720993569.4576759 1026085907.8855389 0 1026085907.8855389 618923043.9307518 0 0 0 0 3557805953.7067604 -179147263.64629611 0 -179147263.64629611 -379113602.93008184 0 0 0 0 3069800264.4920731 -773600143.42261314 0 -773600143.42261314 903853097.53091156 0 0 0 0 3164056474.1478758 -597823305.52035499 0 -597823305.52035499 -10755289.847244494 0 0 0 0 3041498968.2901077 -186851823.92336842 0 -186851823.92336842 584551313.69667649 0 0 0 0 3099834771.1179886 -157905446.61498037 0 -157905446.61498037 372235057.37217259 0 0 0 0 3170967252.7507782 -402491514.11511838 0 -402491514.11511838 485129644.1795814 0 0 0 0 3464185017.4207191 -387539570.18187761 0 -387539570.18187761 -39831793.419936217 0 0 0 0 3248271991.5330505 -626845080.32932496 0 -626845080.32932496 -206554546.12571833 0 0 0 0 3292964832.9378281 -457159575.09458369 0 -457159575.09458369 -332738761.09653175 0 0 0 0 2948651365.4001389 -607076121.06881845 0 -607076121.06881845 -388355032.34499675 0 0 0 0 3464923213.3275948 -534709257.78000182 0 -534709257.78000182 -564278197.02307832 0 0 0 0 3153563825.1049194 -651360234.03159714 0 -651360234.03159714 -776262546.60286117 0 0 0 0 3330889582.3808823 -705527950.48345423 0 -705527950.48345423 -778097953.95046389 0 0 0 0 2791218346.6801739 -787636235.84408641 0 -787636235.84408641 -639714034.67853498 0 0 0 0 3159170703.3893661 -879478424.26893389 0 -879478424.26893389 -706697046.33719444 0 0 0 0 3464985019.2759628 -767960115.08346331 0 -767960115.08346331 -860007021.75052261 0 0 0 0 1877197124.6975784 -681323559.94511843 0 -681323559.94511843 -527708623.2833482 0 0 0 0 1327076398.4650536 -161708516.27161038 0 -161708516.27161038 -430466301.63802123 0 0 0 0 1910166972.6180496 -596393478.3888793 0 -596393478.3888793 -421822278.1118508 0 0 0 0 2727738428.4990611 -448291267.1232329 0 -448291267.1232329 -692887112.25712013 0 0 0 0 2142601859.6363297 -572441062.29764545 0 -572441062.29764545 -542566212.41983461 0 0 0 0 2061462207.4282894 33035237.416931853 0 33035237.416931853 -390899205.20851588 0 0 0 0 1402915294.0323563 -169775655.62095237 0 -169775655.62095237 -292333603.20510721 0 0 0 0 3033870921.4406891 -364234708.89380562 0 -364234708.89380562 -624967510.29955471 0 0 0 0 3129541854.6443205 -343989138.78092927 0 -343989138.78092927 -9857382.9006179869 0 0 0 0 2816177961.6286697 -634405480.36524689 0 -634405480.36524689 -232999626.88229457 0 0 0 0 2519887923.1479416 389668757.16711587 0 389668757.16711587 -550556357.4241246 0 0 0 0 964697276.00270081 511724798.3436439 0 511724798.3436439 42286818.646086097 0 0 0 0 74115816.113891602 -2583945.3404211998 0 -2583945.3404211998 -71655629.12282753 0 0 0 0 47592081.887756348 21176820.842326164 0 21176820.842326164 49152426.48055315 0 0 0 0 73443758.109085083 70113177.819776773 0 70113177.819776773 -85808569.510025024 0 0 0 0 42700708.693695068 -47808323.16399169 0 -47808323.16399169 -24658432.953632832 0 0 0 0 7696113.2574952468 -6288499.5550485887 0 -6288499.5550485887 -266554.00923522073 0 0 0 0 8398814.8302459717 -38219467.003402591 0 -38219467.003402591 -11783594.024817944 0 0 0 0 183266079.22180557 -161749257.35260218 0 -161749257.35260218 43422423.166491985 0 0 0 0 -247007352.13193512 -234592559.83953327 0 -234592559.83953327 -13108825.242939711 0 0 0 0 976778055.16743469 -503071887.77411705 0 -503071887.77411705 -373532815.52114296 0 0 0 0 742194905.60093784 86616024.661462724 0 86616024.661462724 -47327970.925804615 0 0 0 0 896909074.09729004 -659739566.1090045 0 -659739566.1090045 -726167610.18217528 0 0 0 0 -108783792.13594055 14294601.623862863 0 14294601.623862863 -1294263.9199935198 0 0 0 0 9108829.4741541818 -3281696.2978359396 0 -3281696.2978359396 -1901073.0203292673 0 0 0 0 8371245.5285377502 -4873748.8415488005 0 -4873748.8415488005 14372464.667820573 0 0 0 0 11492665.275344849 55836145.209572792 0 55836145.209572792 -33183033.290744781 0 0 0 0 182815.0303792879 -3915846.6442767987 0 -3915846.6442767987 -564211.18188445305 0 0 0 0 7201666.0700378418 3740782.2575960159 0 3740782.2575960159 -3735134.2681149244 0 0 0 0 6939907.7691064328 -6182956.9471517913 0 -6182956.9471517913 1263846.2263482539 0 0 0 0 18772068.001804352 3800245.7563311756 0 3800245.7563311756 -5381789.4397860765 0 0 0 0 2327074.5215606689 -3129608.0272805691 0 -3129608.0272805691 -2482392.0658354759 0 0 0 0 14418285.650505066 -742575.93143105507 0 -742575.93143105507 -12654018.818940401 0 0 0 0 8537308.2599945068 -1008224.4351460934 0 -1008224.4351460934 -10494562.007012963 0 0 0 0 -5701771.438369751 -4154069.4856994748 0 -4154069.4856994748 -10095862.012433529 0 0 0 0 7917971.0403137207 -1190455.0974769592 0 -1190455.0974769592 -7841915.5811076164 0 0 0 0 6736863.8018188477 74189.155051469803 0 74189.155051469803 -8953912.1783926487 0 0 0 0 7283475.8290405273 -2395862.4179047346 0 -2395862.4179047346 -10068763.392373562 0 0 0 0 15070589.765411377 -2342898.6558713913 0 -2342898.6558713913 -12458013.283375263 0 0 0 0 63532732.18510437 24906380.333109856 0 24906380.333109856 -1592895.1333475113 0 0 0 0 13666431.776409149 18647494.341073275 0 18647494.341073275 -2560544.4005012512 0 0 0 0 3580.7678191736341 -48394.843468393432 0 -48394.843468393432 -6377.0782886105299 0 0 0 0 -72707.679774291813 -145131.63714840636 0 -145131.63714840636 58901.745186616667 0 0 0 0 24776792.829040527 -31079808.854465961 0 -31079808.854465961 5611929.3200192451 0 0 0 0 7343860.2407226562 10519784.311714172 0 10519784.311714172 23540161.067708969 0 0 0 0 -753359.00598479062 -750219.24477368244 0 -750219.24477368244 115229.58676656561 0 0 0 0 -3411779.3141784668 9008088.3058342338 0 9008088.3058342338 -2603238.4058294296 0 0 0 0 -2199327.9639434814 -2357365.8071329594 0 -2357365.8071329594 -2101446.3053968251 0 0 0 0 -393900.00537130237 -610318.61301319487 0 -610318.61301319487 456066.26881492219 0 0 0 0 -610343.21225380898 -348645.77110873908 0 -348645.77110873908 400140.09417296585 0 0 0 0 23259109.60093689 -4990637.0781684518 0 -4990637.0781684518 3115889.2722210884 0 0 0 0 -2312744.1774597168 -2445084.2390298843 0 -2445084.2390298843 -1724052.4623689651 0 0 0 0 73220720.307571411 -21663073.329018593 0 -21663073.329018593 4199300.4221153259 0 0 0 0 32262471.580322266 -20920832.222216606 0 -20920832.222216606 12087995.123155594 0 0 0 0 675207.54330207407 -330373.78559967875 0 -330373.78559967875 -34556.081456486601 0 0 0 0 -50371.527954101562 -652037.64210224152 0 -652037.64210224152 -1125394.6275243759 0 0 0 0 -695351.59060364217 -4258515.2403856069 0 -4258515.2403856069 -96870.452393412721 0 0 0 0 -4274251.0779373646 -9277347.2835368812 0 -9277347.2835368812 -4951806.4344952106 0 0 0 0 275527.03230285645 -3504546.5445902348 0 -3504546.5445902348 -4300934.0208017826 0 0 0 0 1777277.1899614185 61035.423589598387 0 61035.423589598387 -182698.69379378622 0 0 0 0 -497419.60485839844 -1273002.7426986694 0 -1273002.7426986694 -1899590.5359458923 0 0 0 0 315182.26729364693 27016.103025870398 0 27016.103025870398 -73158.283613260952 0 0 0 0 -337446.34984825552 -2114011.2660653489 0 -2114011.2660653489 99452.934580011191 0 0 0 0 -4460697.9056909084 -1161349.7597626932 0 -1161349.7597626932 -12875461.31916523 0 0 0 0 2972324.1512396559 -1785145.4772860222 0 -1785145.4772860222 -395673.09035934124 0 0 0 0 975317.01026916504 -4898177.2711737156 0 -4898177.2711737156 -2716050.9647936821 0 0 0 0 784319.53673023358 -2380774.1345141269 0 -2380774.1345141269 -1044741.6912517943 0 0 0 0 -5086184.6912918091 -4547958.8446140289 0 -4547958.8446140289 -1186662.1769142151 0 0 0 0 -833594.98746871948 -8952481.0581134558 0 -8952481.0581134558 4429992.1405968666 0 0 0 0 6460701.1194915771 -9747869.7399148941 0 -9747869.7399148941 4150752.5301321745 0 0 0 0 -3183842.9676971436 -13041635.369786739 0 -13041635.369786739 -7582597.7409163713 0 0 0 0 39661068.239334106 -35226226.959970951 0 -35226226.959970951 -3535987.5824313164 0 0 0 0 -18737424.943775177 -28358575.565524161 0 -28358575.565524161 53199702.701832294 0 0 0 0 -7458838.0270309448 -2934095.7316769361 0 -2934095.7316769361 9078906.267124176 0 0 0 0 -967061.33174979687 -600225.20239458233 0 -600225.20239458233 568185.16337945405 0 0 0 0 9965350.9897155762 -26415120.788612843 0 -26415120.788612843 -4317900.8585757017 0 0 0 0 -288258.65853118151 -112425.98925338313 0 -112425.98925338313 222443.91145292681 0 0 0 0 -1371787.62550354 -2865614.8927619457 0 -2865614.8927619457 -2559519.075145483 0 0 0 0 -30501608.370178223 23277796.161930561 0 23277796.161930561 1838179.0878629684 0 0 0 0 23076139.64251709 -37386864.397601128 0 -37386864.397601128 43333884.481479645 0 0 0 0 46002861.227081299 111590294.41580915 0 111590294.41580915 23558485.954045534 0 0 0 0 -23908187.721084595 -10327208.410285115 0 -10327208.410285115 158339080.32030964 0 0 0 0 -151032.35653773695 -202058.52754787356 0 -202058.52754787356 178347.44943026081 0 0 0 0 64990141.03503418 118923555.59544897 0 118923555.59544897 -50760039.595000505 0 0 0 0 32651081.955718994 -45079637.793254375 0 -45079637.793254375 23926316.768198013 0 0 0 0 20703930.374267578 -2938733.6169881821 0 -2938733.6169881821 -240648.25560760498 0 0 0 0 9232569.5880768448 -5813927.2208642587 0 -5813927.2208642587 -2961926.8433997273 0 0 0 0 30954979.985649109 10103466.507218122 0 10103466.507218122 -76302885.825038135 0 0 0 0 -18401719.266555786 -49286806.228855133 0 -49286806.228855133 22702925.598999977 0 0 0 0 3858301.155964531 -101858.96197918802 0 -101858.96197918802 -462944.44630846736 0 0 0 0 5185391.6875610352 -1160405.2732524872 0 -1160405.2732524872 -1693538.4522914886 0 0 0 0 13104615.175348833 144761.4992405884 0 144761.4992405884 -4398997.0130430171 0 0 0 0 30070591.205223083 3329879.2553453445 0 3329879.2553453445 17220633.543087006 0 0 0 0 4052118.6649247147 -6518767.8896170817 0 -6518767.8896170817 1915469.1322162217 0 0 0 0 6547854.3456328921 -1561400.2363454513 0 -1561400.2363454513 -1155495.5245784794 0 0 0 0 17344498.78692627 23946478.862801313 0 23946478.862801313 -41313287.915757179 0 0 0 0 42315984.660064697 -1314658.9580643177 0 -1314658.9580643177 -44163500.981571674 0 0 0 0 9205525.1169913411 -5497731.4440225195 0 -5497731.4440225195 -4652055.0041314252 0 0 0 0 31205358.847076416 5169661.0701146126 0 5169661.0701146126 -24736304.090878963 0 0 0 0 1053122.339630127 -29328672.175047874 0 -29328672.175047874 -10081356.647153854 0 0 0 0 43026145.421157837 15509845.386689782 0 15509845.386689782 -131843666.86858797 0 0 0 0 26042906.466629028 -7600398.5993475914 0 -7600398.5993475914 -10441010.40666528 0 0 0 0 788449706.22320557 -953232816.34816408 0 -953232816.34816408 1146048982.6392407 0 0 0 0 -3189719.1622238159 -32068262.025957108 0 -32068262.025957108 -18525615.936551571 0 0 0 0 4603204.7966442239 -2266333.7353511378 0 -2266333.7353511378 1187700.165294732 0 0 0 0 7813647.2779312134 -39590416.705150008 0 -39590416.705150008 -63968472.163415909 0 0 0 0 48451743.868392944 -79624730.444874644 0 -79624730.444874644 -44827069.587636352 0 0 0 0 50061431.251464844 -84527452.396059275 0 -84527452.396059275 -159106893.03097689 0 0 0 0 58916812.114444733 -52579192.461868733 0 -52579192.461868733 -220527301.45275152 0 0 0 0 -6839015.0426940918 22558084.233913183 0 22558084.233913183 -29945587.513149738 0 0 0 0 26299137.829856873 139744777.80909711 0 139744777.80909711 -160933927.54386127 0 0 0 0 -24759314.660934448 93917846.270632386 0 93917846.270632386 -179137214.07348865 0 0 0 0 154066202.24943542 37905190.637680113 0 37905190.637680113 -373966291.12910813 0 0 0 0 7591515.5352234244 -4050607.9594314806 0 -4050607.9594314806 -3671215.2424621508 0 0 0 0 -112296.93710219115 1089670.5640314568 0 1089670.5640314568 -676517.94189103867 0 0 0 0 11656660.364379883 -7623600.6948769093 0 -7623600.6948769093 -4894472.1042234898 0 0 0 0 8424240.3201713562 -4822600.886708498 0 -4822600.886708498 1168921.7495408058 0 0 0 0 5099455.1027603149 -16813032.954793811 0 -16813032.954793811 -13005372.150037766 0 0 0 0 8221512.8615821302 -2725000.8832817227 0 -2725000.8832817227 -3442171.2321126135 0 0 0 0 9763015.1044464111 -4113997.6135032177 0 -4113997.6135032177 -14391224.826701164 0 0 0 0 2385183.0323638916 4913577.8429429531 0 4913577.8429429531 -18829452.567221165 0 0 0 0 2536512.0437164307 12712368.935066938 0 12712368.935066938 8264178.6423101425 0 0 0 0 -8229235.04347229 5554727.6101779938 0 5554727.6101779938 6115883.4256343842 0 0 0 0 1427083.2297865003 -2800642.3084231652 0 -2800642.3084231652 -542026.36715762946 0 0 0 0 3523716.1078672931 -1600669.2498189462 0 -1600669.2498189462 -1190382.2193260363 0 0 0 0 22822827.062759399 4164112.3935041428 0 4164112.3935041428 -249898.57922776043 0 0 0 0 2267912.8580335379 -311072.44062283402 0 -311072.44062283402 -527767.73955436167 0 0 0 0 18116392.415313721 -13892917.199087143 0 -13892917.199087143 -24026717.955433607 0 0 0 0 20018611.893051147 44913460.659115314 0 44913460.659115314 41381311.563716128 0 0 0 0 122867308.70092773 175007855.98173666 0 175007855.98173666 242311623.26679912 0 0 0 0 816468.93352858722 -35037.284866740461 0 -35037.284866740461 -133276.61680617731 0 0 0 0 39117536.149329185 -67380138.91546908 0 -67380138.91546908 46526558.437982559 0 0 0 0 46819001.519927979 13115213.117663622 0 13115213.117663622 1196211.3875646591 0 0 0 0 11540788.900114059 -12300891.565803856 0 -12300891.565803856 24004929.051442623 0 0 0 0 109475743.6934433 6522951.8406786919 0 6522951.8406786919 5985285.6664190292 0 0 0 0 247928219.93942261 -50467074.328804016 0 -50467074.328804016 -23449845.569939375 0 0 0 0 116820042.41036797 -16896045.755112648 0 -16896045.755112648 -30048014.24575758 0 0 0 0 9177637.4921875 -22720270.690001726 0 -22720270.690001726 181316.21338367462 0 0 0 0 9501158.4470977783 8754842.3025298119 0 8754842.3025298119 25176128.304093838 0 0 0 0 18749086.836528778 -8583916.567985177 0 -8583916.567985177 -7888027.9263820648 0 0 0 0 3807777.1822052002 -17756478.294987202 0 -17756478.294987202 7167469.8377604485 0 0 0 0 -1359432.8398132324 -9379674.8707489967 0 -9379674.8707489967 -3544333.3061432838 0 0 0 0 13400065.868621826 -3022281.7277245522 0 -3022281.7277245522 5730455.0469985604 0 0 0 0 -2450666.2849578857 780170.53920102119 0 780170.53920102119 20957135.736935616 0 0 0 0 -2784838.3028259277 -2513184.7817845345 0 -2513184.7817845345 -2261395.6967964172 0 0 0 0 -4501529.4254302979 -6561111.4157099724 0 -6561111.4157099724 5636127.2635993958 0 0 0 0 -1669718.2855072021 -11809108.11455512 0 -11809108.11455512 -2854548.7394194603 0 0 0 0 -66259.21409535408 -2830865.2872410067 0 -2830865.2872410067 -666592.58161829761 0 0 0 0 913194.43838500977 -7202496.6180398464 0 -7202496.6180398464 -8966445.7943637371 0 0 0 0 2879561.6549224854 -10902166.80364728 0 -10902166.80364728 -18075576.464447498 0 0 0 0 -4248723.8262329102 -16160791.145088911 0 -16160791.145088911 -317907.55935052037 0 0 0 0 -3436853.7939605713 -2380487.645004034 0 -2380487.645004034 -9099364.1028904319 0 0 0 0 -2260649.4897460938 -15101638.758914709 0 -15101638.758914709 -8166559.2397401333 0 0 0 0 -197272.67847442627 -4883826.3912709951 0 -4883826.3912709951 -9277527.8504258394 0 0 0 0 1443109.7645308152 -1680808.6202064306 0 -1680808.6202064306 38649.28396430501 0 0 0 0 19412149.78314209 -6423493.6403660774 0 -6423493.6403660774 -16926339.520886898 0 0 0 0 4605695.4999915361 -42881.125434633344 0 -42881.125434633344 -667951.51538094983 0 0 0 0 6504154.0242958069 3238038.8517566323 0 3238038.8517566323 -11661892.472653389 0 0 0 0 -11223948.309417725 12348118.161339641 0 12348118.161339641 5492891.2064138651 0 0 0 0 8103693.7692260742 -2242252.6216487885 0 -2242252.6216487885 -6202108.0489516258 0 0 0 0 1634042.1035943627 -1144661.099938917 0 -1144661.099938917 -78809.575711618178 0 0 0 0 3295667.471867457 -1049231.5484146252 0 -1049231.5484146252 42401.605236891075 0 0 0 0 663158.14569854736 -3973713.2196244001 0 -3973713.2196244001 -5750884.9421013594 0 0 0 0 -140821.74243164062 -3524115.4507145882 0 -3524115.4507145882 -5858988.4632959366 0 0 0 0 508124.00846800953 357789.1982476823 0 357789.1982476823 -149903.22059326922 0 0 0 0 -1442952.1505126953 -2823453.3302669525 0 -2823453.3302669525 -24205956.18692565 0 0 0 0 595589.17308516055 267312.64163678512 0 267312.64163678512 -110867.71562471532 0 0 0 0 1461593.3343276978 -14717726.698233724 0 -14717726.698233724 -18464582.961744785 0 0 0 0 10987156.911132812 6608641.061062336 0 6608641.061062336 -4734046.0056085587 0 0 0 0 4470898.5477294922 -6474585.9592359066 0 -6474585.9592359066 -22959885.461344719 0 0 0 0 -15477418.941253662 -8289697.6323034763 0 -8289697.6323034763 -8250671.682754755 0 0 0 0 5275683.3307495117 8279473.5203746557 0 8279473.5203746557 -3105191.1199137345 0 0 0 0 -14328402.234924316 -995663.24308681488 0 -995663.24308681488 -19500530.686803818 0 0 0 0 -1943111.349395752 -9839325.2757217884 0 -9839325.2757217884 -13821524.102895737 0 0 0 0 24892183.620239258 -9513272.2096059322 0 -9513272.2096059322 -9822050.6080946326 0 0 0 0 3856877.498626709 -29381663.38349998 0 -29381663.38349998 -8748808.5169811845 0 0 0 0 -7094769.8859710693 -31512403.508895636 0 -31512403.508895636 -7269034.7327461243 0 0 0 0 -21679442.346939087 -4629959.1101859808 0 -4629959.1101859808 -9536186.2243070602 0 0 0 0 -4367535.3363342285 -5293689.6143323183 0 -5293689.6143323183 9461717.1247954369 0 0 0 0 122893.95904891193 76404.873781707138 0 76404.873781707138 27016.558056812151 0 0 0 0 99638.94057393074 80936.004590509459 0 80936.004590509459 11063.120807674481 0 0 0 0 -4228244.6947631836 -9022980.9112663269 0 -9022980.9112663269 11972747.150546074 0 0 0 0 21570186.112518311 9375069.1612477303 0 9375069.1612477303 -6271067.2110495567 0 0 0 0 17705349.788757324 -10274369.437990427 0 -10274369.437990427 -10230459.511032104 0 0 0 0 14148880.780761719 2450860.1509931087 0 2450860.1509931087 -6961251.9282832146 0 0 0 0 10379692.068809509 -5202500.5615701079 0 -5202500.5615701079 11520256.900579453 0 0 0 0 5578455.3610897958 -2697082.9385807458 0 -2697082.9385807458 -993075.2017711004 0 0 0 0 121540472.6321106 -22350010.946027994 0 -22350010.946027994 -57806394.71343708 0 0 0 0 20106751.895828247 -41994037.123925924 0 -41994037.123925924 77538952.525250316 0 0 0 0 93080778.821659088 -369636045.21986353 0 -369636045.21986353 443598942.867396 0 0 0 0 363798341.15596008 -520818442.47001886 0 -520818442.47001886 517109407.99730539 0 0 0 0 163627295.81305313 -306982663.58132195 0 -306982663.58132195 269830605.03566217 0 0 0 0 9152133.6895599365 -151293932.80726624 0 -151293932.80726624 211277581.15149283 0 0 0 0 87416017.174743652 60266274.664961338 0 60266274.664961338 -26508137.532891273 0 0 0 0 2892899.6441361085 -4365648.0943933651 0 -4365648.0943933651 -854192.31990456849 0 0 0 0 -321727.62278747559 -7335997.8547086716 0 -7335997.8547086716 -1183344.2976510525 0 0 0 0 12270618.273443222 -7073693.9989831001 0 -7073693.9989831001 -8526051.0349097252 0 0 0 0 -20319392.375183105 -10297502.698744297 0 -10297502.698744297 -8817633.9771170616 0 0 0 0 368751.66252523661 243159.19170032069 0 243159.19170032069 -233490.45203620382 0 0 0 0 7535478.0366821289 -1326288.5168523788 0 -1326288.5168523788 -4247438.9112062454 0 0 0 0 6374892.8413493559 -565248.31108607538 0 -565248.31108607538 -1079549.5710891681 0 0 0 0 -125356515.44328308 -56354671.87791121 0 -56354671.87791121 762888515.57367992 0 0 0 0 -248625044.83178711 -243362020.73571539 0 -243362020.73571539 -267596640.5187664 0 0 0 0 178692.89205250889 -468151.93547549285 0 -468151.93547549285 -200939.17573102552 0 0 0 0 -27038166.012435913 -93245332.055868387 0 -93245332.055868387 -102854487.18367529 0 0 0 0 -126435756.90014648 -29422607.224248171 0 -29422607.224248171 106924390.28164387 0 0 0 0 114720463.78912354 18308904.624919891 0 18308904.624919891 19082855.043358564 0 0 0 0 -37215869.001052856 3670290.0554056168 0 3670290.0554056168 61591467.50123024 0 0 0 0 -23142220.923248291 -29592601.091967106 0 -29592601.091967106 -23262420.922124863 0 0 0 0 -35156783.254058838 -18327186.181985617 0 -18327186.181985617 22404012.804481506 0 0 0 0 -28431785.285064697 -2987180.0125925541 0 -2987180.0125925541 11590643.791115046 0 0 0 0 -28507272.781677246 200756.69080162048 0 200756.69080162048 17820133.007314205 0 0 0 0 21345637.080947876 -7597145.247584343 0 -7597145.247584343 -46929096.921863079 0 0 0 0 660.75176510214806 -965730.91776652355 0 -965730.91776652355 -287858.33203267457 0 0 0 0 134707999.94165039 -6621379.3410024643 0 -6621379.3410024643 -9253547.053235054 0 0 0 0 99003072.413883209 90997453.509257197 0 90997453.509257197 16451153.106273651 0 0 0 0 42648.279262408614 -270496.08048996981 0 -270496.08048996981 -84382.738838869001 0 0 0 0 431167562.2532196 51274600.392481089 0 51274600.392481089 -42774036.081186056 0 0 0 0 427987105.21270752 -27639107.901426077 0 -27639107.901426077 27013577.270027161 0 0 0 0 419526132.95069885 -160346015.81286955 0 -160346015.81286955 -936734.95136554539 0 0 0 0 932816425.67725372 -324441313.42197913 0 -324441313.42197913 14498023.462456703 0 0 0 0 704810950.49188232 36659125.692979574 0 36659125.692979574 -71866244.833470821 0 0 0 0 342118798.31442261 133283792.47425199 0 133283792.47425199 -408604.43150424957 0 0 0 0 81896201.323467255 83208831.009068489 0 83208831.009068489 58484766.758096695 0 0 0 0 626733000.52566528 5233052.6926276684 0 5233052.6926276684 -3732575.1205024719 0 0 0 0 594582345.38926697 243230960.89520264 0 243230960.89520264 22643165.27472353 0 0 0 0 -13556968.774360657 246795831.05637854 0 246795831.05637854 126079027.06402779 0 0 0 0 761065921.43963623 249387657.78058124 0 249387657.78058124 46093178.369736552 0 0 0 0 2081298.7274003997 -2365970.8907884331 0 -2365970.8907884331 577603.30907950015 0 0 0 0 106295926.16369629 -385954338.23958635 0 -385954338.23958635 1207372178.39974 0 0 0 0 47918057.592590332 101337293.85532999 0 101337293.85532999 267544784.60133886 0 0 0 0 983230007.51416779 -994444537.17685115 0 -994444537.17685115 1433118400.1336942 0 0 0 0 1514740315.5392151 -159010716.70939827 0 -159010716.70939827 -45819075.829494536 0 0 0 0 1228143368.1640782 131645143.59942356 0 131645143.59942356 552404832.68935275 0 0 0 0 768597324.67053223 -266655751.54443657 0 -266655751.54443657 253561627.57863325 0 0 0 0 361947377.11761475 -756102981.10007858 0 -756102981.10007858 1061494561.4724727 0 0 0 0 1202225837.9684067 -812573397.09484148 0 -812573397.09484148 394816068.88583457 0 0 0 0 259305500.11315918 -271493646.02561748 0 -271493646.02561748 374501917.28369594 0 0 0 0 202734836.72335815 54589137.983763501 0 54589137.983763501 317176589.07708275 0 0 0 0 255478016.04142761 -251907952.0263164 0 -251907952.0263164 874771599.45321739 0 0 0 0 585434338.97961426 58156813.299255967 0 58156813.299255967 454960942.14327896 0 0 0 0 713000974.07896423 -470067658.5793581 0 -470067658.5793581 415672497.22085762 0 0 0 0 88430006.391441345 -173273210.99112183 0 -173273210.99112183 432855230.83734131 0 0 0 0 364987665.34681702 -432529961.47630757 0 -432529961.47630757 365441230.75443554 0 0 0 0 448280411.09923553 -337643470.54313558 0 -337643470.54313558 212816108.23416162 0 0 0 0 541092252.92021179 -492787964.35076916 0 -492787964.35076916 464792762.28620112 0 0 0 0 434467369.83901978 -349287260.00554514 0 -349287260.00554514 213981846.91433567 0 0 0 0 423215232.24635696 -326645096.129673 0 -326645096.129673 168662119.17146039 0 0 0 0 558098481.14868927 -143669097.83362889 0 -143669097.83362889 124209442.51704836 0 0 0 0 1001959375.747735 -403059425.00627929 0 -403059425.00627929 151912317.83607244 0 0 0 0 -310347131.70896912 72508054.834608078 0 72508054.834608078 40651334.834265232 0 0 0 0 202183.45154767763 -202730.81959184632 0 -202730.81959184632 83331.811605890747 0 0 0 0 543959391.65979004 -243454057.10996765 0 -243454057.10996765 -7488664.6315865517 0 0 0 0 294144893.35399628 -10594548.865305662 0 -10594548.865305662 -15598575.222610474 0 0 0 0 194743601.68397522 34081992.188391447 0 34081992.188391447 -20043951.797786862 0 0 0 0 236992291.79033661 35571376.833784819 0 35571376.833784819 -74225675.022111416 0 0 0 0 175023689.86852264 -180921480.76544738 0 -180921480.76544738 9986465.7774168849 0 0 0 0 409175570.40751648 -54638655.550394058 0 -54638655.550394058 -88698347.86975503 0 0 0 0 238626989.91320801 2441647.3782145977 0 2441647.3782145977 -107559694.89096069 0 0 0 0 200568423.18653107 -177602998.99095654 0 -177602998.99095654 99598607.677327633 0 0 0 0 307012208.72741699 -190607385.10084867 0 -190607385.10084867 28138458.79324913 0 0 0 0 102995358.25508118 101258846.14684916 0 101258846.14684916 261756401.59919691 0 0 0 0 -274866768.99380493 64455885.879324675 0 64455885.879324675 82508287.888800412 0 0 0 0 372081.56011383701 -967375.81215854734 0 -967375.81215854734 178141.13061650703 0 0 0 0 837790070.86447525 -204541665.24182278 0 -204541665.24182278 111546183.6301651 0 0 0 0 12017035.392940521 -105186333.54913658 0 -105186333.54913658 -3780940.0232810974 0 0 0 0 -17030906.009353638 -24576346.941225529 0 -24576346.941225529 -47053176.384957552 0 0 0 0 4353313.5792617798 -99957013.356451571 0 -99957013.356451571 -20812805.260453224 0 0 0 0 462406.0482275784 -1955705.5498004816 0 -1955705.5498004816 134652.97967127897 0 0 0 0 -207769314.13024712 -50818747.964437008 0 -50818747.964437008 36805766.13053894 0 0 0 0 976905216.26330948 -11588568.682091832 0 -11588568.682091832 -105883989.17754316 0 0 0 0 -37443977.600204468 -142259778.07658768 0 -142259778.07658768 42667086.859456599 0 0 0 0 53302936.950904846 -79463712.395261049 0 -79463712.395261049 -39599774.460633755 0 0 0 0 58119722.957748413 -94685839.306840181 0 -94685839.306840181 8003695.324640274 0 0 0 0 115360865.78627777 32837400.052013516 0 32837400.052013516 -44770492.686796188 0 0 0 0 411916598.49324417 75439247.949214995 0 75439247.949214995 -41419281.304218292 0 0 0 0 212088024.01197052 -74741537.874226213 0 -74741537.874226213 -82744903.546948433 0 0 0 0 72242613.49697876 -32168403.352361441 0 -32168403.352361441 -89270352.428113461 0 0 0 0 92551198.295715332 -86730663.854033232 0 -86730663.854033232 -62858706.761031628 0 0 0 0 40496811.124465942 -59231515.095621228 0 -59231515.095621228 -72774122.259392262 0 0 0 0 288084.83297736943 293941.24642515695 0 293941.24642515695 -48861.307157879754 0 0 0 0 20173888.5806427 35288495.522332907 0 35288495.522332907 -78305754.432318211 0 0 0 0 77216144.394630432 28465792.01492691 0 28465792.01492691 -88367181.796554565 0 0 0 0 -14430872.404541016 -15523113.191380501 0 -15523113.191380501 -66943539.759116173 0 0 0 0 39805522.929504395 -17301471.969054699 0 -17301471.969054699 -71413255.97246027 0 0 0 0 20548358.074562073 29778249.435920715 0 29778249.435920715 -84407294.565154076 0 0 0 0 807876.01764409244 576186.25296285283 0 576186.25296285283 -49302.069481898128 0 0 0 0 -17470548.200836182 61389957.135134518 0 61389957.135134518 -30341444.717884541 0 0 0 0 1442605.1932064742 -110062.93011466041 0 -110062.93011466041 -940252.22470461437 0 0 0 0 2980228.2913208008 -8170194.5417079926 0 -8170194.5417079926 -11707523.855228901 0 0 0 0 10697012.61680603 19050624.364400864 0 19050624.364400864 68667809.282681704 0 0 0 0 30007995.419570923 35707329.011544704 0 35707329.011544704 -20816543.869998991 0 0 0 0 21287558.700141907 -49168469.210041761 0 -49168469.210041761 -2196280.2478928566 0 0 0 0 46014793.259876251 -37965482.242912471 0 -37965482.242912471 -11607007.335864067 0 0 0 0 8416526.9470977783 -9466514.0264374018 0 -9466514.0264374018 -14508774.70659411 0 0 0 0 78210378.601959229 27926035.067232609 0 27926035.067232609 4758093.8551776409 0 0 0 0 43862418.569000244 -60830082.867327213 0 -60830082.867327213 -75644908.320928812 0 0 0 0 52982373.920593262 -34425318.718543053 0 -34425318.718543053 -45951067.322086811 0 0 0 0 672734.27600042522 -2820841.8568826802 0 -2820841.8568826802 422953.97619192768 0 0 0 0 -73509065.596687317 -5392271.3617835045 0 -5392271.3617835045 50448383.723214388 0 0 0 0 1149449458.5587349 -174344142.28847128 0 -174344142.28847128 -259319096.87054062 0 0 0 0 1317966.2621456496 -2982916.0360616185 0 -2982916.0360616185 711673.72522434487 0 0 0 0 538898864.70422363 -356260379.90203369 0 -356260379.90203369 718645711.76071024 0 0 0 0 -18474427.688430786 -23103165.099128723 0 -23103165.099128723 -8539372.9871411324 0 0 0 0 6592296.1745238379 -243731.25282002147 0 -243731.25282002147 -810913.08180578821 0 0 0 0 23703553.061050415 -11286722.479704559 0 -11286722.479704559 -30700976.629487038 0 0 0 0 14088442.812011719 197558.99008974433 0 197558.99008974433 -26300045.464976728 0 0 0 0 350056.92999267578 3698277.8610659167 0 3698277.8610659167 -4880735.0531694144 0 0 0 0 -15238274.261779785 23344242.729859792 0 23344242.729859792 -25357171.416064352 0 0 0 0 1137647.517206125 -651285.63794254512 0 -651285.63794254512 -150173.74340977208 0 0 0 0 19050349.42701149 25768012.229272306 0 25768012.229272306 -60565452.451272011 0 0 0 0 26374580.977380753 -4869198.9799232706 0 -4869198.9799232706 -24226208.522789434 0 0 0 0 20479313.281417847 -15750955.906019621 0 -15750955.906019621 -34551099.921745718 0 0 0 0 20024176.018280029 -34028565.142223999 0 -34028565.142223999 -6513.4280016993835 0 0 0 0 68360120.66468811 -8763285.459254941 0 -8763285.459254941 -57683484.353360713 0 0 0 0 48847611.766159058 -39165168.365535922 0 -39165168.365535922 -18517589.262901891 0 0 0 0 -23553203.312683105 -16017361.969416317 0 -16017361.969416317 -23713.71212322278 0 0 0 0 -18770422.645870209 -18463606.379497048 0 -18463606.379497048 485011.00535273552 0 0 0 0 -11086106.823280334 -4121112.7455362082 0 -4121112.7455362082 5958917.0909428447 0 0 0 0 5167230.4331207275 -21990275.886128768 0 -21990275.886128768 -9569219.3105450571 0 0 0 0 1335850.2715606689 -25542776.451522298 0 -25542776.451522298 -4135723.2139718831 0 0 0 0 20418392.267734706 -23716292.212164827 0 -23716292.212164827 -10561266.081700809 0 0 0 0 6774783.1041717529 -14036518.354934096 0 -14036518.354934096 -17184319.148125708 0 0 0 0 5528273.2906494141 -11377494.797459427 0 -11377494.797459427 -4148577.5902291834 0 0 0 0 -826219.11022949219 -12820865.282841451 0 -12820865.282841451 973648.62151245493 0 0 0 0 -5404961.1058502197 -4879722.4515952412 0 -4879722.4515952412 1238742.3186724633 0 0 0 0 2518719.2116775513 -3854131.5703828782 0 -3854131.5703828782 -671782.39726090431 0 0 0 0 5756503.3293685913 -1228622.6873137057 0 -1228622.6873137057 -1516887.7884865254 0 0 0 0 4190053.0815811157 -6079284.3657972142 0 -6079284.3657972142 -7001224.6708106846 0 0 0 0 7019549.1295318604 -3065025.0730836764 0 -3065025.0730836764 -3892506.4832829982 0 0 0 0 11041772.866271973 -5688210.6943445001 0 -5688210.6943445001 -10391763.377694994 0 0 0 0 5642328.872126013 188495.16422577575 0 188495.16422577575 -313472.49946796667 0 0 0 0 -6313854.3921966553 18434513.801405549 0 18434513.801405549 -22061656.124112844 0 0 0 0 4725433.3390960693 -2765971.0572371483 0 -2765971.0572371483 -3583481.4812503606 0 0 0 0 3206668.0071559101 -795231.86779797077 0 -795231.86779797077 -96087.899673008127 0 0 0 0 1751062.7514801025 86649.582035720348 0 86649.582035720348 -1101792.5307078958 0 0 0 0 3055108.865456827 -269055.38311246037 0 -269055.38311246037 -270668.31303473422 0 0 0 0 7089342.1832580566 -134758.47441148758 0 -134758.47441148758 -7003328.1581659317 0 0 0 0 1857465.4394226074 -154529.67043057084 0 -154529.67043057084 -761590.79925382137 0 0 0 0 1573680.8327255249 -71591.149191260338 0 -71591.149191260338 1623.7492798566818 0 0 0 0 1869822.9431686401 -475842.55202464759 0 -475842.55202464759 175905.06747508049 0 0 0 0 1758632.3391189575 -90482.111511215568 0 -90482.111511215568 -135660.92680001259 0 0 0 0 2348801.9157104492 -3519730.3794249594 0 -3519730.3794249594 1324738.2773646824 0 0 0 0 2981488.3535423279 -1902091.2908459166 0 -1902091.2908459166 423724.73948074877 0 0 0 0 2066216.2995910645 -3657617.5062033907 0 -3657617.5062033907 -278408.75176878273 0 0 0 0 1600569.8007354736 -1170892.3059505485 0 -1170892.3059505485 2455151.7022902295 0 0 0 0 2065088.7611823082 -595352.28242425621 0 -595352.28242425621 548495.62799740827 0 0 0 0 1892977.264175415 -380945.65923561156 0 -380945.65923561156 327740.05876898766 0 0 0 0 1882807.6336975098 -441367.87102973461 0 -441367.87102973461 6416.2616220116615 0 0 0 0 1729954.0292381793 -779587.50134366937 0 -779587.50134366937 727413.00888082385 0 0 0 0 537661.1849129796 -606515.67842343822 0 -606515.67842343822 75854.017068907298 0 0 0 0 2075523.5196294859 -419558.5935854204 0 -419558.5935854204 -211586.03096796159 0 0 0 0 1818437.5001583099 -212828.90301074571 0 -212828.90301074571 175.5289422007445 0 0 0 0 2072930.0114746094 -262277.17963355663 0 -262277.17963355663 -5435.5633701998286 0 0 0 0 2151855.4576568604 -656083.04449945269 0 -656083.04449945269 272081.2303997291 0 0 0 0 130537.70743402839 -166673.71669958532 0 -166673.71669958532 54584.916417391956 0 0 0 0 195729.90548706055 -4252682.4973720908 0 -4252682.4973720908 -7616241.9407027308 0 0 0 0 7017615.0590744019 -2615941.5114872321 0 -2615941.5114872321 -687.51354317605092 0 0 0 0 6201677.537902832 -2217740.7134778393 0 -2217740.7134778393 100300.34121883241 0 0 0 0 2086057.5274505615 -699880.30267351866 0 -699880.30267351866 -377490.82937932014 0 0 0 0 7816043.6349487305 -2149524.1390944254 0 -2149524.1390944254 -447228.49013654049 0 0 0 0 10728965.411376953 -1193578.808784612 0 -1193578.808784612 -1342919.2823811697 0 0 0 0 2800094.7873233161 -346089.72494660318 0 -346089.72494660318 -505217.44516249909 0 0 0 0 4209221.7797744311 -792914.03697526455 0 -792914.03697526455 25519.001137326759 0 0 0 0 6603160.8820343018 -1652945.6875683125 0 -1652945.6875683125 -128084.57449419051 0 0 0 0 4158783.9895347878 -563703.66692013107 0 -563703.66692013107 592824.67674905388 0 0 0 0 5996119.5938110352 -2831543.0964547852 0 -2831543.0964547852 1105436.7607695474 0 0 0 0 6286904.814491272 -2451955.8211612091 0 -2451955.8211612091 -36639.364733624272 0 0 0 0 4053214.4829824045 -1228958.9463766497 0 -1228958.9463766497 771563.34496325825 0 0 0 0 2406730.0942592621 -77854.2611233145 0 -77854.2611233145 -130823.21433162689 0 0 0 0 2291615.7584686279 -381320.05849605799 0 -381320.05849605799 -25595.61254119873 0 0 0 0 1502982.7623535004 -1158652.4598309882 0 -1158652.4598309882 26908.888324263622 0 0 0 0 8073350.914352417 712743.05788719654 0 712743.05788719654 -640372.23329162598 0 0 0 0 2001712.2933807373 1387509.4770763963 0 1387509.4770763963 1810428.6359426975 0 0 0 0 1842769.0073242188 92292.365039229393 0 92292.365039229393 -104605.7865716815 0 0 0 0 16001980.168579102 -1242994.3853850365 0 -1242994.3853850365 -6079649.6533017159 0 0 0 0 886518.54947273294 -1056947.1436702721 0 -1056947.1436702721 573074.26835121855 0 0 0 0 10392611.513427734 -3281325.1422665119 0 -3281325.1422665119 1506176.4678903222 0 0 0 0 13688586.124694824 95377.569865226746 0 95377.569865226746 -6332954.0594992638 0 0 0 0 16691330.28729248 -6368536.8928346634 0 -6368536.8928346634 7439288.6854934692 0 0 0 0 -2326067.6768341064 -1839897.5082749426 0 -1839897.5082749426 886848.32396197319 0 0 0 0 3574224.5955316424 -1681298.0783647783 0 -1681298.0783647783 934054.75599740655 0 0 0 0 1301689.1920623779 5180634.7188522816 0 5180634.7188522816 -4235508.7383508682 0 0 0 0 38112524.707672119 -5810013.0269184113 0 -5810013.0269184113 177069604.56243181 0 0 0 0 -87438691.460156441 38970685.334166199 0 38970685.334166199 161724779.38921642 0 0 0 0 -81113388.978740692 -7582416.1830375195 0 -7582416.1830375195 1693308.1111221313 0 0 0 0 -87952889.059051514 -26336078.060174227 0 -26336078.060174227 196607183.84785557 0 0 0 0 -17004435.511550903 61456257.833456993 0 61456257.833456993 123645532.81592751 0 0 0 0 -138838382.3633728 -3157158.0334341526 0 -3157158.0334341526 89391547.571389675 0 0 0 0 -279795873.56137085 436484083.67927647 0 436484083.67927647 317481990.47153521 0 0 0 0 -78188628.125701904 31179712.909461737 0 31179712.909461737 -490545360.53425407 0 0 0 0 -439678883.44042969 -32978001.4147048 0 -32978001.4147048 226868300.96437263 0 0 0 0 133734920.23287964 68654747.293149471 0 68654747.293149471 210131541.34841532 0 0 0 0 266569.20007804036 224566.68567895144 0 224566.68567895144 -9093.6102068193723 0 0 0 0 81910762.318964958 510413612.27838826 0 510413612.27838826 270691020.68280983 0 0 0 0 -158036144.87661743 22958095.68416059 0 22958095.68416059 499582539.4816494 0 0 0 0 -20510.02867808193 -196167.32573596248 0 -196167.32573596248 192409.1359234667 0 0 0 0 -3792005.6977844238 -15612533.058393478 0 -15612533.058393478 17214961.905769348 0 0 0 0 2085493.8183688968 -747823.63341425359 0 -747823.63341425359 920300.98637553724 0 0 0 0 113984.50592667353 -152984.47374659032 0 -152984.47374659032 15485.095033656107 0 0 0 0 -7548159.1480712891 22228081.525381088 0 22228081.525381088 76402938.827014923 0 0 0 0 26304628.239770889 11753900.845372051 0 11753900.845372051 9090189.906085968 0 0 0 0 41398.085811980069 -107204.95433410257 0 -107204.95433410257 9539.3257544552325 0 0 0 0 1299221.4266287684 443678.31471763039 0 443678.31471763039 124467.89694685317 0 0 0 0 2140895.3906506151 358070.44930129498 0 358070.44930129498 -298120.61375096749 0 0 0 0 2794071.7001953125 740316.39827251434 0 740316.39827251434 -2826392.1247653961 0 0 0 0 11393793.781715393 22198680.854117095 0 22198680.854117095 -8131127.1378951073 0 0 0 0 3318785.1097564697 6454543.9925270081 0 6454543.9925270081 1680183.6049692631 0 0 0 0 10140738.271881104 -4777617.1608524323 0 -4777617.1608524323 -3328037.96946311 0 0 0 0 -13281279.718765259 18651266.039965391 0 18651266.039965391 32158394.12515974 0 0 0 0 44434568.158920288 61867199.129470944 0 61867199.129470944 -65329963.995205879 0 0 0 0 -33563260.415618896 48315217.94694519 0 48315217.94694519 -67186746.110273361 0 0 0 0 3224508.4540252686 -1190716.1555604935 0 -1190716.1555604935 2997330.8840087056 0 0 0 0 -19792278.586833954 -12311473.314537376 0 -12311473.314537376 722519.18290472031 0 0 0 0 -68141773.655792236 27234722.175364017 0 27234722.175364017 -9317389.793897748 0 0 0 0 79365.27342094481 168439.16917193681 0 168439.16917193681 -168091.95608331682 0 0 0 0 216258488.12918091 -62621440.06069088 0 -62621440.06069088 -312355807.16178918 0 0 0 0 288916892.23050117 181736960.28850555 0 181736960.28850555 -77784485.009730339 0 0 0 0 -46236316.514144897 110949569.12802982 0 110949569.12802982 -91832095.752458572 0 0 0 0 144635215.9677124 60610504.541561604 0 60610504.541561604 -108045679.32328367 0 0 0 0 28353907.541511536 32458814.229403734 0 32458814.229403734 32105839.914232254 0 0 0 0 31264549.994430542 98618571.708046675 0 98618571.708046675 42610785.31196022 0 0 0 0 38134786.401168823 105489443.77960014 0 105489443.77960014 -89994161.994930267 0 0 0 0 33989168.658693314 37336123.962577701 0 37336123.962577701 13854949.753276825 0 0 0 0 24974559.769496918 3833802.2556470633 0 3833802.2556470633 -3849946.9696807861 0 0 0 0 2981798.266808223 -1439080.9631493874 0 -1439080.9631493874 -3503484.1412718864 0 0 0 0 -11407450.3203125 162259537.72093493 0 162259537.72093493 -146337985.24106461 0 0 0 0 -126075069.68215179 148607420.22102058 0 148607420.22102058 -131176735.03745592 0 0 0 0 47241834.837043762 165369953.67850375 0 165369953.67850375 -253417402.97558689 0 0 0 0 -283707402.98121643 128626490.24909782 0 128626490.24909782 -63501471.404782057 0 0 0 0 40171136.274414062 -25644901.415400386 0 -25644901.415400386 -23588985.970000744 0 0 0 0 903030.55930077285 -344085.34348637983 0 -344085.34348637983 -1205444.0422919777 0 0 0 0 -432583495.7128067 405666775.45335555 0 405666775.45335555 -174463535.37629032 0 0 0 0 699814357.55047607 111370399.77505589 0 111370399.77505589 -50391155.29147172 0 0 0 0 29309606.948477745 39841317.034804329 0 39841317.034804329 34983219.086858034 0 0 0 0 206999846.47615051 194148685.71112525 0 194148685.71112525 -142961114.16386524 0 0 0 0 -16946121.26275444 105965103.38865839 0 105965103.38865839 -146575094.72586095 0 0 0 0 188635686.43965149 -24763126.424765885 0 -24763126.424765885 -65577412.483989686 0 0 0 0 460970666.79415894 -40438422.960769653 0 -40438422.960769653 -224096722.74672854 0 0 0 0 18461836.705848694 -435994270.37835103 0 -435994270.37835103 -24311182.058306217 0 0 0 0 3450995374.0840549 -1045016392.8485242 0 -1045016392.8485242 -183632963.02838713 0 0 0 0 -386825266.54336548 -190489573.68710959 0 -190489573.68710959 19574362.819562316 0 0 0 0 1740500.4150199611 -134797.04336962849 0 -134797.04336962849 468785.06571706862 0 0 0 0 1907760630.5395408 -667628769.32747567 0 -667628769.32747567 -228634062.14323568 0 0 0 0 2646988135.4166641 -1172176862.6315889 0 -1172176862.6315889 78952899.426422536 0 0 0 0 1876030638.9618378 -216043143.54311347 0 -216043143.54311347 -174134695.54054356 0 0 0 0 908696320.43238831 -600660267.71976972 0 -600660267.71976972 -5443562.991828084 0 0 0 0 1942682561.4827881 -367663007.72234726 0 -367663007.72234726 -173835315.55353275 0 0 0 0 2033737913.8317108 -212949756.8887856 0 -212949756.8887856 -178879365.98891783 0 0 0 0 2690399532.3190689 -511604206.43936169 0 -511604206.43936169 -332631131.00054455 0 0 0 0 2190624652.7983246 -330490005.85509205 0 -330490005.85509205 425476354.1897707 0 0 0 0 2940714031.3602295 -103414920.67133933 0 -103414920.67133933 -203735514.36158466 0 0 0 0 2831741915.2236328 -484551284.42022753 0 -484551284.42022753 21463486.5580616 0 0 0 0 967518436.70671082 77024798.897905111 0 77024798.897905111 219998930.96805096 0 0 0 0 2066813279.186203 53097868.521369934 0 53097868.521369934 -96284175.433893681 0 0 0 0 289599783.91699219 145452685.46780229 0 145452685.46780229 298984879.07359076 0 0 0 0 947191795.64917564 -13631803.126147568 0 -13631803.126147568 74937217.320518494 0 0 0 0 290861171.47589111 -4013963.297672987 0 -4013963.297672987 240889370.90578103 0 0 0 0 309243084.75491333 85615528.78804183 0 85615528.78804183 -11294364.621190548 0 0 0 0 -8096638.5063018799 19602469.577009678 0 19602469.577009678 269151176.12492466 0 0 0 0 94366378.425491333 -88155718.998268127 0 -88155718.998268127 227799313.49518621 0 0 0 0 52953868.693984985 -136536452.14234829 0 -136536452.14234829 -13377526.229906321 0 0 0 0 83291736.70349884 79495761.953826427 0 79495761.953826427 -65314735.729412079 0 0 0 0 390390974.47132874 -242069839.72368765 0 -242069839.72368765 256257745.46171105 0 0 0 0 1323575226.9083023 418050301.12878489 0 418050301.12878489 -342486938.63445711 0 0 0 0 554501519.55449104 -191598537.06941846 0 -191598537.06941846 417267902.55421162 0 0 0 0 530819427.69129944 21308795.568288445 0 21308795.568288445 4493706.9046623707 0 0 0 0 5760319.5389446542 -2887905.5646731555 0 -2887905.5646731555 1522915.753021593 0 0 0 0 544871.22087305039 -1472860.0079027452 0 -1472860.0079027452 -98189.786508940393 0 0 0 0 6023264.8929862976 -2590965.1907171337 0 -2590965.1907171337 -54976.451809950173 0 0 0 0 4177507.1301689148 -2752849.0016092439 0 -2752849.0016092439 -5390.7641154117146 0 0 0 0 4458623.7789764404 -1959066.7180044034 0 -1959066.7180044034 133550.98596111385 0 0 0 0 5890741.9636116028 -2683189.2307950566 0 -2683189.2307950566 1302.3840365523201 0 0 0 0 3300407589.6318817 -827194490.07016969 0 -827194490.07016969 -273372042.57199574 0 0 0 0 2653867536.2240753 -875326589.25719249 0 -875326589.25719249 1625515.9403315317 0 0 0 0 3770421818.4538665 -398234223.39523137 0 -398234223.39523137 -326578900.67711735 0 0 0 0 3779357523.3690948 623905613.71765995 0 623905613.71765995 -145935283.77991199 0 0 0 0 4887999.903000854 -830624.38452541828 0 -830624.38452541828 -742863.20192517003 0 0 0 0 2218916267.7058105 609483602.82584858 0 609483602.82584858 -118140997.38828826 0 0 0 0 3224683586.4128418 -464984106.6509347 0 -464984106.6509347 -246559621.18610811 0 0 0 0 2699604115.1699066 13001785.395558357 0 13001785.395558357 -34347952.400731087 0 0 0 0 3250524028.4082165 -80146212.248213544 0 -80146212.248213544 -50735483.057859421 0 0 0 0 3326877773.0076294 -717629898.89757013 0 -717629898.89757013 -146800937.66626263 0 0 0 0 4145876216.8669891 -218514244.6702317 0 -218514244.6702317 -440927838.66301727 0 0 0 0 2476605105.27005 -461681261.63489676 0 -461681261.63489676 35436956.214223862 0 0 0 0 2001980487.8376617 -487375880.60813379 0 -487375880.60813379 378927169.98265743 0 0 0 0 2550859697.2514038 -114224194.69715357 0 -114224194.69715357 -90620013.181474388 0 0 0 0 3613754199.5413971 -947192954.99178553 0 -947192954.99178553 480403937.35957813 0 0 0 0 3030454314.7253418 -118762922.16277552 0 -118762922.16277552 232557718.63559723 0 0 0 0 7649890365.7103577 -313305369.91483021 0 -313305369.91483021 176174539.48043251 0 0 0 0 3252611312.4240112 -661749821.15486145 0 -661749821.15486145 1473626556.0301895 0 0 0 0 2003425752.6187134 -1160336719.381665 0 -1160336719.381665 680257379.12322998 0 0 0 0 457166819.3416748 -2901692463.4358749 0 -2901692463.4358749 1234915769.4008517 0 0 0 0 1980488898.7077026 -981999262.01649761 0 -981999262.01649761 -390814150.10032654 0 0 0 0 1979954.3597801477 -351730.92899112776 0 -351730.92899112776 -351376.65600504447 0 0 0 0 -1122004396.2608185 1600344674.5713906 0 1600344674.5713906 -1701833185.5725632 0 0 0 0 75559893.707580566 -2894064404.8189621 0 -2894064404.8189621 1235059648.2342513 0 0 0 0 3570037954.244669 5560145.6853476167 0 5560145.6853476167 237266244.25477982 0 0 0 0 -58394223.806289673 319197829.630126 0 319197829.630126 -837461358.18817353 0 0 0 0 6903461.509321034 -6056142.6510297917 0 -6056142.6510297917 2543270.1142967585 0 0 0 0 -587317132.93415833 869099280.21068716 0 869099280.21068716 -654340963.62012982 0 0 0 0 503464895.47576904 -286049209.2049408 0 -286049209.2049408 -231377442.22591209 0 0 0 0 18409062.622642517 -7235512.4607852772 0 -7235512.4607852772 -8485093.4453993589 0 0 0 0 3180951.6358664185 747761.17900501192 0 747761.17900501192 -3298400.9322735579 0 0 0 0 1378147.1156012267 -1000418.4454750754 0 -1000418.4454750754 -183150.67089152895 0 0 0 0 3435402150.6780472 -342516003.87058449 0 -342516003.87058449 -399548868.22011757 0 0 0 0 2372022298.087532 22438582.915519785 0 22438582.915519785 227238124.17587402 0 0 0 0 2418502751.4544525 12390122.98937726 0 12390122.98937726 195648980.74864769 0 0 0 0 43042095.97492218 -3905173.7635243745 0 -3905173.7635243745 -7774402.3826743839 0 0 0 0 5615179.1014862061 -6330654.8748531248 0 -6330654.8748531248 3526827.8476710171 0 0 0 0 13725611.797429085 -18705174.236601736 0 -18705174.236601736 36895.743036120584 0 0 0 0 2714583.8361807996 -1827615.2462085299 0 -1827615.2462085299 -382139.37751495809 0 0 0 0 3522421861.115036 -954965699.43382168 0 -954965699.43382168 -4784879.1467743441 0 0 0 0 2961945.7800309369 170526.01748434454 0 170526.01748434454 -1187352.9239418793 0 0 0 0 1769372429.5463562 -539521474.65233409 0 -539521474.65233409 260667770.3331227 0 0 0 0 835569815.53272247 -779035586.87934315 0 -779035586.87934315 1008189644.1985129 0 0 0 0 3454009620.6210175 -978705203.91231978 0 -978705203.91231978 59474150.79494144 0 0 0 0 6592173.7691132873 -954941.44305406511 0 -954941.44305406511 -507940.67944994709 0 0 0 0 2166000222.8871155 20904056.259621028 0 20904056.259621028 -1385766.4996035348 0 0 0 0 -13648165.559242249 -12171383.871842233 0 -12171383.871842233 8213511.0523673967 0 0 0 0 12627411.493066788 -8929648.077718161 0 -8929648.077718161 -1298537.2369151562 0 0 0 0 6671.0511474609375 -18296680.49360181 0 -18296680.49360181 -29771.100862548756 0 0 0 0 6242617.8958730698 -12110096.630421592 0 -12110096.630421592 -8595608.5602588952 0 0 0 0 -6220388.555557251 -4846873.9049682133 0 -4846873.9049682133 4383971.4628820494 0 0 0 0 3460706177.5792084 1244713609.8949506 0 1244713609.8949506 392068530.28590119 0 0 0 0 1433027795.5590057 -1330486001.3985178 0 -1330486001.3985178 666036090.02948689 0 0 0 0 4085848.1989545077 -146857.68666960672 0 -146857.68666960672 -1933526.0269698086 0 0 0 0 2317516248.514946 656384630.15353727 0 656384630.15353727 126732110.73348644 0 0 0 0 9967239.4819690809 -6046223.1510122512 0 -6046223.1510122512 1061100.8095712876 0 0 0 0 5489982.305305453 1476407.2050624266 0 1476407.2050624266 -5525652.4638239946 0 0 0 0 50699058.674842834 -22560669.547242641 0 -22560669.547242641 -4470489.8133640289 0 0 0 0 -623172059.4785614 396279845.43862748 0 396279845.43862748 -91474022.118202388 0 0 0 0 -116017228.97106647 -174377464.82397601 0 -174377464.82397601 -142670080.22012711 0 0 0 0 3464576258.6359406 281515489.45664269 0 281515489.45664269 -253099765.0910705 0 0 0 0 2511362560.4927597 -200354744.92484295 0 -200354744.92484295 -355558256.04372764 0 0 0 0 2910911871.3506927 -35609960.723458529 0 -35609960.723458529 -481423007.29445213 0 0 0 0 2664981128.3834381 -17627282.898475677 0 -17627282.898475677 -364357540.10239744 0 0 0 0 3465676883.2460961 -505181112.12069947 0 -505181112.12069947 -817965727.7323153 0 0 0 0 2267567508.7354584 -302507957.12103128 0 -302507957.12103128 -239701873.71383697 0 0 0 0 2763343550.4170494 -373952082.78867334 0 -373952082.78867334 -588975857.52063608 0 0 0 0 767375889.20196533 1201869945.7025061 0 1201869945.7025061 -1591028945.5882597 0 0 0 0 902412089.84294128 63092020.104243279 0 63092020.104243279 -732397008.36160386 0 0 0 0 4973783.3762850463 1717939.2086060829 0 1717939.2086060829 -2161512.6283404422 0 0 0 0 -61613462.480560303 217786145.18386793 0 217786145.18386793 -1434409697.5405397 0 0 0 0 628743704.80636597 -666882109.77654016 0 -666882109.77654016 -698877780.84961557 0 0 0 0 1662535.9650902981 1293686.3143848218 0 1293686.3143848218 -2007377.6614520997 0 0 0 0 -629910892.43475151 536795896.06803691 0 536795896.06803691 -364786367.17041206 0 0 0 0 2638141.9804519564 755387.75885589421 0 755387.75885589421 -1456906.6220329553 0 0 0 0 2032675776.7078743 -1095569548.1122365 0 -1095569548.1122365 430107136.19971371 0 0 0 0 1608836926.1373749 -1140700887.6149225 0 -1140700887.6149225 434908981.01104069 0 0 0 0 4768015101.6005974 -2164903450.2043447 0 -2164903450.2043447 254348498.44968796 0 0 0 0 4277095291.0296326 81996408.066191673 0 81996408.066191673 236232409.68581676 0 0 0 0 2534138113.4743042 -1028647246.5804739 0 -1028647246.5804739 88211700.915044159 0 0 0 0 2484283588.550705 -1066602539.1014824 0 -1066602539.1014824 88114045.106948152 0 0 0 0 3118713654.9173431 -515924932.38465405 0 -515924932.38465405 -416099537.64920473 0 0 0 0 2495203792.6446304 -593891425.56752896 0 -593891425.56752896 -492141504.89384842 0 0 0 0 2605216463.7846985 -698869903.27648902 0 -698869903.27648902 -481249646.60091543 0 0 0 0 743938052.40402222 -379619404.41668415 0 -379619404.41668415 77649597.059386253 0 0 0 0 2265281341.2944946 -648082642.10176611 0 -648082642.10176611 -325147445.59948349 0 0 0 0 2078716463.8725281 -854375957.06217194 0 -854375957.06217194 -308363550.0794971 0 0 0 0 1934842877.7764893 -363865562.13973391 0 -363865562.13973391 -727928213.75786018 0 0 0 0 1425075298.432724 -598637750.36102593 0 -598637750.36102593 -380049861.97723061 0 0 0 0 2218502081.8919621 -411283131.86495274 0 -411283131.86495274 -428730036.47953725 0 0 0 0 2364308521.0289612 -894725542.53701544 0 -894725542.53701544 -420920173.40875643 0 0 0 0 2872583422.9869881 -678443297.77331614 0 -678443297.77331614 -381836193.70516419 0 0 0 0 2277356426.5421448 -560044115.13199711 0 -560044115.13199711 46061680.698381051 0 0 0 0 2223100888.7532043 -732485510.98468924 0 -732485510.98468924 -238058609.10902244 0 0 0 0 1596507645.1253357 109996096.20845306 0 109996096.20845306 194149894.85336179 0 0 0 0 1396652551.1325378 -135027625.60577276 0 -135027625.60577276 -105441505.17339408 0 0 0 0 3457349794.522728 879189398.63124442 0 879189398.63124442 -253867069.87896466 0 0 0 0 1538049479.5656738 1565914909.0482564 0 1565914909.0482564 -370809076.27119088 0 0 0 0 3819057.8565452248 979095.46128295735 0 979095.46128295735 -1892068.4128702669 0 0 0 0 -433222153.09208679 1628180737.3222258 0 1628180737.3222258 -158670214.31915599 0 0 0 0 3460430518.270546 -1000569889.4987205 0 -1000569889.4987205 61444714.08887592 0 0 0 0 -449838274.83676147 -324188841.80433965 0 -324188841.80433965 -121963329.64943206 0 0 0 0 1519588566.9603271 -377982236.15343332 0 -377982236.15343332 -842685500.19368172 0 0 0 0 552986448.93203735 238548373.17643639 0 238548373.17643639 -178404741.04537988 0 0 0 0 2580023.6400533691 -536940.90655317158 0 -536940.90655317158 453794.81181107648 0 0 0 0 11682008.683229446 -57342.811780691147 0 -57342.811780691147 26260607.153988838 0 0 0 0 15307961.019744873 1332629.2425532341 0 1332629.2425532341 4749339.9893436432 0 0 0 0 1468704.5846862793 -9105635.6220498085 0 -9105635.6220498085 1206571.9015550613 0 0 0 0 -862718.05400848389 5438700.3443011623 0 5438700.3443011623 15684347.058939457 0 0 0 0 13708518.270324707 3141529.9665184021 0 3141529.9665184021 -13631715.822148204 0 0 0 0 -30814735.089141846 -6932972.4496459961 0 -6932972.4496459961 16965947.455119133 0 0 0 0 -6740552.4420547485 -19409606.772264004 0 -19409606.772264004 -11530626.296318769 0 0 0 0 13131544.12991333 2427085.0418024063 0 2427085.0418024063 4871534.7530403137 0 0 0 0 7800275.4601135254 6490144.1891074181 0 6490144.1891074181 2203320.6881906986 0 0 0 0 9307969.0005493164 2092873.2060070038 0 2092873.2060070038 7764499.6511216164 0 0 0 0 780602.1688047871 1045991.3121156283 0 1045991.3121156283 -189882.07587660779 0 0 0 0 31610028.938842773 29211191.267659113 0 29211191.267659113 6473636.3522758484 0 0 0 0 26576082.888885498 10056025.384216219 0 10056025.384216219 -15639709.169326782 0 0 0 0 -95186474.280036926 32116418.387427449 0 32116418.387427449 32349093.505385518 0 0 0 0 150009.47835199535 332342.29721525311 0 332342.29721525311 -75005.842615296366 0 0 0 0 2658964.1578369141 376987.06228518486 0 376987.06228518486 5458464.8464899063 0 0 0 0 12856467.244125366 -3908508.8578708172 0 -3908508.8578708172 8469123.8201293945 0 0 0 0 8584224.6835632324 -446712.10263681412 0 -446712.10263681412 7884208.8691654205 0 0 0 0 9735906.8469238281 -1078728.8947486877 0 -1078728.8947486877 8219398.3964776993 0 0 0 0 7073055.9703063965 958157.83127832413 0 958157.83127832413 9231434.3205270767 0 0 0 0 2658681.8186340332 2222159.8147764206 0 2222159.8147764206 9579995.2495994568 0 0 0 0 4461874.6114044189 -2017482.4627916813 0 -2017482.4627916813 10853872.603797913 0 0 0 0 7040796.8255004883 -3164621.7044277191 0 -3164621.7044277191 9972966.7661113739 0 0 0 0 7470296.973739624 11857030.813542724 0 11857030.813542724 -19577264.001612902 0 0 0 0 7072621.7800292969 9000939.9060877562 0 9000939.9060877562 50896.739760398865 0 0 0 0 13095589.541410446 8103097.0578691363 0 8103097.0578691363 -15865702.656299591 0 0 0 0 434319.58507709205 -294230.84785236046 0 -294230.84785236046 -235980.98364242818 0 0 0 0 1710097.8121114671 -762123.31797687709 0 -762123.31797687709 560840.40067625162 0 0 0 0 2441241.9013016224 18043903.671877362 0 18043903.671877362 -22859232.423832893 0 0 0 0 -40367114.107429504 54722442.300997853 0 54722442.300997853 -29400233.276394367 0 0 0 0 -14794060.287147522 12349064.607921124 0 12349064.607921124 11875544.153766155 0 0 0 0 -54043130.864593506 -4098365.7973980904 0 -4098365.7973980904 64394385.727235079 0 0 0 0 -45426458.907394409 13136294.068493128 0 13136294.068493128 12231796.40500921 0 0 0 0 2250684.9308151901 -1462745.2051977813 0 -1462745.2051977813 206502.34386336012 0 0 0 0 -5529183.8482666016 -2974473.4126444459 0 -2974473.4126444459 1651368.9164741039 0 0 0 0 -1250733.2632217407 1376322.6428572237 0 1376322.6428572237 3730221.791592598 0 0 0 0 511643.71325683594 -2245163.0806268454 0 -2245163.0806268454 -2769978.9223353863 0 0 0 0 647665.87277841568 -665517.77094314247 0 -665517.77094314247 495817.30232094147 0 0 0 0 -4760734.7474975586 -2517266.4388119876 0 -2517266.4388119876 4361756.2080380917 0 0 0 0 -6164548.2748565674 -5562909.7685158849 0 -5562909.7685158849 2174234.1588692665 0 0 0 0 -587442.46501159668 -4902312.454603672 0 -4902312.454603672 -1194063.1476466656 0 0 0 0 -248229.69914245605 -5358186.3668897208 0 -5358186.3668897208 -3876817.1920566177 0 0 0 0 -554783.32029724121 318593.73727033613 0 318593.73727033613 3105033.7822113433 0 0 0 0 -9238296.8658905029 -1757648.2769037485 0 -1757648.2769037485 4685910.6992882825 0 0 0 0 250282136.26797485 124340429.84908724 0 124340429.84908724 -97807595.697272062 0 0 0 0 634173778.0749054 -235449728.59243655 0 -235449728.59243655 -81471676.563012123 0 0 0 0 51931786.067565918 148161106.98671985 0 148161106.98671985 44685959.903992534 0 0 0 0 -193268541.04083252 6784755.4199056625 0 6784755.4199056625 184852508.99429512 0 0 0 0 266033.50297484547 323056.40577584878 0 323056.40577584878 665724.52627333056 0 0 0 0 456076855.82615662 2036983.8576057553 0 2036983.8576057553 -27657673.257992268 0 0 0 0 532430626.64634705 -135084379.68426132 0 -135084379.68426132 25167999.249980927 0 0 0 0 741990235.22523499 60824692.462405324 0 60824692.462405324 -204450206.60437816 0 0 0 0 172818079.70230103 182910106.77347073 0 182910106.77347073 54039496.307021685 0 0 0 0 339698999.02726364 107860198.47486997 0 107860198.47486997 -87041006.010578141 0 0 0 0 533560.5390625 -6290801.957749784 0 -6290801.957749784 6011399.4235674143 0 0 0 0 -6135198.8964920044 -1817199.5435000565 0 -1817199.5435000565 5700772.936491251 0 0 0 0 -71680.82628983818 -21336.136221691966 0 -21336.136221691966 5348.7357211221752 0 0 0 0 1079334.8446767703 -841905.05867817253 0 -841905.05867817253 671449.44583710725 0 0 0 0 9660688.9384307861 -1861637.2645002827 0 -1861637.2645002827 -6345310.6188687161 0 0 0 0 447642.51838576235 -309047.53014669567 0 -309047.53014669567 190498.06321721873 0 0 0 0 43849447.900405884 12707321.57677203 0 12707321.57677203 144891271.30609265 0 0 0 0 159630971.96676636 -152576793.79602271 0 -152576793.79602271 352315835.55993819 0 0 0 0 -5857618.2267456055 396603.43530318886 0 396603.43530318886 -6707119.5324854553 0 0 0 0 -38730277.509237289 -35217423.855024517 0 -35217423.855024517 -38265976.103808403 0 0 0 0 909279.71816140413 -167850.1596163474 0 -167850.1596163474 -89794.165595720056 0 0 0 0 58463905.888900757 98500162.840554714 0 98500162.840554714 50943802.134337902 0 0 0 0 -29450574.976200104 -66650992.345213443 0 -66650992.345213443 -53798546.129145622 0 0 0 0 116468385.74536133 80428973.48857443 0 80428973.48857443 56526077.614456356 0 0 0 0 125257131.2074585 87774324.643962219 0 87774324.643962219 -1428466.0400723517 0 0 0 0 96724848.046569824 40100269.141071573 0 40100269.141071573 -13400385.839330316 0 0 0 0 2301374.6591775417 -282702.54645930231 0 -282702.54645930231 354248.08807879023 0 0 0 0 140681785.37799072 62822007.298704013 0 62822007.298704013 -28190867.770195365 0 0 0 0 158142970.15110016 93575599.930559695 0 93575599.930559695 -993113.88088144362 0 0 0 0 188623103.23291016 79198510.477288783 0 79198510.477288783 -28513508.904230595 0 0 0 0 131970076.61416626 66876602.772194624 0 66876602.772194624 5575023.8122930527 0 0 0 0 139417672.80050659 80834686.493835926 0 80834686.493835926 2215263.9828224182 0 0 0 0 151782603.38220215 56309035.783184528 0 56309035.783184528 -17412534.312796712 0 0 0 0 160547994.31099701 80182776.340390384 0 80182776.340390384 -17622555.313538313 0 0 0 0 -11855386.370834351 -7177409.4242780209 0 -7177409.4242780209 11670924.262860298 0 0 0 0 134022622.34869385 4743582.7353619337 0 4743582.7353619337 1134452.5050525665 0 0 0 0 206122693.15881348 -78456580.740129113 0 -78456580.740129113 -249405664.49717748 0 0 0 0 183.21914592385292 15206.649010661989 0 15206.649010661989 35861.36531954426 0 0 0 0 230005527.2257309 86214515.712942213 0 86214515.712942213 -59543993.748016611 0 0 0 0 278427353.96647644 31193126.090841278 0 31193126.090841278 -108251282.14772606 0 0 0 0 184647269.41217041 66697418.062364936 0 66697418.062364936 -67579489.531628132 0 0 0 0 190829908.78302002 7237767.5275673866 0 7237767.5275673866 -106765205.31995228 0 0 0 0 154927369.70321655 -1564863.0567290783 0 -1564863.0567290783 -61049525.131176472 0 0 0 0 207359156.77765656 45743114.715161204 0 45743114.715161204 -59823532.360816956 0 0 0 0 133299666.83241272 14001696.662957072 0 14001696.662957072 -21992614.25370121 0 0 0 0 159043082.76418686 25138587.887477294 0 25138587.887477294 -36177003.36925602 0 0 0 0 152224348.05696106 35307980.941204071 0 35307980.941204071 -19111587.398691416 0 0 0 0 140237476.74943542 29476569.001089096 0 29476569.001089096 11054972.93738699 0 0 0 0 657110.59821675532 -983810.22040246055 0 -983810.22040246055 749186.22222343669 0 0 0 0 44241877.815681458 14950951.908175588 0 14950951.908175588 -19313697.8845222 0 0 0 0 -10207224.854034424 53176979.690304518 0 53176979.690304518 -29195628.08625555 0 0 0 0 -42694214.756439209 -46791554.687417269 0 -46791554.687417269 18485999.359270573 0 0 0 0 -85842509.007331848 32309926.078227043 0 32309926.078227043 -1012273.6717634201 0 0 0 0 49845010.881607056 -3370342.2632219791 0 -3370342.2632219791 -9973850.3605761528 0 0 0 0 -16783347.834306717 -1412619.2853497565 0 -1412619.2853497565 4658970.2507009506 0 0 0 0 139072863.37094116 6360044.4434783459 0 6360044.4434783459 23246930.513293743 0 0 0 0 260079.49633298628 -487434.41608212143 0 -487434.41608212143 170447.36712354585 0 0 0 0 24510689.94770813 39037679.947986007 0 39037679.947986007 63123897.424841404 0 0 0 0 113054398.46311951 26755261.056956053 0 26755261.056956053 10899988.421095014 0 0 0 0 116934575.82437515 44553153.354586989 0 44553153.354586989 58475058.339500427 0 0 0 0 68592670.530548096 102925796.09468317 0 102925796.09468317 -110679184.44713163 0 0 0 0 69129962.886474609 -34990626.970957518 0 -34990626.970957518 71964291.74144268 0 0 0 0 -69354119.187072754 62824617.466664314 0 62824617.466664314 3316317.4229927063 0 0 0 0 48103267.63079834 81218685.235831261 0 81218685.235831261 4612543.3469834328 0 0 0 0 37046367.78414917 -78982938.605772972 0 -78982938.605772972 -64047307.676260233 0 0 0 0 135534958.10955811 -68954258.654628038 0 -68954258.654628038 -64006667.313173294 0 0 0 0 -9801275.2062530518 -61471197.871273518 0 -61471197.871273518 76762737.230833054 0 0 0 0 -17762789.25604248 -35553347.601462364 0 -35553347.601462364 -7469813.0006093979 0 0 0 0 -21177962.797302246 -25047718.708263397 0 -25047718.708263397 -18156117.55397892 0 0 0 0 -34522988.723434448 -29004236.773583889 0 -29004236.773583889 38329890.242964745 0 0 0 0 -16331790.917938232 3788167.5329713821 0 3788167.5329713821 52103796.405166626 0 0 0 0 274471990.7567749 241652112.0156585 0 241652112.0156585 90531657.762563705 0 0 0 0 130032736.95196533 108016645.15743589 0 108016645.15743589 15398496.29595232 0 0 0 0 -56983194.624725342 -35895927.989006519 0 -35895927.989006519 -11219144.666006088 0 0 0 0 63102841.864746094 97755197.139153361 0 97755197.139153361 97824398.902378559 0 0 0 0 63822469.30620575 163065962.68527615 0 163065962.68527615 207071174.44785452 0 0 0 0 247920579.54180908 -157723186.34683704 0 -157723186.34683704 104883335.51549149 0 0 0 0 698631.08031158149 279836.48729914054 0 279836.48729914054 10809.5645401004 0 0 0 0 422845830.57201385 -45551396.423143506 0 -45551396.423143506 -40928278.490514278 0 0 0 0 236786364.78049454 11663213.233654708 0 11663213.233654708 -36578924.609715462 0 0 0 0 236794923.65361023 -80800703.986738682 0 -80800703.986738682 -19781406.663742065 0 0 0 0 2248047.7992752492 172400.16080976464 0 172400.16080976464 -472795.72223927139 0 0 0 0 43865804.632858276 -65608535.299894333 0 -65608535.299894333 69200027.404090881 0 0 0 0 34282475.291167259 5766010.6520599425 0 5766010.6520599425 -15374622.11567688 0 0 0 0 12022487.013641357 -41888278.306558609 0 -41888278.306558609 14132798.262279034 0 0 0 0 47162463.265167236 -52491093.996953964 0 -52491093.996953964 4519057.0189404488 0 0 0 0 34564350.615600586 -17572193.120445848 0 -17572193.120445848 2983642.0993518829 0 0 0 0 59618996.863718033 -21816311.737674057 0 -21816311.737674057 -9503300.3116416931 0 0 0 0 57810679.202915192 -13722499.689225018 0 -13722499.689225018 -7074200.5949811935 0 0 0 0 106568176.53668213 -24180956.034260511 0 -24180956.034260511 -17752767.430455208 0 0 0 0 120689363.62428284 -52324885.805320024 0 -52324885.805320024 -20924380.926522255 0 0 0 0 191495300.54621887 -12016271.634809732 0 -12016271.634809732 -38205123.137366295 0 0 0 0 180645160.88157654 -1316916.710780859 0 -1316916.710780859 -39421021.950815201 0 0 0 0 37136035.226867676 -10964903.276335955 0 -10964903.276335955 -112636524.0677681 0 0 0 0 -3230790.8435440063 -140428.831605196 0 -140428.831605196 -10561852.639778614 0 0 0 0 4531164.3927910551 -1726630.0807380509 0 -1726630.0807380509 -2222606.3655167944 0 0 0 0 723137.46154785156 -5353746.6496648788 0 -5353746.6496648788 -3445908.545897007 0 0 0 0 -392115.92714107782 -8314058.0123304212 0 -8314058.0123304212 -3882305.2082591327 0 0 0 0 9128130.0007791445 1283622.5998336487 0 1283622.5998336487 -1426741.397183028 0 0 0 0 1404519.0618286133 -3707981.2429940999 0 -3707981.2429940999 -3756071.4206376076 0 0 0 0 3126229.4162277654 -5687863.8565240931 0 -5687863.8565240931 -4193744.7052681171 0 0 0 0 2748089.3982330412 -1186934.448825147 0 -1186934.448825147 -1142963.296090994 0 0 0 0 -14782192.542618752 -21556012.756983757 0 -21556012.756983757 -21712072.332431793 0 0 0 0 -14570772.326965332 -26602417.167996407 0 -26602417.167996407 -20504076.033176422 0 0 0 0 -37571512.900726318 -7862347.6170215607 0 -7862347.6170215607 9461503.2316360474 0 0 0 0 24058686.744354248 -1175781.7832636833 0 -1175781.7832636833 -20545755.367594719 0 0 0 0 -12573531.869903564 5114472.7890505791 0 5114472.7890505791 -12618849.554681063 0 0 0 0 525334.08224401623 -1324556.3509152811 0 -1324556.3509152811 -1052542.4190747384 0 0 0 0 -25777243.009399414 -16348166.589503765 0 -16348166.589503765 16522496.020467758 0 0 0 0 -22230808.951324463 9010591.7385668755 0 9010591.7385668755 3960666.5043745041 0 0 0 0 -697679.75885009766 -6778032.6606369019 0 -6778032.6606369019 4362525.1505508423 0 0 0 0 -188316.79434204102 -5846954.6007537842 0 -5846954.6007537842 1139508.8355630636 0 0 0 0 14524849.380859375 8033159.076710701 0 8033159.076710701 -9498573.6306526661 0 0 0 0 -18343266.783477783 -6031138.3417227268 0 -6031138.3417227268 12232441.661966324 0 0 0 0 -17492825.971893311 -7132699.3639245033 0 -7132699.3639245033 -3588728.1591348648 0 0 0 0 -2008459.0845773369 -780751.12716321647 0 -780751.12716321647 -1559711.0350645091 0 0 0 0 -16332879.152084351 -3999630.085950613 0 -3999630.085950613 1269493.458257556 0 0 0 0 25834137.17313385 9398818.3572940826 0 9398818.3572940826 1005902.2768657207 0 0 0 0 12793343.718794107 -2941315.9899580032 0 -2941315.9899580032 -5227506.7831500694 0 0 0 0 -13451899.662658691 -9998627.5131571293 0 -9998627.5131571293 -4651206.5796728134 0 0 0 0 21200580.497550964 4390548.7873315811 0 4390548.7873315811 -2070196.2913742065 0 0 0 0 10281940.094807513 649699.60707539879 0 649699.60707539879 -4017771.1008653571 0 0 0 0 2603968.9476318359 -2194275.2428407669 0 -2194275.2428407669 -6546011.451965332 0 0 0 0 13516769.337921143 6626121.9226589203 0 6626121.9226589203 1697551.6691566706 0 0 0 0 14103389.881999411 2490529.3937045932 0 2490529.3937045932 -279433.47736659506 0 0 0 0 7631925.030380249 4616264.8646900654 0 4616264.8646900654 -3109067.4852428436 0 0 0 0 8197096.9496917725 3401633.9566557407 0 3401633.9566557407 -4057709.9115619659 0 0 0 0 15898501.096119665 7584339.3876689561 0 7584339.3876689561 1886556.2080810247 0 0 0 0 14816088.540807579 905992.04994581267 0 905992.04994581267 -5810929.6490225568 0 0 0 0 2667013.255740501 2470946.8742678189 0 2470946.8742678189 -1564818.52062354 0 0 0 0 1758216.9885892421 1693360.2045152867 0 1693360.2045152867 -2174665.1366266422 0 0 0 0 -44212.750244140625 3902737.3130912781 0 3902737.3130912781 -8544338.8368042111 0 0 0 0 133377.8056640625 4102864.6294565201 0 4102864.6294565201 -8539877.3708114624 0 0 0 0 11894268.67364702 549379.58319887146 0 549379.58319887146 -6700707.4173828885 0 0 0 0 8003254.1963498965 467171.0650813356 0 467171.0650813356 -2515099.8274017693 0 0 0 0 5027325.6513938904 1702255.3894990534 0 1702255.3894990534 -2454960.0626115799 0 0 0 0 18696606.127304077 6962819.6674340963 0 6962819.6674340963 -1935369.048854351 0 0 0 0 10934417.831826128 4223926.1981399581 0 4223926.1981399581 -874004.19861696102 0 0 0 0 4831598.7595367432 3289735.7493882179 0 3289735.7493882179 -3166682.7978474498 0 0 0 0 18254584.789611816 4791266.4008054733 0 4791266.4008054733 -1950728.501285553 0 0 0 0 3561291.5354213044 -2217091.8845583946 0 -2217091.8845583946 -4121310.4049154911 0 0 0 0 2542175.5602416992 -2352715.9182738066 0 -2352715.9182738066 -6582337.2117089778 0 0 0 0 4326101.2200317383 -1403664.5526745319 0 -1403664.5526745319 -3635210.8265423775 0 0 0 0 6070506.619430542 -66745.722661972046 0 -66745.722661972046 -2611803.2114521861 0 0 0 0 -367652.9250793457 -1339865.9464011192 0 -1339865.9464011192 -995714.34915649891 0 0 0 0 5216793.0326805636 1619102.8711325936 0 1619102.8711325936 -171636.14193857508 0 0 0 0 3819899.0313028842 -1790565.850245323 0 -1790565.850245323 -1200843.1697884565 0 0 0 0 2081607.9821308702 348732.49377893284 0 348732.49377893284 -126964.35763744952 0 0 0 0 4668931.1243272461 -837083.26985929906 0 -837083.26985929906 -835228.14964809921 0 0 0 0 -23399629.298522949 -20193279.41416049 0 -20193279.41416049 -19376370.630027771 0 0 0 0 -30330520.352462769 -26305019.30544126 0 -26305019.30544126 877373.13059902191 0 0 0 0 -38652950.680847168 -14097194.153342247 0 -14097194.153342247 -11253768.851318359 0 0 0 0 5047555.9505741261 1069229.9614930488 0 1069229.9614930488 -190499.74371719384 0 0 0 0 4284569.9292907715 596619.56436419487 0 596619.56436419487 -1318747.0373420715 0 0 0 0 4778597.7771189734 549740.16351015121 0 549740.16351015121 -919228.68800793868 0 0 0 0 4303683.2026367188 573901.07519769669 0 573901.07519769669 -1361745.7185573578 0 0 0 0 5194452.7953104526 2130916.9122804254 0 2130916.9122804254 -408032.8623481635 0 0 0 0 2974535.6317138672 1475474.8010277748 0 1475474.8010277748 448865.73454093933 0 0 0 0 5409451.850821048 1240458.2697158307 0 1240458.2697158307 -240271.04674939229 0 0 0 0 7532987.5885232389 2882363.6153438576 0 2882363.6153438576 -596349.07695771265 0 0 0 0 5089220.0348815918 1854255.4206624031 0 1854255.4206624031 -2182972.4567232132 0 0 0 0 11585510.617675781 10771466.26451087 0 10771466.26451087 2758778.6352186203 0 0 0 0 13175920.67540741 6223507.4268403053 0 6223507.4268403053 140014.60406684875 0 0 0 0 18734195.736328125 8078080.8439793587 0 8078080.8439793587 654692.76357221603 0 0 0 0 19675755.160552979 8711409.2555532455 0 8711409.2555532455 9638.2672281265259 0 0 0 0 16180961.391113281 11998778.293677092 0 11998778.293677092 3003911.0805187225 0 0 0 0 10655047.986175537 4340386.8621679544 0 4340386.8621679544 1864091.5218036175 0 0 0 0 2915156.9944876134 2008554.4711769037 0 2008554.4711769037 -759979.00179480901 0 0 0 0 20678109.123809814 11872102.70649457 0 11872102.70649457 1968687.1393501759 0 0 0 0 11224088.191360474 5601262.0850889683 0 5601262.0850889683 -300288.83679580688 0 0 0 0 4501329.8933403529 -150105.26605371013 0 -150105.26605371013 289883.73536879872 0 0 0 0 11725025.148147583 -1723155.5137522221 0 -1723155.5137522221 -3098967.4902982712 0 0 0 0 1408322.9706202708 -6487.2648660354316 0 -6487.2648660354316 -561751.31461093714 0 0 0 0 -62538966.402252197 7054962.8386423588 0 7054962.8386423588 16655173.052616119 0 0 0 0 -45659952.86505127 -12601616.611616135 0 -12601616.611616135 8399058.0923000574 0 0 0 0 1011289.0941625163 -1875071.2449114546 0 -1875071.2449114546 -1119037.2634239262 0 0 0 0 3788517.7662401535 2441769.3519668207 0 2441769.3519668207 -773100.51782999886 0 0 0 0 3435286.8695373535 -68682.241149425507 0 -68682.241149425507 -580036.30067634583 0 0 0 0 17562281.252960205 10961822.758348584 0 10961822.758348584 2047013.6752552986 0 0 0 0 1978948.6434860229 9646120.4593389034 0 9646120.4593389034 2574705.5792121887 0 0 0 0 17774481.19839859 11261396.643983424 0 11261396.643983424 -10850558.051345348 0 0 0 0 17238732.129180908 8864034.2144973278 0 8864034.2144973278 7251154.2634204775 0 0 0 0 21052775.235122681 6942053.0400803089 0 6942053.0400803089 2994512.9058232307 0 0 0 0 20118491.121368408 9607160.0971660614 0 9607160.0971660614 1126971.6540102959 0 0 0 0 22677130.971817017 8649604.9634664059 0 8649604.9634664059 1428759.6814756393 0 0 0 0 19510344.1484375 9023517.5219292641 0 9023517.5219292641 2471208.1059132814 0 0 0 0 19763679.594665527 6880636.8155560493 0 6880636.8155560493 -1444271.1690863371 0 0 0 0 21019789.547332764 8268926.692248106 0 8268926.692248106 -1486967.3365106583 0 0 0 0 19776901.037597656 6766134.5279772282 0 6766134.5279772282 -1751619.4753131866 0 0 0 0 19805015.178527832 6800974.9071984291 0 6800974.9071984291 -1772253.4144387245 0 0 0 0 20042198.569919586 6122968.1679154038 0 6122968.1679154038 -4019908.4504489899 0 0 0 0 20142221.310577393 6895975.8345398903 0 6895975.8345398903 -1900667.4481964111 0 0 0 0 19828503.647705078 6513670.4310107231 0 6513670.4310107231 -2240605.9167084694 0 0 0 0 17806175.40020752 4928350.1879711151 0 4928350.1879711151 -1859907.4099702835 0 0 0 0 2151082.2725779191 2627320.502242282 0 2627320.502242282 553656.01151734008 0 0 0 0 15814732.411743164 4312846.4267613888 0 4312846.4267613888 -2043455.5020089149 0 0 0 0 -26155997.644226074 114575922.44382447 0 114575922.44382447 70316270.811118677 0 0 0 0 16192504.344970703 3364701.0503389537 0 3364701.0503389537 -4475964.5732975006 0 0 0 0 16952672.221893311 6184525.5171970129 0 6184525.5171970129 438478.60555934906 0 0 0 0 19652407.439353943 9230759.0685167909 0 9230759.0685167909 -4355095.1320924759 0 0 0 0 19165196.297119141 5057078.1723690033 0 5057078.1723690033 -5276564.8889427185 0 0 0 0 60723074.582824707 30593897.630609602 0 30593897.630609602 6112394.790679574 0 0 0 0 1087563.1002960205 -112101543.49531361 0 -112101543.49531361 109316658.89731675 0 0 0 0 17974893.162780762 73270133.91899392 0 73270133.91899392 -30143894.392422132 0 0 0 0 17559816.120269775 7154904.09233284 0 7154904.09233284 1501601.5209264755 0 0 0 0 169199547.8820343 59978044.777904205 0 59978044.777904205 -248950531.26638901 0 0 0 0 20809394.602996826 34603208.108119845 0 34603208.108119845 -18797976.881648064 0 0 0 0 43575667.155929565 45452731.66896604 0 45452731.66896604 -38937392.569315881 0 0 0 0 40779718.413070679 21938339.995176554 0 21938339.995176554 -11415848.162527561 0 0 0 0 69288804.116119385 38445744.18907249 0 38445744.18907249 -37816425.114452749 0 0 0 0 35670459.21182251 34108261.00299862 0 34108261.00299862 -30701088.935486555 0 0 0 0 110593379.20109558 81275238.665015504 0 81275238.665015504 -9813236.5550752878 0 0 0 0 7215677.820949614 4833251.4396284297 0 4833251.4396284297 50468.062589024426 0 0 0 0 21087021.710662842 8669622.1277396679 0 8669622.1277396679 231379.82278227806 0 0 0 0 18350747.762753487 6430323.7651598155 0 6430323.7651598155 -1626110.9768323898 0 0 0 0 19703803.532073975 6065307.6293439865 0 6065307.6293439865 -1971673.7879133224 0 0 0 0 18890050.747070312 8464978.2352151871 0 8464978.2352151871 1214443.5990608931 0 0 0 0 20544798.02355957 7416912.473772049 0 7416912.473772049 -1062832.3598966599 0 0 0 0 19291844.702270508 6066411.9753575325 0 6066411.9753575325 -1793451.6864004135 0 0 0 0 19830094.450624466 7121319.7724091113 0 7121319.7724091113 -753430.84964466095 0 0 0 0 19389797.267028809 6515502.0602421761 0 6515502.0602421761 -602697.37502670288 0 0 0 0 18792005.551094055 6420189.9759793878 0 6420189.9759793878 773442.19370365143 0 0 0 0 22327674.910766602 7024282.2123441696 0 7024282.2123441696 -196688.708081007 0 0 0 0 20111461.784454346 7699551.8999524117 0 7699551.8999524117 -314492.9520368576 0 0 0 0 20547442.485137939 7283461.89945364 0 7283461.89945364 -1494838.9265913963 0 0 0 0 21492570.32598877 4192936.3714299202 0 4192936.3714299202 2459972.1240830421 0 0 0 0 -514873.41622924805 4396077.3196868896 0 4396077.3196868896 -11449308.342655182 0 0 0 0 8591778.9994811639 4265585.8501723167 0 4265585.8501723167 -3050153.5517133232 0 0 0 0 1504292.4792692363 1980495.531182358 0 1980495.531182358 -2616249.1079886947 0 0 0 0 4232397.6116943359 2891748.322886467 0 2891748.322886467 -4194464.5051465034 0 0 0 0 61131319.686218262 41066957.332324386 0 41066957.332324386 72307796.585383296 0 0 0 0 56109383.675354004 51167548.733843207 0 51167548.733843207 52434197.700335026 0 0 0 0 81050111.564575195 10773678.655950427 0 10773678.655950427 86026142.816059202 0 0 0 0 -521498.33413219452 2061544.0834813379 0 2061544.0834813379 648082.56994328008 0 0 0 0 62653752.53527832 47258138.584634125 0 47258138.584634125 21715948.306691647 0 0 0 0 12941854.802957661 2122927.2117682621 0 2122927.2117682621 -4870362.1778161572 0 0 0 0 6508733.442199707 471977.01735115051 0 471977.01735115051 -2069598.6855325699 0 0 0 0 7882559.4383468628 2015427.3003973961 0 2015427.3003973961 -2559269.4678936005 0 0 0 0 70025279.916015625 9829783.1097230911 0 9829783.1097230911 -5066223.9242850542 0 0 0 0 14709830.951215655 8746602.6473167446 0 8746602.6473167446 2280254.3967270171 0 0 0 0 10903124.731573291 1314992.8894181475 0 1314992.8894181475 -3204399.0582680306 0 0 0 0 24729934.495910645 20638177.482366323 0 20638177.482366323 -1275526.9007434845 0 0 0 0 3515950.3942663819 1167465.0590375327 0 1167465.0590375327 77644.329959208553 0 0 0 0 34495826.138580322 -10757.205451250076 0 -10757.205451250076 10622979.9163661 0 0 0 0 23415686.627075195 8808856.0927979946 0 8808856.0927979946 8205283.3227405548 0 0 0 0 27132327.578613281 10192571.019638062 0 10192571.019638062 7364905.5344982147 0 0 0 0 78017525.352264404 -6320399.4209959507 0 -6320399.4209959507 -11461548.051515102 0 0 0 0 47659234.673149109 16344694.122421235 0 16344694.122421235 -28351643.542732 0 0 0 0 41447263.779846191 6656220.8318148851 0 6656220.8318148851 -944587.13382482529 0 0 0 0 24642239.509347916 16523342.16327063 0 16523342.16327063 8607868.731762886 0 0 0 0 23293019.49597168 17337228.961500645 0 17337228.961500645 11697250.297100067 0 0 0 0 33756718.710205078 15138989.595812321 0 15138989.595812321 -10282424.25972569 0 0 0 0 24624069.878425598 17259915.181443244 0 17259915.181443244 2720685.8968601227 0 0 0 0 26462823.120727539 13154024.207870483 0 13154024.207870483 7146594.8947634697 0 0 0 0 22793032.317504883 13618809.27759409 0 13618809.27759409 9724000.4639720917 0 0 0 0 22206562.016845703 15981927.993560314 0 15981927.993560314 12724883.686519623 0 0 0 0 19737801.330932617 15188824.333930969 0 15188824.333930969 14094631.833825588 0 0 0 0 19178634.170410156 10133710.435784817 0 10133710.435784817 13055715.080749512 0 0 0 0 24288539.437866211 10480713.971353769 0 10480713.971353769 11289038.177510262 0 0 0 0 17101106.356719971 4567373.4260649681 0 4567373.4260649681 1117019.7598075867 0 0 0 0 14455319.34753418 9797009.0692186356 0 9797009.0692186356 13306642.727251649 0 0 0 0 16374610.852416992 13643520.787991524 0 13643520.787991524 13384885.381998539 0 0 0 0 15186646.82805191 7156512.7081159167 0 7156512.7081159167 -3449274.6038032165 0 0 0 0 19551699.289093018 16465360.231150866 0 16465360.231150866 15613506.787833691 0 0 0 0 -1780849.6432844698 3923830.8440820081 0 3923830.8440820081 2194169.1852553478 0 0 0 0 77077618.003417969 59172090.301800728 0 59172090.301800728 35916327.694490194 0 0 0 0 56292288.477478027 -19760711.601302862 0 -19760711.601302862 21478387.530860901 0 0 0 0 25173696.718414307 2938242.4273226261 0 2938242.4273226261 10706098.314888477 0 0 0 0 123032034.96643829 33119632.240680844 0 33119632.240680844 -52445262.796390057 0 0 0 0 2723486.7665848695 1875254.088101279 0 1875254.088101279 534282.48111720767 0 0 0 0 -64219265.950271606 -81514192.54685165 0 -81514192.54685165 7769067.9338088632 0 0 0 0 69212564.095081329 32365313.591558725 0 32365313.591558725 38950749.00233674 0 0 0 0 80811423.677190304 60265741.852509461 0 60265741.852509461 -69866198.767972291 0 0 0 0 -4083665.9986877441 116796635.88699076 0 116796635.88699076 -61761433.552831918 0 0 0 0 31041206.22227478 95748330.361086294 0 95748330.361086294 -80452087.871161163 0 0 0 0 -163069540.55491638 90180600.082724288 0 90180600.082724288 53504412.135174334 0 0 0 0 -75750447.446640015 22551555.233064145 0 22551555.233064145 -28203317.337189302 0 0 0 0 -11665077.11781311 218229608.94192296 0 218229608.94192296 10477166.90805614 0 0 0 0 -87616474.787477493 239793452.76311463 0 239793452.76311463 151959793.45997906 0 0 0 0 -8274018.4753112793 152502191.902381 0 152502191.902381 133939162.58424091 0 0 0 0 -12918741.675537109 123946463.02753973 0 123946463.02753973 68111773.476647973 0 0 0 0 83603955.069738388 144111923.46953434 0 144111923.46953434 71846833.934573591 0 0 0 0 16591607.9425354 59679696.853593349 0 59679696.853593349 212181763.56469792 0 0 0 0 3681231.7249393463 108602535.93876982 0 108602535.93876982 64212972.347848117 0 0 0 0 147401970.34823608 55216969.677640438 0 55216969.677640438 74987282.238196135 0 0 0 0 92908996.373687744 -18087005.508973956 0 -18087005.508973956 119338807.36681843 0 0 0 0 254416316.88661194 384033.99573385715 0 384033.99573385715 12333219.368372679 0 0 0 0 96217652.784301758 27368256.348113179 0 27368256.348113179 14563953.088973403 0 0 0 0 -94633308.041351318 128401817.42043489 0 128401817.42043489 -20350735.760752916 0 0 0 0 -241781052.6386261 -10448870.09700489 0 -10448870.09700489 83549753.92075038 0 0 0 0 389186.81683190912 836833.42189194635 0 836833.42189194635 290131.40702393791 0 0 0 0 2504972.1320720911 45830143.181178443 0 45830143.181178443 -102051127.9976635 0 0 0 0 -24676824.912302971 48341808.657005571 0 48341808.657005571 66014483.98852551 0 0 0 0 -114621757.18533325 22417569.831060827 0 22417569.831060827 70918796.249099359 0 0 0 0 -126211747.71231079 43813077.293822169 0 43813077.293822169 111500651.35421771 0 0 0 0 12172152.101093292 -32085500.958674341 0 -32085500.958674341 163819932.5017727 0 0 0 0 110530039.8659668 -192424809.79437599 0 -192424809.79437599 226119940.57517081 0 0 0 0 -63169633.3956604 -2794069.823723644 0 -2794069.823723644 238845384.98649228 0 0 0 0 -72202418.710357666 67182332.282956839 0 67182332.282956839 -7114375.7495855093 0 0 0 0 -69065572.035522461 -49900427.513844728 0 -49900427.513844728 183436771.81153235 0 0 0 0 45670944.690574646 45492967.777782828 0 45492967.777782828 -177660174.28241074 0 0 0 0 -22523360.036071777 -172650804.68404806 0 -172650804.68404806 313826403.1940574 0 0 0 0 84784390.505279541 94957518.042498022 0 94957518.042498022 212006056.71417856 0 0 0 0 -140672065.25961304 17572307.581035793 0 17572307.581035793 185474401.9072046 0 0 0 0 445682384.3024292 -345570473.54305208 0 -345570473.54305208 -28581773.166782022 0 0 0 0 1361627.7683950886 545486.97716791928 0 545486.97716791928 -374543.37413528352 0 0 0 0 -114806928.31879425 2866209.8832686543 0 2866209.8832686543 26977786.98618865 0 0 0 0 550493684.66088867 137143057.52722472 0 137143057.52722472 46175347.938009426 0 0 0 0 70183726.981380463 123801315.53758781 0 123801315.53758781 370217350.5795238 0 0 0 0 374594423.29195404 -11313725.054018319 0 -11313725.054018319 102092535.00742459 0 0 0 0 217849991.32594299 -89115749.687181681 0 -89115749.687181681 270507401.07243884 0 0 0 0 289617253.20069885 -77433596.126120329 0 -77433596.126120329 122980099.86280552 0 0 0 0 323765458.22450638 -62615634.419023395 0 -62615634.419023395 104654557.89281917 0 0 0 0 325016926.03143311 43449005.463037848 0 43449005.463037848 217633930.05648512 0 0 0 0 151388584.11529541 -67737816.976616383 0 -67737816.976616383 205469240.56318879 0 0 0 0 261739412.60501099 -173004757.00980496 0 -173004757.00980496 280610877.13206863 0 0 0 0 369453146.05136108 -136954109.04897654 0 -136954109.04897654 198168859.68681979 0 0 0 0 444093897.02565002 -287343932.28506517 0 -287343932.28506517 236416895.60884109 0 0 0 0 205885388.01965332 -241351727.25467026 0 -241351727.25467026 235464048.44065475 0 0 0 0 554065856.1652832 -234737152.17219687 0 -234737152.17219687 187823492.24776006 0 0 0 0 444261758.34404755 -247272509.18308604 0 -247272509.18308604 230577567.22618532 0 0 0 0 341209792.19731522 -156718136.41384488 0 -156718136.41384488 199277903.1631906 0 0 0 0 372265356.4667511 -171563102.40309316 0 -171563102.40309316 186013583.14905429 0 0 0 0 398891599.15560913 -174790297.14042187 0 -174790297.14042187 121429087.36090398 0 0 0 0 324457145.36261368 -70699567.655057669 0 -70699567.655057669 64530517.596827269 0 0 0 0 361076857.62561035 -175083434.54907942 0 -175083434.54907942 120797297.16054213 0 0 0 0 550689641.51026344 -110021886.97541745 0 -110021886.97541745 113973869.46814585 0 0 0 0 412030156.18678284 -320031968.97783756 0 -320031968.97783756 275161419.01022172 0 0 0 0 528182655.36468887 -320731893.74944234 0 -320731893.74944234 193225867.750844 0 0 0 0 431084180.94351196 -262059429.38568425 0 -262059429.38568425 162556127.26781946 0 0 0 0 448001451.65031433 -225413808.26603401 0 -225413808.26603401 241627434.43468046 0 0 0 0 260985656.21585846 -217010865.68996334 0 -217010865.68996334 248169824.07965302 0 0 0 0 570854068.71504211 -22472412.589765072 0 -22472412.589765072 83841522.842546463 0 0 0 0 -95400366.923576355 41808963.326105237 0 41808963.326105237 89724982.903942466 0 0 0 0 1434791.7952461243 -103094305.42146921 0 -103094305.42146921 -61991984.661628246 0 0 0 0 -159012140.91403198 109540274.49799299 0 109540274.49799299 37898656.117332935 0 0 0 0 107870904.65048981 12720392.145412207 0 12720392.145412207 49309362.238020182 0 0 0 0 230994545.60731506 -121121487.32132292 0 -121121487.32132292 58394901.539915919 0 0 0 0 183636096.59597778 -97697528.94099617 0 -97697528.94099617 33942999.105465949 0 0 0 0 296701871.31309509 -181212591.16809583 0 -181212591.16809583 162908519.46711546 0 0 0 0 262068733.93923187 -24606518.298132539 0 -24606518.298132539 88471249.397932529 0 0 0 0 331819576.72885132 -108789535.13686466 0 -108789535.13686466 311455076.01761198 0 0 0 0 197774017.09596252 -181796343.20025682 0 -181796343.20025682 172928789.51222134 0 0 0 0 208942183.07959366 -40651211.020792782 0 -40651211.020792782 51959877.51657629 0 0 0 0 85258334.964431763 -78886745.749787807 0 -78886745.749787807 46290737.905998349 0 0 0 0 37389510.801786423 29876666.181989886 0 29876666.181989886 -22935713.420380116 0 0 0 0 25347033.836601257 -70496944.492102385 0 -70496944.492102385 154239437.81260586 0 0 0 0 -108985458.09414673 52444299.301554203 0 52444299.301554203 44602186.536450386 0 0 0 0 -74147497.022888184 -57137404.180205345 0 -57137404.180205345 84121894.163321018 0 0 0 0 3717336.7526931763 -63405118.427437901 0 -63405118.427437901 58593281.836160183 0 0 0 0 -31763290.358299255 5603651.0769944191 0 5603651.0769944191 51419536.773188591 0 0 0 0 -15061264.450117111 -106470982.94425601 0 -106470982.94425601 -20288762.575829506 0 0 0 0 -25720748.914871216 -24400454.384471536 0 -24400454.384471536 49205635.660773277 0 0 0 0 131394132.28807068 931496.38140797615 0 931496.38140797615 7200301.8522922993 0 0 0 0 114984728.91767883 -48693915.442708373 0 -48693915.442708373 35727742.21464777 0 0 0 0 275760247.85217285 -158143412.84835446 0 -158143412.84835446 59511933.09150219 0 0 0 0 416967102.94519806 -208469159.49900591 0 -208469159.49900591 3423370.0932682753 0 0 0 0 421231739.01062393 -231693350.73767859 0 -231693350.73767859 54020782.352604628 0 0 0 0 524096277.83744812 -237383529.35978568 0 -237383529.35978568 -39970585.261325538 0 0 0 0 306966086.07830429 -145077862.45064074 0 -145077862.45064074 -25655251.38353467 0 0 0 0 534081393.5971756 -283884357.56718981 0 -283884357.56718981 35028744.770415783 0 0 0 0 458550909.27901459 -236529959.8099089 0 -236529959.8099089 72554865.018619061 0 0 0 0 387206506.79328918 -38760093.214056849 0 -38760093.214056849 201175639.00904 0 0 0 0 469783537.47229004 -286214841.26993442 0 -286214841.26993442 139721501.8448506 0 0 0 0 331416728.2906189 -316499093.92460477 0 -316499093.92460477 197411472.55406269 0 0 0 0 -16078482.466995239 -16209071.153047755 0 -16209071.153047755 215157097.15498713 0 0 0 0 43258675.352767944 -774205.90629178286 0 -774205.90629178286 -3341490.6970207691 0 0 0 0 480409526.55513096 19807536.100687072 0 19807536.100687072 -93528379.44637394 0 0 0 0 554698.37100969255 -494997.6110214591 0 -494997.6110214591 397359.66536150384 0 0 0 0 667338802.35040283 -243174546.56553721 0 -243174546.56553721 142927145.62851381 0 0 0 0 483946001.47550964 -97883482.490304947 0 -97883482.490304947 110938643.55982363 0 0 0 0 358481898.00774384 101371416.4534241 0 101371416.4534241 -99669874.611776352 0 0 0 0 1507310.0123582333 -1488788.0645433515 0 -1488788.0645433515 856601.21812664322 0 0 0 0 48608885.503509521 -335261155.57089484 0 -335261155.57089484 -101361798.42423402 0 0 0 0 354965077.31358337 76848248.437514961 0 76848248.437514961 -94740286.270878464 0 0 0 0 716543.99994131923 -705822.35101081058 0 -705822.35101081058 474110.55868404731 0 0 0 0 956727419.04682922 -40740284.797258258 0 -40740284.797258258 -72285606.794986725 0 0 0 0 -277351139.04907227 -278733547.97587895 0 -278733547.97587895 274428685.13290656 0 0 0 0 740297336.10055542 -460033403.91296828 0 -460033403.91296828 215519385.68721455 0 0 0 0 602892152.17253876 -267445109.53665429 0 -267445109.53665429 -27048494.967886508 0 0 0 0 435697914.8352375 -160662567.62200218 0 -160662567.62200218 -94106313.668415427 0 0 0 0 352681489.7038269 -71043833.99467963 0 -71043833.99467963 48976460.711784005 0 0 0 0 273832370.89239502 -47703638.984159648 0 -47703638.984159648 52680382.896355808 0 0 0 0 272748477.41117096 -91224286.490849614 0 -91224286.490849614 31584701.128041506 0 0 0 0 77175826.927360535 -184012368.50166038 0 -184012368.50166038 -82469806.7939502 0 0 0 0 68587183.182327271 91204641.441973746 0 91204641.441973746 -128278225.54505098 0 0 0 0 1139606750.5653534 -36878921.581620216 0 -36878921.581620216 -200200500.01310897 0 0 0 0 875687.79803045839 -781548.39416680112 0 -781548.39416680112 346940.90072497446 0 0 0 0 -184006837.04933167 -399078087.88671547 0 -399078087.88671547 184475551.85467827 0 0 0 0 399211156.53450012 163175342.72176915 0 163175342.72176915 -56585240.752904415 0 0 0 0 941141341.60592651 -1008550.0910010338 0 -1008550.0910010338 -195535423.36991191 0 0 0 0 245947971.43848419 95440197.713139445 0 95440197.713139445 40927529.820690811 0 0 0 0 755793.55256226659 -801739.06486572511 0 -801739.06486572511 -20570.737234139116 0 0 0 0 555068084.39096069 -431445537.04391444 0 -431445537.04391444 175003865.35680234 0 0 0 0 799433783.34968567 -599882140.81022525 0 -599882140.81022525 -8132929.4843611717 0 0 0 0 665845706.08413696 -443951071.32035542 0 -443951071.32035542 -126782958.06825453 0 0 0 0 595574873.99863052 -161723118.69549271 0 -161723118.69549271 161712168.58554244 0 0 0 0 2390304.6158294678 -237748126.44381803 0 -237748126.44381803 237857087.97530615 0 0 0 0 357148785.75605774 -252578638.30504537 0 -252578638.30504537 173131236.39973244 0 0 0 0 318972269.8213501 -120295777.00202663 0 -120295777.00202663 78312725.545845971 0 0 0 0 272752169.38908386 -74624688.805809826 0 -74624688.805809826 99968644.635627806 0 0 0 0 234064635.50030518 -30237111.13847357 0 -30237111.13847357 51236097.522061586 0 0 0 0 316195587.58586121 -53921298.597184688 0 -53921298.597184688 56765691.163843513 0 0 0 0 343063597.96398354 -108120550.07072544 0 -108120550.07072544 26027548.750298291 0 0 0 0 367875485.86371613 -104179508.63921458 0 -104179508.63921458 26641860.868888468 0 0 0 0 351455793.75647736 -126887429.0318059 0 -126887429.0318059 -69156.612611529519 0 0 0 0 339793338.71813202 -133534624.30420448 0 -133534624.30420448 30625738.44437841 0 0 0 0 297756745.77069092 -156773985.5851438 0 -156773985.5851438 22751652.908645093 0 0 0 0 113445806.19342041 -68094481.649706051 0 -68094481.649706051 -33338.219660733906 0 0 0 0 353221799.42117405 -40947256.484624259 0 -40947256.484624259 -135781875.26716143 0 0 0 0 480969968.45315552 -172005104.27294657 0 -172005104.27294657 -51374104.924514666 0 0 0 0 405171551.72737885 -135532572.91350156 0 -135532572.91350156 31878690.003387094 0 0 0 0 316053323.94218445 -151708012.81856543 0 -151708012.81856543 31272862.560058951 0 0 0 0 384988835.70832825 -123832291.67784768 0 -123832291.67784768 33418214.153936073 0 0 0 0 169034803.02827454 -174502564.23386654 0 -174502564.23386654 79755739.392217457 0 0 0 0 307486975.53512573 -214268355.40573823 0 -214268355.40573823 81967421.170881331 0 0 0 0 59592380.371292114 -160721020.5037905 0 -160721020.5037905 151141232.40692076 0 0 0 0 577458702.60202026 -98946348.496823505 0 -98946348.496823505 26791998.268738985 0 0 0 0 366232829.95606232 -96324349.265975982 0 -96324349.265975982 57470968.379488587 0 0 0 0 333756266.29006958 -82119338.875451386 0 -82119338.875451386 70183185.525508761 0 0 0 0 310185275.90744781 -53627265.420275375 0 -53627265.420275375 49779372.217933998 0 0 0 0 501896015.92863464 -114024138.89919895 0 -114024138.89919895 -8345354.015848726 0 0 0 0 183025.06302002631 -117083.81271453947 0 -117083.81271453947 5840.0200775658595 0 0 0 0 395754368.67063904 -73604504.040339932 0 -73604504.040339932 10386155.280584306 0 0 0 0 355935978.41629028 -74542318.046772629 0 -74542318.046772629 7079720.1179665327 0 0 0 0 458011649.50682068 -78980850.180700511 0 -78980850.180700511 536868.18298394443 0 0 0 0 383529551.91252899 -113100941.00579362 0 -113100941.00579362 72292.063100465646 0 0 0 0 371594.61050137877 -227457.5970628038 0 -227457.5970628038 10436.349064111462 0 0 0 0 263830260.00933814 -93069396.310319319 0 -93069396.310319319 7679425.8745522499 0 0 0 0 296294157.86108398 -105979020.13543677 0 -105979020.13543677 -63985.874232751186 0 0 0 0 297109143.4930954 -128326611.10267471 0 -128326611.10267471 6414921.9341897666 0 0 0 0 223042602.34922028 -102312689.85686275 0 -102312689.85686275 34597.176932511822 0 0 0 0 283128038.11769485 -143221852.57235381 0 -143221852.57235381 8056762.2972987592 0 0 0 0 203132337.2117424 -133000135.99175288 0 -133000135.99175288 24331732.919938982 0 0 0 0 122512222.95838928 -95364955.518129677 0 -95364955.518129677 32753505.841009021 0 0 0 0 151507304.60451508 -89579791.404482618 0 -89579791.404482618 13361.713456224374 0 0 0 0 121964206.15357971 -76275963.611427158 0 -76275963.611427158 20722626.262428313 0 0 0 0 122041170.15419006 -106387207.31104955 0 -106387207.31104955 53223322.927544564 0 0 0 0 228902.60448605195 26713.940499424934 0 26713.940499424934 93250.125198953348 0 0 0 0 112759093.22546387 -72382713.489532128 0 -72382713.489532128 23145.098844335695 0 0 0 0 123288593.80586243 -59231783.943116717 0 -59231783.943116717 16348695.966910005 0 0 0 0 181832.08623568714 112501.82066960633 0 112501.82066960633 270280.15940698137 0 0 0 0 15096027.218688965 -29561554.413046129 0 -29561554.413046129 22357339.104585379 0 0 0 0 63856257.627304077 -15765038.938122824 0 -15765038.938122824 -3228593.6555400863 0 0 0 0 13812677.978713989 11813943.554935753 0 11813943.554935753 6408776.6797005609 0 0 0 0 69861320.572601318 -96426531.00283958 0 -96426531.00283958 109721106.16901496 0 0 0 0 159860406.85283279 -120364267.94444939 0 -120364267.94444939 54189502.012225568 0 0 0 0 75869849.490631104 -55460143.298848242 0 -55460143.298848242 30510963.477149576 0 0 0 0 66615521.9375453 -70809591.767127886 0 -70809591.767127886 61781805.752419293 0 0 0 0 19938433.856307983 -18068582.067230329 0 -18068582.067230329 45512236.263391808 0 0 0 0 63902756.838715553 -50414311.533371024 0 -50414311.533371024 54650648.49063319 0 0 0 0 57242200.622817993 -58354442.391165629 0 -58354442.391165629 45350716.630800873 0 0 0 0 -8468100.1414337158 -29357269.520409063 0 -29357269.520409063 44007933.0431723 0 0 0 0 -34325443.178482056 -2843730.1945813298 0 -2843730.1945813298 18054868.414591312 0 0 0 0 107829.33202470839 50425.219680059701 0 50425.219680059701 -140496.81622289922 0 0 0 0 4086664.1253051758 -23873845.836441711 0 -23873845.836441711 -13118068.65414013 0 0 0 0 -3153142.1997070312 -29291199.920929432 0 -29291199.920929432 -849981.64651334286 0 0 0 0 25816674.200950623 -2269042.1023049392 0 -2269042.1023049392 -7528041.5724779069 0 0 0 0 5047418.4550476074 -2148628.3794110864 0 -2148628.3794110864 -4385006.1658446044 0 0 0 0 10633288.438240051 -8940120.9479472153 0 -8940120.9479472153 -10375828.639194995 0 0 0 0 33966995.439117432 -15419575.545090884 0 -15419575.545090884 15193559.513962835 0 0 0 0 11901982.734710693 7845487.6955988556 0 7845487.6955988556 9255481.1727554016 0 0 0 0 -10726753.746803284 -108106.86735789478 0 -108106.86735789478 11619164.581418589 0 0 0 0 127228.7404024303 230000.779532291 0 230000.779532291 407101.43995279039 0 0 0 0 7958995.6325531006 8458200.616239801 0 8458200.616239801 -740532.09234645963 0 0 0 0 11654891.692359924 3318202.5502611473 0 3318202.5502611473 -3224130.1442643106 0 0 0 0 7059627.7705688477 2327233.7848481238 0 2327233.7848481238 -4482831.2842815742 0 0 0 0 4761031.9794921875 3345877.0234028026 0 3345877.0234028026 -3077676.7936905008 0 0 0 0 1946599.2303161621 6070447.1250163466 0 6070447.1250163466 -772169.06080828607 0 0 0 0 5341999.7945289612 4530282.1242567562 0 4530282.1242567562 -1273257.4139048904 0 0 0 0 3413495.7008666992 -554027.16748811677 0 -554027.16748811677 -156258.31756457686 0 0 0 0 -2386854.2912445068 -3625442.4397841245 0 -3625442.4397841245 -5313031.3800052032 0 0 0 0 2574644.7757415771 1001324.7384113409 0 1001324.7384113409 -2885792.6131415283 0 0 0 0 -978826.39596557617 -7062713.6285908148 0 -7062713.6285908148 -7668991.7792262211 0 0 0 0 -39255.130570963025 -542562.67750214413 0 -542562.67750214413 510633.71154381114 0 0 0 0 -2339642.3481750488 -919718.81491363049 0 -919718.81491363049 -127830.813618958 0 0 0 0 1441430.1652001217 -773864.69029264152 0 -773864.69029264152 -540449.36307687999 0 0 0 0 -95142290.180557251 -28080819.330953598 0 -28080819.330953598 24697507.253941476 0 0 0 0 -56301567.51411438 8242560.0571327209 0 8242560.0571327209 16117676.588643074 0 0 0 0 -37012736.392959595 -6876751.5486830473 0 -6876751.5486830473 -19717599.665542364 0 0 0 0 1303951.8572307751 -1092005.8817892037 0 -1092005.8817892037 386587.63924973318 0 0 0 0 -1291505.6139526367 -1411723.3850468397 0 -1411723.3850468397 -824090.12421894073 0 0 0 0 -16335302.365158081 -22970190.591890402 0 -22970190.591890402 -5409953.8840327263 0 0 0 0 16675785.88104248 5226793.2103052139 0 5226793.2103052139 -1127290.7629547119 0 0 0 0 620833.29788935184 -156121.27048387006 0 -156121.27048387006 -684281.0425113024 0 0 0 0 1575764.2947540283 -8345457.1973491907 0 -8345457.1973491907 -11456287.198942512 0 0 0 0 1153113.0192564949 -1313520.023010388 0 -1313520.023010388 1136292.0012610555 0 0 0 0 25150888.319046021 -7303842.6291319728 0 -7303842.6291319728 -27917031.158158064 0 0 0 0 -84303.661694437265 -872527.41525023803 0 -872527.41525023803 1007154.8797789252 0 0 0 0 445627.13175114244 -306393.21449465305 0 -306393.21449465305 -353178.78096312808 0 0 0 0 -2168565.2978744507 -2732815.0674352646 0 -2732815.0674352646 -7886327.7559241802 0 0 0 0 -14419659.112251282 -11525742.385621101 0 -11525742.385621101 -6794547.8226920366 0 0 0 0 4864420.3382110596 -6976914.6500804424 0 -6976914.6500804424 -9943050.4516677149 0 0 0 0 178803448.17102051 -10443111.567484021 0 -10443111.567484021 20038117.863084674 0 0 0 0 193690817.56030273 -29015184.381313264 0 -29015184.381313264 -13146717.743330956 0 0 0 0 896514.93705510721 1055494.496001821 0 1055494.496001821 1355439.2291476624 0 0 0 0 -36356924.694091797 -16237046.466499567 0 -16237046.466499567 -46115530.657151699 0 0 0 0 36169913.311080933 -30282259.918416262 0 -30282259.918416262 -71009298.141017914 0 0 0 0 27454088.239711761 -21238515.183112681 0 -21238515.183112681 -65132487.293475628 0 0 0 0 25745170.601776123 -25274732.407907724 0 -25274732.407907724 -53442267.177579641 0 0 0 0 -14136939.852096558 -32977564.03916955 0 -32977564.03916955 -49210362.774965525 0 0 0 0 70398579.684387207 -5033318.264257431 0 -5033318.264257431 -173897300.25481319 0 0 0 0 -36657263.384100795 27280757.188675515 0 27280757.188675515 -86199585.046780109 0 0 0 0 10849371.985595703 -61375878.636882305 0 -61375878.636882305 -56835307.933393478 0 0 0 0 -10501618.270690918 -36052601.760778427 0 -36052601.760778427 -79089739.690589428 0 0 0 0 182391240.33000946 -53743615.442127883 0 -53743615.442127883 94317996.21767807 0 0 0 0 392303122.15161133 -149147234.07136726 0 -149147234.07136726 -193672782.85177517 0 0 0 0 435488507.82232666 -230640896.1228776 0 -230640896.1228776 115503294.13279533 0 0 0 0 300247272.18084717 -181665407.35954952 0 -181665407.35954952 179614722.46940506 0 0 0 0 252910168.66766357 -128745918.40582752 0 -128745918.40582752 172981534.51683164 0 0 0 0 280905754.5713501 -51443671.861922741 0 -51443671.861922741 62141765.41389513 0 0 0 0 399725146.04241943 -138273844.80085421 0 -138273844.80085421 102591338.78405619 0 0 0 0 356013384.0254364 -44566005.196335435 0 -44566005.196335435 8797486.0357036591 0 0 0 0 262023270.16671753 77821360.663106084 0 77821360.663106084 5476177.5029449463 0 0 0 0 356282137.61663818 -31754100.396650076 0 -31754100.396650076 33897424.121601105 0 0 0 0 289506554.35284424 21435529.368614912 0 21435529.368614912 7017476.8280954361 0 0 0 0 239970636.44454956 6421352.1760976315 0 6421352.1760976315 13029627.344388723 0 0 0 0 231828784.92575073 -2161891.140319109 0 -2161891.140319109 7521430.872107029 0 0 0 0 276865755.96257019 -52359119.030035496 0 -52359119.030035496 63462586.909439087 0 0 0 0 -239245.08691988885 -175875.95758268237 0 -175875.95758268237 18978.749038762842 0 0 0 0 121854257.16281891 46835087.047558188 0 46835087.047558188 44023593.051766396 0 0 0 0 10141896.362030029 2093330.5058526285 0 2093330.5058526285 -2243601.6299816258 0 0 0 0 248515.43469954841 289420.91442777961 0 289420.91442777961 749619.25176920858 0 0 0 0 183257300.67266083 9659964.921464026 0 9659964.921464026 19838641.434490681 0 0 0 0 244803845.76330566 27841142.160963655 0 27841142.160963655 -17087970.146947384 0 0 0 0 207491268.3351593 43640918.649196088 0 43640918.649196088 -4693331.6071368456 0 0 0 0 -143186.23703662027 -69042.484362222254 0 -69042.484362222254 136622.76249899872 0 0 0 0 54581189.471984863 16414818.103218675 0 16414818.103218675 6205700.5610132217 0 0 0 0 106026.80580827035 315107.14034577459 0 315107.14034577459 503791.5258731331 0 0 0 0 221133088.50987244 44052891.282334089 0 44052891.282334089 -15710181.316946507 0 0 0 0 213790749.52485657 36322099.002353996 0 36322099.002353996 3363279.2424719334 0 0 0 0 241660428.98327637 -4091961.4481256008 0 -4091961.4481256008 -1536022.1265101433 0 0 0 0 238939482.98187256 29352098.629609585 0 29352098.629609585 -11680129.524950564 0 0 0 0 229012286.9312439 26257300.568246901 0 26257300.568246901 104401.63569784164 0 0 0 0 211599305.53314209 30513495.099985838 0 30513495.099985838 -11499656.04998517 0 0 0 0 180238015.78811646 5419175.3723390102 0 5419175.3723390102 -290474.18508470058 0 0 0 0 215839894.91314697 26437934.43552655 0 26437934.43552655 -10203511.696714282 0 0 0 0 180284287.98135376 7594391.6904138923 0 7594391.6904138923 -7359614.0763144046 0 0 0 0 200758048.47460175 37933441.920119464 0 37933441.920119464 7673984.5989739895 0 0 0 0 167584994.33050537 16788965.533554375 0 16788965.533554375 -6026248.4390031099 0 0 0 0 288678147.54350281 42382093.690274149 0 42382093.690274149 -10880024.47155565 0 0 0 0 -30346.258505356032 32046.262662567198 0 32046.262662567198 43114.775328157179 0 0 0 0 94318495.508178711 -54313149.93153435 0 -54313149.93153435 -1867808.0243823528 0 0 0 0 231326987.78421021 16315757.549319804 0 16315757.549319804 3947013.4593450166 0 0 0 0 213914984.69448853 14418372.255897522 0 14418372.255897522 -3271443.2633978426 0 0 0 0 192291511.79878235 23927273.179313809 0 23927273.179313809 -1445521.32468009 0 0 0 0 156784743.06719971 85312206.017475039 0 85312206.017475039 18881039.695536137 0 0 0 0 188047415.05419922 28714648.247096121 0 28714648.247096121 22993531.109375052 0 0 0 0 214991872.93838501 58411246.605344355 0 58411246.605344355 26716815.878133774 0 0 0 0 195520196.81769562 18565969.608341396 0 18565969.608341396 -7793869.2743891478 0 0 0 0 138773783.54736328 -12061699.767712593 0 -12061699.767712593 -2998076.3021284342 0 0 0 0 173454122.31138611 10626412.92428267 0 10626412.92428267 -11772622.015595794 0 0 0 0 169779662.24029541 14694884.380509645 0 14694884.380509645 15310125.93663764 0 0 0 0 128063356.39549255 722821.59554450214 0 722821.59554450214 3427988.9270507842 0 0 0 0 127237931.18640137 -14300317.993666694 0 -14300317.993666694 -10915230.386886321 0 0 0 0 67665932.472854614 3314872.7750726044 0 3314872.7750726044 4481158.194588542 0 0 0 0 93986691.911148071 -18653758.132956237 0 -18653758.132956237 1126353.0727154016 0 0 0 0 113852128.62286377 6966638.8436635137 0 6966638.8436635137 -3619782.6222060621 0 0 0 0 45295179.780385017 -4819593.3447803892 0 -4819593.3447803892 17546319.45713079 0 0 0 0 105272129.15180969 -44285001.589739323 0 -44285001.589739323 -2854093.0323825777 0 0 0 0 175490673.5657196 41885356.428478241 0 41885356.428478241 -71950842.649119377 0 0 0 0 1308943.2230610326 1466467.3101525679 0 1466467.3101525679 1508637.9657796768 0 0 0 0 261653378.39685059 167959013.78362513 0 167959013.78362513 38998871.07050705 0 0 0 0 45920864.520097256 11962813.561741624 0 11962813.561741624 3139064.1209954619 0 0 0 0 143357893.2833252 231707223.03087425 0 231707223.03087425 510369787.87463379 0 0 0 0 42050163.44342041 -28576664.486953586 0 -28576664.486953586 -3463794.8976786882 0 0 0 0 59853867.351043701 -12647189.285746217 0 -12647189.285746217 -20415496.254435182 0 0 0 0 43593053.731262207 -20205058.052032068 0 -20205058.052032068 4301465.2047401816 0 0 0 0 4916629.6591491699 16042049.981780246 0 16042049.981780246 5187323.9663536996 0 0 0 0 82338250.354202271 8065333.8584702015 0 8065333.8584702015 -2913807.665597856 0 0 0 0 97279275.01071167 -17725357.659971707 0 -17725357.659971707 -8151420.0248163957 0 0 0 0 49251063.817237854 12316848.512729455 0 12316848.512729455 4808140.1883622557 0 0 0 0 33745813.238471985 -14288912.805537671 0 -14288912.805537671 -9534837.272462815 0 0 0 0 158255040.58061218 10705845.263064183 0 10705845.263064183 657132.70884552319 0 0 0 0 183530247.30764771 25490673.550663352 0 25490673.550663352 1613491.927899003 0 0 0 0 163614077.25326538 6548728.8840851486 0 6548728.8840851486 -2115999.1776803434 0 0 0 0 158984260.80187988 -4584816.1572847366 0 -4584816.1572847366 -11922264.509677239 0 0 0 0 162365596.9458313 10264922.151991174 0 10264922.151991174 -13132724.271140665 0 0 0 0 114343607.92591095 13482502.394541357 0 13482502.394541357 846893.66443820298 0 0 0 0 197558087.9852314 22172747.974202823 0 22172747.974202823 -12662614.13643378 0 0 0 0 147718826.3966217 20423290.839289054 0 20423290.839289054 3931497.7116628923 0 0 0 0 139528350.46060944 -455947.98673318792 0 -455947.98673318792 -11438396.43072959 0 0 0 0 130931736.076828 15244557.73429534 0 15244557.73429534 -45678.024760508742 0 0 0 0 171567451.90792656 6601259.2207820434 0 6601259.2207820434 -7306498.0496124439 0 0 0 0 130930608.02944946 15247924.153835462 0 15247924.153835462 39552.923247561601 0 0 0 0 83615287.949943542 2801944.1015464617 0 2801944.1015464617 9133899.9498992413 0 0 0 0 76345255.593307495 -14565811.847208681 0 -14565811.847208681 -8675264.2533120383 0 0 0 0 35317324.342750549 16378757.751638964 0 16378757.751638964 24861.297159173988 0 0 0 0 15013421.108516693 -8659558.7451587245 0 -8659558.7451587245 -3092524.7573877499 0 0 0 0 829036.73803893849 334253.16731211916 0 334253.16731211916 -150515.22822057328 0 0 0 0 -13337803.588439941 14841996.467650428 0 14841996.467650428 -1200.1716483393311 0 0 0 0 527322555.87378693 -117084848.25586788 0 -117084848.25586788 -30977742.835861683 0 0 0 0 239281154.307724 171934018.22551396 0 171934018.22551396 392557.22531472775 0 0 0 0 -98258620.413070679 183206470.14856237 0 183206470.14856237 -241386.54602687483 0 0 0 0 59271654.621284485 22289747.260026395 0 22289747.260026395 20315667.82357043 0 0 0 0 49085645.225189209 146582101.98079482 0 146582101.98079482 25818963.747023821 0 0 0 0 -74893450.230369568 69321546.888267875 0 69321546.888267875 50682545.054588675 0 0 0 0 131918010.10256958 -31320842.798120618 0 -31320842.798120618 80972660.243972182 0 0 0 0 201728772.1398468 38945520.215876341 0 38945520.215876341 -19958404.829114914 0 0 0 0 44187290.915557861 82202440.263215303 0 82202440.263215303 624502.98909687996 0 0 0 0 41477173.815536499 38088264.840934753 0 38088264.840934753 26665342.697490931 0 0 0 0 -30957902.979598999 72845318.660701871 0 72845318.660701871 2247834.6489670277 0 0 0 0 43699626.27356863 86007367.181094944 0 86007367.181094944 326061.39513206482 0 0 0 0 41457913.523757935 62219599.061519504 0 62219599.061519504 -44261191.865513086 0 0 0 0 -30432963.09336853 38885454.486530542 0 38885454.486530542 -45191190.160086296 0 0 0 0 121125955.17639923 3962390.0162183046 0 3962390.0162183046 -54950921.280712366 0 0 0 0 5537176.9409484863 35548069.592424393 0 35548069.592424393 -43818804.763285041 0 0 0 0 48945429.874717712 -41607818.415921032 0 -41607818.415921032 72833476.704270363 0 0 0 0 1433400.2913404778 1364286.001955051 0 1364286.001955051 928699.44418364402 0 0 0 0 154387979.02229309 34065710.301687479 0 34065710.301687479 -50526354.089297056 0 0 0 0 196873632.46617126 -66294639.812458515 0 -66294639.812458515 -152120276.84386492 0 0 0 0 -5340040.8677978516 18526571.449117489 0 18526571.449117489 1318734.6390287317 0 0 0 0 1134792.9872497395 811135.31143803149 0 811135.31143803149 247192.5903116265 0 0 0 0 264103986.58644104 -82845404.134993076 0 -82845404.134993076 11973288.621123314 0 0 0 0 11909949.430671692 7541300.4014579765 0 7541300.4014579765 3401017.2030353695 0 0 0 0 17312644.210395813 2094117.08558782 0 2094117.08558782 3999540.4919510484 0 0 0 0 2163751.7223388441 910600.74693414941 0 910600.74693414941 307649.68485939107 0 0 0 0 1424970.3587736627 110562.72725684941 0 110562.72725684941 -4597.709135308236 0 0 0 0 -15990075.156515598 4673274.9557107342 0 4673274.9557107342 7736940.2494787425 0 0 0 0 40436826.988052368 19176208.839351214 0 19176208.839351214 -52559.276489912707 0 0 0 0 9222440.6877593994 -3097892.1290762983 0 -3097892.1290762983 801663.41937983036 0 0 0 0 10353544.835998535 14421347.065143026 0 14421347.065143026 2364519.5883414373 0 0 0 0 10138251.038192749 12192767.114206882 0 12192767.114206882 1139.9619289178172 0 0 0 0 720915.28828719258 711093.41046209261 0 711093.41046209261 67077.682578740554 0 0 0 0 32182664.267837524 9201193.7588918544 0 9201193.7588918544 -7314323.0340602286 0 0 0 0 -340729369.66090393 1632217.951680094 0 1632217.951680094 87902901.048806429 0 0 0 0 -56783977.273468018 40391835.998110473 0 40391835.998110473 -26468933.153971016 0 0 0 0 -79428420.594261169 51496496.54034698 0 51496496.54034698 23775617.931937695 0 0 0 0 -37671253.166482925 55638844.304181024 0 55638844.304181024 1088504.4214253426 0 0 0 0 22812448.209518433 14840438.540017843 0 14840438.540017843 -21128258.942560196 0 0 0 0 7828694.1192932129 9320557.8313864022 0 9320557.8313864022 2861534.882059589 0 0 0 0 3023309.5652330145 1694495.8594766706 0 1694495.8594766706 -830609.08186922758 0 0 0 0 1328444.8104392067 1131004.7425145954 0 1131004.7425145954 -381190.9892001861 0 0 0 0 26569360.365325928 11822936.595417555 0 11822936.595417555 -4928467.392891705 0 0 0 0 14138152.586585999 -4170939.3797480986 0 -4170939.3797480986 -1023403.3853546083 0 0 0 0 25074216.113922596 3270704.4480612194 0 3270704.4480612194 -1352995.4660426378 0 0 0 0 2124504.130910764 339131.12119977921 0 339131.12119977921 -26261.500256069507 0 0 0 0 -6057074.6981048584 6581264.6727000102 0 6581264.6727000102 7181714.0045288801 0 0 0 0 3892449.2298527006 1329387.8690873086 0 1329387.8690873086 -121960.36690362882 0 0 0 0 12950410.604049683 4530314.6472771466 0 4530314.6472771466 -5032693.7361866534 0 0 0 0 9586941.11378479 2141099.1487783864 0 2141099.1487783864 -537808.05623155832 0 0 0 0 18657163.494584441 2783196.2727219947 0 2783196.2727219947 -1724684.1851024628 0 0 0 0 18611054.627532959 7765547.2621855736 0 7765547.2621855736 -1264409.3432359695 0 0 0 0 14762361.234119415 2518971.9082508087 0 2518971.9082508087 -1036316.6809072495 0 0 0 0 15884420.102701187 6669107.1210930943 0 6669107.1210930943 -1427657.4261519909 0 0 0 0 9781177.1353467479 4945970.6434357893 0 4945970.6434357893 -229663.66518975515 0 0 0 0 2224915.9589048773 3374674.3236914165 0 3374674.3236914165 282303.05959880661 0 0 0 0 3487590.8789634705 321285.76243428886 0 321285.76243428886 -119966.91962718964 0 0 0 0 14199985.694778442 6417391.9917290211 0 6417391.9917290211 -940196.96133339405 0 0 0 0 3885160.3440305307 3876369.8395972364 0 3876369.8395972364 -52535.605592100415 0 0 0 0 3764726.8451019377 3210701.3299157023 0 3210701.3299157023 -354718.4526062943 0 0 0 0 42124564.988006592 9371104.8740270138 0 9371104.8740270138 843206.96705627441 0 0 0 0 43009829.726623535 10181510.095545292 0 10181510.095545292 -2482153.8488485813 0 0 0 0 28312706.129379272 92938.07621049881 0 92938.07621049881 136731.87993526459 0 0 0 0 18564138.706970215 -3761419.3189821243 0 -3761419.3189821243 826182.46458172798 0 0 0 0 29000318.522232056 -1682032.9741024971 0 -1682032.9741024971 4715813.8341903687 0 0 0 0 41942607.839355469 -3081549.0506324768 0 -3081549.0506324768 4668211.4946556091 0 0 0 0 48223260.836807251 -9764565.0763409138 0 -9764565.0763409138 11289733.30701828 0 0 0 0 77769098.98348999 -5391039.7183139324 0 -5391039.7183139324 10415031.068599701 0 0 0 0 35891143.550971985 38666917.019932747 0 38666917.019932747 -17802927.202434063 0 0 0 0 14637006.227523804 4892120.2426846921 0 4892120.2426846921 -648107.84362959862 0 0 0 0 -268279.11372579634 242957.80828627571 0 242957.80828627571 193942.37854528124 0 0 0 0 76897742.498779297 40613582.587584496 0 40613582.587584496 -3710328.050037384 0 0 0 0 26107161.667766571 4109920.2946810722 0 4109920.2946810722 16147339.360595703 0 0 0 0 31308629.467163086 -1452820.7724084854 0 -1452820.7724084854 21365794.604132652 0 0 0 0 21028332.358734131 -3630312.7752027512 0 -3630312.7752027512 4074207.8091659546 0 0 0 0 9294881.7908935547 -6297882.4245386124 0 -6297882.4245386124 6340508.2282159328 0 0 0 0 4973760.6235961914 60834057.670293093 0 60834057.670293093 -87495722.933644533 0 0 0 0 79757.800745233893 -426614.86744261766 0 -426614.86744261766 -147463.05333160236 0 0 0 0 26372954.729751587 2914843.605933845 0 2914843.605933845 8494043.0871362686 0 0 0 0 9723910.9219360352 -8427991.5972719193 0 -8427991.5972719193 6707052.7608044147 0 0 0 0 17592261.331893921 -4049848.9987571239 0 -4049848.9987571239 1239757.7753982544 0 0 0 0 18379007.949554443 -6911776.6268949509 0 -6911776.6268949509 5657549.5548284054 0 0 0 0 10059631.02444458 -5683261.1379585266 0 -5683261.1379585266 2716592.7244501114 0 0 0 0 6982235.1356048584 -4515638.2869002819 0 -4515638.2869002819 3037737.689822197 0 0 0 0 10547295.365467072 -7707776.3616477251 0 -7707776.3616477251 -5742577.1734704971 0 0 0 0 -450252.62808609009 -13693812.241337955 0 -13693812.241337955 -3845922.483795166 0 0 0 0 12959312.093919039 -129816.12095449492 0 -129816.12095449492 313007.05331993103 0 0 0 0 -3035688.5239105225 -3504782.5155940056 0 -3504782.5155940056 664546.95872449875 0 0 0 0 13018743.904602051 -7211167.0487470627 0 -7211167.0487470627 -5148621.7346458435 0 0 0 0 3611724.9077148438 6186487.2456927299 0 6186487.2456927299 -6156951.3884525299 0 0 0 0 11045942.78515625 6267604.8885211945 0 6267604.8885211945 -11708432.362469673 0 0 0 0 30328239.42615509 23896019.324473381 0 23896019.324473381 16238988.551782608 0 0 0 0 25403710.896670341 22000445.378388524 0 22000445.378388524 16153808.760210991 0 0 0 0 18749766.501098633 20662767.933548927 0 20662767.933548927 15158501.892845631 0 0 0 0 25733221.240646839 27494643.239838451 0 27494643.239838451 19493006.582493305 0 0 0 0 456805.4485925734 274367.67215900496 0 274367.67215900496 -234402.39752540551 0 0 0 0 27994822.584236145 28835357.830030262 0 28835357.830030262 19178520.232165337 0 0 0 0 16681097.374298096 -14338349.404910088 0 -14338349.404910088 37966267.939455271 0 0 0 0 20900754.454208374 -2985832.5652999878 0 -2985832.5652999878 -7000142.1935195923 0 0 0 0 19197322.719299316 651098.63188457489 0 651098.63188457489 -14045116.480178833 0 0 0 0 7326804.815558359 78218.124256301671 0 78218.124256301671 -596426.17865494709 0 0 0 0 19671937.923095703 -4882275.4494276047 0 -4882275.4494276047 -10111993.238184452 0 0 0 0 5691889.4828491211 8999085.5031890869 0 8999085.5031890869 4838853.0001945496 0 0 0 0 1429869.0098260716 865821.61304354295 0 865821.61304354295 -726755.49913978716 0 0 0 0 17639275.928588867 -5845840.1241054535 0 -5845840.1241054535 -3696717.2022361755 0 0 0 0 20004188.281158447 543022.35212230682 0 543022.35212230682 2481057.3164367676 0 0 0 0 22437578.703918457 -2160559.756462574 0 -2160559.756462574 -8756973.4614953995 0 0 0 0 24009407.372772217 5662316.9186091423 0 5662316.9186091423 -6449383.528993994 0 0 0 0 20948015.086364746 175590.88447570801 0 175590.88447570801 -10153511.300198555 0 0 0 0 21244719.842407227 1532980.292301178 0 1532980.292301178 -5445222.3601379395 0 0 0 0 10612379.625961304 58803.16636967659 0 58803.16636967659 -5079660.378112793 0 0 0 0 26841148.496612549 -2411457.9539208412 0 -2411457.9539208412 -4731299.1164665222 0 0 0 0 28151619.256500244 2658039.8804600239 0 2658039.8804600239 -5149812.5600967407 0 0 0 0 27926348.386169434 7953995.2077112198 0 7953995.2077112198 -270666.58034348488 0 0 0 0 14300663.155563354 1638108.624737978 0 1638108.624737978 -989106.31774902344 0 0 0 0 4441198.037708357 2701485.5871944204 0 2701485.5871944204 -479925.81846955651 0 0 0 0 33995081.743942261 7340640.8336923122 0 7340640.8336923122 -6142267.7717847824 0 0 0 0 1873380.6787736146 4047496.0598217808 0 4047496.0598217808 -667906.37796089472 0 0 0 0 15256185.201755524 8806526.1044190526 0 8806526.1044190526 743817.77651977539 0 0 0 0 3706039.6159347929 3658485.7684768997 0 3658485.7684768997 -1270801.518165749 0 0 0 0 9037065.5215606689 2417716.5153369904 0 2417716.5153369904 242429.15831160545 0 0 0 0 21311153.178512573 -797854.47445368767 0 -797854.47445368767 -5005584.2013549805 0 0 0 0 9822779.326171875 11770928.939035416 0 11770928.939035416 3626270.3190689087 0 0 0 0 32161593.113918304 3977498.4189699292 0 3977498.4189699292 -2347158.3610253334 0 0 0 0 16706808.64024353 5453179.7503877878 0 5453179.7503877878 8072676.4006111622 0 0 0 0 25141815.237228394 12788767.141209126 0 12788767.141209126 535911.82475042343 0 0 0 0 22106795.647735596 7428256.6126031876 0 7428256.6126031876 -1247766.6526384354 0 0 0 0 20936855.816314697 5111412.9901907444 0 5111412.9901907444 -2455191.7176132202 0 0 0 0 19702699.842605591 32999978.578189373 0 32999978.578189373 84747703.438218594 0 0 0 0 11443489.057952881 29840886.907230377 0 29840886.907230377 86889083.294440746 0 0 0 0 20772067.612411499 45054197.638039827 0 45054197.638039827 59208739.230219364 0 0 0 0 19991185.689666748 51799419.660890579 0 51799419.660890579 64198346.114871025 0 0 0 0 19213779.884212494 55928124.679465204 0 55928124.679465204 122500197.57269764 0 0 0 0 52980321.034393311 90569101.314925432 0 90569101.314925432 51468786.674907207 0 0 0 0 8548132.3677062988 112074523.43860149 0 112074523.43860149 354508586.79651308 0 0 0 0 78662915.73550415 146751844.23812437 0 146751844.23812437 168555976.02829155 0 0 0 0 17072559.3019104 26584255.51085043 0 26584255.51085043 160156012.11578441 0 0 0 0 19923625.196563721 24162436.49545002 0 24162436.49545002 96130161.966532707 0 0 0 0 148778692.79091644 -46371157.08785063 0 -46371157.08785063 -203675808.70159626 0 0 0 0 582935.78206193447 -104969.83320492599 0 -104969.83320492599 -69177.255381096445 0 0 0 0 -144550914.76634216 -468911236.80700541 0 -468911236.80700541 178019514.36139965 0 0 0 0 142622931.09596252 -66918211.889679432 0 -66918211.889679432 -140489603.84630847 0 0 0 0 1790644.6753836274 -292653.24152938183 0 -292653.24152938183 -273765.3682056251 0 0 0 0 -14798502.195068359 41535317.75919342 0 41535317.75919342 -103492060.10455418 0 0 0 0 1490828.3041534424 -56327227.657638073 0 -56327227.657638073 -103796737.32492137 0 0 0 0 -38003221.042022705 -54887549.239257336 0 -54887549.239257336 -269461853.39860106 0 0 0 0 82937.580703131855 71639.096329476684 0 71639.096329476684 -94670.226417668629 0 0 0 0 43945020.04801178 58201231.73909533 0 58201231.73909533 -149402224.80212402 0 0 0 0 54750416.055473328 50871898.702370346 0 50871898.702370346 -187800558.19560599 0 0 0 0 133269.32188886404 -1321857.4261353968 0 -1321857.4261353968 -431143.87195624784 0 0 0 0 58569247.864646912 13820114.234853506 0 13820114.234853506 -163562100.68941665 0 0 0 0 -3633715.4648284912 -1588335.1990606785 0 -1588335.1990606785 5047262.8233048916 0 0 0 0 6577978.6629943848 -6854847.1934490204 0 -6854847.1934490204 -10006123.268446445 0 0 0 0 -4363497.5892028809 -4119682.8268973827 0 -4119682.8268973827 -1166233.4314664006 0 0 0 0 2842586.1702423245 -206811.97398541868 0 -206811.97398541868 102373.92272978649 0 0 0 0 14511903.967353821 28625961.697826087 0 28625961.697826087 53808804.348483086 0 0 0 0 23306489.811553955 41804666.207642555 0 41804666.207642555 47153526.27946806 0 0 0 0 30309084.520996094 29103647.666244984 0 29103647.666244984 33303119.624390125 0 0 0 0 37015481.969848633 41312724.141190529 0 41312724.141190529 15861424.15493679 0 0 0 0 3384159.3460083008 -15617644.558446884 0 -15617644.558446884 -7897279.0208053589 0 0 0 0 25366252.733047485 41416122.382381439 0 41416122.382381439 16747172.281785488 0 0 0 0 31342145.553909302 34579497.375441551 0 34579497.375441551 24214930.029375553 0 0 0 0 4024033.1999617741 -529795.6861965172 0 -529795.6861965172 409099.16564840497 0 0 0 0 35282228.406692505 31301927.436101437 0 31301927.436101437 12670562.11309123 0 0 0 0 26396239.391143799 26053075.90637064 0 26053075.90637064 23758599.621853024 0 0 0 0 32718374.714584351 22374203.511092186 0 22374203.511092186 1373642.1220231056 0 0 0 0 32287979.030578613 25774227.211649895 0 25774227.211649895 9222134.2581036091 0 0 0 0 34137619.356338501 25433210.469091654 0 25433210.469091654 4154005.3343343735 0 0 0 0 42339193.803710938 28522567.320353746 0 28522567.320353746 -5319177.7019107342 0 0 0 0 38855470.35194397 14661099.484141111 0 14661099.484141111 -26798368.53193295 0 0 0 0 55230968.35635376 41663116.422247648 0 41663116.422247648 -8880085.7158033848 0 0 0 0 36423758.144339561 35782715.165298283 0 35782715.165298283 12539214.625821114 0 0 0 0 47571758.354278564 60141596.780847549 0 60141596.780847549 28723855.04351759 0 0 0 0 47567172.069697618 60988750.63516096 0 60988750.63516096 31069833.54461813 0 0 0 0 102964291.46304321 73571713.527540207 0 73571713.527540207 -3951952.5367074013 0 0 0 0 118329123.67018127 12222614.662560225 0 12222614.662560225 -66102132.837491512 0 0 0 0 74886759.547241211 11103196.381921291 0 11103196.381921291 -46819649.496216893 0 0 0 0 16253445.292053223 -9917697.3919353485 0 -9917697.3919353485 -38023969.673919678 0 0 0 0 47834277.661605835 25022468.43127203 0 25022468.43127203 -27479240.425262451 0 0 0 0 25341648.162452698 -18720330.102992058 0 -18720330.102992058 -51128856.130000114 0 0 0 0 5311497.0926055908 -8532210.7676537037 0 -8532210.7676537037 -31053757.682239771 0 0 0 0 27818816.799697876 -14166130.317761064 0 -14166130.317761064 -49217400.62710309 0 0 0 0 32769970.144515991 3791296.8603727818 0 3791296.8603727818 -30921611.760289907 0 0 0 0 33978851.748550415 12056110.204845428 0 12056110.204845428 -20289467.831495404 0 0 0 0 13372089.178733826 -8429039.7128617764 0 -8429039.7128617764 -22916076.947537661 0 0 0 0 6012842.8440551758 -3124885.7099459171 0 -3124885.7099459171 -14690476.679376125 0 0 0 0 -6045510.9240570068 -26347548.616490006 0 -26347548.616490006 -31686991.827331632 0 0 0 0 9054530.9474105835 -8562951.4220773876 0 -8562951.4220773876 -16825421.558254138 0 0 0 0 8598703.1923131943 -5195217.3706946969 0 -5195217.3706946969 -9907326.8563117981 0 0 0 0 24644643.139953613 1666717.5074378252 0 1666717.5074378252 -17393339.307266235 0 0 0 0 56992169.260955811 -21280251.874793649 0 -21280251.874793649 -32888784.735846043 0 0 0 0 68387109.218673706 -77171193.788096666 0 -77171193.788096666 -79074313.464991331 0 0 0 0 3831562.3195783496 104088.6880973503 0 104088.6880973503 1349572.7875966458 0 0 0 0 22681119.499603271 2891038.3903717995 0 2891038.3903717995 -2380853.7557444712 0 0 0 0 22755810.667861938 2897115.8060858548 0 2897115.8060858548 -5349109.4988355041 0 0 0 0 16404019.827720642 1912157.0431853533 0 1912157.0431853533 -6146384.0077205896 0 0 0 0 16969114.70010376 585051.69366979599 0 585051.69366979599 -5490240.2834267616 0 0 0 0 28474315.924636841 7615135.022115469 0 7615135.022115469 -11271338.781448901 0 0 0 0 25691570.444671631 2594210.0662349463 0 2594210.0662349463 -13125084.738222122 0 0 0 0 24663152.700162888 5834265.5985545814 0 5834265.5985545814 -6484660.3086924553 0 0 0 0 29799315.223739624 10314577.452225924 0 10314577.452225924 -8233050.6909279823 0 0 0 0 27835890.611938477 9487147.9613842964 0 9487147.9613842964 -8162377.596206665 0 0 0 0 33328500.892120361 17171773.929563999 0 17171773.929563999 -6300158.8169379234 0 0 0 0 31503934.665252686 12655476.976287007 0 12655476.976287007 -11264606.715738773 0 0 0 0 32240608.183670044 13911079.357040405 0 13911079.357040405 -10215850.074165821 0 0 0 0 33493779.981109619 12740956.347230434 0 12740956.347230434 -16776484.082012594 0 0 0 0 23916227.081314087 2904951.3087863922 0 2904951.3087863922 -15462931.007721424 0 0 0 0 34948583.752532959 14810413.941246986 0 14810413.941246986 -15112178.820571184 0 0 0 0 30751143.141887665 13528521.470299572 0 13528521.470299572 -12485433.15747118 0 0 0 0 37969690.595436096 20421260.711222053 0 20421260.711222053 -9029740.8103551865 0 0 0 0 32210822.074447632 17723153.076210976 0 17723153.076210976 -6569642.3138566017 0 0 0 0 33473357.430053711 22172924.295053005 0 22172924.295053005 1426851.3648276329 0 0 0 0 30083879.927520752 19724561.060542107 0 19724561.060542107 2005516.2309222221 0 0 0 0 31542073.825126648 20720705.959442705 0 20720705.959442705 1093597.2025151253 0 0 0 0 28892924.107727051 17135818.598500967 0 17135818.598500967 -3334199.4658250809 0 0 0 0 28278200.30581665 17897675.381781816 0 17897675.381781816 1975671.5178713799 0 0 0 0 22760615.707199097 16974717.221108198 0 16974717.221108198 2701106.9667716026 0 0 0 0 29020798.372566223 22794214.764874876 0 22794214.764874876 8097677.6239233017 0 0 0 0 15976044.277282715 16947226.044497848 0 16947226.044497848 11041346.951090813 0 0 0 0 23708627.155822754 11692758.168349862 0 11692758.168349862 3221192.6072883606 0 0 0 0 18196804.329166412 10434339.357754052 0 10434339.357754052 2505431.165927887 0 0 0 0 6800631.3836669922 4326103.7578878403 0 4326103.7578878403 299684.60638237 0 0 0 0 25078284.202957153 11486771.216812521 0 11486771.216812521 -757614.62435483932 0 0 0 0 27438486.373451233 15302374.314003229 0 15302374.314003229 -808197.16613674164 0 0 0 0 29011883.148696899 13898007.154575109 0 13898007.154575109 -4802098.1338576078 0 0 0 0 30502872.210617065 15513582.840503693 0 15513582.840503693 -3124644.4519710541 0 0 0 0 55497607.408416748 34718777.214980364 0 34718777.214980364 28660816.540207148 0 0 0 0 23875601.96295929 15254557.247967839 0 15254557.247967839 21318672.903131962 0 0 0 0 -27226829.231140137 40254712.383504152 0 40254712.383504152 -29743559.976168275 0 0 0 0 10065457.600288391 2742568.4407856464 0 2742568.4407856464 -1766676.5511269569 0 0 0 0 2625116.9965476803 2263024.6455618702 0 2263024.6455618702 -208270.55290549772 0 0 0 0 11410018.615822986 259100.57983454689 0 259100.57983454689 -2880675.9109461284 0 0 0 0 13484324.122483008 2296493.9610939734 0 2296493.9610939734 -3896978.5577647905 0 0 0 0 357164884.14884949 331604719.15361929 0 331604719.15361929 -2931423.0513181686 0 0 0 0 2943321.4405021667 -133272805.083336 0 -133272805.083336 38440057.110150814 0 0 0 0 5867392.6938970508 4938878.8704209216 0 4938878.8704209216 -448728.87633319083 0 0 0 0 -54956107.025222778 -6237262.7105482817 0 -6237262.7105482817 227177851.65897465 0 0 0 0 7405721.8506164551 -32679294.691055775 0 -32679294.691055775 -65568042.592621803 0 0 0 0 130843854.4546814 69973480.957967281 0 69973480.957967281 -3862097.9901719093 0 0 0 0 2450543.2687799856 477521.69071185775 0 477521.69071185775 72648.580554707325 0 0 0 0 24268098.005470276 -168756793.43762153 0 -168756793.43762153 -146689330.14519405 0 0 0 0 1700299.0611027926 699759.82251536474 0 699759.82251536474 -911428.62300094729 0 0 0 0 -8961972.4166412354 12987806.728766441 0 12987806.728766441 5447835.698734045 0 0 0 0 -59186501.205337524 -81758902.797812104 0 -81758902.797812104 39316355.920454025 0 0 0 0 81094925.840854645 10739281.849727109 0 10739281.849727109 1506836.0883817673 0 0 0 0 208480127.80543518 209591019.48816991 0 209591019.48816991 170731362.51025295 0 0 0 0 32687403.934585452 -5448898.7462522481 0 -5448898.7462522481 -3729542.802649498 0 0 0 0 980741.15375943482 183951.28186986689 0 183951.28186986689 -93942.608480725263 0 0 0 0 113657828.91433716 88670383.965744972 0 88670383.965744972 17799291.900184631 0 0 0 0 33762834.40578413 58392435.101784408 0 58392435.101784408 44481414.104026794 0 0 0 0 143851765.87150574 17756013.804935694 0 17756013.804935694 -66767074.633621216 0 0 0 0 80943618.891494751 10382700.291055202 0 10382700.291055202 -36103633.211145878 0 0 0 0 603474609.28417969 29223032.777653217 0 29223032.777653217 -142943718.49344444 0 0 0 0 533132391.67644882 -521402858.6500355 0 -521402858.6500355 -230204028.16204262 0 0 0 0 -3519913.3240356445 -406614681.19771194 0 -406614681.19771194 -10003165.107645035 0 0 0 0 6151899.0585744251 4747777.0487373434 0 4747777.0487373434 790312.91796338302 0 0 0 0 -246834758.52178955 -86053149.465608418 0 -86053149.465608418 77870436.137818813 0 0 0 0 -53182007.607284546 106562702.12680995 0 106562702.12680995 -65186363.098087311 0 0 0 0 48970397.944366455 -972584.8984439373 0 -972584.8984439373 -52312991.03370285 0 0 0 0 78220569.046112061 39122712.985132933 0 39122712.985132933 -39085011.032485723 0 0 0 0 101638671.01665497 41469863.447041273 0 41469863.447041273 -57576315.652431011 0 0 0 0 144589208.55445862 -27598287.730255127 0 -27598287.730255127 -73032140.966252565 0 0 0 0 30430922.108154297 9093174.3515413404 0 9093174.3515413404 -6393186.5582842827 0 0 0 0 29758727.133789062 10506725.223015308 0 10506725.223015308 -3258716.3324667811 0 0 0 0 29723814.153541565 7403134.5812134743 0 7403134.5812134743 270241.43380074203 0 0 0 0 39688248.271621704 10166194.159560412 0 10166194.159560412 -3760381.1270146966 0 0 0 0 28226635.175018311 9585842.116132021 0 9585842.116132021 -2536927.8668346405 0 0 0 0 26135656.337673187 5737589.9479189441 0 5737589.9479189441 1923343.5570220351 0 0 0 0 25216284.80941391 2642605.1967978701 0 2642605.1967978701 -4599478.6427312493 0 0 0 0 35461948.560089111 7182353.9153073132 0 7182353.9153073132 -2905081.0146243274 0 0 0 0 21536684.727973603 5012080.5778668644 0 5012080.5778668644 -3275965.2255180515 0 0 0 0 66341871.621398926 -22236652.616581917 0 -22236652.616581917 -28044012.050394535 0 0 0 0 18645922.970123291 47810540.564570248 0 47810540.564570248 46865146.75246346 0 0 0 0 72386992.720016479 -31837583.632326901 0 -31837583.632326901 21056339.061445713 0 0 0 0 1036832.2049581334 4266670.8350360747 0 4266670.8350360747 -510305.17214173067 0 0 0 0 52921395.814926147 -105007196.27659243 0 -105007196.27659243 85117015.196957529 0 0 0 0 11324776.811197612 4444746.1659037098 0 4444746.1659037098 521601.49640712875 0 0 0 0 117282221.99878883 69514410.75430572 0 69514410.75430572 -125024623.15314102 0 0 0 0 -41195954.990813732 -4012844.3723937105 0 -4012844.3723937105 19960601.176190615 0 0 0 0 64052132.631088257 -23481328.445607394 0 -23481328.445607394 -56143933.903910756 0 0 0 0 76742038.027893066 49803250.771855682 0 49803250.771855682 -16986865.348738551 0 0 0 0 16864117.046585083 4618416.517947644 0 4618416.517947644 -21321193.96236955 0 0 0 0 20829154.086238861 5246009.552003324 0 5246009.552003324 -5309887.0332629681 0 0 0 0 33288495.441116333 22088875.997737199 0 22088875.997737199 -32322811.331519604 0 0 0 0 30584250.368743896 6733684.4068843126 0 6733684.4068843126 -5043623.0629822016 0 0 0 0 21448309.547748096 3779130.3325801902 0 3779130.3325801902 -2237003.2575208992 0 0 0 0 21491513.883056641 7436655.7423932552 0 7436655.7423932552 -181782.96107250452 0 0 0 0 21027429.772538185 4294843.2507758439 0 4294843.2507758439 -789655.06056857109 0 0 0 0 -15426496.589172363 17740573.610147417 0 17740573.610147417 11937253.827172756 0 0 0 0 6082249.2196455002 4545650.2535758317 0 4545650.2535758317 15602278.374531746 0 0 0 0 16604207.364562988 10378483.959564507 0 10378483.959564507 6484388.632250309 0 0 0 0 47481147.97958374 -9047893.6599645615 0 -9047893.6599645615 2583007.6200209856 0 0 0 0 79516919.909896851 -17333736.825233936 0 -17333736.825233936 -4150235.4942014217 0 0 0 0 430163.79063347424 -282480.13314471394 0 -282480.13314471394 18885.102392941713 0 0 0 0 -290663.4845123291 -12076215.395252466 0 -12076215.395252466 29912963.300255299 0 0 0 0 598410.02475968003 -297780.57954220846 0 -297780.57954220846 208415.71542150271 0 0 0 0 23308623.004425049 -13913414.267926216 0 -13913414.267926216 14068172.838731766 0 0 0 0 15443131.738428304 2686494.6935699508 0 2686494.6935699508 -1775291.0450224006 0 0 0 0 -10227884.528968811 14079949.547515154 0 14079949.547515154 13852549.274422169 0 0 0 0 27952581.260604858 28329598.911007404 0 28329598.911007404 -5271953.8631342053 0 0 0 0 35576599.675674438 16687476.204433203 0 16687476.204433203 -5052577.054696843 0 0 0 0 73737038.191680908 2737350.3316653967 0 2737350.3316653967 -4379407.2889997959 0 0 0 0 32063263.587677002 7790050.0952105522 0 7790050.0952105522 -10558435.462178469 0 0 0 0 18412865.208934784 -1412924.6887913942 0 -1412924.6887913942 -2384322.8873414993 0 0 0 0 7847066.3225402832 810500.99549818039 0 810500.99549818039 2986415.901194334 0 0 0 0 31998056.251319885 7389850.553314209 0 7389850.553314209 1770390.6480410099 0 0 0 0 15555649.181484595 -1430488.9438475445 0 -1430488.9438475445 -2126883.3694163244 0 0 0 0 36330823.104278564 234222.36555433273 0 234222.36555433273 -5116341.1333150864 0 0 0 0 5934210.4969482422 -1005529.8839211464 0 -1005529.8839211464 -529036.06976222992 0 0 0 0 6311735.3213675246 -3708032.4414604641 0 -3708032.4414604641 -247360.66016140615 0 0 0 0 -2302533.0253636166 3236010.5457424372 0 3236010.5457424372 127585.40684406285 0 0 0 0 18015330.189100835 4417807.4405832514 0 4417807.4405832514 532636.65127178957 0 0 0 0 -29693420.979766846 31597949.744697332 0 31597949.744697332 8996568.4558103681 0 0 0 0 4784432.5895606838 10220067.684629958 0 10220067.684629958 2800876.3841974386 0 0 0 0 -36932545.630783081 8370367.9882049561 0 8370367.9882049561 5127531.7454746962 0 0 0 0 6582673.9513975754 9852725.2658808995 0 9852725.2658808995 -558195.03707226575 0 0 0 0 -30342220.922805786 23933259.097282588 0 23933259.097282588 32077388.410271168 0 0 0 0 -49534631.821777344 -15107053.513812065 0 -15107053.513812065 5536433.0938842297 0 0 0 0 -502613.84144592285 30625467.368293285 0 30625467.368293285 10242877.724750519 0 0 0 0 -24780209.824157715 24271366.019720316 0 24271366.019720316 12836748.854645729 0 0 0 0 85227480.571472168 39510519.692738771 0 39510519.692738771 -3319909.8932127953 0 0 0 0 -1806736.0124287605 56162900.181594901 0 56162900.181594901 35294737.774712563 0 0 0 0 188902265.95011139 7126051.2954797745 0 7126051.2954797745 -40105162.894066811 0 0 0 0 122138883.16929626 82219336.495021343 0 82219336.495021343 9344067.3611452579 0 0 0 0 82734676.320205688 61293624.310977459 0 61293624.310977459 25276169.241996169 0 0 0 0 302333397.36710739 200521119.01598161 0 200521119.01598161 85539045.630605221 0 0 0 0 80557710.991333008 75636122.010670662 0 75636122.010670662 32866054.591557503 0 0 0 0 -50916174.252334595 77466109.3442626 0 77466109.3442626 110989070.07689619 0 0 0 0 -137498564.09793091 -10968075.861246824 0 -10968075.861246824 88548986.621661663 0 0 0 0 47907587.044456482 39123993.584643841 0 39123993.584643841 -23214982.683474541 0 0 0 0 52397600.66027832 -16804240.203343868 0 -16804240.203343868 278663086.4082185 0 0 0 0 421192469.08909607 -27331992.871990085 0 -27331992.871990085 -19977235.682515621 0 0 0 0 107336635.44215393 32000447.785558224 0 32000447.785558224 -4153469.1370815039 0 0 0 0 140165239.2281189 -25800585.932192326 0 -25800585.932192326 -82678646.016533241 0 0 0 0 -100731760.53203583 -101987848.1034528 0 -101987848.1034528 69197771.158216 0 0 0 0 15454956.354110718 -1059488.4182561617 0 -1059488.4182561617 -5121909.1251005195 0 0 0 0 -134252620.5761795 -42815117.886976242 0 -42815117.886976242 -9333239.859837532 0 0 0 0 6956638.0313287154 1475910.9443501346 0 1475910.9443501346 2399442.4955794895 0 0 0 0 15524576.521453857 1339443.3237985354 0 1339443.3237985354 -2825033.8353804331 0 0 0 0 23140183.730140686 14237508.730827808 0 14237508.730827808 -16750132.226223469 0 0 0 0 16779978.636148706 2947404.8076077467 0 2947404.8076077467 -2154877.1316343276 0 0 0 0 2952892.1440629736 7207510.9253441356 0 7207510.9253441356 2526834.4209862696 0 0 0 0 21646768.41330719 4469647.5502486946 0 4469647.5502486946 -1839338.1682358272 0 0 0 0 -61676436.922973633 -33969571.129135609 0 -33969571.129135609 19035881.292719364 0 0 0 0 -90075635.544807434 -94313345.391037941 0 -94313345.391037941 -90634444.742753983 0 0 0 0 587280.1589493379 1646539.0926984237 0 1646539.0926984237 330236.2014002768 0 0 0 0 -42032356.2266922 95326109.484805703 0 95326109.484805703 87149093.191869497 0 0 0 0 139994849.43770599 36949316.765382648 0 36949316.765382648 -171144370.82023782 0 0 0 0 -34011053.825798035 -56434249.099039793 0 -56434249.099039793 321134423.80776525 0 0 0 0 -60720791.228775024 -18884443.145189047 0 -18884443.145189047 162648810.73602939 0 0 0 0 59824469.967704773 -89463398.326038718 0 -89463398.326038718 -158321080.2404238 0 0 0 0 -57663333.916099548 -133128963.639346 0 -133128963.639346 21175810.318991661 0 0 0 0 65417028.705085754 58190364.960036278 0 58190364.960036278 5803476.802770853 0 0 0 0 4433925.2599302009 -270852.31985574402 0 -270852.31985574402 -471271.17059797165 0 0 0 0 166769455.96672058 26727809.041173458 0 26727809.041173458 -32648326.556049019 0 0 0 0 1322290.9434438422 -83884.932017967221 0 -83884.932017967221 -88095.688687875154 0 0 0 0 -48567933.160583496 115537252.39552808 0 115537252.39552808 -176337031.95123768 0 0 0 0 -326811976.15853882 228939923.58836627 0 228939923.58836627 328409978.98608398 0 0 0 0 78056205.843147278 -94864422.211543202 0 -94864422.211543202 -17147030.564164639 0 0 0 0 -6997420.208404541 -93799556.681172758 0 -93799556.681172758 -304089.69373115897 0 0 0 0 3728028.8221607618 -555852.14031473175 0 -555852.14031473175 -2193375.8453334644 0 0 0 0 235343412.46775818 -323904496.6029824 0 -323904496.6029824 -126628155.01359463 0 0 0 0 333397884.60864258 275944971.05840516 0 275944971.05840516 -159103548.93007779 0 0 0 0 19774289.125524715 -5040719.6517057847 0 -5040719.6517057847 -1576763.6129288757 0 0 0 0 -86886922.816699982 36991995.159615159 0 36991995.159615159 260851380.714643 0 0 0 0 313722872.17388916 131328427.93613291 0 131328427.93613291 39472513.839007616 0 0 0 0 -101174673.25360107 47856926.686281681 0 47856926.686281681 23078438.958186328 0 0 0 0 204868134.53164673 -214350922.76510215 0 -214350922.76510215 47940108.179629087 0 0 0 0 230011610.06675339 -146259599.9532961 0 -146259599.9532961 -281967645.12817526 0 0 0 0 4791133.5732421875 -36842408.464543819 0 -36842408.464543819 -19498772.402173042 0 0 0 0 20103074.383289337 67628867.622939318 0 67628867.622939318 -123672931.8707462 0 0 0 0 26159852.072502598 -8718208.9833796695 0 -8718208.9833796695 -147336.07479625783 0 0 0 0 18227963.806682587 -42198345.003648043 0 -42198345.003648043 -28839739.563020706 0 0 0 0 19411061.928279877 -36210222.973167419 0 -36210222.973167419 -54026065.815826893 0 0 0 0 27699628.79170822 -6846722.7213533707 0 -6846722.7213533707 -101801.183798471 0 0 0 0 -4522600.7016181946 -73129005.845355988 0 -73129005.845355988 -96277664.890416145 0 0 0 0 73717987.714841843 117302100.88530588 0 117302100.88530588 -40536024.099309921 0 0 0 0 -76553206.931966782 4087108.7334294319 0 4087108.7334294319 -12482662.502138138 0 0 0 0 27610216.325512625 -6187155.8509497754 0 -6187155.8509497754 -502984.73734315427 0 0 0 0 80118760.128131866 34517563.374282837 0 34517563.374282837 -28651829.756352186 0 0 0 0 80310873.508214951 36767837.231814861 0 36767837.231814861 -46414280.79120636 0 0 0 0 238107544.29434204 -10035259.484277725 0 -10035259.484277725 -68807091.624610901 0 0 0 0 148130616.90643311 68409173.362997055 0 68409173.362997055 -65533657.516218185 0 0 0 0 159445947.29017973 -3034769.3657753468 0 -3034769.3657753468 -32293468.250741959 0 0 0 0 182546281.10839462 -68392595.584501743 0 -68392595.584501743 -11530145.120750189 0 0 0 0 234096656.46630478 43877392.264908791 0 43877392.264908791 -76158702.259786844 0 0 0 0 12493909.668395996 17178960.108055592 0 17178960.108055592 2936562.696231842 0 0 0 0 11644394.31004715 27876345.925934792 0 27876345.925934792 1030584.4615974426 0 0 0 0 -228606.90438101068 1239125.5381177682 0 1239125.5381177682 -339091.90115717705 0 0 0 0 -69793370.093635559 138629964.22550201 0 138629964.22550201 -88916871.513665199 0 0 0 0 -72857151.261468887 -64436755.822046757 0 -64436755.822046757 141026588.30155373 0 0 0 0 -3674419.528678894 21255520.005257607 0 21255520.005257607 9332649.2715520859 0 0 0 0 -231646264.64574051 92182742.749753952 0 92182742.749753952 166275495.65207708 0 0 0 0 380006970.9882431 -224091756.18066692 0 -224091756.18066692 -224289983.92912626 0 0 0 0 16527473.800819397 5735647.5567736626 0 5735647.5567736626 -1698832.2698423862 0 0 0 0 15998027.377973119 3201875.9887903687 0 3201875.9887903687 -3432081.7392497277 0 0 0 0 24351344.815559387 6026486.4404573441 0 6026486.4404573441 295563.05969274044 0 0 0 0 -20282040.48033905 30900156.84483242 0 30900156.84483242 11115398.130752563 0 0 0 0 15768922.415237922 6435395.4387472263 0 6435395.4387472263 -685579.28785238042 0 0 0 0 -4115901.0600700378 37166275.854150772 0 37166275.854150772 6881731.1949340105 0 0 0 0 -18744359.178470612 32592340.806049824 0 32592340.806049824 10640097.411911011 0 0 0 0 28389051.864433289 8148944.3800907135 0 8148944.3800907135 -61753559.712585449 0 0 0 0 25856798.860801697 3867204.8224000931 0 3867204.8224000931 -2418685.3463821411 0 0 0 0 2876758.0108429729 7003294.4201679714 0 7003294.4201679714 -3847598.8286192841 0 0 0 0 20078356.895095825 75041.013460993767 0 75041.013460993767 727166.14091652632 0 0 0 0 -12212241.030960083 29706998.053347588 0 29706998.053347588 6335312.437605381 0 0 0 0 -15527670.576805115 27962053.103748322 0 27962053.103748322 4143439.6016216278 0 0 0 0 -3825045.5413970947 24354365.392284393 0 24354365.392284393 7973592.7703285217 0 0 0 0 -6745588.2333679199 33747347.085836411 0 33747347.085836411 7462830.0017566681 0 0 0 0 -10635254.306856155 33589469.72741437 0 33589469.72741437 2140686.9156723022 0 0 0 0 21815798.189264681 5414241.0735168308 0 5414241.0735168308 -3203925.2822899814 0 0 0 0 17286919.788152069 13272065.956110608 0 13272065.956110608 -4731898.9483798733 0 0 0 0 17494565.742515992 5012603.8646142855 0 5012603.8646142855 -1299873.8989317925 0 0 0 0 16343933.897140503 17434556.08023417 0 17434556.08023417 4489610.1423318386 0 0 0 0 27837466.5822258 9361231.6120755672 0 9361231.6120755672 -2579969.1632671356 0 0 0 0 16711953.575241089 10975885.360977054 0 10975885.360977054 1302491.6648054123 0 0 0 0 2244130.0343944561 844690.02919277176 0 844690.02919277176 -320207.94082505978 0 0 0 0 22676793.127197266 4986416.9476051331 0 4986416.9476051331 824566.81825757027 0 0 0 0 603422.09582662582 1653339.6574206972 0 1653339.6574206972 -344037.21978028491 0 0 0 0 -26398861.848125458 -9431588.4015663564 0 -9431588.4015663564 -24017091.558609962 0 0 0 0 12112719.670928702 1160444.2123885613 0 1160444.2123885613 -2724363.4974727402 0 0 0 0 -13432112.705871582 -247715.36756706238 0 -247715.36756706238 -8114209.5834941864 0 0 0 0 6589328.3856811523 -6562382.3465151787 0 -6562382.3465151787 -15462612.796514094 0 0 0 0 50000110.492492676 -36051274.048980713 0 -36051274.048980713 -18821236.085320473 0 0 0 0 -1142956.0105714798 -8030910.1394236479 0 -8030910.1394236479 -4584166.809885025 0 0 0 0 32053807.886680603 7252681.6839704514 0 7252681.6839704514 -13997957.003475189 0 0 0 0 7505390.3739138842 -1062441.4016559026 0 -1062441.4016559026 -7340043.1625647545 0 0 0 0 9029959.1279088855 1088163.7454251982 0 1088163.7454251982 -1834835.2912094223 0 0 0 0 49329375.369873047 34914329.915382147 0 34914329.915382147 -55887165.706847668 0 0 0 0 -27132021.925567627 -50160538.431894422 0 -50160538.431894422 36087394.976942539 0 0 0 0 29084211.175338745 36080272.024589062 0 36080272.024589062 -137893735.94534111 0 0 0 0 26693230.60144398 -3372327.9623262784 0 -3372327.9623262784 -2683061.6115647447 0 0 0 0 34877894.279891968 -37198736.642115593 0 -37198736.642115593 -56419100.58117342 0 0 0 0 32443150.166030884 12719999.373930931 0 12719999.373930931 5322423.1787321568 0 0 0 0 -7309112.3467559814 -57439924.883822918 0 -57439924.883822918 -11531358.220739365 0 0 0 0 8109414.7881729826 -272700.4828277668 0 -272700.4828277668 -1209392.3213399746 0 0 0 0 24594039.433624268 -9018431.3538591862 0 -9018431.3538591862 -46934389.895392895 0 0 0 0 -25776443.813201904 -17876855.765790462 0 -17876855.765790462 61920359.142511368 0 0 0 0 -735752.88272094727 1224684.5158571601 0 1224684.5158571601 -19063365.967694163 0 0 0 0 5511907.616733551 -12678612.041433319 0 -12678612.041433319 -3619439.7236261368 0 0 0 0 21468495.100204468 -18163706.109473705 0 -18163706.109473705 -34460038.244888783 0 0 0 0 28353650.098175049 41317550.392392874 0 41317550.392392874 1050334.2830423117 0 0 0 0 12792691.933021545 -13821725.602083266 0 -13821725.602083266 32174357.465650201 0 0 0 0 77037443.081286907 -982551.11200559512 0 -982551.11200559512 -5132254.7253767252 0 0 0 0 2651700.5429840088 1774471.1539446115 0 1774471.1539446115 8671010.825098617 0 0 0 0 5850856.6555328369 -17957416.534382552 0 -17957416.534382552 8393352.6310831308 0 0 0 0 66993637.925422668 -741688.73744106293 0 -741688.73744106293 -12514670.627498865 0 0 0 0 38339793.179916382 28053225.531855583 0 28053225.531855583 14923585.850682735 0 0 0 0 561179.60165241361 992465.71114932932 0 992465.71114932932 -409093.20229402499 0 0 0 0 1041234.1932067871 9429315.9255018234 0 9429315.9255018234 3710047.7194359303 0 0 0 0 5819418.9348907471 -980214.16716575623 0 -980214.16716575623 739652.76539814472 0 0 0 0 -3164745.0217437744 2148938.2720248699 0 2148938.2720248699 2581190.6732852757 0 0 0 0 -591713.81253676116 90444.685534883291 0 90444.685534883291 298506.85967754759 0 0 0 0 1825985.7473688126 -4219830.2503810152 0 -4219830.2503810152 2016647.4125311971 0 0 0 0 2826964.347366333 -4573092.792625308 0 -4573092.792625308 -1085608.5573688149 0 0 0 0 2855440.8853759766 -1958760.8096222878 0 -1958760.8096222878 -1610764.6788626909 0 0 0 0 134535.80908203125 3571486.5925459862 0 3571486.5925459862 1291314.9531965256 0 0 0 0 1532659.6826019287 -1086531.2369987965 0 -1086531.2369987965 6528397.748590827 0 0 0 0 1444291.3209157884 2437907.7284033075 0 2437907.7284033075 -1023481.2913728933 0 0 0 0 7396703.778743756 607291.34438360855 0 607291.34438360855 -1025171.1422768231 0 0 0 0 -2793458.2686963081 1084496.0903438181 0 1084496.0903438181 -1348838.0534439087 0 0 0 0 14392982.367553711 -51798521.269840717 0 -51798521.269840717 51098601.211158276 0 0 0 0 3204510.3278237283 1216544.4133187542 0 1216544.4133187542 -600047.80823277368 0 0 0 0 -119383.29177427292 819681.0326153487 0 819681.0326153487 -109455.16225814819 0 0 0 0 1894191.0441557467 1628229.1508266889 0 1628229.1508266889 773059.34192158142 0 0 0 0 6039032.8367957678 -353171.75624033809 0 -353171.75624033809 -644727.43539012177 0 0 0 0 764507.33743049949 4700085.9912810493 0 4700085.9912810493 -661162.44692331529 0 0 0 0 22859247.577178955 1794752.2837553024 0 1794752.2837553024 -105387004.68196583 0 0 0 0 5838628.8422851562 5070576.4885160923 0 5070576.4885160923 -408007.51991403103 0 0 0 0 8093522.9804534912 -114296347.62064052 0 -114296347.62064052 7303947.2809839249 0 0 0 0 766106.39890345791 13511.309316642582 0 13511.309316642582 -309767.21155734942 0 0 0 0 404739960.77160645 -213850380.82860947 0 -213850380.82860947 -335582634.82435799 0 0 0 0 -211259976.13900757 420505579.04561281 0 420505579.04561281 495408839.78588867 0 0 0 0 100075540.54663086 -102945083.88469839 0 -102945083.88469839 -23857353.396777153 0 0 0 0 5639902.0957794189 -44841396.949557185 0 -44841396.949557185 -12787831.545945644 0 0 0 0 16005779.942886353 -5228627.7004253864 0 -5228627.7004253864 2499800.45707798 0 0 0 0 6458770.1714886911 1455340.1430336609 0 1455340.1430336609 1717725.3969531986 0 0 0 0 13502996.876936555 -2460996.7894593813 0 -2460996.7894593813 8338859.6846735477 0 0 0 0 29253709.004898071 -9753018.342017889 0 -9753018.342017889 2580800.0724955611 0 0 0 0 53519906.96157074 3079739.375010252 0 3079739.375010252 -1337903.9326314926 0 0 0 0 29631948.308670044 -2911688.7486760616 0 -2911688.7486760616 3996695.9083929062 0 0 0 0 81059704.789718628 -3745733.3651213646 0 -3745733.3651213646 -2595573.1949839592 0 0 0 0 4380291.5930480957 8948304.7565245926 0 8948304.7565245926 6654236.9489555359 0 0 0 0 27754591.773258209 -3983903.9535631537 0 -3983903.9535631537 -9697749.2105696201 0 0 0 0 32596370.271835327 2712820.6563272476 0 2712820.6563272476 -2260749.5128040314 0 0 0 0 24116167.796768188 7769596.9009723663 0 7769596.9009723663 -2051594.4646281451 0 0 0 0 -85571114.361083984 16891018.638703346 0 16891018.638703346 192449999.05299163 0 0 0 0 130322652.31681824 -72047739.33220154 0 -72047739.33220154 -79351089.003969431 0 0 0 0 72781020.218017578 39051443.60816443 0 39051443.60816443 -113255187.97638798 0 0 0 0 385635.77499613911 -250948.93683062866 0 -250948.93683062866 75740.298224852071 0 0 0 0 -91622592.877655029 -50291587.330830157 0 -50291587.330830157 80206988.532710075 0 0 0 0 -70728364.838287354 -74903143.069687128 0 -74903143.069687128 72985989.52779372 0 0 0 0 8394117.3813323975 126455725.56711823 0 126455725.56711823 59581312.730509758 0 0 0 0 71238250.92338562 69124650.255247951 0 69124650.255247951 -117757909.46441162 0 0 0 0 111291852.90830994 121587772.08837616 0 121587772.08837616 -62950201.022539973 0 0 0 0 -66045103.847854614 -43858680.438059747 0 -43858680.438059747 -56435646.159949124 0 0 0 0 12934817.199506309 -8701747.4047673345 0 -8701747.4047673345 -2085713.9938620236 0 0 0 0 -30994665.971115112 73528525.53594774 0 73528525.53594774 -629952.5133907795 0 0 0 0 5848502.9703140259 -7597805.3278750628 0 -7597805.3278750628 40421585.825753242 0 0 0 0 15198031.06460841 -9002767.3180256262 0 -9002767.3180256262 -1380061.4053573115 0 0 0 0 15347506.02166748 -142220448.8863444 0 -142220448.8863444 62265397.093914568 0 0 0 0 96625045.449764252 77072838.92383489 0 77072838.92383489 -4553487.6551917791 0 0 0 0 -1845983.0197493359 -2259756.7120984215 0 -2259756.7120984215 1437447.0508926527 0 0 0 0 34378638.849210739 22428693.426397327 0 22428693.426397327 -40405684.00120154 0 0 0 0 50478638.463531494 6710453.3438262343 0 6710453.3438262343 -31136033.749989748 0 0 0 0 7543244.556060791 -24988772.247820884 0 -24988772.247820884 3673396.6135661006 0 0 0 0 65904681.149841309 32896709.381610259 0 32896709.381610259 -5929219.0652609617 0 0 0 0 73609622.95939827 43180107.535223648 0 43180107.535223648 3252080.4132091105 0 0 0 0 11519578.202895343 1898598.6342469305 0 1898598.6342469305 -2656185.0740242559 0 0 0 0 -2269541.8003311157 -99579289.322055399 0 -99579289.322055399 13023987.996390164 0 0 0 0 65697070.616668701 37912907.518909633 0 37912907.518909633 -28437215.812797576 0 0 0 0 19574313.40608225 -6554992.2550036497 0 -6554992.2550036497 -1632482.2456560016 0 0 0 0 34544613.573623657 -51033830.474389851 0 -51033830.474389851 -57105712.831427038 0 0 0 0 2728964.3552572206 566405.06159473956 0 566405.06159473956 -154552.63787531108 0 0 0 0 -16938647.446960449 25204903.610470712 0 25204903.610470712 -37906538.63091445 0 0 0 0 389020.66655276716 -233769.01254967228 0 -233769.01254967228 42724.054436059087 0 0 0 0 -83355069.206531525 -55963702.714417592 0 -55963702.714417592 10506183.151848614 0 0 0 0 152546813.64979553 17378919.613694608 0 17378919.613694608 -130790436.47572649 0 0 0 0 198219771.33123779 2675700.9418151379 0 2675700.9418151379 -128053592.94260907 0 0 0 0 -89853437.857208252 -42710560.604662061 0 -42710560.604662061 -24394538.990463257 0 0 0 0 163053114.96920776 -124941434.11352134 0 -124941434.11352134 2127494.0323170424 0 0 0 0 114415325.77440643 -49163903.682860732 0 -49163903.682860732 1031721.6709837914 0 0 0 0 726638.18669050932 -499173.21770634875 0 -499173.21770634875 154272.43071149191 0 0 0 0 -3764207.6158752441 -200208986.85290003 0 -200208986.85290003 -42174025.621693611 0 0 0 0 3490702.5961360931 -204454672.33555967 0 -204454672.33555967 10011451.243014574 0 0 0 0 -51960196.665603638 14692550.013245106 0 14692550.013245106 268765805.60598755 0 0 0 0 2449407.3345947266 46653137.886000514 0 46653137.886000514 -71160682.448911548 0 0 0 0 -149095.35087478906 -348241.09355971403 0 -348241.09355971403 6917.7885670522228 0 0 0 0 43836079.133041382 -128870313.27574086 0 -128870313.27574086 -163492804.85695338 0 0 0 0 17550790.418228149 -147566651.56430387 0 -147566651.56430387 136889266.49326897 0 0 0 0 147653434.53767395 -38584602.641474247 0 -38584602.641474247 17753870.005598307 0 0 0 0 187316609.09959412 142665005.81489003 0 142665005.81489003 24879332.712841749 0 0 0 0 111447036.70269775 194954274.77146971 0 194954274.77146971 320923853.68580294 0 0 0 0 -46070441.041603088 -10786578.872737288 0 -10786578.872737288 193791931.01973271 0 0 0 0 628164.52519226074 3395787.5242879391 0 3395787.5242879391 28055481.726688623 0 0 0 0 -64363194.64995575 3726328.2922860384 0 3726328.2922860384 30940718.944885254 0 0 0 0 -52846793.648544312 30229625.442545891 0 30229625.442545891 58101677.811613083 0 0 0 0 -122494581.5189209 15227784.370874166 0 15227784.370874166 79721285.189066887 0 0 0 0 -1038810.5750679523 -1378458.2340734955 0 -1378458.2340734955 353917.34776790522 0 0 0 0 -57243801.911346436 -56240619.642399311 0 -56240619.642399311 79753126.130455568 0 0 0 0 131340104.18365479 -111634404.52482128 0 -111634404.52482128 -135408713.98178673 0 0 0 0 -128386999.84704685 -65120961.615414336 0 -65120961.615414336 39451993.789450169 0 0 0 0 -93645033.034423828 125373027.1751976 0 125373027.1751976 47976411.304478407 0 0 0 0 18156197.251586914 -21825109.742182016 0 -21825109.742182016 -78061131.877278224 0 0 0 0 -4499798.760349378 -3791196.756321894 0 -3791196.756321894 2249551.5753609654 0 0 0 0 -14986147.788879395 3865023.635248661 0 3865023.635248661 -12693090.022205353 0 0 0 0 113741467.31079102 21588139.098095655 0 21588139.098095655 -75455194.166471958 0 0 0 0 102375688.39895248 75232293.140078872 0 75232293.140078872 1540255.2080426216 0 0 0 0 -22669377.598815918 -79516994.815389156 0 -79516994.815389156 72543860.216720104 0 0 0 0 114441756.07118607 36205328.680290788 0 36205328.680290788 -57594329.080970287 0 0 0 0 -27626034.968078613 -52872896.981847525 0 -52872896.981847525 -43605606.42157793 0 0 0 0 -15296014.580810547 -11156547.486164093 0 -11156547.486164093 -2540362.4726921478 0 0 0 0 -71983693.752685547 -51426537.85189867 0 -51426537.85189867 -2490719.1980047226 0 0 0 0 -128138755.45289612 19796401.539109707 0 19796401.539109707 47789680.402263641 0 0 0 0 16913644.151977539 5972490.8246326447 0 5972490.8246326447 -1951583.5721879005 0 0 0 0 -16863430.463638306 -3176651.4113254547 0 -3176651.4113254547 19520248.769987106 0 0 0 0 2402362.4260559082 -15127994.904876471 0 -15127994.904876471 22138632.384814739 0 0 0 0 -12758618.451568604 -13960348.047126412 0 -13960348.047126412 363311.06577682495 0 0 0 0 -18134361.926940918 -15551134.574723005 0 -15551134.574723005 7080803.9329395294 0 0 0 0 -21718681.659606934 -12119370.22759223 0 -12119370.22759223 4135593.5581068993 0 0 0 0 20947.188494980335 135837.46148345247 0 135837.46148345247 356585.87020184053 0 0 0 0 23844689.829193115 -13896672.26420927 0 -13896672.26420927 8186342.3158931732 0 0 0 0 66712055.367263794 82057216.632516265 0 82057216.632516265 -16324028.085343599 0 0 0 0 -14123096.529602051 -41198391.262507439 0 -41198391.262507439 40287334.512847394 0 0 0 0 27534862.765075684 -10405498.409093738 0 -10405498.409093738 1973024.7485618591 0 0 0 0 -983043.94848632812 1572937.158198595 0 1572937.158198595 4233419.3538622856 0 0 0 0 100989.84288684838 320506.47770433873 0 320506.47770433873 1071327.657162861 0 0 0 0 1515818.4829044342 13757.537666261196 0 13757.537666261196 -155113.72464179993 0 0 0 0 -204161.49652126431 441525.40456920862 0 441525.40456920862 460338.65504946909 0 0 0 0 6016945.8905944824 7627731.9900527 0 7627731.9900527 8913253.4800742865 0 0 0 0 -6762767.1530780792 -1968120.1325542517 0 -1968120.1325542517 8498556.8092136383 0 0 0 0 -12582548.737182617 -1702817.2107572556 0 -1702817.2107572556 12788626.362476885 0 0 0 0 -6550589.3819274902 5389291.1508809328 0 5389291.1508809328 24869638.278301418 0 0 0 0 -3840928.1444702148 1163431.594892025 0 1163431.594892025 9605963.5028269291 0 0 0 0 112737.5143879801 -72844.343731936067 0 -72844.343731936067 1043796.5499485736 0 0 0 0 -1483218.6015472412 -1633056.0221100831 0 -1633056.0221100831 1336133.4676347941 0 0 0 0 958614.63751220703 1374863.2131717205 0 1374863.2131717205 1645758.0133110285 0 0 0 0 1885813.2523803711 1362118.2719035149 0 1362118.2719035149 2354621.4389466643 0 0 0 0 6265407.7866821289 737288.82186353207 0 737288.82186353207 1430371.9217171669 0 0 0 0 373016799.3000946 402900180.83193898 0 402900180.83193898 277525514.43172789 0 0 0 0 239760.02739621699 95671.214391689748 0 95671.214391689748 107180.83378576813 0 0 0 0 393448225.39403915 369949727.05193067 0 369949727.05193067 183742487.44766259 0 0 0 0 395087614.39202881 323226736.74948907 0 323226736.74948907 196523496.40829015 0 0 0 0 -2579499.0559387207 6902886.970277071 0 6902886.970277071 -11400502.048661232 0 0 0 0 3893409.0559234619 -4035269.6043419242 0 -4035269.6043419242 -1498056.6091332436 0 0 0 0 -16173018.327697754 25806099.584105015 0 25806099.584105015 -13394105.889277935 0 0 0 0 -67085.529046334326 142167.91277271137 0 142167.91277271137 134769.03308001347 0 0 0 0 -14131044.542053223 14035027.89140296 0 14035027.89140296 4446798.5546741486 0 0 0 0 22361813.850418091 -1894469.9738082886 0 -1894469.9738082886 -1017442.2240245342 0 0 0 0 24335379.932441711 3378425.8007781506 0 3378425.8007781506 -2208151.9697377682 0 0 0 0 32842857.687393188 -3604406.7837466002 0 -3604406.7837466002 -2133283.4005551338 0 0 0 0 27699188.789360046 2079848.8895015717 0 2079848.8895015717 -859877.01160645485 0 0 0 0 16700858.19631958 -6149102.9108923674 0 -6149102.9108923674 4644349.2815189362 0 0 0 0 22045807.037384033 -2488861.5016334057 0 -2488861.5016334057 -1620304.9323358536 0 0 0 0 22001834.226783752 -2251970.4716650248 0 -2251970.4716650248 -2490970.1302485466 0 0 0 0 25281724.383148193 -5510749.8423681259 0 -5510749.8423681259 -1166274.0702232122 0 0 0 0 6170407.5571289062 -2394936.2320358753 0 -2394936.2320358753 1279813.2583360672 0 0 0 0 6381391.1805636659 722855.23711774498 0 722855.23711774498 -66046.984279749682 0 0 0 0 24936589.048416138 993019.89607930183 0 993019.89607930183 -2526348.9316596985 0 0 0 0 -932398.44042904675 -750629.08584980667 0 -750629.08584980667 600272.89016572677 0 0 0 0 17727304.907730103 -4906914.4345830679 0 -4906914.4345830679 286845.93911719322 0 0 0 0 10452961.555395983 2648582.4454495721 0 2648582.4454495721 1231020.2417770773 0 0 0 0 14453172.314664841 -689039.83214566112 0 -689039.83214566112 593287.23850798607 0 0 0 0 -92090765.751419067 -40228050.859103084 0 -40228050.859103084 42519585.432724476 0 0 0 0 11491702.865361225 -7431540.6021792181 0 -7431540.6021792181 -2590715.0462672142 0 0 0 0 -36788150.740753174 7133362.6635723114 0 7133362.6635723114 -35597867.783149958 0 0 0 0 -35556807.929504395 2261788.8470544815 0 2261788.8470544815 -36528175.17039299 0 0 0 0 -30715878.384643555 5818707.3750109673 0 5818707.3750109673 -35853737.789862633 0 0 0 0 -18289522.08102417 -4592159.9304949045 0 -4592159.9304949045 -34188703.678918362 0 0 0 0 3611787.7713928223 -1131284.5459765196 0 -1131284.5459765196 -2032802.1123986244 0 0 0 0 -4872470.9333496094 -14969807.659540176 0 -14969807.659540176 -27728598.593589306 0 0 0 0 -4872470.9333496094 -14969807.659609795 0 -14969807.659609795 -27728598.593602777 0 0 0 0 -4872470.9333496094 -14969807.659657478 0 -14969807.659657478 -27728598.593657017 0 0 0 0 6920808.6711540744 -7385185.0211795792 0 -7385185.0211795792 -1825484.4327219557 0 0 0 0 -3504702.9245910645 -10174621.995799541 0 -10174621.995799541 -2246409.6629474163 0 0 0 0 5369803.7949867249 -3878734.35074866 0 -3878734.35074866 -1582791.200237765 0 0 0 0 -13903372.526855469 -13466248.280347824 0 -13466248.280347824 2135363.9442564249 0 0 0 0 -3288109.430847168 -8949943.3042042255 0 -8949943.3042042255 -12557955.225541115 0 0 0 0 -17011611.858032227 -22175569.839669108 0 -22175569.839669108 -13319080.134052277 0 0 0 0 -5362394.4884681702 -3677202.1256307364 0 -3677202.1256307364 2677412.364443779 0 0 0 0 -4598825.7424316406 -6111331.3444795609 0 -6111331.3444795609 4901156.7499092817 0 0 0 0 -10444497.785858154 -10815978.803462267 0 -10815978.803462267 1387759.8939310312 0 0 0 0 60918.675201416016 -2608715.3405787786 0 -2608715.3405787786 -117520.10889467783 0 0 0 0 -1231269.1342468262 -2531090.2147031603 0 -2531090.2147031603 2966759.8048709123 0 0 0 0 1076263.558013916 -4288525.4100385904 0 -4288525.4100385904 -425549.70121629164 0 0 0 0 16050148.537872314 -8037867.3515644073 0 -8037867.3515644073 -193781.64836931229 0 0 0 0 8019639.4899587259 -2613257.2260126844 0 -2613257.2260126844 -14486.785456638318 0 0 0 0 3625466.3006706238 -4687373.9467957914 0 -4687373.9467957914 -372285.89239621162 0 0 0 0 612997.01770019531 -10881898.938334942 0 -10881898.938334942 -2745620.5201292932 0 0 0 0 16598075.312309265 1034315.1540465355 0 1034315.1540465355 -744502.26185941696 0 0 0 0 13885193.494430542 -1651031.4968647957 0 -1651031.4968647957 1809971.2888798714 0 0 0 0 18486611.992279053 -4219264.2698514462 0 -4219264.2698514462 3199274.6224813461 0 0 0 0 20641789.566791534 -730034.05357831717 0 -730034.05357831717 -289255.18000125885 0 0 0 0 18251898.870483398 1512798.9059735537 0 1512798.9059735537 -1732826.441883564 0 0 0 0 18793998.113739014 1186904.0478293896 0 1186904.0478293896 -1598222.4313188791 0 0 0 0 18707948.295425415 2911059.188824892 0 2911059.188824892 -1830768.1142733097 0 0 0 0 8269474.3187103271 3892381.8091657683 0 3892381.8091657683 846711.42925525829 0 0 0 0 4517854.3313807622 1092215.8675198928 0 1092215.8675198928 -296413.58378302428 0 0 0 0 7790972.262714386 -7282600.1116832513 0 -7282600.1116832513 -7696944.5753681809 0 0 0 0 18054792.923347473 1375380.5244493484 0 1375380.5244493484 -731738.05370569229 0 0 0 0 8087704.0322780609 8533529.8755189888 0 8533529.8755189888 -2631472.3989918381 0 0 0 0 11861583.561147623 3128628.0180562939 0 3128628.0180562939 -1325144.4270842648 0 0 0 0 3388933.6106338501 -3000921.3475124985 0 -3000921.3475124985 -1021823.2485873699 0 0 0 0 8813515.3976879083 -2040377.6640179306 0 -2040377.6640179306 -721231.50222037197 0 0 0 0 4804088.6783801019 -1545755.5462084729 0 -1545755.5462084729 -385283.4109602776 0 0 0 0 8806964.707901001 1507115.4899420813 0 1507115.4899420813 -2675699.1209806502 0 0 0 0 1766305.7620391846 -2650200.6873117387 0 -2650200.6873117387 -1075258.2246184498 0 0 0 0 1786672.690782547 -2511158.2528070123 0 -2511158.2528070123 -126676.70065079071 0 0 0 0 913870.05397960544 -404485.58843892813 0 -404485.58843892813 947745.24426740361 0 0 0 0 1822588.4895324707 -643832.31163574755 0 -643832.31163574755 -438391.1523540467 0 0 0 0 518174.17381286621 -160728.95505389571 0 -160728.95505389571 394354.27253556252 0 0 0 0 406532.74456787109 -3452.6278687119484 0 -3452.6278687119484 480079.77655768394 0 0 0 0 2083429.4254616201 -629629.36640640534 0 -629629.36640640534 105730.08231956119 0 0 0 0 183384.35313473642 -172370.83129216544 0 -172370.83129216544 -148688.84511319434 0 0 0 0 -5504947.7801208496 9611264.9253282044 0 9611264.9253282044 43871955.54012917 0 0 0 0 18563467.073181152 9506045.8656879291 0 9506045.8656879291 -60390690.043301836 0 0 0 0 64745072.020111084 12184990.352691345 0 12184990.352691345 26815173.223455284 0 0 0 0 133385432.60766602 56254797.561723866 0 56254797.561723866 91850.536298682375 0 0 0 0 16009509.445205688 26567640.275873683 0 26567640.275873683 80891314.562240303 0 0 0 0 15772144.108345032 95839699.74572812 0 95839699.74572812 168815067.46488771 0 0 0 0 22930325.519073486 39021930.857730776 0 39021930.857730776 13892776.960092194 0 0 0 0 14294152.610816956 -28230561.402919099 0 -28230561.402919099 9714158.3754004054 0 0 0 0 4724485.9283599854 4095865.9634841979 0 4095865.9634841979 1034431.0355557539 0 0 0 0 12654263.60269165 -1442963.337279968 0 -1442963.337279968 -10111559.803415865 0 0 0 0 890438.4713557139 404881.25842363387 0 404881.25842363387 -77782.979956982366 0 0 0 0 717709.08323574066 194716.0998679027 0 194716.0998679027 -326587.53602631961 0 0 0 0 10624079.440856934 4033409.9451476336 0 4033409.9451476336 -4513190.2928351462 0 0 0 0 4049916.9553375244 -43230.203869584948 0 -43230.203869584948 11597124.674743589 0 0 0 0 19244103.236923218 8556211.7326467261 0 8556211.7326467261 -2200086.3676784672 0 0 0 0 20320152.83404541 24613769.917362273 0 24613769.917362273 8294080.5435040668 0 0 0 0 -2933525.2006340027 5989525.847156289 0 5989525.847156289 41063.543363036137 0 0 0 0 374606.3006759733 235213.36384845152 0 235213.36384845152 124048.90391124629 0 0 0 0 32514059.067642212 -19059106.32398824 0 -19059106.32398824 -3360.0515619227008 0 0 0 0 -10276769.881622314 -9289461.0752709173 0 -9289461.0752709173 3945098.3687106371 0 0 0 0 24220086.193099976 -3949906.2651620926 0 -3949906.2651620926 -10962019.834547237 0 0 0 0 364603096.2869854 217915497.94362235 0 217915497.94362235 69299007.956371427 0 0 0 0 362469482.59075928 239377013.93679035 0 239377013.93679035 73638438.704804778 0 0 0 0 411120372.69145584 285637503.86639875 0 285637503.86639875 112878391.37103927 0 0 0 0 379266334.70072174 282798589.87513614 0 282798589.87513614 117858893.67162025 0 0 0 0 420198685.2980175 262992060.18586996 0 262992060.18586996 36255539.696718454 0 0 0 0 308330934.55683899 284699998.17614472 0 284699998.17614472 282744168.61990941 0 0 0 0 256795429.66326523 181234110.1440849 0 181234110.1440849 120591475.29182971 0 0 0 0 682710.68319797516 214874.32293843478 0 214874.32293843478 282170.94473754545 0 0 0 0 -106738.49957275391 336941.99311935902 0 336941.99311935902 941721.44404113293 0 0 0 0 560952.88791694492 625792.25258616731 0 625792.25258616731 1015973.7975615372 0 0 0 0 874444.20045810938 285081.3039355725 0 285081.3039355725 505335.76111926511 0 0 0 0 410857.50316070579 414492.79682645947 0 414492.79682645947 800781.87136376509 0 0 0 0 2656861.694229126 1520077.008760199 0 1520077.008760199 -8917365.9985540807 0 0 0 0 217550791.4722023 124454586.65284148 0 124454586.65284148 73613281.85653007 0 0 0 0 321181910.76983643 212570683.54309356 0 212570683.54309356 120124357.57201804 0 0 0 0 376768830.38978577 221007980.81556526 0 221007980.81556526 69828817.002478629 0 0 0 0 365313647.21848297 213215060.96186194 0 213215060.96186194 101143396.27163076 0 0 0 0 378925164.86560059 173286457.52485386 0 173286457.52485386 85748005.646150708 0 0 0 0 510118278.56231689 241031308.53259036 0 241031308.53259036 80287230.498635948 0 0 0 0 -30729413.957244873 8680143.7285491526 0 8680143.7285491526 61869679.472746283 0 0 0 0 149305.89584928937 134355.3112552762 0 134355.3112552762 278367.10837603064 0 0 0 0 14181889.185752869 26006990.460280955 0 26006990.460280955 -21098031.374236673 0 0 0 0 417052163.49609375 171241800.07442433 0 171241800.07442433 51710499.950798571 0 0 0 0 388516548.56863403 220942104.76923108 0 220942104.76923108 160236186.00327075 0 0 0 0 330785476.68586731 175697797.23665318 0 175697797.23665318 51106546.135360405 0 0 0 0 329267593.43672276 119356410.15142751 0 119356410.15142751 111545506.11025235 0 0 0 0 407129025.49176025 144995807.73365465 0 144995807.73365465 91778.584813998343 0 0 0 0 392325659.95587158 182211192.94032273 0 182211192.94032273 64084501.334270246 0 0 0 0 416192872.04953003 208773976.42156705 0 208773976.42156705 -134450.99881548109 0 0 0 0 398895158.4032135 197466831.66278619 0 197466831.66278619 54905398.917533875 0 0 0 0 404348251.72210693 244251574.06208912 0 244251574.06208912 65717364.008035332 0 0 0 0 379309595.11592865 224234405.53795922 0 224234405.53795922 55014283.969319701 0 0 0 0 419138961.88355255 232661511.04263014 0 232661511.04263014 28223230.347005129 0 0 0 0 424398366.33106232 225059010.53991008 0 225059010.53991008 31531523.082421362 0 0 0 0 431222521.5425415 226299071.26966318 0 226299071.26966318 702192.67352221755 0 0 0 0 436047753.83860397 239713136.35199809 0 239713136.35199809 33239243.522307634 0 0 0 0 411489067.46147156 213877085.17349982 0 213877085.17349982 29391124.175802439 0 0 0 0 438823742.10154724 250513039.04245782 0 250513039.04245782 44196381.523557663 0 0 0 0 440300265.98268127 227272180.28522342 0 227272180.28522342 -14625882.370395184 0 0 0 0 475072310.476717 278672999.72955114 0 278672999.72955114 24546213.942107201 0 0 0 0 458616439.66925049 334090631.95723498 0 334090631.95723498 103226647.17990196 0 0 0 0 455798991.0700531 304779878.04570401 0 304779878.04570401 2075885.4949406385 0 0 0 0 337849724.90899658 138110814.83844292 0 138110814.83844292 -77653444.987506986 0 0 0 0 61687839.389647007 -45735456.732602239 0 -45735456.732602239 -154942165.58763266 0 0 0 0 457231531.16374016 198623657.6675947 0 198623657.6675947 -105681313.35694051 0 0 0 0 587806857.71438599 301042482.28507257 0 301042482.28507257 -62577326.917448521 0 0 0 0 403771855.6598568 181705475.60187668 0 181705475.60187668 -37701103.637305379 0 0 0 0 361242329.86994934 194798814.27972049 0 194798814.27972049 -24828995.138562441 0 0 0 0 298552675.70767593 64311932.257731602 0 64311932.257731602 -98132692.610746861 0 0 0 0 60509766.809310913 71414559.590515196 0 71414559.590515196 21269139.244294524 0 0 0 0 274124.3688223958 145804.24827783927 0 145804.24827783927 61657.868093427314 0 0 0 0 50161673.583084106 33286680.10392933 0 33286680.10392933 130808.25386425006 0 0 0 0 193869618.16751862 75897073.677506775 0 75897073.677506775 8444759.851727128 0 0 0 0 188330867.58851624 166037280.27434272 0 166037280.27434272 86834337.846490622 0 0 0 0 382294060.18261719 327820918.31776202 0 327820918.31776202 216129195.98965883 0 0 0 0 320023.99767376482 217862.04460922256 0 217862.04460922256 100418.49740233688 0 0 0 0 99109025.954536438 91310274.356694043 0 91310274.356694043 68892524.014121845 0 0 0 0 112041234.40710449 103687658.35540725 0 103687658.35540725 -26660.329073030814 0 0 0 0 120053285.10391235 58544862.736353889 0 58544862.736353889 71765164.822148949 0 0 0 0 51200027.606468201 37439197.33153303 0 37439197.33153303 -59566376.832258016 0 0 0 0 -24548586.732643127 145974988.74985802 0 145974988.74985802 -24869026.988396227 0 0 0 0 -79144987.879554749 188080422.94838881 0 188080422.94838881 -144537601.28241062 0 0 0 0 -62432523.052398682 146892112.50123882 0 146892112.50123882 366066429.91814661 0 0 0 0 144899823.54541016 242023189.01827174 0 242023189.01827174 -255806493.57931679 0 0 0 0 239948.37700197101 253098.16969830636 0 253098.16969830636 44219.608369118127 0 0 0 0 20016634.536514282 231012417.65356123 0 231012417.65356123 -65957082.628338695 0 0 0 0 48882824.250549316 231852721.31761456 0 231852721.31761456 102202253.93362498 0 0 0 0 153274765.38665771 328432061.29947066 0 328432061.29947066 74140943.415289879 0 0 0 0 31425167 131643138.22442615 0 131643138.22442615 -25544309.746493697 0 0 0 0 114004040.14627075 145779827.66267955 0 145779827.66267955 -165613447.99069476 0 0 0 0 3160504.2905426025 38567496.332029104 0 38567496.332029104 33560641.815485001 0 0 0 0 53101933.456604004 -10512061.365905762 0 -10512061.365905762 -104768253.77939939 0 0 0 0 72856013.173461914 -6206403.431833446 0 -6206403.431833446 -167876277.99098659 0 0 0 0 77486.355980426073 50051.224524248391 0 50051.224524248391 49632.481266748859 0 0 0 0 13633549.589080811 49728447.80937171 0 49728447.80937171 -87438098.714048505 0 0 0 0 181641295.94903564 111828375.6587503 0 111828375.6587503 73822968.203558922 0 0 0 0 162793839.93321228 277010395.14594233 0 277010395.14594233 132471045.3783246 0 0 0 0 325759877.91134644 184556145.33944809 0 184556145.33944809 -81427795.833073139 0 0 0 0 147523790.05059814 164937980.685534 0 164937980.685534 27368333.706435204 0 0 0 0 112548855.85003662 102118481.8615222 0 102118481.8615222 -170947069.22347891 0 0 0 0 138688259.00195312 90554813.249887943 0 90554813.249887943 -90146213.654260159 0 0 0 0 148486977.86118126 175315602.64531976 0 175315602.64531976 -85312231.786451817 0 0 0 0 44710985.234600067 86842918.605711877 0 86842918.605711877 -44658594.829468727 0 0 0 0 43942916.369659424 89626766.174812853 0 89626766.174812853 -47439965.610521317 0 0 0 0 205265669.94494629 210742425.34371758 0 210742425.34371758 -49850876.106473923 0 0 0 0 82408478.460449219 170355682.79889727 0 170355682.79889727 -25065663.847292662 0 0 0 0 123574818.68325806 140588025.43921673 0 140588025.43921673 -64722142.007822037 0 0 0 0 153969113.74905396 181782749.25564158 0 181782749.25564158 -62090386.116819382 0 0 0 0 48093185.860778809 197146384.83924413 0 197146384.83924413 -59578961.994577765 0 0 0 0 36658112.477325439 110703515.55884504 0 110703515.55884504 -57720707.532157004 0 0 0 0 35877132.016357422 128458684.69512224 0 128458684.69512224 -116032632.17313719 0 0 0 0 -33383761.536804199 83299859.309508443 0 83299859.309508443 -44599457.88073349 0 0 0 0 16615299.002586365 24705535.646777868 0 24705535.646777868 -153129056.81288624 0 0 0 0 12952629.459993362 24090718.007471733 0 24090718.007471733 -26128931.65162158 0 0 0 0 60320389.336395264 83931268.57696259 0 83931268.57696259 -73667642.199253082 0 0 0 0 -19397243.733062744 206463606.21778381 0 206463606.21778381 -487874727.40313363 0 0 0 0 -156977895.35513306 161149859.35082579 0 161149859.35082579 -110025349.79782343 0 0 0 0 -33316552.880126953 104353675.91384077 0 104353675.91384077 -119803206.59556824 0 0 0 0 21392731.625991821 218375777.26430091 0 218375777.26430091 -192219611.88474488 0 0 0 0 -2139362.8099365234 20764284.518416882 0 20764284.518416882 43776101.856976748 0 0 0 0 -808700.5093126893 362918.55448391475 0 362918.55448391475 -95368.06417499925 0 0 0 0 69307590.415252686 -8570734.1595492959 0 -8570734.1595492959 -707347511.06268167 0 0 0 0 -6994832.6082611084 38452659.855903506 0 38452659.855903506 -271194200.1561451 0 0 0 0 29061938.070031166 169349184.67765126 0 169349184.67765126 -166939096.85460198 0 0 0 0 -126668795.97067261 145118688.09995461 0 145118688.09995461 -115513816.60930538 0 0 0 0 22665223.790054321 102397627.50116277 0 102397627.50116277 -313706172.51330829 0 0 0 0 9477992.1960296631 65828319.493683398 0 65828319.493683398 -244748766.1102196 0 0 0 0 -1812895.4446555972 2381462.3947769143 0 2381462.3947769143 -780626.70410302328 0 0 0 0 20561777.432594299 7164490.019605279 0 7164490.019605279 282457.24365448952 0 0 0 0 1215634.4341551438 699716.77282935008 0 699716.77282935008 -616118.1760155292 0 0 0 0 -47218998.464149475 95645229.45973298 0 95645229.45973298 -197763158.68039739 0 0 0 0 2868511.5346336365 -1380677.3314216137 0 -1380677.3314216137 1309482.8686414957 0 0 0 0 879520.51846846938 100460.92594147101 0 100460.92594147101 -580558.36778833508 0 0 0 0 4440463.0806503296 -5172437.2418039441 0 -5172437.2418039441 -2036027.8430763483 0 0 0 0 2325523.6560668945 4778765.2649929523 0 4778765.2649929523 -12845226.063313484 0 0 0 0 3183433.7502632141 -1191295.8564473093 0 -1191295.8564473093 -6046394.1531822681 0 0 0 0 7373355.6601692662 479929.98833115399 0 479929.98833115399 -3002126.5834242525 0 0 0 0 3170375.1202697754 22369071.284967899 0 22369071.284967899 -587156.78552675247 0 0 0 0 11577334.53629607 4446505.5555456579 0 4446505.5555456579 -2788071.7869256753 0 0 0 0 302373572.02229309 568654290.59173179 0 568654290.59173179 593062452.00625753 0 0 0 0 4753086.7362976074 -5047677.4214733839 0 -5047677.4214733839 -9239847.1143598557 0 0 0 0 131665738.00904846 403675848.59477186 0 403675848.59477186 651650088.59342289 0 0 0 0 821393.15441130102 121233.27262720093 0 121233.27262720093 -569965.44771611365 0 0 0 0 -76114500.129547119 357840889.51631165 0 357840889.51631165 1448278940.8201447 0 0 0 0 9065517.8202209473 40894683.286317945 0 40894683.286317945 -17158584.018774986 0 0 0 0 25680926.554779053 4341300.900885582 0 4341300.900885582 -38660871.525183678 0 0 0 0 9054723.5584483668 -215500.27644963004 0 -215500.27644963004 -1798208.7851699279 0 0 0 0 281928838.25434875 368980738.42060876 0 368980738.42060876 961517920.70329213 0 0 0 0 244065917.24530029 573682178.64736557 0 573682178.64736557 1404991339.4976158 0 0 0 0 240660866.46232605 752767869.84002304 0 752767869.84002304 1260251013.3312345 0 0 0 0 500803825.60792542 571401372.11137235 0 571401372.11137235 838984610.45083046 0 0 0 0 12699024.032616615 30617482.838920206 0 30617482.838920206 -134785030.51091814 0 0 0 0 484639046.41779327 1151928556.2090988 0 1151928556.2090988 2174619120.4387884 0 0 0 0 2977442.0253380686 144147.43859951571 0 144147.43859951571 -380073.06014574715 0 0 0 0 649128650.77487946 6773400.3626070023 0 6773400.3626070023 780194761.10333776 0 0 0 0 407635735.92550659 -158725968.8441329 0 -158725968.8441329 319025732.41652489 0 0 0 0 1370753623.4527817 678961544.70853662 0 678961544.70853662 572586791.89455795 0 0 0 0 317606010.38139343 544368778.10753334 0 544368778.10753334 775516506.96888113 0 0 0 0 264849553.74845886 232268658.94270754 0 232268658.94270754 662901934.10670018 0 0 0 0 186604480.85179138 -28121581.323661089 0 -28121581.323661089 330177613.21529388 0 0 0 0 111867818.59341431 32776846.677977085 0 32776846.677977085 281450364.90886188 0 0 0 0 221930967.39680481 332501760.65879369 0 332501760.65879369 466000061.75719118 0 0 0 0 349015229.40994263 486594792.88960457 0 486594792.88960457 980947271.75886512 0 0 0 0 336505953.91178036 366465258.01278305 0 366465258.01278305 317129441.18423223 0 0 0 0 352019001.49563599 356016528.98698163 0 356016528.98698163 186697181.7781235 0 0 0 0 357119382.29173279 447162130.22953892 0 447162130.22953892 366251443.0388025 0 0 0 0 585944904.81749725 492042770.0903821 0 492042770.0903821 13363165.575797319 0 0 0 0 492169819.7934494 344898542.60177571 0 344898542.60177571 44803285.858517885 0 0 0 0 510471438.09082031 110528006.71002436 0 110528006.71002436 -188725177.61673832 0 0 0 0 -45440049.719047546 -207728439.54917946 0 -207728439.54917946 -257657646.74378204 0 0 0 0 459314366.5954895 163853225.90619469 0 163853225.90619469 -90013882.313825846 0 0 0 0 460531507.1859436 105970224.66191101 0 105970224.66191101 -175974758.817105 0 0 0 0 866138194.08483887 116318105.6188848 0 116318105.6188848 -484443576.95949578 0 0 0 0 775698061.42324829 812068296.72703362 0 812068296.72703362 460397430.71387887 0 0 0 0 1098162115.8962936 504743940.22600549 0 504743940.22600549 -327596076.865695 0 0 0 0 784493921.22750092 69865831.130861878 0 69865831.130861878 -330331.66654756968 0 0 0 0 3463714689.2043686 -96993535.613777399 0 -96993535.613777399 485206645.72525567 0 0 0 0 3597558793.8114338 -873670422.19630814 0 -873670422.19630814 -236074935.1481548 0 0 0 0 1860048593.8489785 -2112369988.3048394 0 -2112369988.3048394 475672921.51707834 0 0 0 0 4070370461.776865 744394255.64919996 0 744394255.64919996 -182707065.60682452 0 0 0 0 -362882742.34301758 456573420.78012437 0 456573420.78012437 -190710129.00183919 0 0 0 0 3261491.3532641679 695281.70789560489 0 695281.70789560489 -164963.97916966048 0 0 0 0 64226129.766639709 14726166.015288852 0 14726166.015288852 36330413.057521403 0 0 0 0 6504352.0512628406 2261132.6473666839 0 2261132.6473666839 92450.569905650802 0 0 0 0 521430582.17258453 249226710.79623103 0 249226710.79623103 -770380510.92157221 0 0 0 0 1931280706.6931674 290302974.93176037 0 290302974.93176037 -1637087014.9620275 0 0 0 0 295916806.95222473 -308706718.88581002 0 -308706718.88581002 -144206205.80113521 0 0 0 0 168666636.6188736 1853654219.167522 0 1853654219.167522 237713404.22372001 0 0 0 0 3187121.0909254327 1579773.32056541 0 1579773.32056541 405201.60760743311 0 0 0 0 857691054.95852661 2006147561.6324432 0 2006147561.6324432 -899837925.14066792 0 0 0 0 2304374012.3492279 -393784652.96963948 0 -393784652.96963948 -357886881.30266488 0 0 0 0 2155147159.9618378 1004626651.6259546 0 1004626651.6259546 -114056383.0217129 0 0 0 0 692121472.68630981 1089841111.8990822 0 1089841111.8990822 439948864.49644816 0 0 0 0 979651799.94192505 -479729156.4129169 0 -479729156.4129169 264240488.90374231 0 0 0 0 684174237.17648315 386448951.55757749 0 386448951.55757749 -324550169.28334832 0 0 0 0 1405582567.3794785 592440704.51533318 0 592440704.51533318 -423699488.03628302 0 0 0 0 1680270655.7544403 259588589.79965556 0 259588589.79965556 -159306986.08015239 0 0 0 0 1033278339.7576294 -306550229.2747668 0 -306550229.2747668 -343606030.70432734 0 0 0 0 847662399.13744259 556346321.605968 0 556346321.605968 64529071.431606859 0 0 0 0 828811734.23956299 50272770.920493767 0 50272770.920493767 8291483.1057289038 0 0 0 0 881527848.11657715 34875874.787385799 0 34875874.787385799 -101411281.99251404 0 0 0 0 132968715.91212463 64388031.447081722 0 64388031.447081722 262218.24293870776 0 0 0 0 516997.65423618257 324015.99866793863 0 324015.99866793863 2834.3184301795554 0 0 0 0 -180775758.28260803 210651747.4404875 0 210651747.4404875 -141803560.72874451 0 0 0 0 -277277551.60076904 177717506.27069616 0 177717506.27069616 -79163526.335973501 0 0 0 0 745145.04957526922 600791.25640989281 0 600791.25640989281 79233.58119533665 0 0 0 0 920452815.88415527 281357410.2451365 0 281357410.2451365 -559357241.67339897 0 0 0 0 -274861591.7613678 20562754.09291625 0 20562754.09291625 -227178234.72649372 0 0 0 0 147701.21566939354 137215.75578200072 0 137215.75578200072 -6738.6418618541211 0 0 0 0 -192661886.95127106 -114149162.63413352 0 -114149162.63413352 30162302.785935044 0 0 0 0 696367448.79218674 256105977.18851671 0 256105977.18851671 183536829.40333402 0 0 0 0 -169041677.2179718 224937444.77900878 0 224937444.77900878 -82806217.0213947 0 0 0 0 -195940007.79647827 138030540.2440424 0 138030540.2440424 -82109458.046834111 0 0 0 0 82353876.134094238 -26047447.604236841 0 -26047447.604236841 -12554958.572986484 0 0 0 0 521699.14371452481 417727.6147592552 0 417727.6147592552 -114404.97571038757 0 0 0 0 49837443.717041016 36801713.58452785 0 36801713.58452785 -29902145.825819999 0 0 0 0 -9528848.1461257935 2234829.5389277935 0 2234829.5389277935 -6657101.6614224911 0 0 0 0 44288217.9271698 68863630.721435547 0 68863630.721435547 -36502045.495380163 0 0 0 0 40993459.469444275 778465.97478643805 0 778465.97478643805 -44632409.956709862 0 0 0 0 17220444.940261841 13809686.050067067 0 13809686.050067067 -8010684.310402751 0 0 0 0 41921657.779815674 6881467.8724423647 0 6881467.8724423647 -10865810.356592827 0 0 0 0 48990803.589477539 87649476.861297607 0 87649476.861297607 227027516.91110992 0 0 0 0 14689084.158203125 -21208190.176592827 0 -21208190.176592827 -19502875.998114228 0 0 0 0 15478999.54627192 2264071.0133700315 0 2264071.0133700315 -3724565.7941031912 0 0 0 0 7240920.1628570557 -5628008.2622686028 0 -5628008.2622686028 -8220757.4827408791 0 0 0 0 9224245.6495694816 2611104.5295260344 0 2611104.5295260344 -2340610.2228739029 0 0 0 0 112740374.18589783 -69709422.390703678 0 -69709422.390703678 -55045521.849144936 0 0 0 0 4425682.5124416351 2538538.1838289723 0 2538538.1838289723 -3739852.1140025854 0 0 0 0 31404407.068695068 23684667.019567013 0 23684667.019567013 -80329258.121853352 0 0 0 0 -7415028.66065979 -12894520.332539558 0 -12894520.332539558 48328288.673535824 0 0 0 0 22142239.044929504 49724077.408118665 0 49724077.408118665 61889795.956380486 0 0 0 0 221675.44974438101 -96702.539241399616 0 -96702.539241399616 -97549.621821240697 0 0 0 0 8009590.7918245271 988100.63253937662 0 988100.63253937662 -6902610.5347912945 0 0 0 0 -14857188.232666016 -41867502.669850826 0 -41867502.669850826 146760271.49740791 0 0 0 0 -105704302.33083344 -89417157.749439716 0 -89417157.749439716 -45702346.525557518 0 0 0 0 10878956.074309818 4634385.1319293529 0 4634385.1319293529 -2111737.3702467941 0 0 0 0 -323273719.37275696 -45546653.613992572 0 -45546653.613992572 223092956.24880457 0 0 0 0 381736442.8580246 251923651.75921583 0 251923651.75921583 -142911302.6528964 0 0 0 0 146935324.20620346 -209987928.27408159 0 -209987928.27408159 537199723.9073391 0 0 0 0 12924832.070900418 7470157.1918130666 0 7470157.1918130666 -142204.13095084298 0 0 0 0 45875236.886672974 -14997462.087157249 0 -14997462.087157249 -298522323.40421677 0 0 0 0 189757167.24252319 -196076293.67577839 0 -196076293.67577839 -202579447.28924847 0 0 0 0 -143401798.9233017 -67587496.349041224 0 -67587496.349041224 621144828.91918755 0 0 0 0 196192718.58167839 768709394.73029768 0 768709394.73029768 1146162889.2136717 0 0 0 0 -72104998.537338257 -183196693.63658309 0 -183196693.63658309 116727860.17639399 0 0 0 0 242642729.50816345 232652859.04218125 0 232652859.04218125 -63280264.625808477 0 0 0 0 -248460024.76701355 -104351317.39483453 0 -104351317.39483453 488262927.39593339 0 0 0 0 2289534.064160835 -385231.04472859949 0 -385231.04472859949 -2127920.8823710787 0 0 0 0 615035456.27592468 587927494.81689215 0 587927494.81689215 185503034.9134779 0 0 0 0 737439677.3002243 1131439902.8496323 0 1131439902.8496323 525365316.6205337 0 0 0 0 2257983696.6007996 940090895.99251533 0 940090895.99251533 -108573331.6563164 0 0 0 0 545888978.44787598 778250119.19718981 0 778250119.19718981 -100167599.31106055 0 0 0 0 862488021.88601685 1104071997.2086983 0 1104071997.2086983 478755473.19380474 0 0 0 0 2919126456.1922913 399295562.83867586 0 399295562.83867586 286374703.00461626 0 0 0 0 3040277248.3924561 337379221.41715753 0 337379221.41715753 -66596294.409623146 0 0 0 0 2830868866.9347839 38304277.980065584 0 38304277.980065584 147265495.24593806 0 0 0 0 4276489997.8529968 -1035112317.9097304 0 -1035112317.9097304 1501783091.3090067 0 0 0 0 2797574022.258255 281050102.00316048 0 281050102.00316048 880330248.1337862 0 0 0 0 3273783117.0230103 -543502252.32583654 0 -543502252.32583654 3351570274.3179846 0 0 0 0 805695720.99292755 1154239556.4618402 0 1154239556.4618402 1182905698.6570716 0 0 0 0 3290135679.1348724 1311637478.7588077 0 1311637478.7588077 805945455.76507378 0 0 0 0 517545749.86816406 948980431.49805236 0 948980431.49805236 1454211624.6922455 0 0 0 0 1328879116.6553802 -1209652485.2894611 0 -1209652485.2894611 557516067.36234176 0 0 0 0 3317339558.549057 -1873030113.701376 0 -1873030113.701376 760035760.13134623 0 0 0 0 4970709.0478943437 2892139.4839579519 0 2892139.4839579519 717902.69701505778 0 0 0 0 3387395581.8458405 -452418938.68173981 0 -452418938.68173981 -218620175.679708 0 0 0 0 1692704278.0553741 -517364439.42104173 0 -517364439.42104173 -71968425.495177865 0 0 0 0 1688911464.3744965 -446707916.87718117 0 -446707916.87718117 -151179194.92824554 0 0 0 0 3169792352.8238678 67842400.697314501 0 67842400.697314501 -315226592.51697159 0 0 0 0 3246870302.0039234 -64763519.460072458 0 -64763519.460072458 -615295872.89996719 0 0 0 0 2823009.7333191056 358127.58100081608 0 358127.58100081608 2031345.5657428098 0 0 0 0 4920888867.7239227 -461138525.37634051 0 -461138525.37634051 -658007300.17129183 0 0 0 0 1356228.1136968071 -8068.9560116268694 0 -8068.9560116268694 1360717.6073895767 0 0 0 0 2921901651.8131585 165843935.51323298 0 165843935.51323298 312954454.81607312 0 0 0 0 3002970173.6635361 -159707557.6244733 0 -159707557.6244733 194861626.01683676 0 0 0 0 2562336320.002285 -820895479.75432622 0 -820895479.75432622 1405566679.2317851 0 0 0 0 3464620648.115448 20257760.246047713 0 20257760.246047713 -139329241.62395176 0 0 0 0 3097769469.794857 206592456.82677242 0 206592456.82677242 -122809855.89604369 0 0 0 0 3101381480.1750183 21696208.090474509 0 21696208.090474509 -128463418.25304113 0 0 0 0 3087595861.4625244 49080188.037350655 0 49080188.037350655 -8537802.9351670891 0 0 0 0 3327223562.8399544 -147752398.87441647 0 -147752398.87441647 -29008264.956351824 0 0 0 0 3132380061.1643372 27822949.494915172 0 27822949.494915172 -2492241.1604811475 0 0 0 0 2962380680.1783853 -59486880.452759691 0 -59486880.452759691 -68775999.841436148 0 0 0 0 2336980377.436554 -240879231.23837242 0 -240879231.23837242 75576747.634092718 0 0 0 0 2806097985.1089478 -68856463.31985952 0 -68856463.31985952 89035430.688168824 0 0 0 0 2801654.3971840315 340599.97709959745 0 340599.97709959745 829185.29647428519 0 0 0 0 1717425026.1679039 -156209964.1057831 0 -156209964.1057831 266671730.84863758 0 0 0 0 1254075.2432199176 597105.14630019292 0 597105.14630019292 160596.76473435247 0 0 0 0 1512078423.9462509 -522473926.9619503 0 -522473926.9619503 -18778093.043064117 0 0 0 0 1956103741.492897 -398374616.37269789 0 -398374616.37269789 -87962288.270001888 0 0 0 0 1616692680.8895111 -52692849.76327306 0 -52692849.76327306 172443793.5322268 0 0 0 0 1396876306.9453125 -58371528.026678622 0 -58371528.026678622 134629716.01123902 0 0 0 0 2103202410.3919373 -23125915.063872993 0 -23125915.063872993 104006151.30924165 0 0 0 0 1792972954.3356705 -259086237.37021801 0 -259086237.37021801 -183465687.77702236 0 0 0 0 2076961.1743880138 713007.36120832711 0 713007.36120832711 594173.07303696696 0 0 0 0 1323369.6265501694 125570.67382358015 0 125570.67382358015 160750.87654089456 0 0 0 0 2749263935.0262375 -105256820.93543254 0 -105256820.93543254 -144015955.9761987 0 0 0 0 2441393262.5129623 89187753.251452729 0 89187753.251452729 -129894150.82856268 0 0 0 0 2773466341.3258629 161512957.42687675 0 161512957.42687675 151346638.86805695 0 0 0 0 2351271122.883667 -306508291.12361246 0 -306508291.12361246 -171741229.04561415 0 0 0 0 2098117092.8648529 -120004084.34872532 0 -120004084.34872532 192025558.15892398 0 0 0 0 1644374851.6902161 -245455170.64819491 0 -245455170.64819491 196135978.4439733 0 0 0 0 1100863051.8638 252814107.7378571 0 252814107.7378571 673676792.07915711 0 0 0 0 1140368842.1037369 291120206.06772834 0 291120206.06772834 527547208.76662183 0 0 0 0 1939119786.3603363 587763077.80768001 0 587763077.80768001 583236335.53340042 0 0 0 0 405650279.21847534 512256901.8885411 0 512256901.8885411 975634867.89043093 0 0 0 0 384613601.82991028 518102709.54343748 0 518102709.54343748 1319442475.7308607 0 0 0 0 143682366.445158 708724211.83872557 0 708724211.83872557 1169715360.7348542 0 0 0 0 712648085.01464844 38660824.852734089 0 38660824.852734089 1020941895.2252457 0 0 0 0 200222719.10501099 -215342562.21300143 0 -215342562.21300143 478142963.94105452 0 0 0 0 332311304.48669434 516913564.75797594 0 516913564.75797594 432419161.71091926 0 0 0 0 666832237.42181396 -14294922.009961009 0 -14294922.009961009 -195488633.92089564 0 0 0 0 1366679581.5112686 -173038737.96334928 0 -173038737.96334928 -295115025.36969149 0 0 0 0 606827817.31130981 110998725.12187243 0 110998725.12187243 -50019338.298550129 0 0 0 0 1472947307.8776169 -374319618.34377187 0 -374319618.34377187 -36869915.138196468 0 0 0 0 916361206.53744507 129492102.79378778 0 129492102.79378778 -89912164.290344477 0 0 0 0 560255656.48793793 -469300617.50264311 0 -469300617.50264311 237701591.37521303 0 0 0 0 2585917.2514576763 2631871.1616579075 0 2631871.1616579075 -1020530.9821872059 0 0 0 0 49835771.690517426 -213654784.18350852 0 -213654784.18350852 401154103.53144264 0 0 0 0 -135052899.16977501 -110782912.76700269 0 -110782912.76700269 231381067.74124241 0 0 0 0 3252676.4929839214 839688.90101667121 0 839688.90101667121 -2260439.0504116956 0 0 0 0 149384365.54605103 173229995.72384536 0 173229995.72384536 67947853.376417637 0 0 0 0 228369122.83215332 58553053.05431056 0 58553053.05431056 232916800.92630988 0 0 0 0 561382014.54821777 489797347.36264765 0 489797347.36264765 342990070.29507864 0 0 0 0 299049012.24817276 329734683.58404344 0 329734683.58404344 390321370.33452964 0 0 0 0 263158262.20262146 54573598.021383286 0 54573598.021383286 -155178125.45230198 0 0 0 0 10176560.371047959 4381524.4446654804 0 4381524.4446654804 -3485296.4585651853 0 0 0 0 107510211.96194458 -109471078.65407658 0 -109471078.65407658 -162267954.72960919 0 0 0 0 46589398.063049316 175970045.39907336 0 175970045.39907336 239042509.37411022 0 0 0 0 222692981.05924225 217903321.73873901 0 217903321.73873901 112793217.27484226 0 0 0 0 104377058.35498047 297069042.81184196 0 297069042.81184196 201835730.39025211 0 0 0 0 -81957121.488586426 78064452.179553986 0 78064452.179553986 112835737.44303226 0 0 0 0 -106784962.9725647 222830664.07647896 0 222830664.07647896 -263541581.78892517 0 0 0 0 549381.42680054903 -445869.43139993213 0 -445869.43139993213 -582796.23225327255 0 0 0 0 202669408.14181519 233414874.1471734 0 233414874.1471734 148730667.73925853 0 0 0 0 145872799.07809448 337164413.00032568 0 337164413.00032568 257957389.25444031 0 0 0 0 238126138.32733154 333244530.20830441 0 333244530.20830441 169944865.00022745 0 0 0 0 259240434.87322998 302271713.02085173 0 302271713.02085173 215373289.03968096 0 0 0 0 199971050.76873779 289062816.39846325 0 289062816.39846325 291818585.11533093 0 0 0 0 269756270.64744759 445089639.14541507 0 445089639.14541507 394219461.90483904 0 0 0 0 324427246.63719177 203428594.97876912 0 203428594.97876912 198260764.47390068 0 0 0 0 253055972.54963684 362939033.1586833 0 362939033.1586833 504817532.54035461 0 0 0 0 475940485.58666992 430180490.26773024 0 430180490.26773024 522807029.59716964 0 0 0 0 291639436.10921478 397238983.74128765 0 397238983.74128765 911898935.03804064 0 0 0 0 611343909.32621002 991753982.80561543 0 991753982.80561543 1144484145.4097495 0 0 0 0 1124812721.3072815 552922026.1024797 0 552922026.1024797 332301495.88750768 0 0 0 0 464044935.26247787 360435344.96777833 0 360435344.96777833 560090648.01826704 0 0 0 0 553404699.46685791 233231402.11117578 0 233231402.11117578 204218329.84683421 0 0 0 0 1622369617.3177338 69989017.076100349 0 69989017.076100349 481127720.18745565 0 0 0 0 166260717.72633362 844556641.29601097 0 844556641.29601097 1751258165.8005772 0 0 0 0 2061812.2270175144 1423139.3991091736 0 1423139.3991091736 -1306802.114574417 0 0 0 0 -167305077.32498932 -121814166.73704815 0 -121814166.73704815 629132029.65803099 0 0 0 0 -121021263.70124817 644222242.52796245 0 644222242.52796245 1640351081.3718319 0 0 0 0 3914821.6328069493 128098.00266751694 0 128098.00266751694 -81763.292637102422 0 0 0 0 -476377064.61909485 17799549.006518364 0 17799549.006518364 274398492.24020481 0 0 0 0 1110722958.144989 -196271685.71447968 0 -196271685.71447968 203149839.27770257 0 0 0 0 892209194.23042297 1238612508.3153999 0 1238612508.3153999 1005363907.2430868 0 0 0 0 637673842.08940125 767643568.27230287 0 767643568.27230287 233688139.96092367 0 0 0 0 8185964.2984469533 -2880805.571289435 0 -2880805.571289435 268825.18761320156 0 0 0 0 -145327849.99111938 -103171783.64555788 0 -103171783.64555788 280624259.02658415 0 0 0 0 606736186.58224487 -189563815.96036339 0 -189563815.96036339 -963051885.7825551 0 0 0 0 29319932.809263229 -124225853.87955338 0 -124225853.87955338 17224308.268678665 0 0 0 0 108957938.02885818 325047956.14220208 0 325047956.14220208 -84693203.05150032 0 0 0 0 264926704.61370087 434052046.71874523 0 434052046.71874523 643456600.11057091 0 0 0 0 975306438.74088287 12134527.930116653 0 12134527.930116653 -45893562.011039257 0 0 0 0 398888506.21818542 -148201994.5794754 0 -148201994.5794754 -865112517.847826 0 0 0 0 254054389.02696991 -393475699.33214545 0 -393475699.33214545 670575649.85319936 0 0 0 0 -366140293.76538086 -309822049.12889123 0 -309822049.12889123 666031362.22233963 0 0 0 0 2256123264.1658707 -621499309.78711367 0 -621499309.78711367 45557960.980995178 0 0 0 0 1712624918.6917725 392287977.40826607 0 392287977.40826607 -168718735.03637266 0 0 0 0 4137626.5751263723 -1185973.4208485438 0 -1185973.4208485438 38209.353155063931 0 0 0 0 423298110.54268265 -995332059.44999647 0 -995332059.44999647 404344028.67443275 0 0 0 0 2195601913.8865662 -108245343.08429432 0 -108245343.08429432 268859221.04326057 0 0 0 0 1746899976.8229523 348042319.27715683 0 348042319.27715683 -3594870.9466686249 0 0 0 0 1774410325.9035034 108517549.33087063 0 108517549.33087063 898771235.75824428 0 0 0 0 1456607205.8153534 508748046.57555223 0 508748046.57555223 1103591130.4061842 0 0 0 0 1997902865.4588928 927368047.88609743 0 927368047.88609743 1058423590.1518931 0 0 0 0 1332989151.8597412 782340213.36349714 0 782340213.36349714 535527377.42586243 0 0 0 0 1402656088.6507797 286782213.98788881 0 286782213.98788881 757370628.17554617 0 0 0 0 838891073.84191895 977010839.18780589 0 977010839.18780589 48716896.081926346 0 0 0 0 -236240655.8239212 712387648.18594289 0 712387648.18594289 836264966.1842227 0 0 0 0 770715795.63572979 590798020.20017135 0 590798020.20017135 603881449.51302195 0 0 0 0 400574310.69767761 861817389.32734668 0 861817389.32734668 883580147.84428191 0 0 0 0 269897555.98213959 747665164.42470968 0 747665164.42470968 1180595378.5687323 0 0 0 0 843701991.19523621 584516633.37815702 0 584516633.37815702 985252513.6466465 0 0 0 0 1233115418.5922623 787437463.35977304 0 787437463.35977304 715246075.36896706 0 0 0 0 1311840911.1902008 547914479.28798485 0 547914479.28798485 781958045.24221683 0 0 0 0 1991321587.3590565 898672477.54814684 0 898672477.54814684 661318437.10956383 0 0 0 0 749070807.92423248 729920413.15206051 0 729920413.15206051 1014062581.8479476 0 0 0 0 1623305089.3447304 -48633221.249960333 0 -48633221.249960333 552854799.00931489 0 0 0 0 1099984.8864622125 134884.41112048924 0 134884.41112048924 426443.69979545311 0 0 0 0 2775377583.1115265 434360231.26537722 0 434360231.26537722 186405288.15364099 0 0 0 0 2196378864.7579498 298243962.21849239 0 298243962.21849239 706038357.06203461 0 0 0 0 1987211103.8538256 759077349.60440743 0 759077349.60440743 983290813.41534567 0 0 0 0 2450260261.3772812 55054951.408323228 0 55054951.408323228 181559910.63847566 0 0 0 0 2133847199.0818481 166805192.98416167 0 166805192.98416167 650190012.89186561 0 0 0 0 2252797356.3132324 748027907.56860411 0 748027907.56860411 583146349.56110632 0 0 0 0 2364188395.8970795 450812635.37380457 0 450812635.37380457 839751444.52015316 0 0 0 0 2273909942.2497101 257255268.64277554 0 257255268.64277554 622075139.02819955 0 0 0 0 2269303691.2850037 633766999.94181132 0 633766999.94181132 1371748161.6392882 0 0 0 0 2335572415.1493301 420245882.53687572 0 420245882.53687572 752861035.847193 0 0 0 0 2766931878.7636414 -195857513.10411501 0 -195857513.10411501 1409170207.165633 0 0 0 0 3233483983.1237183 419579611.72190046 0 419579611.72190046 866405366.68715072 0 0 0 0 886205.19461619109 -342186.45130294934 0 -342186.45130294934 2191924.5798241571 0 0 0 0 2067369573.7957163 -1274323604.5280895 0 -1274323604.5280895 1357803658.4816818 0 0 0 0 2410786992.0562973 932096257.1465168 0 932096257.1465168 727006053.18566132 0 0 0 0 1318820871.984417 -567338721.65074492 0 -567338721.65074492 931353795.1283474 0 0 0 0 2030808103.9785004 866866166.74896049 0 866866166.74896049 -832343008.52855921 0 0 0 0 1501931647.8837624 508209237.40374291 0 508209237.40374291 113525526.07686605 0 0 0 0 2427197616.5254745 828109102.41375184 0 828109102.41375184 181953868.21849239 0 0 0 0 2310195207.3528595 813555056.99885881 0 813555056.99885881 606304573.28045201 0 0 0 0 2433743878.6579242 1065655132.3421562 0 1065655132.3421562 50321359.30554948 0 0 0 0 2483924048.8936043 862374570.72795713 0 862374570.72795713 73864974.787028357 0 0 0 0 3465030001.2366934 397574167.75507224 0 397574167.75507224 -105810038.58133374 0 0 0 0 2955031376.4194412 802873430.28069198 0 802873430.28069198 174137494.78160921 0 0 0 0 2553306204.09478 285654905.00767541 0 285654905.00767541 416821882.94863331 0 0 0 0 -79645754.683990479 71625328.734019995 0 71625328.734019995 -57019339.888542414 0 0 0 0 1131074.0299229994 2571140.9071971532 0 2571140.9071971532 -794306.00668123306 0 0 0 0 23340600.147739418 -1262489.0014219927 0 -1262489.0014219927 -3920544.5247042757 0 0 0 0 159956014.61053467 11996144.749664307 0 11996144.749664307 -51436772.711343348 0 0 0 0 409467.84368896484 79562580.919575691 0 79562580.919575691 -184576223.7935462 0 0 0 0 -87324918.497123718 170593035.59077692 0 170593035.59077692 -74852950.80453968 0 0 0 0 -87604832.847831726 113854913.17684531 0 113854913.17684531 111479162.59244061 0 0 0 0 -87118154.323387146 102228416.23385739 0 102228416.23385739 18081114.007388115 0 0 0 0 -3779732.6440048218 40247839.172922373 0 40247839.172922373 -75645638.803505898 0 0 0 0 9534755.9066231716 7969483.6095846072 0 7969483.6095846072 -2877845.6629249668 0 0 0 0 6880967.9634246826 26178668.777845204 0 26178668.777845204 1482953.4561882019 0 0 0 0 -1124842.0148620605 50342319.393023252 0 50342319.393023252 244378.47167932987 0 0 0 0 55842665.239730835 30282864.016922653 0 30282864.016922653 -77634847.810600996 0 0 0 0 -9906862.4989624023 41110934.14708519 0 41110934.14708519 38381732.673604488 0 0 0 0 10392010.979675293 17232886.775225878 0 17232886.775225878 33902456.010187864 0 0 0 0 28293746.848022461 18870030.582072496 0 18870030.582072496 12243995.518990517 0 0 0 0 759286.76100158691 34954365.681038737 0 34954365.681038737 14137993.920224667 0 0 0 0 -44535.592712402344 35401524.423648596 0 35401524.423648596 19390934.717880011 0 0 0 0 156801105.1144104 19291550.027443916 0 19291550.027443916 -95513082.104720116 0 0 0 0 77768266.382446289 86092944.047408819 0 86092944.047408819 50038259.801854193 0 0 0 0 51239508.94744873 -34424354.21675241 0 -34424354.21675241 110394186.89455932 0 0 0 0 213300842.68695068 -72066113.76947701 0 -72066113.76947701 -45575328.894028306 0 0 0 0 136397835.24658203 7944811.0841236115 0 7944811.0841236115 -127183480.69624829 0 0 0 0 180200827.27160645 -11476804.052186012 0 -11476804.052186012 -127507941.19193293 0 0 0 0 -17990871.857116699 65397546.36141181 0 65397546.36141181 -35360760.901406765 0 0 0 0 -30127457.274749756 6665047.1613497734 0 6665047.1613497734 7182494.6804122925 0 0 0 0 23826995.818389893 25150872.655931234 0 25150872.655931234 3103539.8920394182 0 0 0 0 22443230.635223389 18297542.487649202 0 18297542.487649202 13085299.880377412 0 0 0 0 126036451.41122437 -12021103.647748709 0 -12021103.647748709 -60967512.289237022 0 0 0 0 152417440.85676575 36556933.312417746 0 36556933.312417746 -206964118.20058799 0 0 0 0 70265970.09290123 45110856.612317443 0 45110856.612317443 -103458507.10504246 0 0 0 0 67746871.439115524 65366035.849123389 0 65366035.849123389 -96354145.278568268 0 0 0 0 -50154021.380859375 163572559.69338751 0 163572559.69338751 -176186338.80876875 0 0 0 0 196765309.44082642 27303081.382591486 0 27303081.382591486 -351469196.98382223 0 0 0 0 181398755.65032959 -43639897.598989606 0 -43639897.598989606 -168999549.17467141 0 0 0 0 95334895.310897827 162776273.92131013 0 162776273.92131013 -528194665.12469506 0 0 0 0 188194533.01229858 -12011764.914938331 0 -12011764.914938331 -143706547.76800942 0 0 0 0 184082594.81604004 -33126723.248623967 0 -33126723.248623967 -151856087.24719453 0 0 0 0 194551779.43962097 -59377528.895398617 0 -59377528.895398617 -117088411.99751747 0 0 0 0 110534556.6423645 -164939560.80588555 0 -164939560.80588555 223304476.60661566 0 0 0 0 108919823.69108582 -119313079.53625214 0 -119313079.53625214 11031280.019463539 0 0 0 0 202671463.28730392 -200990151.25273284 0 -200990151.25273284 -63527862.571529865 0 0 0 0 111862392.50998688 11306916.541005611 0 11306916.541005611 224537556.60994768 0 0 0 0 -1117018.7016735077 476781532.47724509 0 476781532.47724509 93895031.310292721 0 0 0 0 -51010075.397216797 -367445908.25201035 0 -367445908.25201035 -262935453.98733068 0 0 0 0 3569645.5489593502 473273.60159451142 0 473273.60159451142 -1347962.4526121551 0 0 0 0 -204920575.48983765 231326471.67591584 0 231326471.67591584 -223171773.80192471 0 0 0 0 -198394535.37364197 -145700295.40625352 0 -145700295.40625352 -118992407.18001276 0 0 0 0 290636628.80175781 309454323.29674506 0 309454323.29674506 228213585.0988996 0 0 0 0 235189589.23121643 -72132018.934589148 0 -72132018.934589148 -545038882.53045893 0 0 0 0 380660162.76942444 156040302.69593191 0 156040302.69593191 337978912.55261898 0 0 0 0 662352022.25364304 659129154.9165746 0 659129154.9165746 212996264.80011177 0 0 0 0 290741932.45838928 505369348.95291638 0 505369348.95291638 839183585.74658334 0 0 0 0 335933004.18848324 754992039.2139318 0 754992039.2139318 396201077.4813242 0 0 0 0 2013642.4340384603 1680246.4310309049 0 1680246.4310309049 -1685912.3546468294 0 0 0 0 106927229.96995544 727057197.03692818 0 727057197.03692818 968089170.96128821 0 0 0 0 415268830.83360291 305321565.8759535 0 305321565.8759535 -36839234.746023417 0 0 0 0 88297815.390808105 42077666.752952993 0 42077666.752952993 -41443914.133273959 0 0 0 0 447567074.28787231 507509333.9787029 0 507509333.9787029 338298182.17907155 0 0 0 0 190509007.19247437 384166807.77714062 0 384166807.77714062 636262050.04540992 0 0 0 0 268083739.78356934 459691345.07426274 0 459691345.07426274 395477431.85295117 0 0 0 0 118443033.38407135 233731030.4765172 0 233731030.4765172 322935951.26053858 0 0 0 0 250123988.50164795 402167172.01929295 0 402167172.01929295 405532006.98084772 0 0 0 0 264741918.5687561 447377252.24440908 0 447377252.24440908 394924465.37735939 0 0 0 0 238072988.2659111 407676850.53423041 0 407676850.53423041 489175474.77350998 0 0 0 0 293610470.84577942 567558891.12976313 0 567558891.12976313 602267974.59267187 0 0 0 0 252527240.06747437 441517999.13189363 0 441517999.13189363 654502906.54186153 0 0 0 0 3605117.5251442939 2748498.2829075828 0 2748498.2829075828 -2643350.1550214994 0 0 0 0 362993120.13925171 593060584.14288139 0 593060584.14288139 598667828.49005556 0 0 0 0 298997773.78918457 535929408.5350678 0 535929408.5350678 666656236.0930959 0 0 0 0 377921297.09366798 291556441.12140286 0 291556441.12140286 728528741.81694019 0 0 0 0 363528360.51773071 426734803.73374128 0 426734803.73374128 577893135.2658391 0 0 0 0 12006624.96757675 -488808.41136674862 0 -488808.41136674862 -681456.02687600628 0 0 0 0 -118225396.39990234 -326794383.50636196 0 -326794383.50636196 -100006053.79350281 0 0 0 0 18909379.913089588 -1275850.5884597562 0 -1275850.5884597562 -1822501.2518445808 0 0 0 0 295969331.07235718 26052325.583356857 0 26052325.583356857 -92498334.630409002 0 0 0 0 -24291182.25958252 460046045.67808914 0 460046045.67808914 663435936.31069231 0 0 0 0 -295148547.22708893 -439976659.95229149 0 -439976659.95229149 256547132.83433199 0 0 0 0 792330583.73583221 -21805794.421626091 0 -21805794.421626091 -688579076.95164561 0 0 0 0 -132059503.71709061 188164726.93683219 0 188164726.93683219 387931577.40091753 0 0 0 0 38724938.101295471 -246256579.50515509 0 -246256579.50515509 355894440.13711357 0 0 0 0 594676713.51010132 -111357251.42862535 0 -111357251.42862535 -56402534.205019951 0 0 0 0 427999097.13127804 326422530.789195 0 326422530.789195 53942028.188724041 0 0 0 0 2171131.4906499535 -1032514.4066472063 0 -1032514.4066472063 335774.2417874072 0 0 0 0 251600851.18894958 156928030.66614723 0 156928030.66614723 -49190408.623188019 0 0 0 0 22967653.612457275 30051019.940458775 0 30051019.940458775 -90696601.187979937 0 0 0 0 319535552.28925323 8272647.1413755417 0 8272647.1413755417 -283256974.79270792 0 0 0 0 -25555894.856609344 -638300935.9750998 0 -638300935.9750998 -380382644.38585114 0 0 0 0 5169425.2983207703 17786985.368428946 0 17786985.368428946 -4537347.2556142807 0 0 0 0 -201828840.89520264 -171882255.20121646 0 -171882255.20121646 11508047.305673361 0 0 0 0 -256786788.69519043 -124511054.44916797 0 -124511054.44916797 381430975.32435822 0 0 0 0 78715731.833087921 112156140.93809104 0 112156140.93809104 -17496897.185044289 0 0 0 0 134393876.21058655 168506745.77891684 0 168506745.77891684 -20517806.839108467 0 0 0 0 163133805.15454865 60721066.710195065 0 60721066.710195065 -467481410.82269526 0 0 0 0 6311759.1459696069 -2629161.910207645 0 -2629161.910207645 479719.70683075977 0 0 0 0 138998915.03665161 158378387.76703167 0 158378387.76703167 -63360806.747168064 0 0 0 0 143199710.94294548 141670933.40963614 0 141670933.40963614 -1825945.6227664948 0 0 0 0 48560928.835590363 176861917.93480921 0 176861917.93480921 190162592.92648315 0 0 0 0 8489051.7596332505 -2706989.823165609 0 -2706989.823165609 704676.20580491121 0 0 0 0 83832795.875350952 117828257.00851917 0 117828257.00851917 207606352.31996298 0 0 0 0 70079980.183578491 225036935.01126432 0 225036935.01126432 52765808.413004398 0 0 0 0 621110.04118879884 627184.70873545203 0 627184.70873545203 -148196.94052685541 0 0 0 0 935752.44628143311 905129.17336893082 0 905129.17336893082 45270192.123962402 0 0 0 0 72897757.712837219 119059222.46044254 0 119059222.46044254 27907721.102850437 0 0 0 0 129124888.11492252 -27528220.045621812 0 -27528220.045621812 -35158195.019468307 0 0 0 0 83384095.860641479 -54244615.147356987 0 -54244615.147356987 -81875275.623940229 0 0 0 0 13882384.783795778 -3647048.9754576152 0 -3647048.9754576152 382347.78462063568 0 0 0 0 13076975.8412323 -8784910.5633039474 0 -8784910.5633039474 -13217538.778954029 0 0 0 0 47816006.661231995 -8197864.275645256 0 -8197864.275645256 -91136384.98052454 0 0 0 0 18869500.684872258 -4197064.8418850442 0 -4197064.8418850442 -336372.17636189167 0 0 0 0 15864846.198059082 2177707.2319464684 0 2177707.2319464684 -28216980.659355164 0 0 0 0 14407367.520927429 -2467523.8310685158 0 -2467523.8310685158 -5560536.8295478821 0 0 0 0 13903898.522548676 -2211359.2663731575 0 -2211359.2663731575 -1635978.7170658112 0 0 0 0 5855238.7570648193 -463106.46825361252 0 -463106.46825361252 2396715.740070343 0 0 0 0 12955895.499687195 -92055.075642347336 0 -92055.075642347336 -1285604.8951225281 0 0 0 0 13882842.242660522 1245163.9691343307 0 1245163.9691343307 -377669.25699615479 0 0 0 0 -2690587.8651428223 -12686981.225255728 0 -12686981.225255728 8549145.228302002 0 0 0 0 5743811.4063873291 5575369.4241232872 0 5575369.4241232872 19202002.05723381 0 0 0 0 1567548.8478870615 2021804.5899608303 0 2021804.5899608303 -314332.46933977306 0 0 0 0 47538906.698895931 -242889713.2149334 0 -242889713.2149334 -182262067.61504078 0 0 0 0 -83256199.755607605 -58934942.386949301 0 -58934942.386949301 -54465347.406295776 0 0 0 0 11672436.559394836 4563010.1983003616 0 4563010.1983003616 6362959.6342048645 0 0 0 0 3721381.0048881546 5566234.2702457542 0 5566234.2702457542 -1631841.2583529046 0 0 0 0 15645955.547164917 3788344.806063652 0 3788344.806063652 212052.25273513794 0 0 0 0 -78070166.892486572 1120941.1863772869 0 1120941.1863772869 29478214.084971428 0 0 0 0 -119992636.18678284 21819378.529489517 0 21819378.529489517 57897169.423631907 0 0 0 0 -119977016.92173386 36244153.992723227 0 36244153.992723227 160537132.28816414 0 0 0 0 -111897145.83002853 -52289731.636198759 0 -52289731.636198759 77396377.463273048 0 0 0 0 -99544010.922546387 -38051396.305392742 0 -38051396.305392742 51897693.046674252 0 0 0 0 69115917.236404419 -8044721.199367106 0 -8044721.199367106 -103666993.17948982 0 0 0 0 19242322.997603506 -319852.51214641798 0 -319852.51214641798 -4077905.6367322882 0 0 0 0 60691069.464645386 -11762588.812140837 0 -11762588.812140837 2071817.5442701578 0 0 0 0 4728132.9777152874 -848337.47657098621 0 -848337.47657098621 19188.789109616599 0 0 0 0 -15854554.274810791 67163510.012000412 0 67163510.012000412 -58417742.631069541 0 0 0 0 10999780.058937501 7970911.6086778268 0 7970911.6086778268 -2904440.7224791143 0 0 0 0 60442150.886001587 -4861339.950923413 0 -4861339.950923413 -37897160.89825879 0 0 0 0 20365275.271846145 -2431260.0449300595 0 -2431260.0449300595 -695811.43428839184 0 0 0 0 22406330.980008587 -5582866.3385057785 0 -5582866.3385057785 -4417593.8794490155 0 0 0 0 16295131.167953491 2373535.8942732811 0 2373535.8942732811 -1753451.867565155 0 0 0 0 36231313.741455078 4184215.8066635132 0 4184215.8066635132 -3045392.5375566483 0 0 0 0 15988077.778839111 -180028.56629943848 0 -180028.56629943848 -898853.6029086113 0 0 0 0 2473945.322461769 -31680.173851747066 0 -31680.173851747066 -76119.574111605063 0 0 0 0 915305.92051281407 20400.689019482583 0 20400.689019482583 -697361.01970790233 0 0 0 0 16418478.261272259 1538860.8133074734 0 1538860.8133074734 -4446637.3656682093 0 0 0 0 10973071.527618408 2504045.2725548744 0 2504045.2725548744 -4870310.9133644104 0 0 0 0 -107333959.13915634 -35225608.79579854 0 -35225608.79579854 16444394.941250801 0 0 0 0 31078303.313146811 -5258128.7409378961 0 -5258128.7409378961 -3370727.0654390668 0 0 0 0 -15602989.542434692 29890439.709474325 0 29890439.709474325 6047832.2262872458 0 0 0 0 30640659.135925293 -3147119.6176700592 0 -3147119.6176700592 -12618923.992490768 0 0 0 0 7672771.5759811401 -5931812.6206042767 0 -5931812.6206042767 1862862.8679523468 0 0 0 0 24192833.166855067 -3192429.507229758 0 -3192429.507229758 -2332218.8812631983 0 0 0 0 31511931.393676758 -2924194.2607746124 0 -2924194.2607746124 12994287.695907593 0 0 0 0 15542600.617088318 372762.18091058731 0 372762.18091058731 -5363903.5135192871 0 0 0 0 36593632.287811279 -14397249.960224152 0 -14397249.960224152 -19506402.181833267 0 0 0 0 28481877.144603729 12352218.047978401 0 12352218.047978401 -30294435.142599583 0 0 0 0 15188106.683912307 -1940263.1204112489 0 -1940263.1204112489 -3636378.4491313137 0 0 0 0 30628918.15124321 7172735.3945134878 0 7172735.3945134878 -20879125.512541771 0 0 0 0 -5872210.2385139465 -41243641.076819658 0 -41243641.076819658 -20744552.727311611 0 0 0 0 23585678.120361328 15325011.557682037 0 15325011.557682037 -15711015.324612141 0 0 0 0 38851453.724433899 20147414.081896305 0 20147414.081896305 -49232858.324892521 0 0 0 0 13861427.255500793 13460493.809536695 0 13460493.809536695 -12533012.833426714 0 0 0 0 10940135.788175583 52460101.000753403 0 52460101.000753403 -137378118.56004333 0 0 0 0 -1745198.631272316 -185028472.92541492 0 -185028472.92541492 -214707237.91360903 0 0 0 0 15937552.519203186 -115419208.39850506 0 -115419208.39850506 57490304.883216083 0 0 0 0 49575898.274562836 -93333303.137270451 0 -93333303.137270451 -45197703.974714756 0 0 0 0 12471456.33996582 -95592199.061160028 0 -95592199.061160028 77496025.814977884 0 0 0 0 -297162692.13796616 -197106865.84034514 0 -197106865.84034514 161576232.56197357 0 0 0 0 16360257.915859222 -52471593.175235391 0 -52471593.175235391 145488687.79953974 0 0 0 0 160317391.01391983 -46024159.018115044 0 -46024159.018115044 57222260.346214294 0 0 0 0 20817879.347114563 -106914330.85615265 0 -106914330.85615265 80341057.845377162 0 0 0 0 54489648.671207428 -57152165.59392643 0 -57152165.59392643 139798834.23046386 0 0 0 0 87974218.762342453 -88076170.616949677 0 -88076170.616949677 50030821.273534775 0 0 0 0 58569160.177955627 -48678993.567471981 0 -48678993.567471981 66775539.825426936 0 0 0 0 170474648.89227295 -153930452.25469348 0 -153930452.25469348 97102606.288247347 0 0 0 0 83312511.029670715 -28625719.255268574 0 -28625719.255268574 10002641.662306786 0 0 0 0 58022862.222816467 -75434556.850491166 0 -75434556.850491166 118844606.06873703 0 0 0 0 53554740.00510788 -19423244.618051052 0 -19423244.618051052 39550122.914491177 0 0 0 0 62429016.135169983 -8456629.0874605179 0 -8456629.0874605179 -15448554.365169525 0 0 0 0 42563985.832286835 16697941.836964607 0 16697941.836964607 -27654901.681526184 0 0 0 0 23708445.693362474 17102580.464460462 0 17102580.464460462 -7913945.3416690826 0 0 0 0 24648549.891656876 -7916403.2563641071 0 -7916403.2563641071 20989244.889492035 0 0 0 0 30416911.243625641 27236167.373579025 0 27236167.373579025 -40250885.677025795 0 0 0 0 4872113.1123380661 -42141931.282186389 0 -42141931.282186389 28829453.925024033 0 0 0 0 -3602393.6063995361 -18211339.464996576 0 -18211339.464996576 91605804.617422581 0 0 0 0 51817088.544570923 -150149787.84609663 0 -150149787.84609663 206410497.88428593 0 0 0 0 228369029.40035248 -206497448.52971673 0 -206497448.52971673 149175771.17935753 0 0 0 0 90019528.525863647 -42406146.829085827 0 -42406146.829085827 24455264.803596735 0 0 0 0 -1159006.0599365234 -158437038.83314037 0 -158437038.83314037 303768912.91300058 0 0 0 0 88367702.460430145 -170684853.80681419 0 -170684853.80681419 184032111.04424715 0 0 0 0 297432121.71946716 -314136063.33298337 0 -314136063.33298337 86751888.743141174 0 0 0 0 274606536.63739777 -349699787.75891912 0 -349699787.75891912 329629030.99285662 0 0 0 0 115449899.21054459 -261728848.81310427 0 -261728848.81310427 358502520.83874369 0 0 0 0 333124001.5331955 -546009950.82044172 0 -546009950.82044172 460983053.81125319 0 0 0 0 130451760.70551682 -154649929.54619062 0 -154649929.54619062 -418614114.60713446 0 0 0 0 1503499.200978227 -1288245.0053442251 0 -1288245.0053442251 -1660128.8053735467 0 0 0 0 195937584.14467621 36490782.3622545 0 36490782.3622545 -502897118.09401321 0 0 0 0 135380462.77771902 -210714653.5440104 0 -210714653.5440104 204177853.74938822 0 0 0 0 144757513.09207916 -122537965.60811138 0 -122537965.60811138 67475865.777010083 0 0 0 0 232148143.30054855 -301195729.7981984 0 -301195729.7981984 63589773.575800598 0 0 0 0 272865796.72041321 -198826395.67478561 0 -198826395.67478561 -44324727.805744171 0 0 0 0 271520033.76708984 -98460989.561386585 0 -98460989.561386585 124681668.35005379 0 0 0 0 72111872.505588531 -268395229.8649497 0 -268395229.8649497 528034155.25325203 0 0 0 0 541181511.88591003 34990940.267786741 0 34990940.267786741 126619721.03951788 0 0 0 0 5011414.1684483588 516419.38197394717 0 516419.38197394717 -612727.57591394614 0 0 0 0 710017691.80047226 317464562.73736799 0 317464562.73736799 -491627950.67334747 0 0 0 0 122543650.80020142 -331186957.39691108 0 -331186957.39691108 128826672.49739552 0 0 0 0 -145707871.36950684 19677752.428419113 0 19677752.428419113 102577124.10945344 0 0 0 0 243793238.60346603 371825606.58678436 0 371825606.58678436 -199287123.12536716 0 0 0 0 5956575.1330000423 169053.9474769081 0 169053.9474769081 -543175.53581273474 0 0 0 0 225142623.98822021 -83283691.195658803 0 -83283691.195658803 -751249532.64171386 0 0 0 0 -538373181.95366669 -80648166.245613098 0 -80648166.245613098 634788989.37734103 0 0 0 0 1972393.9049180523 -494724.16938847734 0 -494724.16938847734 -269235.13290640793 0 0 0 0 279330384.18449402 -402905998.05574089 0 -402905998.05574089 -132917453.30521607 0 0 0 0 22522760.926216125 -171735238.99468422 0 -171735238.99468422 -168490067.64246511 0 0 0 0 4244965.4426204786 612673.4661700842 0 612673.4661700842 -399589.59242085461 0 0 0 0 62953304.225067139 -23505499.838710785 0 -23505499.838710785 -279006940.68282104 0 0 0 0 -18402203.914905548 -106765115.52610588 0 -106765115.52610588 63170926.863368988 0 0 0 0 3158381.001077652 -197130613.72510767 0 -197130613.72510767 41789689.298568726 0 0 0 0 -30382102.836364746 -6161932.2453327179 0 -6161932.2453327179 178052116.34906864 0 0 0 0 386980.22849645838 -590426.65775391087 0 -590426.65775391087 523739.62754695769 0 0 0 0 346987903.52617264 37945674.322413445 0 37945674.322413445 -14648751.104422569 0 0 0 0 10055706.797865629 -18170218.874187976 0 -18170218.874187976 5010195.8550796509 0 0 0 0 -18482788.401939392 -37810804.48357439 0 -37810804.48357439 34202629.307397366 0 0 0 0 -2382311.8982982635 -24800693.135290623 0 -24800693.135290623 1498856.0500011444 0 0 0 0 -126538821.12491989 309192811.51298791 0 309192811.51298791 155965649.92110443 0 0 0 0 2369745.9460322969 7512.4405693460722 0 7512.4405693460722 -395410.65076527465 0 0 0 0 -76741895.737266541 -6006043.0594148636 0 -6006043.0594148636 132766752.14744759 0 0 0 0 319960456.17315674 261703154.06394625 0 261703154.06394625 -418589069.3970499 0 0 0 0 149542024.31770897 143860146.38054466 0 143860146.38054466 -130579944.30430794 0 0 0 0 325339155.90332031 -64540854.945053101 0 -64540854.945053101 60864409.311048985 0 0 0 0 200245785.86749649 266341056.61071062 0 266341056.61071062 147166867.43920374 0 0 0 0 386047351.72439575 -447957983.61717463 0 -447957983.61717463 -243843232.93983841 0 0 0 0 421705035.66612887 248438803.84730148 0 248438803.84730148 -205675416.77856445 0 0 0 0 -155424484.94511032 226399959.91952562 0 226399959.91952562 358494144.95998669 0 0 0 0 -242949315.916996 -395421948.12767696 0 -395421948.12767696 403076766.82593536 0 0 0 0 -287527179.85639191 -201063824.75439358 0 -201063824.75439358 -42846303.730912864 0 0 0 0 -693399763.17357635 -683241982.92922878 0 -683241982.92922878 -73420087.532507122 0 0 0 0 132364146.02365685 215954435.73542404 0 215954435.73542404 355619952.62614059 0 0 0 0 -615781651.27118683 -851099030.09605503 0 -851099030.09605503 -286993352.00258398 0 0 0 0 -117690.96280780248 -454962.62239362672 0 -454962.62239362672 1127952.0253683655 0 0 0 0 1941855.0785692781 174733.23259863537 0 174733.23259863537 -1212354.7356854361 0 0 0 0 18935610.113395691 407161370.64095068 0 407161370.64095068 -72832017.971736908 0 0 0 0 832397663.58999062 319575124.72395802 0 319575124.72395802 -66521442.655835152 0 0 0 0 743561183.86710548 354258749.88891864 0 354258749.88891864 69606706.676056385 0 0 0 0 -397016.38934760913 -202352.84299566597 0 -202352.84299566597 1155180.0794560448 0 0 0 0 -840708662.8021698 -320382495.57385206 0 -320382495.57385206 105231165.69100046 0 0 0 0 -257342499.3458786 -437534470.56193495 0 -437534470.56193495 -582614521.6275506 0 0 0 0 -326883801.64044571 -389893750.59862328 0 -389893750.59862328 69142279.941104174 0 0 0 0 32892170.272102356 -172143009.99636507 0 -172143009.99636507 132021312.73632288 0 0 0 0 202059920.70468712 -54034652.088178933 0 -54034652.088178933 130514134.63342762 0 0 0 0 -42496093.554398537 -84245888.224249452 0 -84245888.224249452 139937469.78482723 0 0 0 0 -7353470.6663856506 -166894217.84594744 0 -166894217.84594744 139585425.34840643 0 0 0 0 -67386323.25686264 -157742243.49922442 0 -157742243.49922442 161222036.12295437 0 0 0 0 -42305087.177715302 4186169.4850952625 0 4186169.4850952625 129618512.39787722 0 0 0 0 230922333.64735413 -213388455.55954862 0 -213388455.55954862 237693279.63956785 0 0 0 0 241771816.10677719 -90946662.159731627 0 -90946662.159731627 113315529.07915676 0 0 0 0 544283828.23378086 81653520.595688611 0 81653520.595688611 127655649.82583332 0 0 0 0 533969580.19651031 -392137678.13402176 0 -392137678.13402176 50885308.028724909 0 0 0 0 3460355416.4260302 2011031208.0004516 0 2011031208.0004516 -146650713.65581185 0 0 0 0 4488442.7753784806 2275623.5518458029 0 2275623.5518458029 988915.70602131332 0 0 0 0 1356751366.7731552 -1284331207.2561753 0 -1284331207.2561753 1080509109.3654499 0 0 0 0 779253228.97815752 1057809234.8637291 0 1057809234.8637291 252293426.06629944 0 0 0 0 754860414.58623886 2398105041.6143327 0 2398105041.6143327 3108248801.0435071 0 0 0 0 2427844741.8434181 996433586.384004 0 996433586.384004 -40043159.860026196 0 0 0 0 2359184020.7388449 1299596842.2341688 0 1299596842.2341688 -9534447.7400832623 0 0 0 0 -335251322.17969513 584902913.617823 0 584902913.617823 687525061.39137125 0 0 0 0 596801.21316791233 54083.977543488145 0 54083.977543488145 1443549.3305904996 0 0 0 0 1863672375.0226784 1115574843.6589277 0 1115574843.6589277 95839456.118204489 0 0 0 0 621866025.1282692 671256722.88698459 0 671256722.88698459 124746377.68409443 0 0 0 0 1076120.7706333324 157439.32491425052 0 157439.32491425052 3852343.7329398571 0 0 0 0 1096199511.8540192 321298567.7980051 0 321298567.7980051 295632546.69697952 0 0 0 0 985809269.56895065 275650325.41354525 0 275650325.41354525 311586734.47664976 0 0 0 0 514672824.02755737 305579835.02564669 0 305579835.02564669 380671255.20600867 0 0 0 0 102502674.22436523 224394017.46041584 0 224394017.46041584 309718542.54999161 0 0 0 0 279096550.09855652 500257861.98886251 0 500257861.98886251 -301467149.06575489 0 0 0 0 557618998.70910645 243726607.09715176 0 243726607.09715176 -70469058.891612053 0 0 0 0 566891933.32189178 768522324.95319712 0 768522324.95319712 -135708759.98918533 0 0 0 0 -97472973.690475464 954630253.08073139 0 954630253.08073139 1013346976.6298838 0 0 0 0 1921974196.4265633 1317727681.7131486 0 1317727681.7131486 96609460.867269039 0 0 0 0 386388458.99191284 1007979696.389029 0 1007979696.389029 412528273.35070229 0 0 0 0 12856464.800050959 2918689.9016194744 0 2918689.9016194744 -139691.32189602335 0 0 0 0 435515696.20199585 -203691166.88290405 0 -203691166.88290405 -162788090.47796273 0 0 0 0 -261497439.8841629 -69634027.948336601 0 -69634027.948336601 318017783.91415501 0 0 0 0 -392545340.96266174 -555897725.03856325 0 -555897725.03856325 438244435.69611347 0 0 0 0 -414419249.33791339 288540480.90037769 0 288540480.90037769 130519614.86961478 0 0 0 0 368551258.81645203 244713088.54513454 0 244713088.54513454 -1412557282.3593769 0 0 0 0 17304094.488181129 2348536.9125367245 0 2348536.9125367245 -1960316.5690596502 0 0 0 0 43633197.03842926 204844903.75949556 0 204844903.75949556 -229495731.49813548 0 0 0 0 -272978727.75891113 436321768.36465836 0 436321768.36465836 -1091057504.9385226 0 0 0 0 -286171976.3515625 -65057355.725330353 0 -65057355.725330353 -1550733867.2712135 0 0 0 0 120329103.42657471 443260008.68518925 0 443260008.68518925 -1094142218.9912567 0 0 0 0 282497502.7460022 189415735.21230698 0 189415735.21230698 -878288354.05937386 0 0 0 0 -143033288.17364502 169699098.5054965 0 169699098.5054965 -404318516.50528336 0 0 0 0 -413651286.07293701 218891654.84060383 0 218891654.84060383 -794050484.97791672 0 0 0 0 279395734.28587341 427437692.58046055 0 427437692.58046055 -22198027.357424021 0 0 0 0 247218011.66287231 -202455302.72571754 0 -202455302.72571754 -1148568499.0468807 0 0 0 0 184562660.22041321 184077449.20063531 0 184077449.20063531 -1313579333.5913267 0 0 0 0 10090483.74149961 5633896.6437584972 0 5633896.6437584972 198709.92866836116 0 0 0 0 126543731.40715027 102595304.71057034 0 102595304.71057034 -827244669.71041107 0 0 0 0 98094876.581359863 -108256317.46594429 0 -108256317.46594429 -756323142.1213069 0 0 0 0 127318938.82681274 47734315.721502304 0 47734315.721502304 -821675740.16194773 0 0 0 0 -193519117.22413635 72512894.309255123 0 72512894.309255123 -394109591.39752769 0 0 0 0 -101297371.39697266 396737403.18817234 0 396737403.18817234 -709680135.09239483 0 0 0 0 -218607333.29299545 -155045367.34358788 0 -155045367.34358788 -712190808.99398422 0 0 0 0 -187213043.8364563 77511048.07047081 0 77511048.07047081 -958187918.60858345 0 0 0 0 -146010591.74822998 -133312066.10340118 0 -133312066.10340118 -880945122.92753887 0 0 0 0 -88231815.540939331 108131139.78379154 0 108131139.78379154 -1246974110.7188234 0 0 0 0 -401978939.18359375 399877046.78486061 0 399877046.78486061 -919409451.80796909 0 0 0 0 -855833018.74438477 -21235558.931568146 0 -21235558.931568146 -1198385208.8239765 0 0 0 0 -446999391.80712891 -248611626.12474251 0 -248611626.12474251 -1356100266.795372 0 0 0 0 -378398127.61975098 519215886.76992416 0 519215886.76992416 -1784998305.4327374 0 0 0 0 -473316028.08630371 -248278842.63371181 0 -248278842.63371181 -2239117620.3197098 0 0 0 0 -557442481.59375 -177755497.31048584 0 -177755497.31048584 -1310075483.9694023 0 0 0 0 798194.37530983984 122871.22477914765 0 122871.22477914765 -643158.55360854976 0 0 0 0 -431215116.73223877 750986437.19121552 0 750986437.19121552 -2781157523.4098749 0 0 0 0 142397545.94845581 -54532007.795908451 0 -54532007.795908451 -1236477120.0728636 0 0 0 0 38022221.235183716 340121549.65345216 0 340121549.65345216 -1121401154.9923556 0 0 0 0 208892785.17843628 104630372.36171627 0 104630372.36171627 -1077188079.1280785 0 0 0 0 -239837484.36097717 -62403632.604120255 0 -62403632.604120255 -707248015.51750457 0 0 0 0 -158322939.15594482 307059342.63750708 0 307059342.63750708 -900996438.31539202 0 0 0 0 -55301064.169776917 -62324860.760660291 0 -62324860.760660291 -255247478.82701826 0 0 0 0 -34753006.393295288 113801055.35060644 0 113801055.35060644 -389149811.66710758 0 0 0 0 -58291872.730957031 126938239.54690552 0 126938239.54690552 -717316264.61842489 0 0 0 0 213158867.33451843 111078181.45968056 0 111078181.45968056 -732043725.49343824 0 0 0 0 320965162.74860668 142503151.14586636 0 142503151.14586636 -400732098.16061592 0 0 0 0 252661794.47962284 -264915044.67768824 0 -264915044.67768824 -250598759.67487383 0 0 0 0 -52659477.657661438 110888743.56993222 0 110888743.56993222 166159637.04022884 0 0 0 0 363255888.09503174 72346521.924771786 0 72346521.924771786 160731099.14498711 0 0 0 0 -72719938.147338867 388164586.75602198 0 388164586.75602198 167311878.25344181 0 0 0 0 142319988.16073608 113230683.71768475 0 113230683.71768475 -428474673.79791498 0 0 0 0 312456554.25456238 595827639.54846191 0 595827639.54846191 334322775.09986556 0 0 0 0 559007809.75289726 59096931.735476613 0 59096931.735476613 593139587.96355915 0 0 0 0 660747004.71949768 -119854691.61424685 0 -119854691.61424685 -105700749.97622919 0 0 0 0 481036224.18107224 -147971753.57252526 0 -147971753.57252526 420291759.15263081 0 0 0 0 202165214.98506165 280115496.4316144 0 280115496.4316144 476924798.70101166 0 0 0 0 645044197.47401428 480346294.63156676 0 480346294.63156676 199099232.81383395 0 0 0 0 508504581.11337662 -413332996.56261414 0 -413332996.56261414 413130604.03956032 0 0 0 0 1325724.3128986359 -857415.72226411849 0 -857415.72226411849 -1129297.6698023516 0 0 0 0 149772483.7167244 -440579233.35148978 0 -440579233.35148978 1378159055.0185928 0 0 0 0 2777025.6410645172 -1208054.3636021819 0 -1208054.3636021819 511013.87015121221 0 0 0 0 50444648.610509872 -363016762.9867506 0 -363016762.9867506 1108300190.017704 0 0 0 0 413724267.87122345 -698060855.2958107 0 -698060855.2958107 418753036.83234882 0 0 0 0 124810816.27376556 -427193888.67110038 0 -427193888.67110038 224294072.53247881 0 0 0 0 2486293.2046365887 -1928956.2035495676 0 -1928956.2035495676 -2467196.9199159816 0 0 0 0 -68236258.830230713 -39711616.816091776 0 -39711616.816091776 314360927.08428943 0 0 0 0 285370979.13690186 -16871234.385953546 0 -16871234.385953546 -255020408.67516422 0 0 0 0 14225375.700744629 -116220900.89536065 0 -116220900.89536065 -290913027.00639343 0 0 0 0 23794387.671295166 114656751.95703292 0 114656751.95703292 -605057079.79102421 0 0 0 0 135280214.52988434 -33227011.158166111 0 -33227011.158166111 -813612449.45146036 0 0 0 0 -28521384.968902588 -155224492.91081536 0 -155224492.91081536 -875844909.58580077 0 0 0 0 42589956.587341309 54762346.52239418 0 54762346.52239418 -142097351.70292234 0 0 0 0 -11857370.07938385 -186606425.7045747 0 -186606425.7045747 -427478372.58595133 0 0 0 0 -35870476.119140625 244813972.30626601 0 244813972.30626601 -750015476.97370577 0 0 0 0 1572064.8853981681 145772.16593066882 0 145772.16593066882 -169990.75639614672 0 0 0 0 -230313720.53164673 -58526151.450037479 0 -58526151.450037479 32246459.591657639 0 0 0 0 254175158.79905701 -205200604.23145199 0 -205200604.23145199 100399453.97194529 0 0 0 0 207042290.98878479 90418080.237544537 0 90418080.237544537 -1092658140.5986724 0 0 0 0 9387077.630456619 1951963.9014634667 0 1951963.9014634667 -505266.00490514026 0 0 0 0 971625106.63989258 164509701.04283142 0 164509701.04283142 20516429.227979481 0 0 0 0 643494599.78289795 -16367846.923485756 0 -16367846.923485756 -104371506.5099926 0 0 0 0 316223424.7560997 689109963.60134315 0 689109963.60134315 210035010.2825985 0 0 0 0 144607541.4475708 45228353.35135746 0 45228353.35135746 -89668246.208551884 0 0 0 0 66221579.99671936 9684288.1555080414 0 9684288.1555080414 -56712305.580965042 0 0 0 0 219585434.3116951 -67365075.045763969 0 -67365075.045763969 -79958304.791599274 0 0 0 0 43534539.928405762 -105102103.18395138 0 -105102103.18395138 58993445.197158337 0 0 0 0 -5276120.9075584412 -15422746.997245789 0 -15422746.997245789 -70469769.400191307 0 0 0 0 8451206.1675033569 -121640116.48167896 0 -121640116.48167896 -60562712.891925812 0 0 0 0 61472331.601970673 -71018133.08154583 0 -71018133.08154583 -21438120.266217232 0 0 0 0 16181262.913291931 -37812933.50976944 0 -37812933.50976944 -24857163.572499275 0 0 0 0 66118133.830200195 -60639468.408558846 0 -60639468.408558846 -79445255.829152882 0 0 0 0 37844717.690948486 -19068425.599038601 0 -19068425.599038601 -13884967.705787659 0 0 0 0 10054784.258132935 -18312705.088504791 0 -18312705.088504791 -5098852.6857700348 0 0 0 0 26973462.617584229 9462964.8952851295 0 9462964.8952851295 -53368523.0759269 0 0 0 0 12325249.378626347 1928617.4926202064 0 1928617.4926202064 -8047006.0124303699 0 0 0 0 4869881.8479950093 905394.53969666734 0 905394.53969666734 -6044569.9241910437 0 0 0 0 102083869.19564819 -10153257.426022768 0 -10153257.426022768 -54540625.252251625 0 0 0 0 12100248.943725586 3804821.8788732961 0 3804821.8788732961 -21311476.622573562 0 0 0 0 7411082.2080917358 -2973972.3641636223 0 -2973972.3641636223 -18112124.405812651 0 0 0 0 5408461.8334236145 -1952308.7277701348 0 -1952308.7277701348 -2884211.9771052301 0 0 0 0 11813400.124412537 -3827058.0320398808 0 -3827058.0320398808 -3995743.2864321768 0 0 0 0 4686019.977207236 -142850.23248851672 0 -142850.23248851672 -2455355.4549210649 0 0 0 0 -70708711.575881958 -40760570.451102696 0 -40760570.451102696 14098552.350437582 0 0 0 0 -41753008.019348145 33357712.395092368 0 33357712.395092368 -12043297.817634195 0 0 0 0 -3549877.7005996704 219136731.37939584 0 219136731.37939584 16454242.71103096 0 0 0 0 5275193.9601459224 1734312.3141669054 0 1734312.3141669054 -4878365.9898889381 0 0 0 0 -66854321.401260376 54361857.84462595 0 54361857.84462595 -20695141.061084747 0 0 0 0 1420789.3392962515 -31970.676115654409 0 -31970.676115654409 -1316946.1479152846 0 0 0 0 -362691818.02133179 -143121078.18276882 0 -143121078.18276882 -68275701.680771828 0 0 0 0 -391096468.95399475 -70511007.917037964 0 -70511007.917037964 10399503.141147256 0 0 0 0 -382877339.54862976 104872569.12996054 0 104872569.12996054 64503930.259810925 0 0 0 0 130104385.39553833 353813199.91361332 0 353813199.91361332 59858154.982849121 0 0 0 0 -287978051.85192871 388004513.13092422 0 388004513.13092422 432776986.00185585 0 0 0 0 -597453110.98165894 66034666.175701141 0 66034666.175701141 305736010.62898445 0 0 0 0 10310050.095026929 1101072.5094536711 0 1101072.5094536711 -4077208.6441665092 0 0 0 0 7738284.4137802124 754647.61568498611 0 754647.61568498611 -14960149.118738174 0 0 0 0 -75221047.068397522 38968058.9509601 0 38968058.9509601 5447785.1492096335 0 0 0 0 -69374137.234714508 5100222.9544134364 0 5100222.9544134364 -39895436.191730022 0 0 0 0 -10380776.544570923 37578541.840231746 0 37578541.840231746 67934211.352730811 0 0 0 0 123159699.75244141 -23887472.663494736 0 -23887472.663494736 79469880.037825406 0 0 0 0 121511242.26889038 -7690820.3814949095 0 -7690820.3814949095 23721635.443136021 0 0 0 0 -23541406.114433289 -6130740.4534044415 0 -6130740.4534044415 35561945.655597821 0 0 0 0 -49130520.901641846 44537731.135825835 0 44537731.135825835 28803585.407189399 0 0 0 0 -30330678.741737366 -8163208.9773139954 0 -8163208.9773139954 -88944720.887786448 0 0 0 0 60958387.069519043 57898658.091718286 0 57898658.091718286 -187828004.87936538 0 0 0 0 -2999755.524848938 34228819.58704444 0 34228819.58704444 -63092444.236526489 0 0 0 0 -58495446.32749939 117739980.67137544 0 117739980.67137544 30421809.905262321 0 0 0 0 123348173.18599701 -20953617.650430024 0 -20953617.650430024 35372837.254945546 0 0 0 0 1046279758.8125534 -431915801.96558422 0 -431915801.96558422 -40691783.08361005 0 0 0 0 210666172.18637085 -61907668.974650681 0 -61907668.974650681 142131985.00931579 0 0 0 0 827225973.14453459 372011841.50265837 0 372011841.50265837 -272187.60395216942 0 0 0 0 326700763.92844009 -1975868.5557445157 0 -1975868.5557445157 16873258.63194789 0 0 0 0 275977943.85694885 -15769186.355748564 0 -15769186.355748564 36416604.566300228 0 0 0 0 223511211.27207947 58701594.683724977 0 58701594.683724977 53871060.187614918 0 0 0 0 626118840.36066437 13616640.031993702 0 13616640.031993702 -28571006.11691916 0 0 0 0 327294297.46889496 85902334.634122476 0 85902334.634122476 43065153.471526921 0 0 0 0 249682341.8681488 67178729.511373699 0 67178729.511373699 -14267105.730518371 0 0 0 0 128863356.33766937 30807761.594508275 0 30807761.594508275 40929094.058577538 0 0 0 0 -32858557.176063538 28953712.032426998 0 28953712.032426998 45563088.996004164 0 0 0 0 128386522.82324743 -2019115.000704939 0 -2019115.000704939 13496630.412967563 0 0 0 0 -10696646.560668945 12698804.616696253 0 12698804.616696253 55085810.730970398 0 0 0 0 -2369885.2920455933 -76725891.165032282 0 -76725891.165032282 -29900436.986120366 0 0 0 0 1623880.6173297428 1240.2972816135734 0 1240.2972816135734 -416851.60457059753 0 0 0 0 -1323106.8938751221 -44459749.764336243 0 -44459749.764336243 -153279802.43516171 0 0 0 0 -2892966.4680099487 -3245417.8118067384 0 -3245417.8118067384 -17506561.781881079 0 0 0 0 442863.79970143363 -8419.7083070855588 0 -8419.7083070855588 -61446.021584696107 0 0 0 0 47858558.14093399 -10951469.542991549 0 -10951469.542991549 -59924647.098399065 0 0 0 0 109330979.29733276 -33024207.063286692 0 -33024207.063286692 -57674460.39100454 0 0 0 0 24946143.024439812 37502447.542288423 0 37502447.542288423 108328708.01010674 0 0 0 0 557489106.19345474 32078563.848742716 0 32078563.848742716 39777837.747635663 0 0 0 0 136668155.0469389 183607011.52682304 0 183607011.52682304 37206684.718018815 0 0 0 0 -104563318.86023331 -43670249.017172992 0 -43670249.017172992 -63377791.646960914 0 0 0 0 -200507234.85836029 817695997.89883995 0 817695997.89883995 70619471.884733453 0 0 0 0 3324353.2468977887 666956.06507100444 0 666956.06507100444 -212303.84699757793 0 0 0 0 897797090.17740297 935817987.92908347 0 935817987.92908347 15051549.23376401 0 0 0 0 3439596192.5098763 -347908666.42952353 0 -347908666.42952353 -396866580.23422378 0 0 0 0 305588104.11005783 -209177441.22788933 0 -209177441.22788933 -400659214.80926156 0 0 0 0 3459165024.9042511 326832938.26674891 0 326832938.26674891 -794008660.66914749 0 0 0 0 1965109.6880496964 -358702.8499814095 0 -358702.8499814095 -183869.57171020744 0 0 0 0 178778331.44682312 257785717.06712982 0 257785717.06712982 92872707.030589581 0 0 0 0 244381022.97650707 171507194.59874281 0 171507194.59874281 192882876.99801019 0 0 0 0 972723.33529561386 -595585.17867007572 0 -595585.17867007572 513382.68559895112 0 0 0 0 470500101.05242157 325575776.63823706 0 325575776.63823706 103082875.5020853 0 0 0 0 -219883669.595047 -682584023.11029506 0 -682584023.11029506 -386906639.61195672 0 0 0 0 -279886494.85913181 -424490361.17438221 0 -424490361.17438221 858736004.69500184 0 0 0 0 3461107066.7661285 -660804874.68282735 0 -660804874.68282735 -381958879.59917969 0 0 0 0 1516482919.4444618 335469970.89282441 0 335469970.89282441 -710537694.40939975 0 0 0 0 -634725848.64912033 143005382.63979161 0 143005382.63979161 239356355.06603655 0 0 0 0 3360449.3447885904 443497.99954291037 0 443497.99954291037 573402.08835803729 0 0 0 0 -549212086.1489563 162744147.03288603 0 162744147.03288603 -374753387.6727891 0 0 0 0 670449519.10144806 -218531538.04142594 0 -218531538.04142594 -101729525.58575296 0 0 0 0 472141883.35244751 -245532484.52555889 0 -245532484.52555889 -105141055.39768252 0 0 0 0 237349.0522470437 464007.17419759277 0 464007.17419759277 906583.28276078147 0 0 0 0 475322437.20515823 -246853037.8889544 0 -246853037.8889544 -104958299.01114905 0 0 0 0 272322374.20727539 -332506920.8043291 0 -332506920.8043291 224088908.41420069 0 0 0 0 248377214.79594612 351110086.98761547 0 351110086.98761547 -19239130.560106218 0 0 0 0 504854.61317209899 407653.68907094188 0 407653.68907094188 798802.95577207988 0 0 0 0 3448298363.4261856 808986340.08016086 0 808986340.08016086 -329137019.39325839 0 0 0 0 879570208.16424751 -545899139.01729918 0 -545899139.01729918 122289431.29493482 0 0 0 0 3457244553.750236 577242146.6167773 0 577242146.6167773 -201045449.70649979 0 0 0 0 3462362154.9133515 -996332033.73520827 0 -996332033.73520827 194000884.03960779 0 0 0 0 848273068.08841693 163769214.85740227 0 163769214.85740227 -87830348.760966226 0 0 0 0 5017716.4415140282 2155728.6262971312 0 2155728.6262971312 331805.11031399854 0 0 0 0 -119974127.37524337 76815911.645959154 0 76815911.645959154 -196363345.33955675 0 0 0 0 -113462047.43953323 401577554.78548104 0 401577554.78548104 -475391121.53042269 0 0 0 0 78340825.042900085 44744628.419736654 0 44744628.419736654 -432562496.88767648 0 0 0 0 -18551647.902526855 111941655.38867243 0 111941655.38867243 -194071377.34927201 0 0 0 0 -26702056.648727417 160841716.76368922 0 160841716.76368922 -300887601.8185882 0 0 0 0 4872108.8105450161 2001010.148810395 0 2001010.148810395 -72570.346206717004 0 0 0 0 -15080310.910692215 -79103919.08408317 0 -79103919.08408317 60631047.115845919 0 0 0 0 -9154770.4368934631 136018790.26862699 0 136018790.26862699 -22688396.712416351 0 0 0 0 545468651.96978951 -145037583.63209423 0 -145037583.63209423 7169647.3503726721 0 0 0 0 76518136.769111633 67574360.484665275 0 67574360.484665275 58088029.314580202 0 0 0 0 612046679.91455078 187185352.75588012 0 187185352.75588012 58652437.81819129 0 0 0 0 -10236950.057914734 -24290802.861890316 0 -24290802.861890316 19506213.998725265 0 0 0 0 -68831170.504477501 11377562.75594914 0 11377562.75594914 51358860.587910414 0 0 0 0 13739267.01077652 50196603.781904936 0 50196603.781904936 -176094795.1888895 0 0 0 0 4510670.3346677069 1099311.6247991389 0 1099311.6247991389 -952022.98273179214 0 0 0 0 -8260523.8169212341 73937807.333220303 0 73937807.333220303 -119048255.04994798 0 0 0 0 -42100921.829406738 82783377.981417388 0 82783377.981417388 -182801674.10496616 0 0 0 0 53793.739796034992 93154.940068687545 0 93154.940068687545 -446464.42467202951 0 0 0 0 -30875777.461761951 139793310.77855942 0 139793310.77855942 -350867125.47240978 0 0 0 0 -6011980.5511512756 48114178.211074971 0 48114178.211074971 61427206.810243562 0 0 0 0 14031853.904212952 11346177.06195437 0 11346177.06195437 -36921794.880596042 0 0 0 0 14117858.914506435 12905840.918891214 0 12905840.918891214 -8715427.1181027591 0 0 0 0 81708.18609771505 415816.05590574979 0 415816.05590574979 -1398478.9320301693 0 0 0 0 4482851.1254920959 11946674.807145286 0 11946674.807145286 2526968.4103527777 0 0 0 0 4172626.7914104462 124488904.26590389 0 124488904.26590389 -246912945.44833386 0 0 0 0 723619.63683319092 3714803.0791145265 0 3714803.0791145265 -8283275.2649030946 0 0 0 0 -115907153.41931152 56376524.7833215 0 56376524.7833215 -32588941.821631655 0 0 0 0 127936.67029682919 1242215.1013589224 0 1242215.1013589224 -2837508.7478556409 0 0 0 0 -660326.28866195679 4061463.1669825739 0 4061463.1669825739 -8249473.749695899 0 0 0 0 957871.58772277832 4350099.2913029492 0 4350099.2913029492 -8359684.3947978318 0 0 0 0 9850075.6636047363 -11593211.80819416 0 -11593211.80819416 -2135837.9856147766 0 0 0 0 634331.45066261292 3527186.9760714564 0 3527186.9760714564 -8501115.5618879348 0 0 0 0 4766900.0030402578 -333095.01283987984 0 -333095.01283987984 -6890755.6564094508 0 0 0 0 9842074.8306427002 -11712700.846662104 0 -11712700.846662104 3006623.6115169525 0 0 0 0 -19157102.42383194 8754660.0759239197 0 8754660.0759239197 -863738.73098182678 0 0 0 0 60257799.336456299 -53261296.271223307 0 -53261296.271223307 402000432.98672104 0 0 0 0 4982052.8669860289 478006.88793920167 0 478006.88793920167 -6638268.0241215611 0 0 0 0 86116669.402639389 -51519491.711486697 0 -51519491.711486697 -224222091.51738048 0 0 0 0 1297256.3500222806 -314857.10040419176 0 -314857.10040419176 -1616587.7810602733 0 0 0 0 42108743.520742416 123016435.98533304 0 123016435.98533304 -179245504.17506123 0 0 0 0 -213907694.00107813 -87505521.94340314 0 -87505521.94340314 -176026086.0591116 0 0 0 0 -50324526.081174374 -106895895.01598582 0 -106895895.01598582 -206564137.25523615 0 0 0 0 -5390589.0315828323 159040528.896512 0 159040528.896512 -460980375.59118938 0 0 0 0 -265973480.33326721 243777109.38789153 0 243777109.38789153 -238457281.77231079 0 0 0 0 -40153497.873771906 204450014.07739189 0 204450014.07739189 -247000541.88368893 0 0 0 0 -1615670.7839584351 133049985.06704426 0 133049985.06704426 -259565411.14142156 0 0 0 0 32622099.635375977 53972489.961784124 0 53972489.961784124 -264104538.05484074 0 0 0 0 -22838402.641794682 81838584.047539368 0 81838584.047539368 -245881951.40718603 0 0 0 0 14610452.145942688 -94636837.706569433 0 -94636837.706569433 -179187562.12098044 0 0 0 0 1106726.1671545506 544509.44345523417 0 544509.44345523417 -640476.50982381776 0 0 0 0 -196919965.64592361 206717294.28348875 0 206717294.28348875 -92758058.17082262 0 0 0 0 33572310.556396484 -18707380.092045426 0 -18707380.092045426 -374560639.19948548 0 0 0 0 -23280891.494384766 -89265702.461938858 0 -89265702.461938858 66217311.533623695 0 0 0 0 6833830.1365890503 -11937954.310614109 0 -11937954.310614109 -36075670.601309776 0 0 0 0 25416824.334274292 -45701289.557245255 0 -45701289.557245255 -86098844.935027122 0 0 0 0 4281536.3412399292 25463110.148686767 0 25463110.148686767 2156875.1268852949 0 0 0 0 11691946.657302856 142377.98039984703 0 142377.98039984703 -6197505.4311852455 0 0 0 0 4716729.2289450429 1237764.4089138759 0 1237764.4089138759 -2745999.2816139609 0 0 0 0 10189114.628775507 3231705.1032375852 0 3231705.1032375852 -4146009.376818832 0 0 0 0 10262949.092494965 -2623345.7140803337 0 -2623345.7140803337 -2328395.4898886681 0 0 0 0 -17454151.947138786 33589031.501046479 0 33589031.501046479 96793862.739474773 0 0 0 0 -18956365.442230225 20778111.394639492 0 20778111.394639492 -3680720.6750881076 0 0 0 0 14996541.489612103 -1161275.6043298244 0 -1161275.6043298244 -10705166.937451363 0 0 0 0 14442826.815464973 -73117.780455112457 0 -73117.780455112457 -10849371.189297676 0 0 0 0 9160988.2474428937 -2731203.5139860185 0 -2731203.5139860185 -4500810.7265269766 0 0 0 0 27052982.441947937 215453202.3597627 0 215453202.3597627 -118674682.33933465 0 0 0 0 285719024.52881145 -168890952.58637375 0 -168890952.58637375 -102238167.24028243 0 0 0 0 -67432145.445874691 -3774020.3432883229 0 -3774020.3432883229 3876748.7935096547 0 0 0 0 9304672.7825508118 3322931.3030590415 0 3322931.3030590415 -7376723.9473409653 0 0 0 0 7336422.9439659119 1320684.4073028564 0 1320684.4073028564 -2396663.3555846214 0 0 0 0 10984272.145576999 -1468198.2768229069 0 -1468198.2768229069 -4084711.604971048 0 0 0 0 68844871.982870102 47592176.055315897 0 47592176.055315897 -163224461.70667246 0 0 0 0 -32443069.963321924 -129627800.84592462 0 -129627800.84592462 130901308.08646995 0 0 0 0 142423061.61489058 -246449251.02846703 0 -246449251.02846703 89951085.611183926 0 0 0 0 10165381.991661945 4168876.2430159347 0 4168876.2430159347 209662.45173088089 0 0 0 0 116691375.46973515 -109702291.5322531 0 -109702291.5322531 57574683.889954492 0 0 0 0 317488263.87077188 -145476142.44927171 0 -145476142.44927171 63947275.386085302 0 0 0 0 3007254.1491096914 -93886.533106712392 0 -93886.533106712392 -1051331.1923878582 0 0 0 0 13104735.55076313 583522.14467990398 0 583522.14467990398 -15171088.152489185 0 0 0 0 10610506.357711792 5140437.4451098442 0 5140437.4451098442 -19005098.584086657 0 0 0 0 11087377.106169485 1207669.825505157 0 1207669.825505157 -3674548.9834048385 0 0 0 0 10874582.423980713 -121300.96729648113 0 -121300.96729648113 -6027810.6457505226 0 0 0 0 14872425.023174286 4947134.7087597847 0 4947134.7087597847 -10986639.815825939 0 0 0 0 -8814083.8593635559 -33881160.882766247 0 -33881160.882766247 -32576814.893249154 0 0 0 0 6154241.9241096396 -106485.55090974644 0 -106485.55090974644 -3370431.383740657 0 0 0 0 14229582.118556976 -14862516.265496016 0 -14862516.265496016 -5290124.6287946701 0 0 0 0 14355704.134332776 -16884142.505133171 0 -16884142.505133171 -40091864.891857147 0 0 0 0 -41914614.621963501 -50720288.036536932 0 -50720288.036536932 50005009.608594835 0 0 0 0 -80923574.21607399 -147237084.25806546 0 -147237084.25806546 -100900034.84619427 0 0 0 0 -355214253.99342728 162611259.95194203 0 162611259.95194203 243675958.13855648 0 0 0 0 83369162.26233077 -23971243.537061669 0 -23971243.537061669 449782222.91904938 0 0 0 0 8812928.2119783685 3642590.5864483328 0 3642590.5864483328 1029222.7015716531 0 0 0 0 10564590.416980743 1123508.7751526833 0 1123508.7751526833 -155308772.77892423 0 0 0 0 52689306.38824749 -173416349.35805526 0 -173416349.35805526 215802970.76287681 0 0 0 0 122255541.07560176 -149569327.4661352 0 -149569327.4661352 147164153.6517905 0 0 0 0 62058045.695245743 -238162489.55766404 0 -238162489.55766404 100800066.40130505 0 0 0 0 -8629204.6423354149 -164625440.89039367 0 -164625440.89039367 146024512.6455895 0 0 0 0 6136320.2016114937 1374731.5226130544 0 1374731.5226130544 -144067.71452220628 0 0 0 0 135515525.08810592 2629426.189870514 0 2629426.189870514 -471472040.73595291 0 0 0 0 240276154.24311972 -369629856.9329114 0 -369629856.9329114 154928423.48336011 0 0 0 0 655299625.44562817 953869337.70019794 0 953869337.70019794 64657070.581298709 0 0 0 0 3465853219.519136 -963620144.19033837 0 -963620144.19033837 -529526744.85302752 0 0 0 0 2555721026.7738175 -1415553842.9473908 0 -1415553842.9473908 285009812.74437189 0 0 0 0 3193031.4128088364 503246.60142717155 0 503246.60142717155 -81369.238291594374 0 0 0 0 4734231295.5171394 28914285.326468915 0 28914285.326468915 184903545.09402427 0 0 0 0 3465584557.6342878 213620351.35095853 0 213620351.35095853 800611708.82521033 0 0 0 0 3449834514.3709459 54975779.648510814 0 54975779.648510814 -366396667.5549522 0 0 0 0 1021771865.7028265 -191218991.92787617 0 -191218991.92787617 -75501883.048905015 0 0 0 0 1016307401.7947965 -224923334.39764133 0 -224923334.39764133 112068003.86418214 0 0 0 0 995509694.83499146 541622017.17757821 0 541622017.17757821 -297972016.64870358 0 0 0 0 6910856.500164099 2622449.252492276 0 2622449.252492276 1228614.837645025 0 0 0 0 3459026696.4611983 -1489602860.5009937 0 -1489602860.5009937 383122496.56342286 0 0 0 0 22014323.307624817 -6073711.0945968628 0 -6073711.0945968628 26241038.604390144 0 0 0 0 64028039.686040878 7752134.5201420784 0 7752134.5201420784 4527500.0620498657 0 0 0 0 23013628.837126017 22989652.938039988 0 22989652.938039988 3048369.4903869629 0 0 0 0 904851.57769278437 1981768.0738327876 0 1981768.0738327876 -3866415.2544815866 0 0 0 0 -11148367.935844421 -2208160.3807659149 0 -2208160.3807659149 6342703.9698109627 0 0 0 0 13958317.065689087 -13775559.438705444 0 -13775559.438705444 -64337863.926719666 0 0 0 0 45440498.814041138 -2448323.7487049103 0 -2448323.7487049103 -101568372.34963799 0 0 0 0 11018447.606994629 22601527.792312622 0 22601527.792312622 14451845.509922028 0 0 0 0 36439964.455329895 43828560.111591339 0 43828560.111591339 -55434322.453239441 0 0 0 0 146527.09591887519 -1094472.4944152758 0 -1094472.4944152758 31401.807511447929 0 0 0 0 13663220.175129414 -102389954.18160039 0 -102389954.18160039 53540641.778718948 0 0 0 0 346881495.59081268 -72113793.492127895 0 -72113793.492127895 -94443506.799606323 0 0 0 0 237048874.47285843 -138978996.3669138 0 -138978996.3669138 2241517.1691532135 0 0 0 0 215291245.00320816 66797193.304820061 0 66797193.304820061 -22280195.394851685 0 0 0 0 344947688.11505127 -46475232.766366005 0 -46475232.766366005 -96224054.292472839 0 0 0 0 532091380.81550527 -193207334.53592157 0 -193207334.53592157 14630120.060398102 0 0 0 0 185757643.70822906 -114359311.58057976 0 -114359311.58057976 -2003625.1409893036 0 0 0 0 585013856.1390388 118631351.06024122 0 118631351.06024122 -15041503.295385361 0 0 0 0 -297680290.26806641 -54166237.984885693 0 -54166237.984885693 -259120772.21024323 0 0 0 0 -404165101.58301544 -503114936.91170359 0 -503114936.91170359 -430390132.50506783 0 0 0 0 422758.01727617905 264226.90080484375 0 264226.90080484375 -975159.20481023099 0 0 0 0 143175814.85371208 -5801915.5976719856 0 -5801915.5976719856 4324385.062538147 0 0 0 0 -291919281.63003111 34228078.858460784 0 34228078.858460784 -57145369.110732079 0 0 0 0 148798875.50123978 -62560923.060839176 0 -62560923.060839176 -320468346.24377489 0 0 0 0 176361998.39728117 75744672.675194025 0 75744672.675194025 -78273506.570451736 0 0 0 0 603678615.42275238 95895533.811936855 0 95895533.811936855 -147888611.8574152 0 0 0 0 -134080566.45836639 -154856730.54430008 0 -154856730.54430008 454729092.97175789 0 0 0 0 -6619195.9167289734 -163010373.65700102 0 -163010373.65700102 -306707693.18741512 0 0 0 0 3501419.3446567319 -2339473.4406734444 0 -2339473.4406734444 -1111099.0349644525 0 0 0 0 54468247.965339661 -7318751.0584363937 0 -7318751.0584363937 -3916990.3687362671 0 0 0 0 55914411.881492615 -9319725.4656124115 0 -9319725.4656124115 -9066287.7183909416 0 0 0 0 57895257.433818817 -11025518.291059971 0 -11025518.291059971 -8250333.7929573059 0 0 0 0 328054080.3331871 -224844579.97914553 0 -224844579.97914553 96213349.815609932 0 0 0 0 1266838.9296205938 421813.57318844367 0 421813.57318844367 -548298.65893221344 0 0 0 0 3777571.1526724435 320389.1849739037 0 320389.1849739037 -2226288.2238053968 0 0 0 0 52711011.689002991 -12855957.746384621 0 -12855957.746384621 -5571694.8485059738 0 0 0 0 45963426.092243195 9832394.4008641243 0 9832394.4008641243 -6258811.8262169361 0 0 0 0 614967.74812582321 -2392568.1638211329 0 -2392568.1638211329 -3796333.4012763258 0 0 0 0 111029244.53890991 169370981.14934731 0 169370981.14934731 220736595.06298423 0 0 0 0 177330545.67308044 67230180.295969963 0 67230180.295969963 34859487.811020374 0 0 0 0 -594619.28110694885 37863957.646917105 0 37863957.646917105 65953610.189311981 0 0 0 0 206134925.19818878 -76689942.079009533 0 -76689942.079009533 -108174942.74964476 0 0 0 0 328364197.1433754 6669465.9707648754 0 6669465.9707648754 -216516601.24424171 0 0 0 0 139116097.54604721 -156113663.89226937 0 -156113663.89226937 -204496350.96982574 0 0 0 0 211206341.85245514 -147916881.46656728 0 -147916881.46656728 -376878141.44255924 0 0 0 0 -131712.62183463201 -910799.88118372858 0 -910799.88118372858 -1147895.0633982182 0 0 0 0 -52964841.280658722 244427205.29087925 0 244427205.29087925 -290865000.57696986 0 0 0 0 -166866469.62325001 466575759.3351633 0 466575759.3351633 -475241017.7826128 0 0 0 0 -573867014.1138382 -458855880.66339254 0 -458855880.66339254 -14660690.275179863 0 0 0 0 958913423.07394409 17083746.526730061 0 17083746.526730061 -175021217.23279572 0 0 0 0 161708809.93965912 -93940569.196356773 0 -93940569.196356773 -152214421.95137072 0 0 0 0 2569282.8781280518 -276227688.42158771 0 -276227688.42158771 -328445378.95301306 0 0 0 0 190169437.93937683 -68570187.645518303 0 -68570187.645518303 -386777412.99062157 0 0 0 0 1901756.7164291423 4786587.4701364413 0 4786587.4701364413 -7306347.1389288269 0 0 0 0 314023121.61178589 -87936046.586687088 0 -87936046.586687088 -347254620.37829113 0 0 0 0 4238174.2781810388 -1359674.9708483983 0 -1359674.9708483983 -3544138.1991275093 0 0 0 0 25989460.989917755 9040524.1888217926 0 9040524.1888217926 -5718496.2011947632 0 0 0 0 16541029.141880035 14819081.631696701 0 14819081.631696701 -29622413.732818604 0 0 0 0 2573968.2122551799 2867184.0506159482 0 2867184.0506159482 -4815641.6311450768 0 0 0 0 158330960.38114548 -34804345.247762799 0 -34804345.247762799 -271473974.88604069 0 0 0 0 157026822.56064606 10523395.559510231 0 10523395.559510231 -198780056.82756901 0 0 0 0 1933189.2893981934 -743147.81998729706 0 -743147.81998729706 -4144898.733007431 0 0 0 0 -3587725.3403701782 -64471.805351257324 0 -64471.805351257324 -6913151.0165405273 0 0 0 0 1391448.189326711 831314.98757485161 0 831314.98757485161 -4762166.783653318 0 0 0 0 2678020.2736053467 7235286.8064212799 0 7235286.8064212799 -12913524.61447525 0 0 0 0 3752220.5164946727 2224878.4615480863 0 2224878.4615480863 -4456015.5239327941 0 0 0 0 9433543.6143875122 8302315.7394981384 0 8302315.7394981384 -10162519.799063683 0 0 0 0 24342235.236991882 -14028416.885341644 0 -14028416.885341644 -10093307.933979034 0 0 0 0 304910973.55351257 68706053.297930241 0 68706053.297930241 -688217639.25725698 0 0 0 0 224541557.58835602 -52975690.614907742 0 -52975690.614907742 -107480712.72162175 0 0 0 0 -90200667.784677505 117731246.27456641 0 117731246.27456641 -152499884.7917099 0 0 0 0 -97813487.551017761 167664646.26688242 0 167664646.26688242 390151198.29751968 0 0 0 0 -92435582.204650879 318651110.82488918 0 318651110.82488918 -136997631.13143015 0 0 0 0 -269186336.58880615 -447566337.47224331 0 -447566337.47224331 -145696360.69911858 0 0 0 0 603494460.59601593 42547391.017603874 0 42547391.017603874 -207587281.35319901 0 0 0 0 101203971.99865723 -123205239.33827496 0 -123205239.33827496 858807408.25701714 0 0 0 0 355510.65117872506 -49798.495439592749 0 -49798.495439592749 -518358.48151522037 0 0 0 0 7198885.5928649902 -453174924.70511723 0 -453174924.70511723 -145726656.72795156 0 0 0 0 -1028904916.0058899 184791960.97443628 0 184791960.97443628 -219038409.94764996 0 0 0 0 228456963.90964508 103028501.28401279 0 103028501.28401279 -1070214607.0943022 0 0 0 0 235347108.08335876 22740684.72647047 0 22740684.72647047 -295785426.26172686 0 0 0 0 54701627.480415344 148043744.85806417 0 148043744.85806417 384512495.12222624 0 0 0 0 1632905.3111665398 -4110559.8457619683 0 -4110559.8457619683 -6860858.0453248043 0 0 0 0 -3654781.1588287354 -5268528.4996128082 0 -5268528.4996128082 -13667556.596410751 0 0 0 0 -3832448.5234985352 -12050543.612261772 0 -12050543.612261772 -12578118.343621612 0 0 0 0 12151758.590126038 -299605.55899333954 0 -299605.55899333954 -33835987.069472313 0 0 0 0 8783082.2411946096 4806722.3649559934 0 4806722.3649559934 -11026608.022977065 0 0 0 0 -3772553.4420166016 -13821713.658595085 0 -13821713.658595085 -3708827.8841590881 0 0 0 0 -3676198.3298473358 -4802245.3982762098 0 -4802245.3982762098 -5849504.0803604126 0 0 0 0 108980579.88049316 30387373.437283993 0 30387373.437283993 -41433434.676414967 0 0 0 0 11098093.929801941 -18579267.296685696 0 -18579267.296685696 1816450.7157793045 0 0 0 0 390545.70004871488 -222199.27528424282 0 -222199.27528424282 -2084476.8678217914 0 0 0 0 74670928.709075928 -30887004.552693367 0 -30887004.552693367 -20650159.656183243 0 0 0 0 19662182.706272125 -131355.83117175102 0 -131355.83117175102 -36401343.011587143 0 0 0 0 14427251.018235009 3981670.3701999988 0 3981670.3701999988 -6080071.3075033799 0 0 0 0 25706052.052154541 22975054.744128227 0 22975054.744128227 -34677080.179178715 0 0 0 0 53376124.845474243 26880062.631642342 0 26880062.631642342 -34582144.851182461 0 0 0 0 14612712.61029911 -1772107.4418388605 0 -1772107.4418388605 -9497307.1056537628 0 0 0 0 50119808.380630493 -23900285.367285728 0 -23900285.367285728 -42180728.997225642 0 0 0 0 13731000.094482422 -5942294.2752795219 0 -5942294.2752795219 -23149478.195838809 0 0 0 0 6776725.6608844846 2739089.6437382298 0 2739089.6437382298 -7870072.7997677587 0 0 0 0 6118067.4328250885 5303854.316444397 0 5303854.316444397 -12008432.449588776 0 0 0 0 12832814.659240587 -799601.71347400267 0 -799601.71347400267 -7182981.7516499916 0 0 0 0 2831795.7386245728 -21989779.901861191 0 -21989779.901861191 -18984054.052172661 0 0 0 0 1722431.3035596497 1326467.5603508633 0 1326467.5603508633 -1362566.7058028281 0 0 0 0 5567863.5824175635 2466269.8267416614 0 2466269.8267416614 -7429882.6670686007 0 0 0 0 6761305.3962712288 2787938.5562095642 0 2787938.5562095642 -5101364.8299713135 0 0 0 0 9658570.6633329391 -523082.73869562149 0 -523082.73869562149 -5999394.7479915619 0 0 0 0 13578407.268735886 -489155.57377910614 0 -489155.57377910614 -9096662.6007528305 0 0 0 0 5283085.2320327759 -4095659.7579784393 0 -4095659.7579784393 -18697440.240386009 0 0 0 0 21038490.167925946 3945206.2179664955 0 3945206.2179664955 -9174043.4159440957 0 0 0 0 583982.01194007881 511214.45371460216 0 511214.45371460216 -2132137.908643838 0 0 0 0 -2281801.2414150238 10909370.150838852 0 10909370.150838852 -13796426.833301544 0 0 0 0 -3550001.0132980347 9964621.6091337204 0 9964621.6091337204 -10795052.065196991 0 0 0 0 410023.43710708618 5814975.5072154999 0 5814975.5072154999 -12005188.181276321 0 0 0 0 3529801.8029060364 8420376.6601600647 0 8420376.6601600647 -11709622.545696259 0 0 0 0 2545877.5317001343 7075568.6911945343 0 7075568.6911945343 -12218415.892242432 0 0 0 0 4173374.9145126343 5690092.7623100281 0 5690092.7623100281 -9316713.92760849 0 0 0 0 9553988.2667312622 4147604.5026187897 0 4147604.5026187897 -11233929.539352417 0 0 0 0 992673.88830375671 10267815.511803627 0 10267815.511803627 -10752098.464076996 0 0 0 0 -4211114.5943317413 9873999.5734844208 0 9873999.5734844208 -6679801.969291687 0 0 0 0 -1672274.3294181824 8002196.7235393524 0 8002196.7235393524 -10718562.300113678 0 0 0 0 -2128663.2874488831 15779690.982206345 0 15779690.982206345 742616.56119728088 0 0 0 0 -5576450.6853027344 7135766.1249523163 0 7135766.1249523163 -10197593.032737732 0 0 0 0 69345240.601203918 16502846.792797089 0 16502846.792797089 -18343352.635840416 0 0 0 0 220382.27096379735 133323.08174469508 0 133323.08174469508 -666626.26901397109 0 0 0 0 36246111.301605225 -36544399.957542419 0 -36544399.957542419 10639884.004166603 0 0 0 0 26063816.193466187 -22028203.200416565 0 -22028203.200416565 -5304361.546257019 0 0 0 0 28052136.070221901 -19667517.274641514 0 -19667517.274641514 -14256800.559913635 0 0 0 0 29508797.216281891 -15640850.270936966 0 -15640850.270936966 -20019577.07642746 0 0 0 0 17433480.943634987 -6345049.8012428284 0 -6345049.8012428284 -15683823.26319313 0 0 0 0 -32346571.223434448 -1257495.7411928177 0 -1257495.7411928177 4185888.5856513977 0 0 0 0 1576452.396004241 -1927832.7366973571 0 -1927832.7366973571 -924687.4594561141 0 0 0 0 470351.20248346403 277081.36550681852 0 277081.36550681852 -1325829.3987934869 0 0 0 0 -638113675.68048096 191492184.55781174 0 191492184.55781174 -55198941.04851532 0 0 0 0 -3599448.8447265625 -39062124.991786957 0 -39062124.991786957 7904292.4652748108 0 0 0 0 64581208.068225861 -13561333.083335876 0 -13561333.083335876 -19896399.118805647 0 0 0 0 388647016.69913197 -43656469.699406624 0 -43656469.699406624 -60231977.312875748 0 0 0 0 192705357.6141243 111982688.64206314 0 111982688.64206314 109733473.739151 0 0 0 0 -49722070.206874847 167804922.61925125 0 167804922.61925125 11890399.189764023 0 0 0 0 754160664.37850952 46341161.50037384 0 46341161.50037384 -387071962.82357788 0 0 0 0 172127939.1252594 -67392704.226578712 0 -67392704.226578712 -57166441.709106445 0 0 0 0 199707214.16125107 -39366116.157018661 0 -39366116.157018661 -46788656.798568726 0 0 0 0 254721438.0101757 -53784506.795183182 0 -53784506.795183182 -79355306.722581863 0 0 0 0 170628855.99714088 -52837531.227268696 0 -52837531.227268696 -17010801.220581055 0 0 0 0 -13079507.914409637 27161787.344652653 0 27161787.344652653 24022464.909759521 0 0 0 0 150968484.69934273 -7228210.35734272 0 -7228210.35734272 -60050043.266752839 0 0 0 0 852975.51649358869 -26951.353208297864 0 -26951.353208297864 -3527710.4051216561 0 0 0 0 13931285.594064713 -31348641.78354454 0 -31348641.78354454 2689345.6905708313 0 0 0 0 231404589.49089432 -80641283.092384338 0 -80641283.092384338 -14062524.810541019 0 0 0 0 223116891.43489456 -51443034.627279282 0 -51443034.627279282 -13984323.872081757 0 0 0 0 291719970.73822403 -66089572.601518631 0 -66089572.601518631 -20954733.042458534 0 0 0 0 324689028.54478455 -42491237.757644653 0 -42491237.757644653 -13714172.596672058 0 0 0 0 388047809.59583092 -29742736.81165123 0 -29742736.81165123 -29898660.551540375 0 0 0 0 297878954.65381968 489199.51608681679 0 489199.51608681679 -30528213.978141785 0 0 0 0 270551036.85324669 -15284426.299322128 0 -15284426.299322128 -39524394.021793365 0 0 0 0 232687330.78489113 -6619335.0798912048 0 -6619335.0798912048 -29695532.97678566 0 0 0 0 247644460.18797112 -36519316.507663727 0 -36519316.507663727 -32769351.46824646 0 0 0 0 238286039.71084785 -57877992.476613998 0 -57877992.476613998 -42388917.438740253 0 0 0 0 358053870.5031662 102710012.70083237 0 102710012.70083237 8128042.4299983978 0 0 0 0 225103339.34858513 55848103.651655197 0 55848103.651655197 -5992593.0602054596 0 0 0 0 285588559.64956641 37852201.217765331 0 37852201.217765331 -23329035.961612701 0 0 0 0 183800080.46143913 66268703.485601425 0 66268703.485601425 -12759577.4897995 0 0 0 0 229182719.20897341 70302331.089444399 0 70302331.089444399 -14871966.18057251 0 0 0 0 206640985.36064339 70072237.064214706 0 70072237.064214706 -39818498.983225584 0 0 0 0 201245146.35721207 76069637.075745821 0 76069637.075745821 -26994058.751674652 0 0 0 0 187661659.84806252 36368250.534790039 0 36368250.534790039 -20304867.941180229 0 0 0 0 227292375.77519226 425989.87463283539 0 425989.87463283539 -4705013.7750091553 0 0 0 0 49848329.242088318 -21563831.820840836 0 -21563831.820840836 10646308.18214798 0 0 0 0 355390488.3794775 61054668.235352516 0 61054668.235352516 -39301725.475151062 0 0 0 0 153765618.76063395 154924554.57169485 0 154924554.57169485 -34052444.917510986 0 0 0 0 264894044.23889828 -142953421.65314531 0 -142953421.65314531 27397724.885967255 0 0 0 0 250925103.11254168 -75420469.178930044 0 -75420469.178930044 -19192304.315078735 0 0 0 0 159615754.41259003 -1637205.244802475 0 -1637205.244802475 3507512.8507089615 0 0 0 0 167591916.41820908 -79087194.579669952 0 -79087194.579669952 -14479095.251509666 0 0 0 0 92258764.110145569 -59803545.902132988 0 -59803545.902132988 98579400.834434509 0 0 0 0 266255122.88075733 44876886.430187702 0 44876886.430187702 -18243886.637231827 0 0 0 0 81018445.245656967 -49603275.167664528 0 -49603275.167664528 -45284200.408436775 0 0 0 0 -17762007.041509628 132100207.32543182 0 132100207.32543182 -109946417.761971 0 0 0 0 134726513.78710175 19911996.26653266 0 19911996.26653266 -35214261.861198425 0 0 0 0 13855561.272974014 -39017138.055047035 0 -39017138.055047035 -60805519.675296783 0 0 0 0 1859190.4774064925 85221.13362669386 0 85221.13362669386 -1266347.2367355684 0 0 0 0 -98496523.991122007 199764025.33220649 0 199764025.33220649 -35982003.295930862 0 0 0 0 414183015.15118504 -232695563.01441574 0 -232695563.01441574 77722277.833821297 0 0 0 0 3659710.5481663812 334798.04541019141 0 334798.04541019141 -2282144.7726507336 0 0 0 0 163512506.71470308 -7920839.1681897044 0 -7920839.1681897044 -44711074.851791382 0 0 0 0 302819667.33021641 -94800129.386511803 0 -94800129.386511803 -41020629.962791443 0 0 0 0 181727429.3288002 -109497979.22183228 0 -109497979.22183228 14927893.236048698 0 0 0 0 275339592.78115463 -118390170.63957405 0 -118390170.63957405 -24172209.488488674 0 0 0 0 209455379.55626106 -20261239.88223505 0 -20261239.88223505 51382665.340596199 0 0 0 0 112488716.08122063 -106562976.35277605 0 -106562976.35277605 -13557683.375981927 0 0 0 0 65270832.779075623 66439280.69863224 0 66439280.69863224 -180137053.46055984 0 0 0 0 3765409.0590388756 417763.26327760564 0 417763.26327760564 -2243413.4970379025 0 0 0 0 131152967.93252754 42227745.623962045 0 42227745.623962045 -92112385.02523613 0 0 0 0 -1440934.0576534271 -15451351.931443214 0 -15451351.931443214 24582583.6954422 0 0 0 0 -37308482.494211197 64839915.491889954 0 64839915.491889954 -6471092.2255485654 0 0 0 0 -513958.25536018144 -971777.45501966169 0 -971777.45501966169 1729886.858696959 0 0 0 0 7797378.683631897 -15828092.068387985 0 -15828092.068387985 5651978.4348678589 0 0 0 0 19654911.508613586 7014422.8943190575 0 7014422.8943190575 3543620.1715335846 0 0 0 0 12685744.652724141 2950613.4970486546 0 2950613.4970486546 6897278.4929443421 0 0 0 0 20993055.14163208 4742192.9662971497 0 4742192.9662971497 5026582.6653747559 0 0 0 0 19370341.273550153 9998796.27362849 0 9998796.27362849 1299299.2277078629 0 0 0 0 15197059.172369003 -3660023.6275939941 0 -3660023.6275939941 23512844.202857971 0 0 0 0 13714023.108482881 5574096.0347534986 0 5574096.0347534986 6743920.7224880876 0 0 0 0 -155277.82636560174 431623.96867469093 0 431623.96867469093 539248.07206371613 0 0 0 0 -30198463.924874306 -1583359.6242713928 0 -1583359.6242713928 27941601.6337924 0 0 0 0 18958252.352039337 4872431.6471095085 0 4872431.6471095085 -142848.15505313873 0 0 0 0 3647901.5986032486 -25117802.42757082 0 -25117802.42757082 -9585226.0653400421 0 0 0 0 30570927.674156189 16637782.647836685 0 16637782.647836685 4681769.1503684521 0 0 0 0 5440851.3825076642 4337022.2849539984 0 4337022.2849539984 1543111.0570951314 0 0 0 0 3134241.5636121286 4172491.7297275374 0 4172491.7297275374 3560238.8992543714 0 0 0 0 44900161.843140602 27682844.678108215 0 27682844.678108215 -24448000.4836483 0 0 0 0 55423655.557103157 -736442.30931854248 0 -736442.30931854248 20572628.072298527 0 0 0 0 204468533.52449799 -3975013.1207494736 0 -3975013.1207494736 -21990022.15381813 0 0 0 0 159468512.10768032 -49659704.718519211 0 -49659704.718519211 -3115861.6392178535 0 0 0 0 96689407.814186096 33992456.62799263 0 33992456.62799263 -2118162.1246833801 0 0 0 0 17368216.056668282 -1129629.8382921219 0 -1129629.8382921219 62012674.526877403 0 0 0 0 152009240.77817035 -9942900.1559625864 0 -9942900.1559625864 -3058905.1940345764 0 0 0 0 445978969.45504475 -33503910.175697327 0 -33503910.175697327 -27649282.130984306 0 0 0 0 167268261.62885857 76444324.435051918 0 76444324.435051918 120047938.72842216 0 0 0 0 27848749.608808517 7449925.1507463455 0 7449925.1507463455 92811213.368396759 0 0 0 0 26891364.71648407 -13367407.983634949 0 -13367407.983634949 -33487567.949615479 0 0 0 0 16848156.214626312 -8218967.6761140823 0 -8218967.6761140823 -9006030.0788389444 0 0 0 0 -77303887.805497646 21245566.211494446 0 21245566.211494446 60056618.028032303 0 0 0 0 19316399.072784901 1277377.5124268532 0 1277377.5124268532 1699333.6077766418 0 0 0 0 6233425.5803461028 535144.89607824222 0 535144.89607824222 6281427.219490719 0 0 0 0 19451178.605860591 413892.99247837067 0 413892.99247837067 -439916.98032188416 0 0 0 0 15403442.392784119 -822244.48464679718 0 -822244.48464679718 1025128.0683672428 0 0 0 0 194636.07708731946 520643.55513660423 0 520643.55513660423 -58690.242247589165 0 0 0 0 6177351.997013092 -5422308.0466604233 0 -5422308.0466604233 5126005.8820304871 0 0 0 0 10449532.763904057 -3418020.6681137234 0 -3418020.6681137234 3233071.3453197479 0 0 0 0 -69763483.250313759 -24005787.864912033 0 -24005787.864912033 57635659.582010269 0 0 0 0 8016245.3957143957 -2879806.9458076218 0 -2879806.9458076218 8137519.319566749 0 0 0 0 24112472.716607094 -28808895.854077339 0 -28808895.854077339 33011200.788955688 0 0 0 0 16955096.627667785 -9227741.8157062531 0 -9227741.8157062531 -11414261.986949921 0 0 0 0 11260402.381222725 -60126209.268817902 0 -60126209.268817902 -8004451.695608139 0 0 0 0 -877770356.95944977 10967577.410676986 0 10967577.410676986 -977152134.91727829 0 0 0 0 1359712.4439767892 -1079280.0140276961 0 -1079280.0140276961 -180641.83336258261 0 0 0 0 181683773.39064789 262843356.89440155 0 262843356.89440155 -872598880.03034306 0 0 0 0 -940805.52059856057 -508050964.77083254 0 -508050964.77083254 -431613539.82818222 0 0 0 0 5953087.047928974 -8471834.7435981352 0 -8471834.7435981352 9408513.6081298441 0 0 0 0 -46842780.724014282 68906070.931725025 0 68906070.931725025 -253204798.1256361 0 0 0 0 216804067.01140785 -77217061.536312103 0 -77217061.536312103 94185627.045248032 0 0 0 0 122468736.17023373 4991378.1115570068 0 4991378.1115570068 25652375.526985168 0 0 0 0 111820905.41979218 -39200998.040130615 0 -39200998.040130615 5695419.3907833099 0 0 0 0 138524812.14048004 -37483856.244285583 0 -37483856.244285583 12681373.367023945 0 0 0 0 111648737.08362103 -2645721.0633201599 0 -2645721.0633201599 -5317478.0764732361 0 0 0 0 234601295.36168098 34314839.425333977 0 34314839.425333977 -32117185.744739532 0 0 0 0 157421538.15354347 23677685.883140564 0 23677685.883140564 -33230598.659002304 0 0 0 0 113997748.66209316 33143304.698040009 0 33143304.698040009 -1725507.905254364 0 0 0 0 4988398.3684825897 -5599589.9355716705 0 -5599589.9355716705 19676875.581659317 0 0 0 0 86661763.618533611 2219144.5513694286 0 2219144.5513694286 -606557.99470901489 0 0 0 0 8728804.4271163773 -11265271.092627713 0 -11265271.092627713 13224882.553992471 0 0 0 0 -1045471257.5194054 -1122104828.600461 0 -1122104828.600461 -146465963.68342972 0 0 0 0 120664079.45829391 77227283.964130402 0 77227283.964130402 51770128.380411148 0 0 0 0 1683104600.0608978 208477130.22570705 0 208477130.22570705 -627380189.23320651 0 0 0 0 -77112993.91583252 -323569828.43699598 0 -323569828.43699598 -749742121.83601761 0 0 0 0 -374839977.89851379 156925325.5114584 0 156925325.5114584 -726060140.37748146 0 0 0 0 537827011.80469704 92214119.275158167 0 92214119.275158167 -842215430.36500549 0 0 0 0 -551213014.35484695 -366623485.88654697 0 -366623485.88654697 -602865849.81614113 0 0 0 0 14302322.985153224 -12602953.919923864 0 -12602953.919923864 12751596.054348204 0 0 0 0 1203817014.1040955 -1007372056.4287195 0 -1007372056.4287195 -1267115201.7881508 0 0 0 0 277938655.24543762 -1233129567.4999743 0 -1233129567.4999743 -1101397439.0933723 0 0 0 0 -971265365.63048148 -143489253.76914722 0 -143489253.76914722 687980240.9614563 0 0 0 0 14879276.707496643 368325120.11278677 0 368325120.11278677 888186280.08446407 0 0 0 0 141605559.47644806 190816608.39814663 0 190816608.39814663 -22100453.406741142 0 0 0 0 -256427529.1318512 129725443.10210419 0 129725443.10210419 -24796204.995401859 0 0 0 0 370771122.78015232 523752426.08642936 0 523752426.08642936 -584038861.89240551 0 0 0 0 28031021.468162537 209709806.87197304 0 209709806.87197304 -54138591.309396505 0 0 0 0 44853895.381141663 300462079.1354022 0 300462079.1354022 -543249031.99869347 0 0 0 0 -1455775.6084136963 149005315.15302157 0 149005315.15302157 -178646437.63798523 0 0 0 0 -107391107.35446548 210976883.86198902 0 210976883.86198902 -51182266.318790436 0 0 0 0 -175827415.49100494 309737936.70074415 0 309737936.70074415 303615535.86066151 0 0 0 0 -71653681.393463135 135036367.80161762 0 135036367.80161762 61649006.675042629 0 0 0 0 23536498.029563904 134329582.01153183 0 134329582.01153183 -88888551.697977066 0 0 0 0 13270702.127738953 110082724.35980129 0 110082724.35980129 -49600817.122241974 0 0 0 0 96833611.507835388 45977070.530852318 0 45977070.530852318 17324682.34077549 0 0 0 0 82719578.424808502 19009337.897834539 0 19009337.897834539 -33743889.886437416 0 0 0 0 213535895.32212067 -60718820.13852644 0 -60718820.13852644 -21537864.900649071 0 0 0 0 2129486.929457549 -668045.3938594088 0 -668045.3938594088 -241273.68971911725 0 0 0 0 -33258789.249305725 131602227.65691471 0 131602227.65691471 -115928619.8534255 0 0 0 0 6255590.1720733643 162865814.61105061 0 162865814.61105061 -94324391.56952095 0 0 0 0 -20888496.980445862 145134296.59785366 0 145134296.59785366 -53655555.741621733 0 0 0 0 350125402.86291504 106322983.14980459 0 106322983.14980459 79176430.350681305 0 0 0 0 -17395164.449979782 61031156.466474771 0 61031156.466474771 -110988306.58805275 0 0 0 0 284206469.99973297 -295646399.78126955 0 -295646399.78126955 -164143944.10593319 0 0 0 0 10330633.610745165 4013769.9783469681 0 4013769.9783469681 -5153680.4848640123 0 0 0 0 58085278.201381683 -22065942.69171834 0 -22065942.69171834 37996861.958628654 0 0 0 0 7690204.3993626125 801535.4399786219 0 801535.4399786219 -2724541.5592044452 0 0 0 0 124740951.07689667 50329421.764380455 0 50329421.764380455 27494934.578667641 0 0 0 0 329223043.63096619 96352653.193597794 0 96352653.193597794 -46866866.21871376 0 0 0 0 -44621981.168079376 -67586062.440843821 0 -67586062.440843821 46158681.994165421 0 0 0 0 118192157.67982912 -7278130.0266690254 0 -7278130.0266690254 -10382232.466426849 0 0 0 0 38378915.372491837 22646648.950835228 0 22646648.950835228 -16501347.76675415 0 0 0 0 7777667.3916136166 -339590.27276826277 0 -339590.27276826277 -2958196.8616954531 0 0 0 0 -22002194.305393219 13528913.944414139 0 13528913.944414139 2456024.8619203568 0 0 0 0 84664561.317817688 -10504712.535941124 0 -10504712.535941124 -8112299.5295591354 0 0 0 0 8549506.5038164407 -2386288.1336358208 0 -2386288.1336358208 -2190790.4645285136 0 0 0 0 17267869.480545044 -18041144.070239067 0 -18041144.070239067 -22048479.182237625 0 0 0 0 11961377.248703003 17406988.853933096 0 17406988.853933096 582682.12781953812 0 0 0 0 6401209.266579926 -8488534.1989554167 0 -8488534.1989554167 1260118.9487915039 0 0 0 0 11441559.454457423 -8128163.8577420395 0 -8128163.8577420395 5110598.3125616107 0 0 0 0 44330173.073371887 -37800833.637871981 0 -37800833.637871981 -3858320.9143062234 0 0 0 0 74492543.157913208 -34927276.212717056 0 -34927276.212717056 -4844744.2891507149 0 0 0 0 -48077665.434139252 289817932.5427618 0 289817932.5427618 -294848745.85422802 0 0 0 0 2115136.980388335 302403.72785552964 0 302403.72785552964 -776847.78775860136 0 0 0 0 -9504463.9441795349 -67051227.534854233 0 -67051227.534854233 -7058252.595041275 0 0 0 0 153860772.34693146 254440947.86946774 0 254440947.86946774 -666257986.73809314 0 0 0 0 5140313.5474700928 -119946780.62154341 0 -119946780.62154341 -277472519.10081983 0 0 0 0 10629033.916107178 -31938362.328104019 0 -31938362.328104019 -125029252.51291943 0 0 0 0 26452776.075950623 50960778.675485611 0 50960778.675485611 -255425241.75408554 0 0 0 0 -43419668.521827698 -26974804.292988777 0 -26974804.292988777 -22706172.771062851 0 0 0 0 7981306.5989332199 -27328082.766944766 0 -27328082.766944766 -30683199.864181519 0 0 0 0 192009173.77478027 36953702.197696686 0 36953702.197696686 25755193.16879487 0 0 0 0 256379902.92972374 201018901.58803344 0 201018901.58803344 136332924.22639084 0 0 0 0 403621630.03802109 180596962.95922852 0 180596962.95922852 56870407.682730675 0 0 0 0 253793130.67256165 207070777.25156498 0 207070777.25156498 129930084.29809189 0 0 0 0 264486620.6228447 57517393.2750597 0 57517393.2750597 -15985113.729429245 0 0 0 0 35016172.252227783 -39633851.508534431 0 -39633851.508534431 -53846451.754284859 0 0 0 0 32448334.520310283 28766530.683100462 0 28766530.683100462 -23523631.870265961 0 0 0 0 803867.52325279638 276869.67429327196 0 276869.67429327196 -636540.54482896673 0 0 0 0 202268214.16927338 213989921.04057026 0 213989921.04057026 152120410.6111145 0 0 0 0 348460306.28431416 312325986.77360797 0 312325986.77360797 211722737.98686028 0 0 0 0 -1543736.1298751831 7118158.0071563721 0 7118158.0071563721 -36410521.643507004 0 0 0 0 -24978213.834827423 21143991.956540585 0 21143991.956540585 -6294093.9575214386 0 0 0 0 1954504.0642452464 603568.37307933508 0 603568.37307933508 -1702292.6103612296 0 0 0 0 4466269.8986026943 2731637.5322973095 0 2731637.5322973095 -2822705.4601935875 0 0 0 0 -3654748.138961792 38968219.464817047 0 38968219.464817047 4771999.4722976685 0 0 0 0 -2193169.4774436951 -19470570.485116959 0 -19470570.485116959 -501070.87258911133 0 0 0 0 -57450041.344368935 -2193085.6730033755 0 -2193085.6730033755 33836180.535232544 0 0 0 0 1546449.0958309174 2963343.8367910385 0 2963343.8367910385 -19698054.750928879 0 0 0 0 61432148.208936691 14874458.098575115 0 14874458.098575115 28848343.946199417 0 0 0 0 29404600.992847443 -35903394.630719185 0 -35903394.630719185 32093202.270225525 0 0 0 0 31430937.921897888 24677837.219719887 0 24677837.219719887 22439725.896944046 0 0 0 0 54802913.395629883 -12528534.167758942 0 -12528534.167758942 70529107.663511276 0 0 0 0 163219084.58845139 573411.16806793213 0 573411.16806793213 9697674.8715209961 0 0 0 0 148073264.10293293 47632126.213384867 0 47632126.213384867 188131259.11608887 0 0 0 0 190936909.234375 141653694.32649422 0 141653694.32649422 79537737.94786644 0 0 0 0 92953763.230186462 -25657157.761809349 0 -25657157.761809349 -7432554.4790210724 0 0 0 0 199153400.49081421 -4500339.6234951019 0 -4500339.6234951019 -31657928.619673729 0 0 0 0 150656633.68376923 30282455.909723282 0 30282455.909723282 -15064002.032166481 0 0 0 0 136104288.87869644 -93265796.503820419 0 -93265796.503820419 356190860.1105423 0 0 0 0 505891831.70010757 184349203.0418005 0 184349203.0418005 57554733.22916913 0 0 0 0 677646452.64037323 305526187.55950356 0 305526187.55950356 -47978864.753822327 0 0 0 0 238507803.1373558 279953988.63587379 0 279953988.63587379 427455705.35736084 0 0 0 0 93290526.752696991 13791435.13289547 0 13791435.13289547 3742631.0238075256 0 0 0 0 2171474.1047113901 -245988.83134436421 0 -245988.83134436421 -1394238.7891702484 0 0 0 0 178392684.15567017 78761823.829045296 0 78761823.829045296 -4026130.0871200562 0 0 0 0 114469605.37039185 59073397.946466446 0 59073397.946466446 35132197.301609993 0 0 0 0 116611206.24817646 12760470.823645085 0 12760470.823645085 -27497445.389110565 0 0 0 0 123503598.85555458 43518939.028305054 0 43518939.028305054 -988521.02987861633 0 0 0 0 93418089.174833298 18949777.824397087 0 18949777.824397087 -23922984.041208267 0 0 0 0 42864448.509281158 11251618.733441353 0 11251618.733441353 -780409.3537607193 0 0 0 0 45981741.589673758 -26191945.422203898 0 -26191945.422203898 -38756636.051234245 0 0 0 0 23644225.686597824 -47726312.205742836 0 -47726312.205742836 -39533860.397662163 0 0 0 0 19860914.708314542 -6348338.6524031051 0 -6348338.6524031051 -6674871.8741798718 0 0 0 0 26419600.243652344 9491817.6037063599 0 9491817.6037063599 -11593536.578197479 0 0 0 0 23460957.43884087 -6737343.3065949697 0 -6737343.3065949697 -8779327.0812802855 0 0 0 0 -24651334.226886749 -56494952.786186218 0 -56494952.786186218 -11427543.558007598 0 0 0 0 61696103.178215027 4174530.4092299938 0 4174530.4092299938 -6533685.7060546875 0 0 0 0 51807037.899410248 19306935.704671621 0 19306935.704671621 914689.92763233185 0 0 0 0 39426086.704156876 5863700.9859399796 0 5863700.9859399796 -6917155.7212648392 0 0 0 0 50452031.064077377 21728454.097946644 0 21728454.097946644 -3312442.6824827194 0 0 0 0 73630340.722223282 17750102.458061218 0 17750102.458061218 -19269246.533344269 0 0 0 0 65085505.697532177 42861303.72995162 0 42861303.72995162 27191258.372598648 0 0 0 0 377124.9771862207 2405913.5839915927 0 2405913.5839915927 69676.144900776795 0 0 0 0 90234545.48319912 49895450.537109852 0 49895450.537109852 18199877.600385666 0 0 0 0 7285966.9055538382 1535993.8852926055 0 1535993.8852926055 -410914.50707576796 0 0 0 0 93434951.015910149 48895228.794036388 0 48895228.794036388 2743666.262134552 0 0 0 0 10731118.045146942 26631188.352993488 0 26631188.352993488 -41639866.309057713 0 0 0 0 45433858.880970001 32389366.923933983 0 32389366.923933983 61208765.689880371 0 0 0 0 85716419.50031662 16547725.808356047 0 16547725.808356047 -38610305.340342522 0 0 0 0 65515299.661811829 28196566.125201225 0 28196566.125201225 13997280.464762449 0 0 0 0 19829577.505945772 -5502215.3723697606 0 -5502215.3723697606 -6587887.9093952933 0 0 0 0 46758678.493349075 -14078517.553557396 0 -14078517.553557396 -23468337.886219025 0 0 0 0 -17113519.820350647 -57751499.392155886 0 -57751499.392155886 -19519774.954984188 0 0 0 0 161435627.75614262 -18381548.63895607 0 -18381548.63895607 -54160086.804850578 0 0 0 0 -41374982.107357025 7182863.754652977 0 7182863.754652977 10191766.927305222 0 0 0 0 82856791.48903656 27708700.291360855 0 27708700.291360855 -7221759.870377779 0 0 0 0 56345922.028395653 14309322.663099289 0 14309322.663099289 -5617068.8948249817 0 0 0 0 3797332.1976412218 -297463.54627206875 0 -297463.54627206875 -421069.00027678953 0 0 0 0 15410783.263832569 -1936819.7764456272 0 -1936819.7764456272 -19653048.26269722 0 0 0 0 13904310.43343544 -7340949.3962335587 0 -7340949.3962335587 -1782222.6326608658 0 0 0 0 10329029.32217598 4111638.6176481247 0 4111638.6176481247 -21198409.216895103 0 0 0 0 18406481.573505878 -9085166.9395229816 0 -9085166.9395229816 -15368365.44613266 0 0 0 0 7696176.6551685333 -3379246.9836945534 0 -3379246.9836945534 -1683154.5084733963 0 0 0 0 13208428.252782943 -4805119.4102616776 0 -4805119.4102616776 -267189.25159874838 0 0 0 0 13932796.049731379 -4390738.9873465477 0 -4390738.9873465477 998159.50343466876 0 0 0 0 15906690.305783272 -10463770.013035297 0 -10463770.013035297 2050021.3422834873 0 0 0 0 9195372.2320919037 -4643350.3843889236 0 -4643350.3843889236 2099375.8480415344 0 0 0 0 8344560.2195558548 -1734743.1819372177 0 -1734743.1819372177 6598740.7249937057 0 0 0 0 19189138.510806348 -1897741.213452491 0 -1897741.213452491 -1591285.3233247388 0 0 0 0 11708762.213440403 -2653874.6036271788 0 -2653874.6036271788 328802.28315902222 0 0 0 0 7103900.0757134724 -1160392.1455594841 0 -1160392.1455594841 1023400.4038608335 0 0 0 0 14728014.775034547 -1750711.286020577 0 -1750711.286020577 12576433.988834381 0 0 0 0 4295790.0378837585 654130.44116973877 0 654130.44116973877 134084.98278617859 0 0 0 0 -17964553.506767273 -33329815.692764282 0 -33329815.692764282 8099527.6541444063 0 0 0 0 32178139.263576508 -7342414.3971600533 0 -7342414.3971600533 -15016455.044545174 0 0 0 0 71384686.155975342 -40546456.40818119 0 -40546456.40818119 -14588036.855799913 0 0 0 0 12423113.394082583 14715091.656950507 0 14715091.656950507 1318758.809245165 0 0 0 0 101069644.12001419 9197257.2448749542 0 9197257.2448749542 -5118931.4245142937 0 0 0 0 79012415.840415955 16398491.809587479 0 16398491.809587479 21038651.067693949 0 0 0 0 39555315.358436584 10195548.642110348 0 10195548.642110348 4477574.3229308128 0 0 0 0 78023900.061935425 -4219977.8920841217 0 -4219977.8920841217 -12090201.714297533 0 0 0 0 38074359.674446106 -34373636.546437263 0 -34373636.546437263 -11521425.895970583 0 0 0 0 18199472.576831844 -3516889.0830358882 0 -3516889.0830358882 346013.21853755135 0 0 0 0 55307703.698163509 -2504142.1623339653 0 -2504142.1623339653 -3899040.7572536469 0 0 0 0 2047993.7946355343 8638934.6566814184 0 8638934.6566814184 -31965558.02564621 0 0 0 0 -86577190.932357788 -89517637.147081375 0 -89517637.147081375 53311943.074493408 0 0 0 0 35268847.981704712 -3979949.7149739265 0 -3979949.7149739265 -3394992.336523056 0 0 0 0 27914368.929493375 -1557409.1068462799 0 -1557409.1068462799 -4250392.1225902494 0 0 0 0 82324726.355470657 17271333.555963993 0 17271333.555963993 -3086248.5874176025 0 0 0 0 14786826.461794829 13429532.105801903 0 13429532.105801903 906478.41439536773 0 0 0 0 16818600.432421979 -9057579.8315593712 0 -9057579.8315593712 -3616998.567064797 0 0 0 0 18062842.502746582 -11016477.143360138 0 -11016477.143360138 -5970844.5965833664 0 0 0 0 35924759.538762666 -11239481.651745701 0 -11239481.651745701 -6001768.8463450009 0 0 0 0 14688651.885475045 -1668515.6945036324 0 -1668515.6945036324 -2713955.8134135716 0 0 0 0 34717022.938018799 -4102699.0426588058 0 -4102699.0426588058 -4433460.5513043404 0 0 0 0 30447072.818891525 -5802422.6113722324 0 -5802422.6113722324 884127.38392162323 0 0 0 0 35277791.593389511 -4051935.6965179443 0 -4051935.6965179443 -3301011.6385958195 0 0 0 0 9718097.591787003 2909191.3697720626 0 2909191.3697720626 -748334.79556901893 0 0 0 0 34501410.187577248 -3884805.6013941169 0 -3884805.6013941169 -316254.39601230621 0 0 0 0 19001757.928827286 2064250.8123276234 0 2064250.8123276234 254662.41552686691 0 0 0 0 23346686.960624695 -154031.93013310432 0 -154031.93013310432 -5861053.2761354446 0 0 0 0 18593013.309243266 2552836.5474281707 0 2552836.5474281707 -1431241.3703468298 0 0 0 0 16803374.715242386 3197202.6141748428 0 3197202.6141748428 -32697795.370652199 0 0 0 0 134199914.72919464 -43536003.429113388 0 -43536003.429113388 -20062179.018808365 0 0 0 0 24663083.808570862 5849578.0340151787 0 5849578.0340151787 -3273253.9990115166 0 0 0 0 19192010.551368326 2688534.2302194536 0 2688534.2302194536 -1148772.8743788558 0 0 0 0 20021074.298597813 9015762.5844614506 0 9015762.5844614506 1090664.1487522125 0 0 0 0 29242711.6763134 6505151.1222171783 0 6505151.1222171783 256604.81493854523 0 0 0 0 64445979.607227325 25868816.032264948 0 25868816.032264948 -8857089.9773797989 0 0 0 0 1992945.8327937592 4160492.7307780031 0 4160492.7307780031 1328562.800577885 0 0 0 0 28620347.903909683 12262136.067517042 0 12262136.067517042 8286976.9671425819 0 0 0 0 12192300.409309387 4080915.8999826908 0 4080915.8999826908 609098.45536899567 0 0 0 0 6562122.4646081924 6467077.526514411 0 6467077.526514411 1166778.1099700928 0 0 0 0 103465122.18949127 -18475282.084393501 0 -18475282.084393501 -209293694.85835743 0 0 0 0 23277403.946331024 57442064.218989849 0 57442064.218989849 14695927.082003593 0 0 0 0 61955566.809135437 39415081.869941235 0 39415081.869941235 22236387.509096384 0 0 0 0 31650939.754368305 564316.11358958483 0 564316.11358958483 -3544015.7368764877 0 0 0 0 57349288.336933136 945471.34017527103 0 945471.34017527103 -5445359.7629892826 0 0 0 0 6514557.3370404392 2557337.4358743792 0 2557337.4358743792 615430.60791925387 0 0 0 0 -11727628.329082489 -28720808.230232954 0 -28720808.230232954 -23254551.552862167 0 0 0 0 44687026.400997162 3995221.6820588112 0 3995221.6820588112 3536256.4884190559 0 0 0 0 39074316.718605995 -8470620.1889481544 0 -8470620.1889481544 -6869420.1674232483 0 0 0 0 10840599.101685727 -2517952.3962261863 0 -2517952.3962261863 -3428712.9937345008 0 0 0 0 44783018.93721962 562592.03418791294 0 562592.03418791294 1199368.3638234138 0 0 0 0 -127457666.00263667 531016636.50513297 0 531016636.50513297 739782018.87239838 0 0 0 0 47777384.935283661 1216491.6524662971 0 1216491.6524662971 -3410689.7797454596 0 0 0 0 48712084.530105591 -2188013.8551732898 0 -2188013.8551732898 3013458.5862360001 0 0 0 0 456876695.84049988 772197841.86300278 0 772197841.86300278 -432548824.34449196 0 0 0 0 39447049.403928757 96632352.120717645 0 96632352.120717645 570178569.70908165 0 0 0 0 6981191.7362440331 3072776.1793111507 0 3072776.1793111507 920541.96363563021 0 0 0 0 39029903.944654465 -128958974.61414951 0 -128958974.61414951 61201696.937808037 0 0 0 0 52280369.670475006 5275776.082241416 0 5275776.082241416 -5699467.4739606977 0 0 0 0 48780277.931007385 3838339.4313727617 0 3838339.4313727617 4157488.8494448662 0 0 0 0 48121727.991314888 1246666.7986588776 0 1246666.7986588776 -5900074.6368360519 0 0 0 0 51430085.019802094 3718157.7144098878 0 3718157.7144098878 -5489866.2728528976 0 0 0 0 -251776773.18634033 -238354677.77693558 0 -238354677.77693558 -46449948.458059311 0 0 0 0 15473972.060109895 -430781.33279007673 0 -430781.33279007673 -6589392.1262224074 0 0 0 0 43954141.547611237 162613.5753942728 0 162613.5753942728 -2064395.0300405025 0 0 0 0 53427053.145742416 -9782179.2658395097 0 -9782179.2658395097 6512622.8529407978 0 0 0 0 109549031.17779541 -240505811.60241914 0 -240505811.60241914 6787229.6484775543 0 0 0 0 236504026.22608948 -277077734.95207882 0 -277077734.95207882 -111787334.53405485 0 0 0 0 51866417.762842178 2927843.9063210338 0 2927843.9063210338 -10974430.299966216 0 0 0 0 60837742.184333801 6599172.8255500793 0 6599172.8255500793 -7175146.744446516 0 0 0 0 47793094.389442444 -2310811.2077572644 0 -2310811.2077572644 -11049096.580991304 0 0 0 0 91729600.945396423 -1108055.3340340853 0 -1108055.3340340853 -39208381.592203915 0 0 0 0 16494328.059955597 -54184039.728988409 0 -54184039.728988409 49270970.960836411 0 0 0 0 29081383.959659576 4966553.933801651 0 4966553.933801651 -13218815.375577688 0 0 0 0 223032406.5136528 -37330370.45363763 0 -37330370.45363763 -51069805.715175748 0 0 0 0 69752477.255027771 158328297.6568749 0 158328297.6568749 -51187089.126239777 0 0 0 0 318803683.97071838 210855535.58627462 0 210855535.58627462 -143353876.13769245 0 0 0 0 370977228.54845619 -61022918.36904037 0 -61022918.36904037 -61105760.85140419 0 0 0 0 681427.80948187783 5632.9228322291747 0 5632.9228322291747 263215.91844256734 0 0 0 0 24044199.103126526 -24894811.284687638 0 -24894811.284687638 7497114.2409152985 0 0 0 0 5980861.2330390094 3536248.9205446867 0 3536248.9205446867 -2348288.2156538051 0 0 0 0 4861102.6426722407 8950755.0309202373 0 8950755.0309202373 -2462504.5438165665 0 0 0 0 4237604.9957990646 3405771.9476611614 0 3405771.9476611614 1265195.6405282021 0 0 0 0 4762099.4804129004 6664597.4221544564 0 6664597.4221544564 3230476.9279327393 0 0 0 0 1242645.23129653 4285576.8004006632 0 4285576.8004006632 639656.22479580669 0 0 0 0 82508158.029502869 -36929697.970386863 0 -36929697.970386863 33774919.437992096 0 0 0 0 17667096.76820755 72448144.982374191 0 72448144.982374191 311869676.06843352 0 0 0 0 -184690.7134728916 602700.98843940999 0 602700.98843940999 494123.70434406609 0 0 0 0 194729831.17408848 -37746741.923285484 0 -37746741.923285484 27073512.933271408 0 0 0 0 9921425.3865627274 -2642013.828024595 0 -2642013.828024595 -4795151.092649282 0 0 0 0 19726088.58253479 -2621478.6611480713 0 -2621478.6611480713 24450747.442790985 0 0 0 0 8935721.9835577197 -1433091.7455331525 0 -1433091.7455331525 -4962438.4926019348 0 0 0 0 66128651.677783966 -58422364.074471474 0 -58422364.074471474 -40616673.446447134 0 0 0 0 22961043.442346573 6467741.6154987812 0 6467741.6154987812 -25700822.976798534 0 0 0 0 23030910.454798698 -3799189.8703113473 0 -3799189.8703113473 -7781226.6605095463 0 0 0 0 -81972362.651893616 -51812016.244872093 0 -51812016.244872093 25292622.098880768 0 0 0 0 -103967640.24145508 59251208.882969856 0 59251208.882969856 -34280676.558416367 0 0 0 0 -112347342.75807571 -137652987.73357296 0 -137652987.73357296 147478916.10210514 0 0 0 0 286539077.97004509 -88179738.859500408 0 -88179738.859500408 -4787985.8444910049 0 0 0 0 15811914.408657074 76578538.668184757 0 76578538.668184757 -71384653.764891624 0 0 0 0 370140388.62946892 82705789.15846777 0 82705789.15846777 -174055826.45374632 0 0 0 0 4730290.809715718 826464.4237103496 0 826464.4237103496 -799824.01045265049 0 0 0 0 -7025728.1142807007 -109552992.87510467 0 -109552992.87510467 44739504.299642563 0 0 0 0 -22525081.379487991 -80282627.49979353 0 -80282627.49979353 11835455.884921074 0 0 0 0 33611177.270168304 -66114858.236111641 0 -66114858.236111641 7270421.2791233063 0 0 0 0 287092057.96240807 143917691.19709206 0 143917691.19709206 43058771.876321673 0 0 0 0 1761096.6989232693 398196.37779903412 0 398196.37779903412 307205.39486074261 0 0 0 0 22427994.515666962 -18338117.834957123 0 -18338117.834957123 -107385172.23087502 0 0 0 0 104317765.18479156 -119560600.82871532 0 -119560600.82871532 -84278185.734387398 0 0 0 0 115948979.65680313 -161738438.8503623 0 -161738438.8503623 -16480547.896841049 0 0 0 0 45677131.786388397 -188826146.9340601 0 -188826146.9340601 107549426.12316418 0 0 0 0 142358129.68858337 315658031.89909363 0 315658031.89909363 211287763.72721958 0 0 0 0 177998249.6905632 268006313.53656769 0 268006313.53656769 135556838.16292763 0 0 0 0 1446588.8422535453 663539.70204691472 0 663539.70204691472 71995.103711745702 0 0 0 0 896735164.23389626 -91587150.317772865 0 -91587150.317772865 -1043234092.8357172 0 0 0 0 285885207.89834595 349499373.33283615 0 349499373.33283615 167835830.00653458 0 0 0 0 48973253.871835709 -139030473.0124259 0 -139030473.0124259 116777589.02258682 0 0 0 0 -4186113.5695323944 -33499050.701201439 0 -33499050.701201439 -92496162.784332275 0 0 0 0 50435336.282592773 209549519.44297028 0 209549519.44297028 166170900.36379051 0 0 0 0 340242108.23738861 -84034936.757346153 0 -84034936.757346153 -154254515.08438683 0 0 0 0 246365373.13864326 193071858.98830175 0 193071858.98830175 -11771378.483474731 0 0 0 0 139093751.96929932 73622990.724269867 0 73622990.724269867 -144211164.25813293 0 0 0 0 99964166.135307193 -121792342.82636209 0 -121792342.82636209 6667083.4249897003 0 0 0 0 68178499.029893875 266307147.60995579 0 266307147.60995579 212444851.32680321 0 0 0 0 605094.93853449449 454772.90370609146 0 454772.90370609146 657365.82662032638 0 0 0 0 -16921793.332511902 33586859.272453308 0 33586859.272453308 242249889.73003578 0 0 0 0 14702643.173973083 -62123532.942505836 0 -62123532.942505836 188476880.48696899 0 0 0 0 12364466.762168884 41619382.839076519 0 41619382.839076519 34627125.19468689 0 0 0 0 34461131.393913269 78958469.318969727 0 78958469.318969727 35333646.055054665 0 0 0 0 25143852.794633865 212281465.39246225 0 212281465.39246225 -53929049.597602844 0 0 0 0 19656235.592756271 129767197.77934957 0 129767197.77934957 -33764453.249940872 0 0 0 0 -10262695.554718018 22967987.323274612 0 22967987.323274612 21930410.634614944 0 0 0 0 1419977.1586990356 50105340.720218658 0 50105340.720218658 -24597509.167631149 0 0 0 0 43543968.490936279 30291785.223137856 0 30291785.223137856 -156075342.96043491 0 0 0 0 -8336451.3374633789 7770611.6545476913 0 7770611.6545476913 -56215348.392208099 0 0 0 0 -3212212.284368515 14684600.722655058 0 14684600.722655058 24365005.633365631 0 0 0 0 -12402071.317222595 -5990741.3640394211 0 -5990741.3640394211 66018348.201328039 0 0 0 0 40319795.255027771 -20550519.203629136 0 -20550519.203629136 28028869.021221161 0 0 0 0 6021232.0861282349 12292489.376292229 0 12292489.376292229 17979443.070222855 0 0 0 0 13282611.073705673 4684409.6568639278 0 4684409.6568639278 24276236.214588165 0 0 0 0 51413994.058959961 -98672667.695100307 0 -98672667.695100307 -38516444.131652355 0 0 0 0 -2505285.4291172028 36273910.260962486 0 36273910.260962486 -6488618.4662327766 0 0 0 0 27316709.443506241 95326479.947487891 0 95326479.947487891 -43362663.584001541 0 0 0 0 -11094076.120635986 28489987.337945938 0 28489987.337945938 32406057.220062256 0 0 0 0 42236295.615722835 10320783.405794209 0 10320783.405794209 -2397924.8877224023 0 0 0 0 9937244.6059034243 11938093.208267095 0 11938093.208267095 -866842.03164518811 0 0 0 0 77279389.672492981 145848766.12325478 0 145848766.12325478 -208419106.95707703 0 0 0 0 -31436133.920700073 165123847.34133911 0 165123847.34133911 -70438787.154317856 0 0 0 0 36679524.531188965 28434482.354011059 0 28434482.354011059 -49590670.35793519 0 0 0 0 16946719.527444262 11395747.709966958 0 11395747.709966958 1542307.2179041251 0 0 0 0 19625619.149703979 33469666.576461673 0 33469666.576461673 -17676876.147576809 0 0 0 0 7988596.562171936 12291893.017149031 0 12291893.017149031 -2389914.6206900626 0 0 0 0 22889307.199912615 18422757.598823294 0 18422757.598823294 1474031.8102067197 0 0 0 0 181289573.86748886 -7759821.9772920609 0 -7759821.9772920609 -399126850.29634476 0 0 0 0 4290812.4932365417 15313483.601630688 0 15313483.601630688 -13707084.525097847 0 0 0 0 27794566.514180984 5174162.3996604495 0 5174162.3996604495 -1310575.412198578 0 0 0 0 -70743292.524757385 1636903.3586559296 0 1636903.3586559296 -154657566.27595997 0 0 0 0 28984797.918178558 46556288.707883835 0 46556288.707883835 -192838605.71928501 0 0 0 0 6592313.5373777226 17215421.863700479 0 17215421.863700479 3040784.3248221921 0 0 0 0 2755736.0345306396 7810149.8277238607 0 7810149.8277238607 -2254821.2606291175 0 0 0 0 13388811.01776886 10980676.857272357 0 10980676.857272357 -3591433.084232688 0 0 0 0 7996565.849118527 6689085.7512030955 0 6689085.7512030955 899602.01619574288 0 0 0 0 22081593.959613603 11822427.40922785 0 11822427.40922785 -1686616.6471698536 0 0 0 0 46743047.906858802 -91280528.543040633 0 -91280528.543040633 -161920280.58200645 0 0 0 0 9280334.0111465454 8517281.1637313962 0 8517281.1637313962 316867.58051252365 0 0 0 0 7848372.9033622742 6758997.042904973 0 6758997.042904973 2003985.7409982681 0 0 0 0 13500327.754653931 6455642.8542236686 0 6455642.8542236686 1126686.7037557364 0 0 0 0 11358483.91147292 11185020.730067533 0 11185020.730067533 1680421.3589174296 0 0 0 0 9512500.6641540527 43340736.471035004 0 43340736.471035004 -9080947.6726677418 0 0 0 0 17323557.019069672 24681499.911978364 0 24681499.911978364 -2293669.5768680573 0 0 0 0 12164317.310157776 27059727.121936917 0 27059727.121936917 -18027348.705338478 0 0 0 0 -18683477.680374146 50264099.849011183 0 50264099.849011183 159774.97243404388 0 0 0 0 38104510.756664276 17468132.376890585 0 17468132.376890585 -5715530.5900602341 0 0 0 0 41086603.695083618 45389733.142329216 0 45389733.142329216 -9300464.3129005432 0 0 0 0 43838641.333381653 42219634.372645378 0 42219634.372645378 -1082827.1983075142 0 0 0 0 104971854.4387207 -684837.535343647 0 -684837.535343647 -28384479.271742821 0 0 0 0 115889467.20251465 19470575.49664259 0 19470575.49664259 -16376815.683543205 0 0 0 0 80389838.156341553 7701219.2406787872 0 7701219.2406787872 -11244239.426929891 0 0 0 0 62197606.397491455 -22681468.88162899 0 -22681468.88162899 -8934069.5328426361 0 0 0 0 12911208.644558357 3019741.0239697411 0 3019741.0239697411 -3143421.5534221316 0 0 0 0 15689498.94098299 2458452.285677908 0 2458452.285677908 -1449766.6815294984 0 0 0 0 12739984.374027252 2984472.1598078012 0 2984472.1598078012 -2676650.3462307751 0 0 0 0 23383790.789794922 3186907.9260554314 0 3186907.9260554314 1375839.7307014465 0 0 0 0 8388990.3002574444 40185903.75834921 0 40185903.75834921 7128759.2059583664 0 0 0 0 10251497.55976744 7335233.6557451375 0 7335233.6557451375 -1519939.3408902863 0 0 0 0 43101510.676269531 2447614.1885178089 0 2447614.1885178089 716720.33469200134 0 0 0 0 -1229360.7353149168 2593620.7459876062 0 2593620.7459876062 933431.85627131048 0 0 0 0 17900612.578478575 30575313.889728468 0 30575313.889728468 -11574660.324914217 0 0 0 0 2296515.319679711 374803.63543903176 0 374803.63543903176 -847169.45432478003 0 0 0 0 16685864.171180964 -20454192.99632128 0 -20454192.99632128 9068085.8821120262 0 0 0 0 18943321.263450623 -13398905.491914213 0 -13398905.491914213 15948360.749084473 0 0 0 0 41115857.442516327 -26214667.94877243 0 -26214667.94877243 -28536976.452095509 0 0 0 0 60176019.835514069 -6140670.5665012002 0 -6140670.5665012002 -4324644.7156949043 0 0 0 0 22405840.530595779 3527180.1502336711 0 3527180.1502336711 -4527835.8884422779 0 0 0 0 5061736.4951489996 -1147784.4852591492 0 -1147784.4852591492 -3180150.1247968404 0 0 0 0 24123012.167572021 16011618.076206088 0 16011618.076206088 24675859.893454432 0 0 0 0 -40245264.28868866 48976894.224964619 0 48976894.224964619 39012506.253213882 0 0 0 0 11306258.904266255 3504740.1693340167 0 3504740.1693340167 -458711.10265531437 0 0 0 0 16079516.789176941 3876361.9746239781 0 3876361.9746239781 18205895.478041172 0 0 0 0 14956137.400336038 4827767.6888601696 0 4827767.6888601696 -1515485.5909832208 0 0 0 0 45283077.585720062 13921095.500411928 0 13921095.500411928 -13955180.686511874 0 0 0 0 -8181297.0056228638 16516054.771726489 0 16516054.771726489 15951038.400457561 0 0 0 0 1510555.5848464258 3425264.3404115392 0 3425264.3404115392 -865045.07934720861 0 0 0 0 19278543.590133283 4437845.9339636173 0 4437845.9339636173 -540587.58886278397 0 0 0 0 12325909.48947829 3151370.7022622973 0 3151370.7022622973 -556570.44381668488 0 0 0 0 20111112.63425827 4123736.6301615238 0 4123736.6301615238 -1398425.0194456577 0 0 0 0 17223253.724082947 8233472.8080558181 0 8233472.8080558181 -2309514.3163589239 0 0 0 0 17262752.068984985 2308283.6815642118 0 2308283.6815642118 -1241520.8808301389 0 0 0 0 14151611.750343323 3810363.7575089335 0 3810363.7575089335 924899.51967823505 0 0 0 0 15879297.932304738 2205486.7777673081 0 2205486.7777673081 -1577782.4670810946 0 0 0 0 16269697.100292206 4906048.4797891378 0 4906048.4797891378 287076.0256768465 0 0 0 0 13747401.943321228 3890954.5044292808 0 3890954.5044292808 2183143.5399910212 0 0 0 0 10596752.687931478 3066688.6836760566 0 3066688.6836760566 893938.89291143592 0 0 0 0 27076423.5287714 3890358.4285622872 0 3890358.4285622872 -2245593.7338068485 0 0 0 0 13437534.141017783 3719651.0520102046 0 3719651.0520102046 1278208.3368088002 0 0 0 0 19350059.499847412 -515966.97004067898 0 -515966.97004067898 -678595.64607973397 0 0 0 0 23964867.410981178 10943732.858407214 0 10943732.858407214 5384764.7953186035 0 0 0 0 15636590.949236915 230451.26511588693 0 230451.26511588693 -3646663.7757295095 0 0 0 0 27405615.863587379 5629728.839385055 0 5629728.839385055 -1124393.1371831894 0 0 0 0 23235965.337265015 5196643.3713407516 0 5196643.3713407516 251390.04874897003 0 0 0 0 21950700.499359131 6042405.1221823692 0 6042405.1221823692 -286896.95294594765 0 0 0 0 20900465.097595215 4080069.5596964359 0 4080069.5596964359 1155977.9338216782 0 0 0 0 18331506.088481903 7185585.4171940088 0 7185585.4171940088 318319.49385070801 0 0 0 0 20870305.060279846 5095314.823166132 0 5095314.823166132 -1995891.1630847454 0 0 0 0 27525477.67401123 -3567832.0823274851 0 -3567832.0823274851 -1994839.2486584187 0 0 0 0 19309467.7681427 6646482.1307451725 0 6646482.1307451725 605361.83036327362 0 0 0 0 17269345.621182531 3176105.332619736 0 3176105.332619736 -91728.497554033529 0 0 0 0 25912485.873901367 328402.07099294662 0 328402.07099294662 1229812.5937566757 0 0 0 0 12906050.109394399 7303293.3099943018 0 7303293.3099943018 -3367492.5213219202 0 0 0 0 -4212519.5480202455 4554310.3641804643 0 4554310.3641804643 1193385.3673498207 0 0 0 0 7045967.0779342651 38927655.444951534 0 38927655.444951534 -18886746.567033768 0 0 0 0 -24637287.335565567 9343821.9039549828 0 9343821.9039549828 4084347.7344319224 0 0 0 0 -628139.30130386353 26988510.656150103 0 26988510.656150103 3511125.3627152443 0 0 0 0 1700399.8280181885 15283654.38730526 0 15283654.38730526 -20701343.806667328 0 0 0 0 -27226745.34239769 7147906.272742033 0 7147906.272742033 -6496713.1917934418 0 0 0 0 4186668.8998416588 673315.61115537863 0 673315.61115537863 -271094.50487154489 0 0 0 0 12575609.487245461 6701137.7665156182 0 6701137.7665156182 1335862.5476073278 0 0 0 0 99467011.376913071 -5105301.3802893162 0 -5105301.3802893162 3792761.6061749458 0 0 0 0 -5117233.8115692139 -7352364.9757716656 0 -7352364.9757716656 -9155308.8677244186 0 0 0 0 -53656326.785420418 25147784.793207765 0 25147784.793207765 21091835.132724762 0 0 0 0 -455111.64166906569 11748949.472680051 0 11748949.472680051 -487317.37213822571 0 0 0 0 5571041.3631355651 6989740.3686458627 0 6989740.3686458627 -484036.62842922844 0 0 0 0 82413401.393974304 -60606741.135433197 0 -60606741.135433197 -85248959.563964844 0 0 0 0 -21296782.443450928 20026637.887870193 0 20026637.887870193 24684842.675543308 0 0 0 0 14148969.754561663 -26853302.236384928 0 -26853302.236384928 7270854.0047645569 0 0 0 0 5664670.9718494415 115829859.4620322 0 115829859.4620322 136308003.32961082 0 0 0 0 16937059.462583542 23778560.128207922 0 23778560.128207922 3178794.0757250786 0 0 0 0 -28113299.740947723 38488006.131364346 0 38488006.131364346 20173872.316194534 0 0 0 0 -874354.32076072693 12319387.237191081 0 12319387.237191081 16857331.409671873 0 0 0 0 5905607.1616048217 14587650.001720788 0 14587650.001720788 -3607937.2655522823 0 0 0 0 -1342744.0852511385 726177.61122941365 0 726177.61122941365 237780.68573141005 0 0 0 0 31696573.937427521 -10605841.20009312 0 -10605841.20009312 3566041.9331698418 0 0 0 0 10991342.468717135 7261659.8691010717 0 7261659.8691010717 281214.79522330919 0 0 0 0 17629751.24738884 51851524.298293412 0 51851524.298293412 91078609.125230551 0 0 0 0 5411241.4608222842 24088424.38445833 0 24088424.38445833 34266209.090832233 0 0 0 0 9634857.2965373993 13751112.099181116 0 13751112.099181116 15623685.430828929 0 0 0 0 24675616.638957977 37739758.633358002 0 37739758.633358002 27911721.204638481 0 0 0 0 57549426.652419329 36714411.345230579 0 36714411.345230579 -1898853.4739494324 0 0 0 0 55612573.648182631 51877438.069111317 0 51877438.069111317 -2095646.8383526802 0 0 0 0 108944859.87669754 62974987.691983461 0 62974987.691983461 -14571254.711648941 0 0 0 0 32479749.264930725 25652982.325916767 0 25652982.325916767 -6730721.5696372986 0 0 0 0 74090996.748607635 28454656.625337124 0 28454656.625337124 -16027934.811802387 0 0 0 0 28848159.704627991 32706227.931672573 0 32706227.931672573 -13309563.346348763 0 0 0 0 65229.337661743164 17315264.790964842 0 17315264.790964842 -3328019.9281148911 0 0 0 0 83261535.691753387 -31583009.271789074 0 -31583009.271789074 461920.84641599655 0 0 0 0 72315278.108448029 34460001.352258086 0 34460001.352258086 -36053174.630632401 0 0 0 0 120783492.51076889 24539609.465936661 0 24539609.465936661 -50929553.592229366 0 0 0 0 121755376.99429703 32317532.672909737 0 32317532.672909737 -40341870.249755859 0 0 0 0 117472616.02128077 47402381.817839622 0 47402381.817839622 -55840739.352229118 0 0 0 0 109328003.46285248 49805338.862532616 0 49805338.862532616 -45867486.930283546 0 0 0 0 116401900.96479797 18774114.849572182 0 18774114.849572182 -80834013.455060959 0 0 0 0 30568551.774021149 3964064.8165988922 0 3964064.8165988922 -44986369.250735283 0 0 0 0 32713262.65806812 -48772962.843837433 0 -48772962.843837433 -44524620.528874397 0 0 0 0 298717694.60222244 44656139.90515995 0 44656139.90515995 -104174120.25601029 0 0 0 0 157888047.15347958 44811260.183697343 0 44811260.183697343 -64944762.175333023 0 0 0 0 121241812.65575218 -48042303.122335315 0 -48042303.122335315 -145583958.1327076 0 0 0 0 121314335.83958435 56083240.120121479 0 56083240.120121479 -40565526.986317813 0 0 0 0 119649853.60797691 52091189.387486219 0 52091189.387486219 -48184137.529811859 0 0 0 0 19184069.385625839 -69634518.330871582 0 -69634518.330871582 -18761974.179888964 0 0 0 0 5033052.7389526367 -48292120.567791462 0 -48292120.567791462 -31065542.716944695 0 0 0 0 21285384.437236786 -65257982.698856115 0 -65257982.698856115 -58769512.218505621 0 0 0 0 -215725075.40459251 -162213137.18582749 0 -162213137.18582749 -51896561.83031249 0 0 0 0 4324581.6196996942 -101048.66445732396 0 -101048.66445732396 -1492079.0539181326 0 0 0 0 -200621192.99723434 107724281.36117876 0 107724281.36117876 275092550.8652612 0 0 0 0 141414561.1865387 -170235517.36774886 0 -170235517.36774886 -231581902.62505317 0 0 0 0 405978395.29084396 1065571.8227612972 0 1065571.8227612972 -202790291.08969837 0 0 0 0 203627973.38837433 244407050.95696914 0 244407050.95696914 224926078.54006276 0 0 0 0 198177862.34356117 100391598.0016306 0 100391598.0016306 123634562.64639211 0 0 0 0 95028544.434936523 92268744.971205592 0 92268744.971205592 39287188.764683247 0 0 0 0 155888966.08206558 75627162.475244999 0 75627162.475244999 -40167289.00296919 0 0 0 0 144983167.14127541 67996472.0879035 0 67996472.0879035 -29137100.580885172 0 0 0 0 283718825.5718956 128424289.4048326 0 128424289.4048326 -9295992.6494951248 0 0 0 0 275648618.6496315 153355335.06473079 0 153355335.06473079 116840244.62782045 0 0 0 0 379363223.536026 -5209310.4675339162 0 -5209310.4675339162 107345024.69781394 0 0 0 0 95574267.044605255 118387867.34516585 0 118387867.34516585 112000004.49598014 0 0 0 0 68753948.680786133 71086053.308436394 0 71086053.308436394 38194602.90651013 0 0 0 0 150519681.34960556 -296199810.1075685 0 -296199810.1075685 285290580.00004745 0 0 0 0 49780431.38431263 93597758.670018673 0 93597758.670018673 202418000.35250384 0 0 0 0 1759344.2108731307 -722426.60788687854 0 -722426.60788687854 -597446.30451437971 0 0 0 0 356953146.38266349 -504231048.12475765 0 -504231048.12475765 -515451343.70271301 0 0 0 0 184739265.32758522 -19618180.754495621 0 -19618180.754495621 -25669490.102828979 0 0 0 0 1777934.7727315743 2041547.2173966896 0 2041547.2173966896 -628563.78303945484 0 0 0 0 59501312.661201477 -48253727.181125045 0 -48253727.181125045 108028637.20410728 0 0 0 0 192990799.85858345 -36564457.841578782 0 -36564457.841578782 -9579787.8835892677 0 0 0 0 75028415.851831436 -66824768.360459805 0 -66824768.360459805 11127417.316129684 0 0 0 0 -27429530.269191742 79871467.470081016 0 79871467.470081016 164571771.01716256 0 0 0 0 227991650.84345245 70042795.102784872 0 70042795.102784872 144373802.01305151 0 0 0 0 1002119.3402744625 1164881.4007050889 0 1164881.4007050889 -244233.95963832154 0 0 0 0 358271074.15678978 95302675.118803978 0 95302675.118803978 34243437.596420527 0 0 0 0 239827588.63119125 159181242.383573 0 159181242.383573 926889586.67766094 0 0 0 0 212321508.57722092 5341066.9082121849 0 5341066.9082121849 -21206413.005746841 0 0 0 0 152218835.77796936 -51091111.826628685 0 -51091111.826628685 74741193.784276962 0 0 0 0 91854807.483850479 -87030933.049351454 0 -87030933.049351454 59200612.372395515 0 0 0 0 119183287.03392601 41469011.945546508 0 41469011.945546508 152484029.29301691 0 0 0 0 152766107.24243927 -89703940.653231621 0 -89703940.653231621 251856943.30767822 0 0 0 0 396818540.46150589 -215145282.32584274 0 -215145282.32584274 140985238.24761391 0 0 0 0 156525701.59859657 -71298047.274078369 0 -71298047.274078369 62296311.029914856 0 0 0 0 120739411.41491985 -129736257.59179807 0 -129736257.59179807 83707424.476550102 0 0 0 0 87672550.657606125 -35801168.447132587 0 -35801168.447132587 108232865.33004189 0 0 0 0 82582358.818007946 -165073676.19600576 0 -165073676.19600576 -19611576.395088196 0 0 0 0 224922743.0469346 -77727269.089511633 0 -77727269.089511633 2896097.2450218201 0 0 0 0 1046858.5311191762 1146971.406938035 0 1146971.406938035 -622953.83446601778 0 0 0 0 200065537.05811214 -165468220.08481884 0 -165468220.08481884 21470349.999034882 0 0 0 0 140672736.37926388 -64661410.90610075 0 -64661410.90610075 77947623.725016117 0 0 0 0 136953444.4385376 1206574.8948996067 0 1206574.8948996067 25581448.612353325 0 0 0 0 115466328.86921024 -22736426.928380966 0 -22736426.928380966 5086278.0576791763 0 0 0 0 123322481.10926247 -13460369.484759569 0 -13460369.484759569 2082991.0085382462 0 0 0 0 12137678.45698452 7132519.545566082 0 7132519.545566082 26647297.302265167 0 0 0 0 13761246.125725389 16681577.451408684 0 16681577.451408684 -325526.08286857605 0 0 0 0 -12630952.021563053 -12491791.741723776 0 -12491791.741723776 18310377.353168488 0 0 0 0 12478980.536712646 5238030.9313693047 0 5238030.9313693047 4223472.8476586342 0 0 0 0 3732864.4544446082 5141369.3001328055 0 5141369.3001328055 1041828.9050488113 0 0 0 0 14526098.444776535 5040350.8485651016 0 5040350.8485651016 -593165.26435756683 0 0 0 0 -19347411.953923225 14168491.822348475 0 14168491.822348475 8782469.4830384254 0 0 0 0 5534825.7862273045 1275705.7585054582 0 1275705.7585054582 -1388245.2034459189 0 0 0 0 21142360.663043022 28424106.569635868 0 28424106.569635868 -26065187.867987871 0 0 0 0 14750598.93844223 575956.83718156815 0 575956.83718156815 -1627018.5273036957 0 0 0 0 13700969.509880066 1447410.8635585308 0 1447410.8635585308 1538297.2172021866 0 0 0 0 16002890.698709488 7437894.2338891029 0 7437894.2338891029 3085957.0835552216 0 0 0 0 -87649.728174613789 170312.85289780539 0 170312.85289780539 69718.885597050772 0 0 0 0 6684627.3292402541 2772114.3837955864 0 2772114.3837955864 -1985371.7014623112 0 0 0 0 6624966.3423257731 4825969.0057833511 0 4825969.0057833511 -1692499.2213654169 0 0 0 0 10895576.813053131 4075538.4630959034 0 4075538.4630959034 -4770409.6236011982 0 0 0 0 1992402.7752838135 -340330.32705818117 0 -340330.32705818117 -6587308.9099147916 0 0 0 0 -2995630.8945350647 -101116.42826443911 0 -101116.42826443911 2341861.8080714047 0 0 0 0 -4417832.0147361755 4042638.2474342883 0 4042638.2474342883 20930497.523363262 0 0 0 0 21893579.709833145 9787171.1682662666 0 9787171.1682662666 -8623722.4866057038 0 0 0 0 4314739.8189162668 -695425.64586820488 0 -695425.64586820488 -1276406.4455763944 0 0 0 0 -13320967.184251785 -26138647.119374797 0 -26138647.119374797 39526895.529979348 0 0 0 0 101780582.90158081 -10081714.559312195 0 -10081714.559312195 -36672242.096285105 0 0 0 0 1473643.9298524857 -6556724.8747125864 0 -6556724.8747125864 13534785.951013029 0 0 0 0 
</DataArray>
<DataArray type="Float64" Name="cross_section_updated" format="ascii">
1 1 0.049865713206832675 1 1 1 1 0.04986526401199514 1 1 1 1 1 1 1 1 1 1 1 1 0.050279970136397394 1 1 1 1 0.050280328143518835 1 1 1 1 1 1 1 0.050760811188778426 1 1 1 1 1 1 1 1 0.052034399493519401 1 1 1 1 1 1 1 1 1 1 1 0.052616980623460423 0.050177788226622506 1 1 1 1 1 1 1 1 0.05141879735494255 1 1 1 1 1 1 1 1 1 1 1 1 1 1 1 1 1 1 1 1 1 1 0.051000200915794963 1 1 1 1 1 1 1 1 1 1 1 0.051810356341189759 1 1 1 0.050782159901548725 1 1 1 1 1 1 1 1 1 1 1 1 1 1 1 1 1 1 1 1 1 1 1 1 1 1 1 1 1 1 1 1 1 1 1 1 1 1 1 1 1 1 1 1 1 0.04989534336822974 1 0.049292666395898556 1 1 1 1 1 1 1 1 1 1 1 1 1 1 1 1 1 1 1 1 1 1 1 1 1 1 0.054892269728274275 1 1 0.0506648946739486 1 0.050590545918349508 1 1 1 1 1 1 1 1 1 1 1 1 1 1 0.045088559500297866 1 0.05350613251132505 1 1 1 1 1 1 1 0.05493437814154925 1 0.047807391041454358 1 1 1 1 1 1 0.049720499390691071 1 1 0.055070078849262051 1 1 1 1 1 1 0.051712619833280411 0.06345851391727908 1 1 0.049729810425677867 1 0.059105204813485954 1 0.05036021394270062 0.056108582371070463 1 1 1 0.06090563183349499 1 1 1 1 1 1 1 1 1 1 1 1 1 0.06324608017051124 1 1 1 1 1 1 1 0.062697774432523334 1 1 1 1 1 1 1 0.061355112208330731 1 1 1 1 0.050771379917916519 1 1 1 1 1 1 0.049753547898053418 1 1 1 0.052079729091043379 1 1 1 1 1 1 1 0.052932862736529737 1 1 1 1 1 1 0.047919730273865119 1 1 1 1 1 1 0.054152806789102281 1 1 1 1 1 1 1 0.048670840461217071 1 1 1 1 1 1 1 1 1 1 1 1 1 1 1 1 1 1 1 1 1 0.045915322070037679 0.049810444781605637 1 1 1 1 1 0.071019707059480311 1 1 1 1 1 1 1 0.050650027306227009 1 0.070320026670504146 1 1 1 0.056263139052174553 1 1 1 0.051748628614235903 1 0.049975798579934914 1 1 1 1 1 1 1 0.065792205550964461 1 1 1 1 1 1 1 0.058684348849409075 1 1 1 0.05001471577692615 1 1 1 1 1 1 1 1 1 1 1 1 1 1 1 1 1 1 1 1 1 1 1 1 1 1 1 1 1 1 1 1 0.06585239256859575 1 1 1 1 1 1 1 1 1 1 1 1 1 1 1 1 1 1 1 1 1 1 1 1 1 1 1 1 1 1 1 1 0.048655158579170341 1 1 1 1 1 1 1 1 1 1 1 1 1 1 1 1 1 1 1 1 0.050109108382669867 1 1 1 1 1 1 1 0.051355628849689985 1 1 1 1 1 0.053511390417084512 1 1 0.050324342238372649 1 0.063514036501628263 1 1 1 1 0.066629097374523466 1 1 0.0690927255384466 1 1 1 1 1 1 0.050225039893471803 1 1 1 1 1 1 1 1 1 1 1 1 1 1 1 1 1 1 1 0.061740712620734092 1 1 1 1 1 1 1 1 1 1 1 0.048622453813297696 0.068061427093783738 1 1 1 1 1 1 1 1 1 1 1 1 1 1 1 1 1 1 1 1 1 0.051533907244943888 1 0.050685705602617655 0.055161804324077288 1 1 0.051624252015132203 1 1 1 1 1 1 1 1 1 1 1 1 1 0.059200253812985659 1 1 1 1 1 1 1 0.054378848525838991 0.054433345341862213 1 1 1 1 1 1 1 1 0.052072972260352964 0.046846150581081165 1 1 1 0.055848756723229843 1 1 1 1 1 1 1 1 1 1 1 1 1 1 1 1 1 1 1 1 1 1 1 1 1 1 1 1 1 1 1 1 1 1 1 0.052218907332404349 1 1 0.051085318210890185 1 1 1 1 0.051380251904411645 1 1 1 0.054492622438172288 1 1 1 0.05177894751041804 1 1 0.052719022367940432 1 1 1 1 1 1 1 1 1 1 1 1 1 1 1 1 1 1 1 1 1 0.054190581712761032 1 1 1 0.055326519263413872 1 1 1 1 1 0.052498779737876027 1 1 1 1 1 1 0.052620181921892863 1 1 1 1 1 1 1 1 1 1 1 1 1 1 1 1 1 1 0.051479758852535085 1 1 1 1 1 1 1 1 1 1 1 1 1 1 1 1 1 1 1 1 1 0.050294933693521462 1 1 1 1 1 1 1 1 1 1 1 1 1 1 1 0.048873637989721525 1 1 1 1 1 1 1 1 1 1 1 1 1 1 1 1 1 1 0.050543456892438152 1 1 1 1 1 1 1 0.050573751579888741 1 1 1 1 1 1 1 1 1 1 1 1 1 1 1 1 1 1 1 1 1 0.050202759961041003 1 1 1 1 1 1 1 1 1 0.050466829969433261 1 1 1 1 1 1 1 1 0.064856963518134345 1 1 1 1 1 1 1 1 1 1 1 1 1 1 1 1 1 1 1 0.042430616563327611 1 1 1 1 1 0.063063388125466663 1 1 1 0.050038065559308724 1 1 1 1 1 1 0.050299242390590443 1 1 1 1 1 1 1 1 1 1 0.048975342191495783 1 1 1 1 1 1 1 1 1 1 1 1 0.063099860580873385 1 0.046725440149311792 1 1 1 1 1 1 1 0.041921015470972045 1 0.060594044148623766 1 1 1 1 1 1 1 1 1 1 1 1 1 1 1 1 1 1 1 1 1 1 1 1 1 1 1 1 1 1 1 1 1 1 1 1 1 1 1 1 1 1 1 1 1 0.058565693820846046 0.050238286012348921 1 1 0.049199327797517269 1 1 1 1 1 1 1 1 1 1 1 1 1 1 1 1 0.047699642757043054 1 1 1 1 0.048977316149990902 1 1 0.049998875530108344 1 1 1 1 1 1 0.048302485680162391 1 0.047920179653409639 1 1 0.049805016362226937 1 1 1 1 1 1 1 1 1 1 0.059478515350053017 1 1 1 1 1 0.04883073041222636 0.050292596023859354 1 1 1 1 0.05218866161691682 1 1 0.052669924872250973 1 0.058725489399375781 1 1 1 1 1 0.057007136585042084 1 1 0.050082659412318903 1 1 1 1 1 1 1 1 1 1 1 1 0.050190377015098028 1 1 1 1 1 1 1 1 1 1 1 1 1 1 1 0.054106263583024561 1 0.050003287895963609 1 0.052783921871391276 0.048311836663907967 1 0.05661286140963688 1 1 0.050005282682589684 1 1 1 1 1 1 0.066644111882277049 1 0.049947256471548268 1 1 0.06476449281330314 1 1 1 0.048531709490199137 1 1 0.05000566462561673 1 1 1 1 1 0.058525799189979938 1 1 0.057086489955243638 1 1 1 1 1 0.050039011153314758 1 0.050755751957111357 1 1 0.049635217131545284 1 1 0.062019208417018343 1 1 1 1 1 1 1 1 0.061688327638320287 1 1 1 1 1 1 1 1 1 1 0.061085211260499345 1 1 1 1 0.050591542248388577 1 1 0.052071691049377762 1 1 1 1 1 0.045676464395046926 1 1 1 1 1 0.049988917922819148 1 0.050138170684991018 1 1 1 1 1 1 0.049846937860239263 1 1 1 1 1 1 1 1 0.050487263037131698 0.05216364008428169 0.060282122275793604 1 1 1 1 0.051233599005583601 1 0.054279319383072212 1 1 1 0.045175922768792579 0.050003376195239507 1 1 1 0.049214811591106869 1 1 1 0.048187060892742793 1 0.051713183973143215 1 0.05113680520846775 0.045184261871264529 1 0.050013921418756976 1 1 1 1 0.052360873231632958 1 1 1 0.050069114079472468 1 0.061045187814236686 1 0.056923020154392316 1 1 1 1 1 1 1 0.049966228565888456 1 1 1 1 0.054859667910506803 1 1 1 1 1 1 1 1 0.050007329739381615 1 0.049895218919028012 0.050253714510924155 1 1 1 0.056739009782894013 1 1 1 1 0.057618449957882636 0.050276500241023703 1 1 0.05327635856157837 0.051071385299602992 1 1 1 1 1 0.050375416816495162 1 1 1 1 1 1 1 1 0.051565602781532147 1 0.054077040154467806 1 1 1 1 1 1 1 1 1 1 1 1 1 1 1 1 1 0.051031394349025067 1 1 1 1 1 1 1 1 1 1 1 1 1 1 1 1 1 1 1 1 1 1 1 1 1 0.050085032173151967 1 0.052133311915771183 1 1 1 1 1 0.049982117932130948 0.050021899454392303 1 1 1 1 0.046723779082385411 0.056853349835442477 1 0.056345330072169207 1 1 0.055917925204561555 1 1 0.056337957847610247 1 1 1 1 0.050290265808020602 0.061405590714595906 1 1 1 1 1 1 1 1 0.051986291471677888 1 1 0.054719712149819272 1 1 1 0.054882378010006748 1 1 0.052358410732533181 1 1 1 1 1 1 0.049870955702094044 1 1 1 1 1 1 0.056172972164389906 1 1 1 1 1 0.049628039179276891 1 1 0.050365245071145752 0.057988143518445452 1 1 0.049053235193440979 1 1 0.050013262141326675 1 1 1 1 1 1 1 1 1 1 1 1 0.059085619671244941 1 0.049152280726112808 1 1 0.049384983536030214 1 1 1 1 1 1 0.049944151053719008 1 1 1 0.050697638131865577 0.057913008834970983 0.049997469157249959 1 1 1 0.047403286736168226 0.051939789301381399 1 0.050344165118316068 0.053693372671994699 1 1 0.051150599239946269 1 1 0.051000796585144885 1 0.051963181765759668 1 0.050949655851225094 1 1 1 0.048589077450268761 0.050547904748584727 1 1 0.04876035668396142 0.051566164120856003 0.051044659719623922 0.050341630903512284 1 1 1 0.051275790737607713 0.049129593921747143 1 1 0.050621763938881022 0.054094333809804093 0.049132143840978554 1 0.052453051597611981 0.049489563182963894 1 1 0.048622196273643961 1 0.049590807496567454 0.051044639417586468 1 0.049120439430551367 1 1 0.052731358640420514 1 0.054447549083986607 0.052109909774696463 1 1 1 1 0.050838813225206073 0.057814469561964579 1 1 0.049958475317901319 1 1 1 0.050118039208517519 1 1 1 1 1 1 1 1 1 1 1 1 1 1 1 1 1 1 1 1 1 1 1 1 1 1 1 1 1 1 1 1 1 1 1 1 1 1 1 1 1 1 1 1 1 1 1 1 1 1 1 1 1 1 1 1 1 1 0.05631035184678089 1 0.052055207444068836 1 1 1 1 1 1 1 1 1 1 1 1 1 1 0.055877632380797043 1 1 1 1 1 1 1 1 1 1 0.052063347636827628 1 1 1 1 1 1 1 1 1 1 1 1 1 1 1 1 1 1 1 1 1 1 1 1 1 1 1 1 1 1 1 1 1 1 1 1 1 1 1 1 1 1 1 1 1 1 0.050023623057024139 1 1 1 0.050019053440067483 1 0.050176798730080213 1 1 1 1 1 0.050451398413584467 1 0.046894342133787591 1 1 1 1 1 1 1 1 1 1 1 1 1 1 1 1 1 1 1 1 1 1 1 1 1 0.048930094934001217 1 1 1 1 1 1 0.059912534346517075 1 0.053079160284277602 1 1 1 0.061375482948223432 1 1 0.067703620367746756 1 1 1 1 1 1 1 1 1 1 1 1 1 1 1 1 1 1 1 1 1 1 1 1 1 1 1 1 1 1 1 1 1 1 1 1 1 0.048084874647280625 1 0.053952687555738656 1 1 1 1 1 1 1 1 1 1 0.049510373218909887 1 1 1 1 1 1 1 1 1 1 1 1 1 1 1 1 1 0.062175822928071903 1 1 1 0.049964923518167496 0.072102541775296472 1 0.07557922466551692 1 1 1 1 1 1 1 1 0.050454405956523625 1 1 1 1 0.052276654424549679 1 1 1 1 1 1 1 0.050421498237768661 1 1 0.057607710155172923 1 0.069984530165536088 1 1 0.049386515131395768 1 1 0.065575957227723969 0.049962059006519212 1 1 1 1 1 1 1 1 1 1 1 1 1 1 1 0.075607257277089515 1 0.06512159064974847 1 1 1 0.050243919805381773 1 0.053473871383856161 1 1 1 1 1 1 1 1 1 1 1 1 0.051301924728746034 1 0.048561085620371855 1 1 1 1 1 1 1 1 0.053595314441273717 1 1 0.054514352171236721 1 1 1 0.047494400581010641 0.04936889127510672 1 1 1 1 1 1 1 1 1 1 1 1 1 1 1 1 1 1 1 1 1 0.05210480678461582 1 1 1 1 1 0.049969954927571503 1 0.051703770322912151 1 1 1 1 0.052415508651094622 1 1 0.049274610735657004 1 1 1 1 1 0.048601667951399724 1 1 1 1 0.050542167351771361 1 1 1 1 1 1 1 0.053013756079390136 1 1 1 0.055738216846598396 1 1 1 1 1 1 1 1 1 1 1 0.055877071073143339 1 1 1 1 1 1 1 1 0.051506777773882691 1 1 1 1 1 1 0.05383471869456842 1 1 1 1 1 1 0.054664770017308788 1 1 1 1 1 1 1 1 1 1 1 0.050037755112703808 1 1 1 0.049805599451792158 1 1 1 0.050514756282097464 1 0.049985066407208623 1 1 1 1 1 1 0.052336829096623079 1 1 1 1 1 1 1 1 1 1 1 1 1 1 1 0.050558993920795853 1 1 1 1 1 0.048601054601900881 1 1 1 1 1 1 1 1 0.049643715305705688 1 1 1 1 1 1 1 1 1 1 1 1 1 1 1 1 0.050338204095889308 1 1 1 1 0.050066019267925518 1 1 1 1 1 1 1 1 1 1 1 1 1 1 1 1 1 1 1 1 1 1 1 1 1 1 0.059643180296886776 1 1 1 0.050010452404102991 1 0.054540466729062501 1 1 1 1 0.053728812539986522 1 0.050155727726204663 1 1 1 1 1 0.050039319242498492 1 1 1 1 1 1 1 1 1 0.059057227302080725 1 1 1 1 1 1 1 1 1 1 1 1 1 1 1 1 1 1 1 1 1 1 1 1 0.050834202632162422 0.049192820894312081 1 1 1 1 1 0.049482108476014072 1 1 1 0.050082651219371929 1 1 1 0.050940736587319305 1 1 0.050100411736984457 1 0.049814673481851104 1 1 1 1 0.050671129816778182 1 1 1 1 0.050986587820297052 0.050106523462102898 1 1 1 1 1 1 1 1 1 1 1 1 0.05037936777496041 1 1 1 1 0.050030846816443673 1 1 1 1 1 0.04931039375165195 1 1 0.049750659815179066 1 1 1 1 1 1 1 1 1 1 1 1 1 1 1 1 0.049874600474497391 1 1 0.05017113467438284 1 1 1 0.050219312821571521 1 1 1 1 1 1 1 1 1 1 1 0.050048178147188684 1 1 1 1 1 1 1 1 1 1 1 1 1 1 1 1 0.050068432301005251 1 1 0.047161152883309479 1 0.045366903397438159 1 1 0.060089820844606553 1 0.050216781339968923 1 0.060228655377708593 1 1 1 1 1 1 1 1 1 1 1 1 1 0.060197524022926469 1 0.048498917910414115 0.051337536845312344 1 1 0.061748178566906384 0.050535675888944129 1 1 0.049997965152387275 0.052366756548506282 1 1 1 0.06546648083609069 1 0.057556501047024755 1 1 0.049624258435707211 1 1 1 1 0.050840489322654406 0.059748177810459074 1 0.044727311027104401 1 1 0.054612303209965248 0.049977857855107055 1 1 0.051403829739577411 1 1 1 0.053831976178528591 1 1 1 0.049176816343987607 0.044723803257725299 0.052570776171198104 1 1 0.048288223543777764 1 0.032615772297594686 0.049939025813769571 1 1 1 1 1 1 1 1 1 1 1 0.049224173838596154 0.048554146310803348 1 0.045177871161941462 1 0.058596842729469023 1 0.053778339403946052 1 1 1 0.050247499866235328 1 1 1 1 1 0.049494814149351016 1 1 1 1 1 1 1 1 1 1 1 1 1 1 1 1 1 1 1 1 1 1 1 1 0.050179458815167853 1 1 1 1 1 1 1 1 1 1 1 1 1 1 1 1 1 1 0.075845730262126765 1 1 1 1 1 1 1 1 1 1 1 0.049139902687407928 1 1 1 1 1 0.076114038042971954 1 1 1 1 1 1 1 1 1 1 1 1 1 1 0.052067276452727837 1 1 1 1 1 1 1 1 1 1 1 1 1 1 0.054814821713793919 1 0.058087090581161668 1 1 1 1 0.055510073841119861 1 1 1 1 1 1 1 1 1 1 1 1 0.057700353255982995 1 0.04994795693273639 1 1 1 1 0.049828896464227251 1 1 1 1 1 1 1 0.065323415869799256 1 1 1 1 1 1 1 0.050013983424837545 1 1 1 0.055797530474853585 1 0.050005768120604831 1 1 1 1 1 1 1 1 1 0.052163023694837787 1 1 1 1 1 1 1 1 1 1 1 1 1 1 1 1 1 1 1 1 1 1 1 1 1 1 1 1 1 1 1 1 1 1 1 1 1 1 1 1 1 1 1 0.050624920149315369 1 1 0.057839904103545794 1 1 1 1 1 1 1 1 1 1 0.05020891390983067 1 1 1 1 1 0.048145447127927794 1 1 0.052621596122392242 1 1 1 1 1 1 0.05726307473234217 1 1 1 1 0.050020642032238861 1 1 0.053484730320292891 1 0.053886311502678461 1 1 1 1 1 1 1 1 1 1 1 0.052599862891471685 1 0.054582382327791057 1 1 1 1 0.050924008831563949 1 1 1 1 1 1 1 1 1 1 1 1 1 1 1 1 1 1 1 1 1 0.057882093160338877 1 1 1 1 0.053231490763890228 1 1 1 1 1 1 1 0.051645969504316193 1 1 1 1 1 0.059835901244016346 1 1 1 0.045725591712260004 1 1 1 0.056115769112574702 1 1 0.052137649517777121 1 1 1 0.047291689332019944 1 1 0.049094851205436586 1 1 1 1 1 1 1 1 1 1 1 1 1 1 1 1 1 1 1 1 1 1 1 1 1 1 1 1 1 1 1 0.050670108210139932 1 1 1 1 1 1 1 1 1 1 1 0.049773839267756796 1 1 1 1 1 1 1 1 1 1 1 1 1 1 1 0.049395288341687826 0.048757512621480939 1 1 1 0.051860537191335807 1 1 1 1 0.049838674098449054 1 1 0.051900766054478464 1 1 1 1 1 1 1 1 1 1 1 1 1 0.052273698468335517 0.051031588159118901 1 1 1 1 1 1 1 1 1 1 1 0.05662165456334757 1 1 0.051701732993476024 1 1 1 1 1 1 1 1 1 1 1 1 1 1 1 1 1 1 1 0.053509476806120879 1 1 1 0.049993173880062095 1 1 1 1 1 0.050049725494707917 1 1 1 1 1 1 1 1 1 1 1 1 1 1 1 1 1 1 1 1 0.050282255264026444 1 1 0.050429149987234495 1 1 1 1 1 1 1 1 1 1 1 1 1 1 1 1 1 1 1 0.050368207596774413 1 1 1 1 1 1 1 1 1 1 1 1 1 1 1 1 1 1 1 1 1 1 1 1 1 1 1 1 1 1 1 1 0.049705938225800807 1 1 1 1 1 1 0.037433702564701798 1 1 1 1 1 0.042374522321598822 1 1 1 1 0.04649877977793667 1 1 1 1 1 1 1 1 1 1 1 1 1 1 1 1 1 1 1 1 1 1 0.048806649489357187 1 1 1 1 1 1 1 0.04974067631526255 1 1 0.049899050915556728 1 1 0.050064011977585761 1 1 1 1 1 1 0.049969860768391931 1 1 1 1 1 1 1 1 1 1 0.047913205683805693 1 0.055441501369659488 1 1 1 1 1 1 1 1 0.050002667270519767 1 1 0.050270940193792982 1 1 1 0.051385842945638867 1 1 1 0.051844269058338749 1 1 1 0.050000008824638092 0.049993343401180459 1 1 0.052168437387301272 1 1 0.052569696628861719 1 1 0.050005095434473124 1 1 1 1 1 1 1 1 1 0.050005087479503343 1 1 1 0.052971211330779734 1 1 1 0.053370588671908442 1 1 1 0.050005011099481043 1 0.050016798162336784 1 1 0.055452461821868693 1 1 1 1 1 1 1 1 0.05033829115333667 1 1 0.049958962593111569 1 1 1 1 1 1 1 1 1 1 1 1 1 0.051746584555988767 1 0.049995002021860829 1 1 1 0.052368190717770602 0.050231657063662311 1 0.051272691724258586 1 1 1 1 0.049984633763320734 1 0.049670430342930831 1 1 1 1 1 1 1 1 1 0.049874905661765792 1 1 1 1 1 1 1 1 1 1 1 1 1 1 1 1 1 1 1 1 1 1 1 1 1 1 1 1 0.04996730207403411 1 1 1 1 1 1 0.049955912906938744 1 1 1 1 1 1 0.049970349225987462 1 1 1 1 1 1 0.04999476223753864 1 1 1 0.050039720569989926 1 1 1 0.050085671622896275 1 1 0.061310763863031838 1 1 1 1 1 1 0.05678978005562027 1 1 1 0.059664616807387105 0.050022220838488743 1 1 1 1 1 1 1 1 1 1 1 1 1 1 1 1 1 0.050014043679804603 1 1 1 1 1 1 1 0.05000968922217458 1 1 1 1 1 0.060037425064073169 1 1 1 1 1 0.0500000943915309 1 1 0.050729238333238995 1 1 1 1 0.050011038834738786 1 1 1 1 1 1 0.044507100429057894 1 0.062852639637407087 1 0.043892784877221529 0.059620953337992652 1 0.050040436941822287 1 1 1 0.049679774550220927 1 1 1 1 1 0.049140188636762609 1 1 1 0.050000813564540759 1 1 1 1 0.050000638493824398 0.051079655656974331 0.05025111851621436 1 1 1 1 0.05073626727521173 0.058416973290443687 1 0.059869316956854393 1 1 1 1 1 1 0.050003066320836044 1 0.052146256212725381 1 1 0.051454218800023453 1 1 1 0.050203544503929949 1 1 0.061207441508564824 1 1 1 1 1 1 1 1 1 1 1 1 0.050077334357595885 1 1 1 1 0.055000071429186122 1 1 1 1 0.055170906809157261 1 1 1 1 1 1 1 1 1 0.050247116877148341 0.056444823139619113 0.04923328720365118 1 1 1 0.049997284786147733 0.050101482756653541 1 1 0.051163887703211293 1 0.055399491756913818 1 1 1 1 1 1 1 0.051358793021694001 1 1 1 1 1 1 1 1 1 1 1 1 1 1 1 1 0.05007409379071158 1 1 1 1 1 1 1 1 1 0.050226404608771619 1 1 0.054623395216201319 1 0.052223475178133534 1 0.050112902297804469 1 1 0.053239067372510621 1 1 1 0.050000326632520894 0.048143260617799721 1 1 0.050493829184209485 1 1 1 0.05237684621040601 1 1 1 1 0.050183309107401576 1 1 1 1 1 1 1 1 1 1 1 0.052511951772302452 0.050008863285927505 1 1 1 1 1 1 1 1 1 1 1 1 1 1 1 1 1 1 1 1 1 1 1 1 1 1 1 1 1 1 1 1 0.050006848923121926 1 1 1 1 1 1 1 1 1 1 1 1 1 1 1 1 1 1 1 0.049608367751484514 1 1 1 1 1 1 0.05000885573114229 0.053920731087436669 1 1 0.05256499474254752 0.050653159844127861 1 1 1 0.049957442875644742 1 1 1 1 1 1 1 1 1 1 1 1 1 1 1 1 1 1 1 1 1 1 1 0.050292213712451808 1 0.053422571672489906 1 0.050099716791759841 1 1 1 1 1 1 0.059063643244257516 1 0.051039302803000397 0.049150994258195822 1 1 0.05578540092575901 1 1 1 1 1 1 0.050147467859829709 0.0546642391605595 1 1 0.058332039071951537 0.049782937650817323 1 1 0.058163106410397888 0.050047740773891722 1 1 1 1 1 1 1 1 0.060413972038693323 1 1 1 1 1 0.05636643753141711 1 1 0.055375111213917257 1 1 1 0.049997815478108956 1 1 1 1 1 1 1 1 1 1 1 1 1 1 1 1 1 1 1 1 1 1 1 1 1 1 1 1 1 1 1 1 1 1 0.050358566900360557 1 1 0.06992904228494666 1 0.045637305822385295 0.062583638953315007 1 1 1 1 1 1 1 1 1 0.046090595177328705 1 1 1 1 1 0.046508701903985747 1 1 1 1 1 1 1 0.049878700492502925 1 1 1 1 1 1 1 1 0.049576620721130456 1 1 1 1 1 0.04918555464729131 1 1 1 1 1 1 1 1 1 1 1 1 1 1 1 1 1 1 1 1 1 1 1 1 1 1 1 1 1 1 0.049663206363149547 0.050156720772852825 1 1 1 1 1 1 1 0.049957950423128422 1 1 1 0.048915255030823918 1 0.050505773793331057 1 1 1 1 1 1 1 1 1 1 1 1 1 1 1 1 1 1 1 1 1 0.050455679316557867 1 1 1 1 1 1 0.048700806231062529 1 1 1 1 1 1 1 0.073651200755392651 1 1 0.050126990781822534 1 1 1 1 1 1 0.048791677091964546 1 1 1 0.074465977327835872 1 1 0.075104910427027188 0.050008582938727203 1 1 1 1 1 1 1 1 1 1 1 1 1 1 1 1 1 1 1 1 1 1 1 1 1 1 1 1 0.049980325918489922 1 1 1 1 1 1 1 1 1 1 1 1 1 1 1 1 1 1 1 0.071606087881150401 1 1 1 0.072434853896490098 0.050363014293899576 1 1 1 1 1 0.050129045919133489 1 1 1 0.050853510777210592 1 1 1 1 1 0.05106737354041789 1 1 1 1 1 1 1 1 1 1 1 1 1 1 1 1 1 1 1 1 1 0.053272968712768459 1 1 1 1 1 1 0.05806883480700728 1 1 1 1 1 1 1 1 1 1 1 1 0.051841473160231064 1 1 1 1 0.050930397151354861 1 0.051836083697956663 1 1 1 1 1 1 1 1 1 1 1 1 1 0.060917606026391825 1 1 1 1 1 0.06282966649922174 1 1 1 1 1 1 0.050928500654091699 1 1 1 1 1 1 1 1 1 1 1 1 0.050079608168130278 1 1 0.050183143104003312 1 1 0.050728549556672463 1 1 0.050243456168468349 1 1 1 1 1 1 1 1 1 1 0.047449146448150646 1 1 1 1 1 1 1 1 0.04995880828307387 1 1 1 0.050035032846432168 1 1 1 0.058578437594147041 1 1 0.050664172631245896 1 1 1 0.049347207918821974 1 1 1 1 1 0.051004965946611289 1 0.050000520573753642 1 1 1 1 0.049951401777804959 0.04831840809068684 1 1 1 0.065185951571622255 1 1 1 1 0.050135527965107174 1 1 1 1 1 1 1 1 1 1 1 1 1 1 1 0.050098459710621594 1 1 0.049435910333548862 0.049434581677818411 1 1 1 1 0.050784979707086217 1 1 1 1 1 1 0.049869421328836011 1 1 1 1 1 1 0.04995648123091119 1 1 1 1 1 1 1 1 0.050863818581279883 1 1 1 1 1 1 1 1 1 1 0.049597680888344667 1 1 0.061605007842836769 1 1 0.062402175804654639 1 1 1 1 1 0.051068926306842372 0.050046403192240546 1 1 0.050003279360060673 0.048782359552040841 1 0.049536494033230238 1 0.053995254361743399 1 0.05465304092213339 0.051130007115862616 1 1 0.05185896195201533 1 0.049614611759760105 1 0.051993032720337611 1 0.056742866548740452 1 0.04944169796805286 1 1 0.050009309325077217 1 0.050418429059163335 1 0.051394200541213651 1 1 1 1 1 1 0.049032017251996442 1 1 1 0.049999860950871763 1 1 1 1 1 1 1 1 1 0.052163172127369768 1 1 0.048693856271426139 1 0.050013854834323732 1 0.051145264776368236 1 1 1 2.0816681711721685e-17 0.051391861489410655 1 1 1 1 1 1 1 1 1 1 1 0.050573598113439144 1 1 1 1 1 0.052344137597503775 1 1 1 1 1 1 1 1 1 1 1 1 1 1 1 1 1 0.050459632153713282 1 1 1 1 1 1 0.062266570497186507 1 1 1 0.062713187233017151 1 1 0.05004630377831145 1 1 1 0.056107719225166705 1 0.054353634674331297 0.050258108404565328 1 1 1 1 1 1 1 1 1 0.055762984331304888 1 1 1 1 1 1 1 0.04998743100198743 1 0.050879434205122614 1 0.050293368152825396 1 1 1 1 1 1 1 1 1 1 1 1 1 1 1 1 1 1 1 1 1 1 1 1 1 1 1 1 1 1 1 1 1 1 1 1 1 0.057955535753549642 1 1 0.058720906930312677 0.056146168016895689 1 1 1 1 0.057069599751382954 1 1 1 1 1 0.054744555026452126 1 1 0.050003239691854634 0.053310467488946467 1 1 1 1 1 1 0.053261831982563866 1 0.050056182332746009 1 1 0.059934022034237949 0.054188965730037772 1 0.048478577047145248 1 1 1 0.050208907419006778 1 1 1 1 0.050280182129403356 1 1 1 0.060222538896572336 1 1 0.053423026954632608 0.050036174858526031 1 1 1 0.056889312180718347 1 1 1 1 0.050001922198655541 1 1 0.06086649673575141 1 1 1 0.047601164862122833 1 1 0.061091822988317709 1 1 1 0.047407593581713953 1 0.049663601314410465 1 1 0.050928069901422415 1 1 0.062329589983401934 0.050004039173238743 1 1 0.057121002982487422 1 0.049993394314348481 0.055303120868320628 1 1 1 1 0.052403237015745084 1 1 1 1 0.050690894661215173 1 1 1 1 1 1 1 1 1 1 1 1 0.058456270673686944 1 1 1 1 0.049996430341708281 1 0.045304584347504326 1 1 1 1 1 0.054028365996630433 0.050023759667599935 0.050052587036208428 1 1 1 1 1 1 1 1 0.054641035546087249 1 1 1 1 1 1 0.052714569062965351 1 1 1 1 0.054624949993383791 1 1 1 1 1 1 1 1 1 1 1 1 1 1 1 1 1 1 0.051803850327644112 1 0.04892584402605276 1 1 0.052998937407757421 0.048392800271269326 1 0.050471733547937797 1 1 0.050041641755205937 1 0.049580236390014833 1 0.049432654589419506 1 0.05096417918310979 1 1 1 1 0.050342828437761569 1 1 1 0.05116767844532949 1 1 1 1 1 1 1 1 1 1 1 1 1 1 1 1 1 1 1 1 1 1 1 1 1 0.050001503676781633 1 1 1 1 1 0.071811696493089827 1 1 1 1 1 1 1 1 1 1 1 0.049898395739992787 1 1 1 1 1 0.050103625071875407 1 1 0.050489556619470716 0.071111899901179262 1 1 1 0.060936297619931551 1 1 0.052770452526595818 0.060339598513769604 1 0.058116781813049183 1 1 1 1 1 1 1 1 1 1 1 1 1 1 1 1 0.050422530669480443 1 1 1 1 0.049429480462434623 1 1 1 1 1 1 1 1 0.059874286931457063 0.05911970219024304 1 1 0.050214799463666457 1 1 1 1 1 1 1 1 1 0.057498290062042101 0.047625333442093951 1 1 0.051198958479062744 1 1 1 0.051829958443555438 1 1 1 1 1 1 1 1 1 1 1 1 1 1 1 1 1 1 1 1 1 1 1 1 1 1 0.050213968099951378 1 1 1 1 1 1 1 1 1 1 1 1 1 1 1 1 1 1 1 1 0.0537053324302613 1 1 1 0.051593213156961332 0.050014153951206591 1 1 1 0.055719844669119209 1 1 0.050157226632810602 1 1 1 1 1 0.051837049123662909 1 0.049455725991102178 1 1 1 1 1 1 1 1 0.050440233615900908 1 1 1 0.053853846637660165 1 1 0.050852103771523591 1 0.05124319641145926 1 1 1 0.051069064293934686 1 1 1 0.05322619754085086 1 1 1 1 1 1 1 1 1 1 1 1 1 1 1 1 1 0.055155940303998313 1 1 1 1 1 1 1 1 1 0.049949182918533029 1 1 1 1 1 1 1 1 0.056411067323766037 1 1 1 1 1 1 1 1 1 1 1 1 1 0.049979497765861407 1 1 1 0.050150104549567122 1 1 1 1 1 1 1 1 1 1 1 1 1 1 1 1 1 1 1 0.049857732299049939 1 1 1 0.05093180866346915 1 0.049967187087759019 1 1 1 0.054044400631387622 1 1 1 0.049991032381615001 0.048972502957174924 1 1 1 1 1 1 1 1 1 1 1 1 1 1 1 1 1 1 1 1 1 1 0.049915842547803242 1 1 1 1 0.049825772847904869 1 1 1 1 0.049909930300101622 1 1 1 1 1 1 1 0.048204844035544529 1 1 1 1 0.048853577196954788 1 1 1 1 1 1 0.049595114435892193 1 1 1 1 1 1 0.05008761519651321 1 1 1 0.050118494847828612 1 1 1 1 1 1 1 1 1 0.050419079819731573 1 1 1 1 1 1 0.051202676576427041 1 1 1 1 1 1 1 1 1 1 1 0.050000637936672622 1 1 0.05297472908663569 1 1 1 1 1 0.050287917377974188 1 1 0.051563086968245964 1 1 1 1 1 1 1 0.058269069519573967 0.04813863118429422 1 1 1 1 0.048206565403796392 1 1 1 1 1 1 0.050002988338544309 1 1 1 1 1 1 1 1 1 1 0.051833702245794172 1 1 1 1 1 1 1 1 1 1 1 1 0.050858794471293392 1 0.049841092363729814 1 1 1 0.051924735392102565 1 1 0.052220746132500398 1 1 1 1 0.052414860423116286 1 1 1 1 1 0.052338821609596235 1 1 1 1 1 1 1 1 0.052379628883527457 1 1 1 1 0.049791827154185966 1 1 1 1 1 1 1 0.04993352584623513 1 1 1 1 1 1 1 1 1 1 0.049853137788727027 1 1 1 0.049784565319430915 1 0.050158357277354654 1 1 1 1 1 1 0.051373120305463808 1 0.050537842495024098 1 0.050035177527869144 1 1 1 1 0.05069493340909393 1 1 1 1 1 1 1 1 1 1 1 1 1 1 0.049489511693013591 1 0.064505250757409704 1 1 1 1 1 1 1 0.05015283012954376 1 1 1 1 1 1 1 1 1 1 1 1 1 0.062706377578481895 1 1 1 1 0.060559506581877427 1 1 1 1 1 1 1 1 1 1 1 1 1 1 1 1 1 1 1 1 1 1 1 1 0.050105781584400558 1 1 1 1 0.046848964428267727 1 1 1 0.050837604181901683 1 1 0.050022140424401708 1 1 0.053181748972572294 1 1 1 1 1 1 1 1 1 1 1 1 1 1 1 0.050549302121871288 1 1 0.050475224188931793 1 1 1 1 1 1 1 0.051677325769690634 1 1 1 1 1 0.054414435113839102 1 1 1 0.055290307043856672 1 1 1 0.055155114721582729 1 1 1 1 1 1 1 0.048068470116145748 1 1 1 0.052968661205689556 1 0.049066038158282428 0.051605854940245083 1 1 1 1 1 0.050880356797538835 1 1 1 1 1 1 1 1 1 1 0.047857958282640639 1 1 1 1 1 1 1 1 1 1 1 1 1 1 1 1 1 1 1 1 1 1 1 1 1 1 1 1 1 1 1 1 1 1 1 1 1 0.05323985682149486 1 1 1 1 1 1 1 1 1 1 1 1 1 1 1 1 0.056589495381658028 1 1 1 1 1 1 1 1 1 0.053233893427161567 1 1 1 1 1 1 1 0.053407746409085743 1 1 1 1 1 1 1 1 1 1 1 1 1 1 1 1 1 1 1 1 1 0.050108826429173241 1 1 1 1 1 1 1 1 1 1 1 1 1 1 1 1 1 0.050019496974264763 1 1 1 1 1 1 1 1 1 1 1 1 1 1 1 1 1 1 1 1 1 1 1 1 1 1 1 1 1 1 1 1 1 1 1 1 1 1 1 1 1 1 1 1 1 1 0.05053743107498198 1 1 1 1 1 1 1 1 1 1 1 1 1 0.050004893876130954 1 0.049994517475673246 1 1 1 1 1 0.049647091130690831 1 1 1 1 1 0.05018485649096479 0.050368544499679771 1 1 1 1 1 1 1 1 1 1 1 1 1 1 1 1 1 0.050226424948667706 0.050353322496542258 1 1 1 1 1 1 0.05022779033630459 1 0.050316799303663576 1 1 1 1 1 1 1 1 1 0.050070495415359878 1 1 1 1 1 1 1 1 1 1 1 1 1 1 1 1 1 1 1 0.050083098793400289 1 1 1 1 1 0.050229361192964311 1 0.050453126507371021 1 1 1 1 1 1 1 0.05044192056165081 1 1 1 0.050223765314406719 1 1 1 0.051444567931420236 1 1 0.056742584063320937 1 1 1 0.047331777626408791 1 1 0.048718776050565314 1 0.05090619737647447 1 0.047217403825547448 1 1 0.049229473931594617 1 1 1 1 1 1 1 1 1 1 1 1 1 1 1 1 1 1 1 1 1 0.050069247547953583 1 0.051129753323585173 1 1 1 1 1 1 1 0.051029961452475917 1 1 1 1 1 1 1 1 1 1 1 1 1 1 1 1 1 1 1 0.050187742395782185 1 1 1 0.05002288678290933 1 1 1 1 1 1 1 1 1 1 0.049652871077018781 1 1 1 1 0.049503532082952863 1 1 0.050082155518110086 1 1 1 1 1 0.04955402834919001 1 1 1 1 0.050086711451982222 1 0.049468117375072278 1 1 0.051434266492560977 1 1 1 1 1 1 1 0.051715531889718502 1 1 0.049861398793630156 1 0.051825355630985996 1 1 1 1 1 1 1 1 1 1 1 1 1 1 1 1 1 1 0.050118537962189846 1 1 1 1 1 1 1 0.049907703877473231 1 1 1 1 0.051094789034454455 1 1 1 1 1 1 1 1 1 0.050059268735200765 1 1 1 1 0.049969198968123935 1 1 1 1 1 1 1 1 1 1 1 1 0.050627726034342305 1 1 1 1 1 1 1 1 1 0.055272575014788716 1 1 1 1 1 1 1 1 1 1 1 1 0.054338333800837968 1 1 0.051795016381562808 1 1 1 1 1 1 1 1 1 0.050475690188039435 0.065177088776684031 0.057425255409005657 1 1 1 0.050002153323414913 1 1 1 1 1 1 0.057257671984964155 1 1 1 0.049658678094828559 0.049977121846463107 1 1 1 1 1 1 1 1 1 1 1 1 0.05569214277676951 1 1 1 0.050160344205810461 0.055800229106331804 1 1 1 1 1 0.063062687082534902 1 1 1 1 0.056740109414411405 1 1 1 1 0.049997989039687329 1 1 1 1 1 0.055701236190424504 0.057674793620092202 0.05122801412473825 1 1 1 0.055493161965709858 0.056700273699206397 1 1 1 1 1 1 1 1 1 0.054509835559966212 0.05002678091221046 1 1 1 0.050260550770490069 0.049886038090314701 1 1 1 1 1 1 1 1 1 1 1 1 1 1 1 1 1 0.054366182978084494 1 0.05387677103588321 1 1 1 1 0.056315952936163205 1 1 1 1 1 1 1 0.05498416044268687 1 1 1 1 1 1 1 0.053109095116134285 1 1 0.057722581952188788 1 0.055269631366007113 0.052746620255022893 1 1 1 0.053757342961379441 0.049995159275501001 1 1 1 0.049994328973801648 0.050042019254064242 1 1 1 1 1 1 1 1 1 1 0.049993769338491811 1 1 1 1 1 1 1 0.050883269289488636 1 1 1 1 0.053597103651711636 1 1 1 1 1 1 0.058223612007883577 1 1 1 1 0.050158469300587413 1 0.057013846858837203 1 1 1 1 1 1 1 1 1 1 1 1 1 1 0.058815689050399245 1 1 1 1 1 1 1 0.058415560387406265 1 1 1 1 0.050010948976808065 1 1 1 0.052936720050935887 1 1 1 1 1 1 1 1 1 1 1 1 1 1 1 1 1 1 1 1 1 1 0.052075897850284492 1 0.050790189772984495 1 1 0.050726868996053748 1 1 1 0.052010436838204221 1 1 0.052641786568704475 1 1 1 1 1 1 1 1 1 1 1 1 1 1 1 1 1 1 1 1 0.052581501507064199 0.049835324506984462 0.050400071314167703 1 1 1 1 1 1 1 1 1 1 1 1 1 0.052546980397152207 1 1 1 0.047518740049566924 1 1 0.058726189076578825 1 1 1 1 0.055294277535516696 1 1 0.050992295315662378 0.050228191349120266 1 1 1 1 0.050768137443566196 1 1 0.049338779822788642 1 0.049815375551495338 1 1 1 1 1 1 1 1 1 1 1 1 0.047272839480623691 1 1 1 1 1 1 1 0.051786700580347247 1 0.050058250654697302 1 1 1 1 0.050483547377926929 1 1 1 1 1 1 1 1 1 1 1 1 1 1 1 1 1 1 1 1 1 1 1 0.052516051989444909 1 1 1 0.050028448095084568 1 0.049737343731424487 1 1 1 0.068990041996882842 1 1 1 1 1 0.049977697861709039 1 1 0.042787367728717739 1 1 1 1 1 1 1 1 0.05020092470238894 1 1 1 1 1 0.050941791722259849 1 1 1 1 1 1 1 1 1 1 1 1 1 1 0.050357018658443803 1 1 1 1 0.05045554788963201 1 1 1 1 1 1 1 1 1 1 1 1 0.050460446680275571 1 1 1 1 0.050155553161239839 1 1 1 1 1 1 1 1 1 1 1 1 1 0.051000226296619405 1 1 0.04956377565293274 1 1 1 0.050102395471200725 1 1 1 1 1 1 1 1 1 1 1 1 1 0.048634700666284773 0.056392354327721356 1 0.052977015783312438 0.051579975631419042 1 1 1 0.049562652580911852 0.065644088154888078 1 0.054630230960530525 1 0.050894855951968208 1 0.057798149433028204 1 1 1 0.047364524800065207 1 0.049925479675095343 1 1 1 1 0.055503236920717652 1 1 1 1 1 1 0.051530600914236786 1 1 1 1 1 0.068996170430522863 1 1 0.05002526770797381 1 1 0.050213473163581018 1 1 0.049929597665941183 1 1 1 1 1 0.054555346648614125 1 0.051983768768616184 1 1 1 1 1 1 1 1 1 1 1 1 1 0.051213453563005933 1 1 0.050320906566331869 1 1 1 1 1 1 1 1 1 0.056195689695766271 1 1 1 1 1 1 1 1 1 0.074414917602218661 1 1 0.051887194999033132 1 0.069470570287594693 1 1 1 1 1 1 1 0.049132883627210584 1 1 1 1 1 1 1 0.078408387813584959 1 0.042927163898594287 1 1 0.046065638852960111 1 1 1 0.050389068467048631 1 1 1 1 0.051063206234730096 1 1 1 1 1 0.050000337946063629 1 1 1 1 1 1 1 1 1 1 1 1 1 1 1 1 1 1 1 1 1 0.050506705529273048 1 1 0.050540621683561271 1 1 1 0.051427144650411837 1 1 1 1 0.050189469315528062 1 1 1 1 1 1 1 1 1 1 1 1 1 1 1 1 1 1 1 1 1 1 1 0.050893505077945857 1 1 1 1 1 1 0.052554182274933782 1 1 1 1 1 1 1 1 1 1 1 1 1 0.049977109031494105 1 0.06610057259473559 1 1 0.048598478425728932 1 1 1 1 0.082041117329422042 0.051986019821130734 1 0.049021190426334772 1 0.061296997878163922 1 1 1 1 1 0.087910797145010516 1 1 0.065631618287417426 0.059399370806605414 1 1 1 1 1 0.051078679200180686 1 1 0.050001849939393828 1 1 1 1 1 1 1 1 0.06178149078435137 0.053528559353842639 1 1 1 0.060381909704646727 1 0.05001618863707559 1 1 1 1 1 0.04926861948607629 1 0.05721169179775687 1 1 1 1 1 0.049445794136151078 0.050054243566262861 1 1 1 1 0.049991686092078186 1 1 1 1 0.049774999820584309 1 1 1 1 1 1 1 1 1 1 1 1 1 1 1 1 1 0.049326192156067344 1 1 0.049744181417483269 1 1 1 0.050368722125945641 1 1 1 1 1 1 1 1 1 1 1 1 1 1 1 1 1 1 1 0.051975326867648546 1 1 1 1 1 1 1 1 1 1 1 1 1 1 0.05232579487094649 0.050088184836336383 1 1 1 0.05023756166941263 1 1 1 1 1 0.050663434318381564 1 1 1 1 1 1 1 1 1 1 1 0.050647014699144011 1 1 0.050278292573198366 1 1 1 1 1 1 1 1 1 1 0.054654233842703827 1 1 1 0.056047829940655443 1 0.05206080728900038 1 0.049958210905305021 1 1 1 0.050004660484397695 0.049232800008164171 1 0.055366856063604912 1 1 0.048633726786190337 1 1 0.050773931388083032 0.055232279759819189 1 1 1 0.057147052014431002 1 1 0.046614988221029538 1 0.055639054471782849 1 1 1 0.047366583887220474 1 1 0.048674495792689544 0.051475696246121472 1 0.051760393838230917 1 1 0.05035270425637034 1 0.049666431962947767 1 1 1 1 1 1 1 1 1 0.049944478707908198 1 1 1 1 1 0.051238371827513431 1 1 1 1 1 1 1 1 1 1 0.051092627255385631 1 1 1 1 0.051170393406350559 0.051374207051952121 1 1 0.069346647091289584 1 0.068532835885200746 1 1 1 1 1 0.083801323600249625 1 1 0.048241711691724948 1 0.049973160379056761 1 1 1 1 1 1 1 0.046573028928580347 1 1 1 1 1 1 1 1 1 0.067920769887465898 1 0.049956453848469799 1 0.05005838744687454 1 0.05795535240888073 1 1 1 1 0.050124329314732111 1 1 1 1 1 0.050411455342725522 0.048137167277745099 1 1 1 1 1 1 0.0496849174417969 1 1 1 1 1 0.053964066172032789 1 1 1 1 0.069971957689737893 1 1 0.054753268376426863 1 0.056134323528769646 1 1 1 0.045536402415105662 1 0.074115979074621099 1 1 0.064268365068195721 0.049997221982505148 0.068742640932932281 1 1 1 1 1 1 0.049997451604334026 0.045437751453580741 0.049072061629968702 1 1 1 1 0.055525692386559383 1 0.052440141986261304 1 0.059045347901829283 1 1 1 1 1 1 0.051181823495651188 1 1 1 1 1 1 1 1 1 1 1 1 1 1 1 1 1 1 1 1 1 1 1 1 1 1 1 1 1 1 1 1 1 1 1 1 1 1 1 1 1 1 1 1 1 1 1 1 1 0.050823317298426277 1 1 1 0.051871231539353566 0.049948893472712294 1 1 1 1 1 1 1 1 1 1 1 1 1 1 1 1 1 1 1 0.060655307681199762 1 1 1 1 1 1 1 0.052592333700191098 1 1 0.061484735435789341 1 1 0.053234491051047841 1 1 0.051330923755704035 1 0.066009046686945086 1 1 0.067193893716518974 1 1 1 0.05005389116382173 1 0.058689753164124739 1 0.060208517476771653 0.068158102695376838 1 1 1 0.0672938900642433 0.049982964464515882 1 1 0.068248156394935339 1 1 0.064691563224454837 1 1 1 1 1 1 1 1 1 1 1 1 0.069297817845027226 1 1 1 1 0.071658247351525456 1 1 1 1 0.068685007151020369 1 1 1 1 1 1 1 1 1 0.050339856837917224 1 0.049997929604863135 1 1 1 1 0.051714547608288274 1 1 1 0.05422219898524569 1 1 1 1 1 1 0.058307278722772971 1 1 0.05002117412777201 1 1 1 0.051961215782080981 1 1 1 1 1 1 1 0.050876833783316235 1 1 1 1 1 0.049996214668963687 1 1 1 1 1 1 1 1 1 1 1 1 1 1 1 0.049728465939246055 1 1 1 1 1 0.051542116618280155 1 1 0.052463823564706892 1 0.049254823276352375 1 1 1 1 0.050130092299281587 0.050169202927048531 1 1 0.05037190016118992 1 1 1 1 1 1 1 1 1 1 1 0.049906034158651677 1 0.050565286300275139 1 1 1 1 1 0.050172875307756382 1 1 1 0.049557816996590599 1 1 1 0.0493744401466574 1 1 1 1 1 1 1 1 1 1 1 1 1 0.051410644764889865 1 1 1 1 1 1 1 0.06126809782025136 1 0.047606283620923763 1 1 1 1 1 1 1 0.04995148173964245 0.081910686038599523 1 1 1 1 1 1 1 1 1 0.052935276439024473 1 1 1 1 1 1 0.059553805890424624 0.063202711230563549 0.048959276385752828 1 0.070696274256708241 1 1 1 1 1 1 0.072233544216724163 1 0.050608713188772844 1 0.049436256862555802 1 0.063620216818511668 1 1 1 1 1 1 0.062840906870208463 1 1 0.050173446544530292 1 1 1 1 0.049867729195936586 1 1 1 1 1 1 1 1 1 1 1 1 1 1 1 1 1 1 1 1 1 0.052985769605426579 1 0.05096360733796703 1 1 1 1 1 1 1 1 1 1 1 1 1 1 1 1 1 1 1 1 1 1 1 1 1 1 1 1 1 1 1 1 1 1 1 1 1 1 1 1 1 1 1 1 1 1 1 1 1 1 1 1 1 1 1 1 1 1 0.050557912993019767 1 1 1 1 1 1 1 1 1 1 1 1 1 1 1 1 1 1 1 1 1 1 1 0.050191472662167891 1 1 1 0.052515297206551056 1 0.049954060565736806 1 1 1 1 1 1 1 1 1 1 1 1 1 1 1 1 1 1 1 1 1 1 1 1 1 1 1 1 1 1 1 1 1 1 1 1 1 1 1 0.052208041788046548 1 0.04950935203053574 1 1 1 1 1 1 1 1 1 1 1 1 1 1 1 1 1 1 1 1 1 1 1 1 1 0.051085831984546567 1 1 1 1 1 1 1 1 1 1 1 1 1 1 1 1 1 1 1 1 1 1 1 1 1 1 1 1 1 1 1 1 1 1 1 1 1 1 1 1 1 1 1 1 1 1 1 1 1 1 1 1 1 1 1 1 1 1 1 1 1 1 1 1 1 1 1 1 1 0.065329918565484368 1 1 1 1 1 1 1 0.061827634449641525 1 1 0.049920647312696 1 1 1 1 1 1 1 1 1 1 1 1 1 1 1 1 1 1 1 1 0.052223336983862258 1 1 1 1 1 1 1 1 1 1 1 1 1 1 1 1 1 1 1 1 1 1 1 1 1 1 1 1 1 1 1 1 0.053475853892482772 1 1 1 1 0.05064393725753389 1 0.058863922269686245 1 1 1 1 1 1 0.050365445623697748 1 1 0.050915578912760384 1 1 0.050786707108325377 0.052681677164029578 1 0.050059698453204252 1 1 1 0.050829927905649039 1 1 1 1 1 1 1 1 1 1 1 1 1 1 1 0.051514971377429594 1 1 1 1 1 1 1 1 0.052192108378854324 1 1 1 1 1 1 1 1 1 1 1 1 1 1 1 1 1 1 1 1 1 1 1 1 1 1 1 1 1 1 1 1 1 1 1 1 0.055079720523375938 1 1 1 1 1 1 1 0.055324254099746763 1 1 0.048540375873669925 1 0.055859473038284299 1 1 1 1 1 1 1 1 1 1 1 0.049999289176569046 0.050017762102647627 1 1 0.049348745698461177 1 1 0.050341607819692546 0.050172893756496952 1 1 1 1 0.050635315995571202 1 0.049137997926051481 1 1 0.050623277306484513 1 0.050128415029045081 0.049578463507359317 1 0.052908137833019911 1 0.048139616708820415 1 1 1 1 1 1 1 0.04996526699788853 1 0.050052865454629218 1 1 1 1 1 0.05010842921944289 1 1 1 0.053317986108951984 1 1 0.049681847892201633 1 0.056857823739238769 1 0.056021959705407437 0.048855647397473681 1 1 0.050582570765042724 1 1 1 1 1 1 0.050482372911183356 1 1 1 1 1 1 1 1 0.055866868501926133 0.049938794489309657 1 1 1 0.052194305865020066 1 1 1 1 0.048340416306435707 0.052742916294876832 1 0.051788870252966551 1 1 1 0.050646533390379896 1 1 1 1 1 1 1 1 1 1 1 1 1 1 1 1 0.04973956725018884 1 1 1 1 1 1 0.051809390255670919 1 0.052601541493249068 1 1 1 0.051694879272374039 0.05267666586591857 1 1 0.049992442319615818 1 0.049994479206744213 1 1 1 1 1 1 1 1 1 1 1 1 0.050000827680447571 0.049998206764686082 1 1 1 1 1 0.052995347284408204 1 1 1 1 1 1 1 0.050349704362664983 1 1 1 0.049999851931051317 1 0.05478226412375882 1 1 0.049934310065287549 1 1 1 1 1 1 1 1 1 0.049929478016809831 1 1 0.050013870240583319 1 1 1 1 1 1 1 1 1 1 1 0.05262051360838655 1 1 1 1 1 1 1 1 1 1 1 1 1 1 1 1 1 1 1 1 1 1 0.050027352640757139 1 1 1 1 1 1 1 1 1 1 1 0.04995159945760036 1 1 1 1 0.049722378738612329 1 1 1 1 1 1 1 1 1 1 1 0.050169082285425763 1 1 1 1 1 0.050522171647808145 1 0.049929876276081482 1 1 1 1 1 1 1 1 1 0.049778286345070533 1 1 0.0499797285086232 1 1 0.054962867609559596 1 1 1 1 0.049767671344102045 1 1 1 1 1 1 1 1 1 1 1 1 1 1 1 1 1 1 1 1 1 0.054371992845515006 1 1 0.051334565828445214 1 0.052257966724891594 1 1 1 1 1 1 1 1 1 0.051252820092367798 1 1 0.050692936137436848 0.049952027303231325 0.05071239887554433 1 1 1 0.049981864015430047 1 1 1 1 1 1 0.049590583923032457 0.050000142220615065 1 0.052323288662063663 1 1 0.051854018251708094 1 1 0.049990940212879066 1 1 1 1 0.050426845519249849 1 1 1 1 0.053033076699436771 1 1 1 1 1 1 1 1 1 1 1 0.049915585164421981 1 1 0.050023331268713965 1 0.051746424628093181 0.050008252343784844 1 1 0.050001208620016051 0.050933589975648043 0.051736365956828727 1 1 1 1 1 1 1 1 1 1 0.049823515980132863 1 1 1 1 1 1 1 1 1 0.047077043903919702 1 1 1 1 1 0.04905911548557354 1 1 1 1 1 1 1 1 1 1 0.050362611507778612 1 1 1 1 1 1 1 1 1 1 1 1 1 1 1 1 1 1 1 1 1 1 1 1 0.055036748500344075 0.049361476654074136 1 1 1 1 1 1 1 1 0.052118906790297945 1 1 1 1 1 1 1 1 1 1 1 1 1 1 1 1 0.051182345200622474 1 1 1 1 0.058850590794955866 1 1 1 0.047330308554280776 0.050043265082145891 1 1 1 1 1 1 0.050043648363303807 1 0.049053158370665623 1 1 1 0.049673906851512711 1 1 1 1 1 1 1 1 0.051660140800331551 1 0.05999520068951994 0.045528867813375083 1 1 1 1 1 1 1 1 1 1 1 1 0.05212795939691111 1 1 0.048322667699664749 1 0.050867883422519591 1 1 1 1 1 1 1 1 1 1 1 1 1 1 1 1 1 1 1 1 1 1 1 0.051262718136864192 1 1 1 1 1 0.050904399819405352 1 1 1 1 1 1 1 1 1 1 0.049353199043651902 1 1 1 0.049755085262268801 1 1 1 1 1 1 1 1 1 1 1 0.050021297378666146 0.051002866077428002 1 1 1 1 1 0.051084756834825794 1 1 1 0.050985376609785082 1 1 1 1 1 1 1 1 1 1 0.050670949231783877 1 1 1 1 1 1 1 0.050005767668517019 0.051376783064658815 1 0.050217302735258061 1 1 1 1 0.050372958052177376 1 1 1 1 1 0.051112423748896525 1 1 1 1 1 1 1 1 1 1 0.050000735995376147 1 1 1 1 1 1 1 1 1 1 0.050793041397017312 1 1 1 1 1 1 1 0.050235382934127923 1 1 1 1 1 1 1 1 1 1 1 1 1 1 1 1 1 1 1 1 0.05063189357929454 1 1 1 0.051677684575547653 1 1 1 1 1 1 1 1 1 1 1 1 1 0.052380281679093886 1 0.046766852780511611 0.049363591911359146 1 0.049477759682448851 0.051318839444536267 1 1 1 1 1 0.049913337450523433 1 1 1 1 1 1 1 0.049224255208818304 1 1 0.049564923556397508 1 1 0.057845485804788738 1 1 0.052699753588758537 1 1 0.050021801493306338 0.048123546073392545 0.052788700785134292 0.051879315303908963 1 1 0.048590193454412262 0.049401576510886655 1 1 0.054413627561658427 1 1 0.051331584763742985 1 1 1 1 0.049578626166009984 0.052122075480113689 0.050361758710360922 0.050437183558358141 1 1 1 0.049853510123919184 1 0.050189453914768298 1 0.052185271154180611 1 0.050719588929160647 0.053025439066188958 1 1 1 1 1 1 1 0.049047668796652732 1 1 0.05079786269015947 1 0.049924397277982271 1 1 0.048363076495040298 0.05190821448168137 1 1 1 1 1 1 1 1 1 1 1 1 1 1 1 1 1 0.048902267740164325 1 1 1 1 1 1 1 1 1 1 1 1 1 1 1 1 1 0.048543963154679078 1 1 1 1 1 1 1 1 1 1 1 1 1 1 0.057825107315164721 0.051705360574771257 1 1 1 1 0.050001497269982584 1 0.060320327742242948 1 1 1 0.048933065935282072 0.051030433413140487 1 0.049799056393673435 1 1 1 1 1 1 1 1 1 1 1 1 1 1 1 1 1 1 1 0.063761489052653858 1 0.050052401066718301 1 1 1 1 0.04959668720478716 1 1 1 1 1 1 1 1 1 1 1 1 1 1 1 1 1 1 1 1 0.0496115675344663 1 1 1 1 1 1 1 1 1 1 1 1 1 1 0.050724331236715325 1 1 1 1 1 1 1 1 1 1 1 1 1 1 1 1 1 1 1 1 1 1 1 1 1 1 1 1 1 1 1 1 1 1 1 1 1 1 1 1 1 1 1 1 1 1 1 1 1 1 1 1 1 1 1 1 1 1 1 1 1 1 0.050775161201954189 1 1 1 0.051926779275899046 1 1 0.050951400880655841 1 1 1 1 1 1 1 1 1 1 1 0.050975378395243208 1 1 1 1 0.050348689465466202 1 1 1 1 1 1 1 1 1 1 1 1 1 1 1 1 1 1 1 1 1 1 1 1 1 1 1 1 1 0.050000755317145783 1 1 1 1 0.050000751972640839 1 1 1 1 1 1 1 1 1 1 0.050070376212897241 1 1 0.050190508892971261 1 1 1 1 1 1 1 1 1 1 1 1 0.049885480078485762 1 1 1 1 1 1 1 1 0.050272725227750725 1 1 1 1 1 1 1 1 1 1 0.050590743001176781 1 0.050139402194887682 1 1 1 0.051101541735954367 1 1 1 0.049653162323256263 1 0.051945254665031242 1 0.05100627032124818 0.049982631251014431 1 1 1 1 1 0.051688708450767479 1 1 1 1 1 1 1 1 1 1 1 1 1 1 1 1 1 1 1 1 1 1 1 0.050028344349235289 1 1 0.050529586598141225 1 1 1 0.050113298703616686 1 0.050330635645539128 1 1 1 1 1 1 1 1 1 1 1 1 0.050031564300617767 1 1 1 1 1 1 1 1 1 1 1 1 1 1 1 1 1 1 1 0.052125004106520177 1 1 1 1 1 1 1 1 1 1 1 1 1 1 1 1 1 1 1 1 1 1 1 1 1 1 1 0.05026998784075333 1 1 1 1 1 1 1 1 1 1 1 1 1 1 1 1 1 1 0.051719995962584656 1 1 1 0.050882609151565186 1 1 1 0.049968281656349561 0.050002841734417366 1 1 1 1 1 0.049790456748962576 1 1 1 1 1 1 1 0.048857542667080346 0.049321209485862147 1 1 1 0.049997379322716175 1 0.049971299652339533 1 1 1 1 1 1 0.059341723996145783 0.053560002712710782 1 1 0.050150993080629751 0.048604661871292046 1 1 1 1 1 1 1 1 1 1 0.050004560151519488 1 1 1 1 1 1 0.049983870553152121 1 1 1 1 1 1 1 1 1 1 1 1 1 1 1 1 1 0.049998713042339452 1 1 1 1 0.053485440499603153 1 1 0.049992529211537823 1 1 1 1 1 1 1 1 1 1 1 0.048772534236648575 1 0.049669924105628725 1 0.049174236647640611 1 1 1 1 1 1 1 1 1 1 1 1 1 1 1 1 1 1 1 0.050436894089360397 1 1 0.051346781245581674 1 1 1 0.049960328147070986 1 1 0.049861113501793362 1 1 1 1 0.051628665464890797 1 1 1 1 1 1 1 0.052561957476408162 1 1 1 1 1 1 1 1 1 1 1 1 1 1 1 1 1 1 1 1 1 1 1 1 1 1 1 1 1 0.051770175565873856 1 1 1 1 1 1 1 1 1 1 1 1 1 1 1 1 1 1 1 1 1 1 1 1 1 1 1 1 1 1 1 1 1 1 1 1 1 0.049045278303445357 0.055589849649868545 0.053971700486097625 1 1 0.049890350674331674 1 1 1 0.051032311389712107 1 0.049886045527496918 1 1 1 1 1 0.050692315505269134 1 1 1 1 1 1 1 0.050863643542023725 1 1 1 1 1 1 1 1 1 1 1 1 1 1 0.064576504347779826 1 1 1 0.050307199635325983 1 0.050639659409075138 1 1 1 1 1 1 1 1 0.064949634159575359 1 1 1 1 1 1 1 0.049999747528666413 1 0.050037766655720656 1 0.048735522808478482 1 1 1 1 1 1 1 1 0.054978608455063395 1 1 0.04960474415841637 0.051797416018794423 0.052486723596705934 1 0.059230762356463976 1 0.044152463295606251 1 1 1 1 1 1 1 1 1 1 1 1 1 1 1 1 1 1 1 1 1 0.052190576808474005 1 1 0.061684486596938912 0.046544367950820648 1 1 1 0.049918207051921126 1 1 1 1 1 1 1 0.05352919131776622 1 0.051053087137188251 1 1 1 1 0.049645462956644779 1 1 0.066274029423737418 1 1 1 1 1 1 1 0.072510220114330726 1 1 0.07318218158888154 1 1 1 0.072922611099027271 1 1 1 1 1 1 1 1 1 0.050758944752333356 1 1 1 1 1 1 0.047304190365408491 1 1 0.051186870561078561 1 1 1 1 0.048645200587558342 1 1 1 1 1 1 0.06465910962210164 0.05859930364188802 0.049012017759632848 1 1 1 0.049979758982473053 1 0.050002060513062274 1 0.059408090401257115 1 1 1 1 1 1 0.048553419192578939 1 1 1 0.071391573589655796 1 1 1 0.056426590003482054 1 1 1 1 1 1 1 1 1 1 1 1 0.050121367608982469 1 1 1 0.050026140541139318 1 1 1 1 1 0.050347901222494218 0.049191806022586673 1 1 0.052070121092009494 1 0.052232417565279993 0.04948542272389761 0.049164370868081723 1 1 1 0.049754294714045015 1 1 1 1 1 0.053990612187939539 1 1 1 1 1 1 1 1 1 1 1 1 0.050402220759724697 1 1 1 1 1 1 0.056636101975399422 1 1 0.05766215581402561 1 1 0.050001010061134873 1 1 1 1 1 0.051523504417332965 1 1 0.066904861451666658 1 0.050473574417939877 1 0.05037986749595675 1 1 1 1 1 1 0.050782088255681451 1 1 1 1 0.050133821646565983 1 1 1 1 1 1 1 1 1 1 0.050304042890562686 1 1 1 1 1 0.050023448771714239 1 1 1 1 1 1 1 1 1 1 1 1 1 1 1 0.050237954934500506 1 1 1 1 1 0.050739672489311154 1 0.04975936133328155 1 1 1 1 1 0.050527883175332369 1 1 1 1 1 0.05007323716771675 1 1 1 1 1 0.049916496590187251 1 1 1 1 1 1 1 1 1 1 0.050587263261451465 1 0.050004757370299281 1 0.055945929901834404 1 1 0.055241556816424862 1 1 1 1 1 1 1 1 0.045574889733529224 1 0.055608413764420044 1 1 1 1 1 1 1 1 1 1 0.053086768143591589 1 1 1 1 1 1 1 1 1 1 0.049880614633572268 1 1 1 0.059407370373765589 1 0.052409764936827717 0.052099301425122778 1 1 1 0.051060016042174521 1 1 1 0.050975530944678195 0.049990640461939691 1 1 1 1 1 1 1 1 1 1 0.050080748659328905 0.049988229718844347 1 1 1 1 1 0.050033720298636009 1 1 1 1 1 1 1 1 1 1 0.0502459812410204 1 0.050625049386750165 0.05035354603679229 0.050513340390498498 1 1 1 1 1 1 1 1 0.050181251394149154 1 1 1 1 1 1 1 1 1 1 1 1 1 1 1 1 1 1 1 1 1 1 1 1 1 1 1 1 1 0.05005938845265679 1 1 1 1 0.050041390777781622 1 1 1 1 1 1 1 1 0.050266753139163241 1 1 1 1 1 1 1 1 0.050018138195161037 1 1 1 1 1 1 1 1 1 1 1 1 1 1 1 1 1 1 1 1 1 1 1 1 1 1 0.049257746937784064 1 1 1 1 1 1 0.047741708274813305 1 0.050601840299073324 1 1 0.050597325187991725 1 1 1 0.051112776667515139 1 0.056506983951847257 1 1 1 0.05006019396355274 1 1 1 0.056641907438006782 1 1 1 1 1 1 0.052107276085890629 1 1 1 1 1 1 1 1 1 1 1 1 1 1 1 1 1 1 1 1 1 1 1 1 1 1 1 0.052452437311184048 1 0.055536207894582294 1 1 1 1 0.053083770583398263 1 1 1 1 1 1 1 1 1 1 1 1 1 0.050498596463461727 1 1 0.050765349602624958 1 1 0.050146874959441978 1 1 1 1 1 0.050422608590520245 1 1 1 1 1 1 1 1 0.060225440526521949 1 0.057163563226595486 1 1 1 1 1 0.050197011757269448 0.044500013786279456 1 1 0.04761626944253744 1 1 1 0.062931389975889429 1 1 1 1 1 1 1 0.048428487408058607 1 1 1 1 1 1 1 1 1 1 1 1 1 1 1 1 0.055105902030081588 1 1 1 1 1 0.051608089085905175 1 0.051080027316454647 1 1 1 1 1 1 1 1 1 1 1 1 0.050654244724345709 1 0.050236391645880354 1 1 1 1 1 1 0.050603204472524449 0.050126182954895168 1 1 1 1 1 1 1 1 1 1 1 1 1 1 1 1 1 1 1 1 1 0.050751108841966201 1 1 0.048111376703853528 1 1 1 1 1 0.05546326521475247 1 1 1 1 1 1 0.049978099239613417 1 1 1 1 1 1 1 1 1 1 1 1 1 1 1 1 0.050125416018514835 1 1 0.052925360248386143 1 1 1 1 0.057207324317849834 1 1 1 1 1 1 1 1 1 1 1 0.053484565045783167 1 1 1 1 1 1 1 1 1 1 1 1 1 1 1 1 1 1 1 0.050366812826644104 1 1 1 1 1 1 1 1 1 1 1 1 0.051805816844864842 1 1 1 1 1 1 1 1 1 1 1 1 1 0.049992314394450621 0.06798152806819438 1 1 1 1 1 1 0.050132757829387038 1 1 1 1 1 1 1 1 1 1 1 1 1 1 1 1 1 1 1 1 1 1 1 1 1 1 1 1 1 1 1 1 1 1 1 0.049170537082589651 1 1 1 1 1 1 1 1 0.049862013566619436 1 1 1 1 1 1 1 1 1 1 1 1 0.049987429585134288 1 1 1 1 0.059244256670738592 1 0.064697584687015489 1 1 1 1 1 1 1 1 0.052087273043736379 1 1 1 1 1 1 1 1 1 1 0.055810032315803046 1 1 1 0.057289624165732182 1 1 0.050099363105564024 1 1 1 1 0.061688123025883654 1 1 0.065657443608660354 1 1 1 1 1 1 1 1 0.050031437668122361 1 1 1 0.049598775495126028 1 1 1 1 1 1 1 0.06324782468024534 1 0.049924272608172865 1 0.050146580752229976 1 0.049568840550743856 0.068127347797761251 1 1 1 0.049990187510414133 0.050014308742798538 0.052808934883102301 1 1 0.04702657725626893 1 1 1 0.06942754121808925 1 1 1 1 0.047312365313197866 1 1 1 1 1 1 1 1 1 1 1 1 1 1 1 1 1 1 1 1 1 1 1 1 1 1 1 1 1 1 1 1 1 1 1 1 1 1 0.049724661681403028 1 1 1 1 1 1 1 1 0.053739079602184693 1 1 1 1 0.054675076293176084 1 1 0.051434364130045318 1 1 0.053265154403978707 1 1 1 1 0.050830807091624457 1 1 1 1 1 0.051640727944596176 1 1 1 1 1 1 1 1 1 1 1 1 1 0.050899303436164126 0.050596832150047122 1 1 1 0.050647307047250706 1 1 1 1 1 1 1 1 1 1 1 1 1 1 0.053980317991929726 1 1 1 1 1 1 0.05109626966693824 1 1 0.052902086511803087 1 1 1 1 1 1 1 1 1 1 0.060626002601436586 1 1 1 1 1 0.063955598149117776 1 1 1 1 1 1 1 1 1 1 0.059026926254201709 1 1 1 1 1 1 1 1 1 1 1 1 1 1 1 0.049885868920578447 1 1 1 1 1 1 1 1 1 1 1 1 1 1 1 1 1 1 1 1 1 1 1 0.050008698500304365 1 0.052480015868043614 1 1 1 0.049733360181707389 1 1 1 1 1 1 1 1 1 0.051166802746390197 1 1 1 0.057716540748970688 1 1 1 1 1 1 1 1 1 1 1 1 1 1 1 1 0.04818608962549336 1 1 1 1 1 0.050358695385724059 1 1 1 0.049532789438694297 1 0.049821744881672722 1 1 1 1 1 1 0.050631578311528251 1 1 1 1 1 1 1 1 1 1 1 1 1 1 1 1 1 1 1 1 1 1 1 1 1 1 1 0.050296001410921401 1 1 0.050112886643454695 1 1 1 1 1 1 1 0.051882098509341099 1 1 1 1 0.05108314122935094 1 1 0.051079520214267676 1 1 1 1 1 1 0.052427032102072987 1 1 1 0.050846927606329424 1 1 1 0.050850907709052609 1 1 1 1 1 0.053986156283518667 1 1 1 1 1 0.053654326899451515 1 1 1 1 1 1 1 1 0.052466427369016501 1 1 0.050054790381255064 1 1 1 1 0.05012805726954811 1 1 1 1 0.050201200534057924 1 1 1 1 0.046800714990212385 1 1 1 0.047565124631981141 1 0.049871434884771811 1 1 1 1 1 1 1 1 1 1 0.049540806826088024 1 1 1 1 1 1 1 0.048841256068223871 0.0554389657332722 1 1 1 1 1 0.052743418711105827 1 1 1 1 1 0.054779108773013403 1 1 1 0.058976084302312812 1 1 0.050292311294941335 1 1 0.050027228612591762 1 1 1 0.051343008467825947 1 1 1 1 1 1 0.057966330146210644 1 1 1 1 1 0.055022767253706445 1 1 1 1 1 0.052511329880770778 1 1 1 1 1 1 0.056169267717108146 1 1 1 1 0.04673560119027919 1 1 1 1 1 0.050507500583877735 1 1 1 1 1 1 1 1 1 1 0.049407023469198695 1 1 1 1 1 1 1 0.052373325934153857 1 1 1 1 0.051065711333663874 0.05298726183048006 1 1 0.046247345711765489 1 1 1 1 1 1 1 0.048664928015822798 1 1 1 1 1 1 1 0.043098814823560788 1 0.053515852844273445 1 1 0.050681933900448714 1 1 1 1 0.050440120339542864 1 0.047018792793001779 1 1 1 1 1 1 1 1 1 1 0.05007191965619516 1 1 1 1 1 0.046748305209181953 1 1 1 0.04301282473739812 1 1 1 1 0.050282260897537553 1 1 0.057155324356544766 1 1 1 1 1 0.046863204180809068 1 0.050342289543296198 1 0.049984271682263486 0.051651452642854388 1 1 1 1 0.047959789341380607 0.050269940875568936 1 1 1 1 1 1 1 1 1 1 1 1 1 0.050088483352678431 1 1 1 1 1 1 0.051839817710783664 0.049261817896180782 1 1 1 1 1 1 1 1 1 1 1 1 1 0.047603671770344524 1 1 1 1 1 1 1 1 1 1 1 1 1 1 1 1 1 1 1 1 1 1 1 1 1 1 1 1 1 1 1 1 1 0.050470674821564358 1 1 0.051130063864453942 1 1 1 1 1 1 1 0.051256221192936692 1 1 1 0.0499524184081633 1 1 0.059479986055629375 1 1 1 0.055400546513301674 0.050001585176527703 1 1 1 1 0.049025335418501216 0.052861555689775359 1 1 1 1 1 1 1 1 1 1 1 1 1 1 0.054989873108062491 1 1 0.050000547660063926 1 1 1 0.05643351335841118 1 1 1 1 0.049847362953686539 1 1 0.062768137867613746 1 1 1 1 1 1 1 1 1 1 1 0.067585459335014725 1 1 1 1 1 1 1 0.07075331992876957 1 1 1 1 1 1 1 1 1 1 1 1 1 1 1 1 1 1 0.050005134619740259 1 1 1 1 1 1 0.046146947618070949 1 0.050496524823587657 1 1 1 1 1 0.048642625929210467 1 1 0.049644681153405146 1 1 1 0.06310222340684199 1 1 1 0.049464807025046589 1 1 1 1 1 1 1 1 1 1 1 1 1 1 0.050218689957700589 1 1 1 1 0.050550941609037989 0.047918027155288229 1 1 1 1 1 1 1 1 1 1 1 1 1 1 1 1 1 1 1 0.049541322033048514 1 1 1 1 1 1 1 1 0.057993323928443322 1 0.058422535063102285 1 1 1 1 1 1 1 0.05001081002871885 1 0.051615454518975534 1 1 1 1 1 0.057367960256624703 1 1 1 1 1 1 0.050132197155509046 1 1 1 1 1 0.050129934635702041 0.051290889953278899 1 1 1 0.053506324788281392 0.052390737019213734 0.054228917580095966 1 1 1 1 1 0.05187199883729561 1 1 1 1 1 0.060393718715994388 1 1 1 1 0.061066951811412425 1 0.051476306444381795 0.065233723343409794 1 0.07136417651091384 0.047770518271126119 1 1 1 0.049556367258065663 1 1 1 0.063334209943319258 1 1 1 0.063940588431624285 1 1 1 0.048355142001083741 1 1 1 1 1 1 1 1 0.050618051281829744 1 1 1 0.047153197039736194 1 1 1 1 1 1 0.050885551326012336 1 1 1 1 1 1 0.04476780147071438 1 1 1 1 1 1 1 1 1 1 1 1 1 1 0.050285247881777448 1 0.054750998615225394 1 1 1 0.047711639089722514 1 1 0.050550607007134603 1 0.055188259331844583 1 0.05260969119707537 1 1 0.056482875490950511 1 1 1 1 1 1 0.053667163804054348 1 1 1 1 0.050524856916070046 1 1 1 1 1 1 0.051358685034524051 1 1 1 1 1 1 1 1 1 1 0.050827252395669875 1 1 1 1 1 1 1 1 1 1 1 1 1 1 1 1 1 1 1 0.085241735460609647 0.053716675403302487 1 1 1 0.06129317704172476 1 1 0.072574910967990125 1 1 0.057311253845721277 1 1 0.049621160255502852 1 1 0.057962837543343609 0.062958050160750054 1 1 1 1 0.060286440820942977 1 1 1 1 1 1 1 1 1 1 1 0.060649673526323444 0.052326453186588143 1 1 1 0.059573705877231806 1 0.050041124597957287 1 0.050024499779661974 1 1 1 1 1 0.050047034724539669 1 1 0.049816354884009095 1 0.062776063612141109 1 1 0.050026635741529935 0.049835799355448476 0.049745190109245878 1 1 1 1 0.048868914783712358 1 1 0.050888626583123195 1 0.051205678196734633 1 1 0.052986081516803063 1 1 1 1 1 1 1 1 0.049954993685030799 1 0.049252131621449341 0.052271668352298399 1 1 1 1 1 0.050011192051857008 0.051118255295770645 1 1 1 0.058932262375177819 0.057708551525948296 1 1 1 1 1 1 1 1 0.050027471456768453 1 0.050286054226052194 1 1 1 1 1 1 1 1 1 1 1 1 1 1 1 1 1 1 1 1 1 1 1 1 1 1 1 1 1 0.049070169043590232 1 1 1 1 1 1 1 1 1 1 1 1 1 1 1 0.051010991444569401 1 1 0.05079229496557322 1 1 1 1 1 0.050530649904987131 1 1 1 1 1 1 1 1 1 1 1 1 1 0.050261645060586085 1 1 1 1 1 1 1 1 1 0.050871245203339049 1 1 0.054543611878170306 1 1 1 1 0.050002250708626565 0.048448415086380023 0.056275865307337185 1 1 1 1 1 0.05289477296246943 1 1 1 
</DataArray>
</CellData>
</Piece>
</UnstructuredGrid>
</VTKFile>
